<?xml version="1.0"?>
<VTKFile type="UnstructuredGrid" version="0.1" byte_order="LittleEndian">
<UnstructuredGrid>
<Piece NumberOfPoints="31075" NumberOfCells="10926">
<Points>
<DataArray type="Float64" NumberOfComponents="3" format="ascii">
-0.5 -0.5 0 -0.46478849858267879 -0.48029546533301359 0 -0.48124738561962921 -0.46059093066602769 0 -0.5 -0.5 0 -0.48124738561962921 -0.46059093066602769 0 -0.5 -0.42244535479085848 0 -0.5 -0.5 0 -0.46478849858267879 -0.48029546533301359 0 -0.44832961154572859 -0.49999999999999972 0 -0.46478849858267879 -0.48029546533301359 0 -0.48124738561962921 -0.46059093066602769 0 -0.46478849858267879 -0.48029546533301359 0 -0.44832961154572859 -0.49999999999999972 0 -0.46478849858267879 -0.48029546533301359 0 -0.44535130389491062 -0.47853172436621549 0 -0.46067732825288349 -0.46348175307598122 0 -0.44535130389491062 -0.47853172436621549 0 -0.44443704180765742 -0.45590736441548141 0 -0.42307890318373031 -0.473572027379907 0 -0.46478849858267879 -0.48029546533301359 0 -0.44535130389491062 -0.47853172436621549 0 -0.44832961154572859 -0.49999999999999972 0 -0.44535130389491062 -0.47853172436621549 0 -0.44832961154572859 -0.49999999999999972 0 -0.430380828267454 -0.49999999999999878 0 -0.44443704180765742 -0.45590736441548141 0 -0.44708531535375418 -0.42997983299009429 0 -0.43139419831578929 -0.44722679763787831 0 -0.44443704180765742 -0.45590736441548141 0 -0.46756241135954141 -0.44208328059916802 0 -0.44708531535375418 -0.42997983299009429 0 -0.44535130389491062 -0.47853172436621549 0 -0.44443704180765742 -0.45590736441548141 0 -0.46067732825288349 -0.46348175307598122 0 -0.44443704180765742 -0.45590736441548141 0 -0.46067732825288349 -0.46348175307598122 0 -0.46756241135954141 -0.44208328059916802 0 -0.46756241135954141 -0.44208328059916802 0 -0.48124738561962921 -0.46059093066602769 0 -0.5 -0.42244535479085848 0 -0.46067732825288349 -0.46348175307598122 0 -0.46756241135954141 -0.44208328059916802 0 -0.48124738561962921 -0.46059093066602769 0 -0.46478849858267879 -0.48029546533301359 0 -0.46067732825288349 -0.46348175307598122 0 -0.48124738561962921 -0.46059093066602769 0 -0.46756241135954141 -0.44208328059916802 0 -0.5 -0.42244535479085848 0 -0.46844407965533402 -0.41963348841677101 0 -0.5 -0.42244535479085848 0 -0.47555615765866971 -0.39800780987525308 0 -0.46844407965533402 -0.41963348841677101 0 -0.5 -0.42244535479085848 0 -0.47555615765866971 -0.39800780987525308 0 -0.5 -0.36520886151232462 0 -0.47555615765866971 -0.39800780987525308 0 -0.45281283076783679 -0.37775023980159539 0 -0.5 -0.36520886151232462 0 -0.47555615765866971 -0.39800780987525308 0 -0.45201651390470449 -0.40565116382848071 0 -0.45281283076783679 -0.37775023980159539 0 -0.45201651390470449 -0.40565116382848071 0 -0.45281283076783679 -0.37775023980159539 0 -0.42634448118781521 -0.39812460784788101 0 -0.46756241135954141 -0.44208328059916802 0 -0.46844407965533402 -0.41963348841677101 0 -0.44708531535375418 -0.42997983299009429 0 -0.47555615765866971 -0.39800780987525308 0 -0.45201651390470449 -0.40565116382848071 0 -0.46844407965533402 -0.41963348841677101 0 -0.45201651390470449 -0.40565116382848071 0 -0.46844407965533402 -0.41963348841677101 0 -0.44708531535375418 -0.42997983299009429 0 -0.45201651390470449 -0.40565116382848071 0 -0.43533333332180579 -0.41550925812196149 0 -0.42634448118781521 -0.39812460784788101 0 -0.45201651390470449 -0.40565116382848071 0 -0.44708531535375418 -0.42997983299009429 0 -0.43533333332180579 -0.41550925812196149 0 -0.44708531535375418 -0.42997983299009429 0 -0.42659275313379807 -0.42953070864409348 0 -0.43533333332180579 -0.41550925812196149 0 -0.44708531535375418 -0.42997983299009429 0 -0.42659275313379807 -0.42953070864409348 0 -0.43139419831578929 -0.44722679763787831 0 -0.43533333332180579 -0.41550925812196149 0 -0.42118944325041852 -0.41843323430936408 0 -0.42634448118781521 -0.39812460784788101 0 -0.42659275313379807 -0.42953070864409348 0 -0.43533333332180579 -0.41550925812196149 0 -0.42118944325041852 -0.41843323430936408 0 -0.42118944325041852 -0.41843323430936408 0 -0.41256173106579558 -0.41031314367328198 0 -0.42634448118781521 -0.39812460784788101 0 -0.42118944325041852 -0.41843323430936408 0 -0.41256173106579558 -0.41031314367328198 0 -0.40847505301628217 -0.42071608213972339 0 -0.41256173106579558 -0.41031314367328198 0 -0.40487780687519931 -0.39974874561310081 0 -0.402228697171087 -0.41324305137620249 0 -0.41256173106579558 -0.41031314367328198 0 -0.40847505301628217 -0.42071608213972339 0 -0.402228697171087 -0.41324305137620249 0 -0.40847505301628217 -0.42071608213972339 0 -0.40825284199016981 -0.436777392362038 0 -0.40286962690642031 -0.42604562528292977 0 -0.42659275313379807 -0.42953070864409348 0 -0.40847505301628217 -0.42071608213972339 0 -0.41577697810000619 -0.44714405475981528 0 -0.42659275313379807 -0.42953070864409348 0 -0.42118944325041852 -0.41843323430936408 0 -0.40847505301628217 -0.42071608213972339 0 -0.40847505301628217 -0.42071608213972339 0 -0.41577697810000619 -0.44714405475981528 0 -0.40847505301628217 -0.42071608213972339 0 -0.40825284199016981 -0.436777392362038 0 -0.41577697810000619 -0.44714405475981528 0 -0.45281283076783679 -0.37775023980159539 0 -0.42434083462006589 -0.37509154756030549 0 -0.42634448118781521 -0.39812460784788101 0 -0.41256173106579558 -0.41031314367328198 0 -0.42634448118781521 -0.39812460784788101 0 -0.40487780687519931 -0.39974874561310081 0 -0.42634448118781521 -0.39812460784788101 0 -0.40287028915620737 -0.38302311380434312 0 -0.40487780687519931 -0.39974874561310081 0 -0.42434083462006589 -0.37509154756030549 0 -0.42634448118781521 -0.39812460784788101 0 -0.40287028915620737 -0.38302311380434312 0 -0.40287028915620737 -0.38302311380434312 0 -0.40487780687519931 -0.39974874561310081 0 -0.38968513972249619 -0.40049045806159789 0 -0.40487780687519931 -0.39974874561310081 0 -0.38968513972249619 -0.40049045806159789 0 -0.402228697171087 -0.41324305137620249 0 -0.37563926782329998 -0.38492387898446812 0 -0.37516237494338939 -0.4134389712799994 0 -0.38968513972249619 -0.40049045806159789 0 -0.37563926782329998 -0.38492387898446812 0 -0.37516237494338939 -0.4134389712799994 0 -0.40287028915620737 -0.38302311380434312 0 -0.38968513972249619 -0.40049045806159789 0 -0.37563926782329998 -0.38492387898446812 0 -0.40287028915620737 -0.38302311380434312 0 -0.37563926782329998 -0.38492387898446812 0 -0.3924123979290069 -0.36739161731746339 0 -0.40825284199016981 -0.436777392362038 0 -0.39252191544814202 -0.433445975253755 0 -0.40286962690642031 -0.42604562528292977 0 -0.39252191544814202 -0.433445975253755 0 -0.402228697171087 -0.41324305137620249 0 -0.38873790698377902 -0.41919455213025292 0 -0.39252191544814202 -0.433445975253755 0 -0.40286962690642031 -0.42604562528292977 0 -0.402228697171087 -0.41324305137620249 0 -0.39252191544814202 -0.433445975253755 0 -0.402228697171087 -0.41324305137620249 0 -0.38968513972249619 -0.40049045806159789 0 -0.402228697171087 -0.41324305137620249 0 -0.38873790698377902 -0.41919455213025292 0 -0.40847505301628217 -0.42071608213972339 0 -0.40286962690642031 -0.42604562528292977 0 -0.402228697171087 -0.41324305137620249 0 -0.38968513972249619 -0.40049045806159789 0 -0.38873790698377902 -0.41919455213025292 0 -0.37516237494338939 -0.4134389712799994 0 -0.38873790698377902 -0.41919455213025292 0 -0.37516237494338939 -0.4134389712799994 0 -0.37468548206347879 -0.44195406357553069 0 -0.39252191544814202 -0.433445975253755 0 -0.38873790698377902 -0.41919455213025292 0 -0.37468548206347879 -0.44195406357553069 0 -0.39252191544814202 -0.433445975253755 0 -0.38281513372519721 -0.45364889913130729 0 -0.37468548206347879 -0.44195406357553069 0 -0.39252191544814202 -0.433445975253755 0 -0.39123599304095408 -0.45566556674564351 0 -0.38281513372519721 -0.45364889913130729 0 -0.39252191544814202 -0.433445975253755 0 -0.38281513372519721 -0.45364889913130729 0 -0.40825284199016981 -0.436777392362038 0 -0.40396034120465468 -0.45350838365143409 0 -0.39123599304095408 -0.45566556674564351 0 -0.40825284199016981 -0.436777392362038 0 -0.39252191544814202 -0.433445975253755 0 -0.39123599304095408 -0.45566556674564351 0 -0.40825284199016981 -0.436777392362038 0 -0.39123599304095408 -0.45566556674564351 0 -0.39686305440617808 -0.46414604114774211 0 -0.40200301902166752 -0.47682017803278232 0 -0.40767283848596508 -0.46380886324193138 0 -0.40396034120465468 -0.45350838365143409 0 -0.39686305440617808 -0.46414604114774211 0 -0.40767283848596508 -0.46380886324193138 0 -0.40396034120465468 -0.45350838365143409 0 -0.39123599304095408 -0.45566556674564351 0 -0.39686305440617808 -0.46414604114774211 0 -0.39123599304095408 -0.45566556674564351 0 -0.39686305440617808 -0.46414604114774211 0 -0.38837926254712041 -0.46690874324589232 0 -0.39686305440617808 -0.46414604114774211 0 -0.38837926254712041 -0.46690874324589232 0 -0.39119885864961118 -0.47326962396093458 0 -0.38281513372519721 -0.45364889913130729 0 -0.37420858918356842 -0.47046915587106197 0 -0.37468548206347879 -0.44195406357553069 0 -0.39123599304095408 -0.45566556674564351 0 -0.38281513372519721 -0.45364889913130729 0 -0.37421914409173829 -0.47455374112924897 0 -0.39123599304095408 -0.45566556674564351 0 -0.37421914409173829 -0.47455374112924897 0 -0.39123599304095408 -0.45566556674564351 0 -0.38837926254712041 -0.46690874324589232 0 -0.37421914409173829 -0.47455374112924897 0 -0.38281513372519721 -0.45364889913130729 0 -0.37421914409173829 -0.47455374112924897 0 -0.38281513372519721 -0.45364889913130729 0 -0.37420858918356842 -0.47046915587106197 0 -0.37421914409173829 -0.47455374112924897 0 -0.38837926254712041 -0.46690874324589232 0 -0.39119885864961118 -0.47326962396093458 0 -0.37421914409173829 -0.47455374112924897 0 -0.39435361721583428 -0.48727687056463198 0 -0.37421914409173829 -0.47455374112924897 0 -0.39435361721583428 -0.48727687056463198 0 -0.39119885864961118 -0.47326962396093458 0 -0.37421914409173829 -0.47455374112924897 0 -0.38193967427763958 -0.48462899096667661 0 -0.39435361721583428 -0.48727687056463198 0 -0.37421914409173829 -0.47455374112924897 0 -0.37639870021594612 -0.48039150671122011 0 -0.38193967427763958 -0.48462899096667661 0 -0.37381966240987041 -0.48414241096890182 0 -0.37639870021594612 -0.48039150671122011 0 -0.38193967427763958 -0.48462899096667661 0 -0.37421914409173829 -0.47455374112924897 0 -0.38193967427763958 -0.48462899096667661 0 -0.37322388179364202 -0.49139696819120832 0 -0.37381966240987041 -0.48414241096890182 0 -0.38193967427763958 -0.48462899096667661 0 -0.3862133510039743 -0.5 0 -0.37322388179364202 -0.49139696819120832 0 -0.38193967427763958 -0.48462899096667661 0 -0.3862133510039743 -0.5 0 -0.39435361721583428 -0.48727687056463198 0 -0.3862133510039743 -0.5 0 -0.39435361721583428 -0.48727687056463198 0 -0.41448809033993422 -0.50000000000000888 0 -0.39435361721583428 -0.48727687056463198 0 -0.41448809033993422 -0.50000000000000888 0 -0.39435361721583428 -0.48727687056463198 0 -0.40200301902166752 -0.47682017803278232 0 -0.41346394938997061 -0.48642060710610452 0 -0.39686305440617808 -0.46414604114774211 0 -0.39119885864961118 -0.47326962396093458 0 -0.40200301902166752 -0.47682017803278232 0 -0.39435361721583428 -0.48727687056463198 0 -0.39119885864961118 -0.47326962396093458 0 -0.40200301902166752 -0.47682017803278232 0 -0.40200301902166752 -0.47682017803278232 0 -0.42307890318373031 -0.473572027379907 0 -0.40767283848596508 -0.46380886324193138 0 -0.40200301902166752 -0.47682017803278232 0 -0.41346394938997061 -0.48642060710610452 0 -0.42307890318373031 -0.473572027379907 0 -0.41346394938997061 -0.48642060710610452 0 -0.41448809033993422 -0.50000000000000888 0 -0.430380828267454 -0.49999999999999878 0 -0.39435361721583428 -0.48727687056463198 0 -0.41346394938997061 -0.48642060710610452 0 -0.41448809033993422 -0.50000000000000888 0 -0.430380828267454 -0.49999999999999878 0 -0.42307890318373031 -0.473572027379907 0 -0.41346394938997061 -0.48642060710610452 0 -0.430380828267454 -0.49999999999999878 0 -0.42307890318373031 -0.473572027379907 0 -0.44535130389491062 -0.47853172436621549 0 -0.430380828267454 -0.49999999999999878 0 -0.42307890318373031 -0.473572027379907 0 -0.44443704180765742 -0.45590736441548141 0 -0.42307890318373031 -0.473572027379907 0 -0.43139419831578929 -0.44722679763787831 0 -0.42307890318373031 -0.473572027379907 0 -0.43139419831578929 -0.44722679763787831 0 -0.41577697810000619 -0.44714405475981528 0 -0.42659275313379807 -0.42953070864409348 0 -0.43139419831578929 -0.44722679763787831 0 -0.41577697810000619 -0.44714405475981528 0 -0.40825284199016981 -0.436777392362038 0 -0.40396034120465468 -0.45350838365143409 0 -0.41577697810000619 -0.44714405475981528 0 -0.40396034120465468 -0.45350838365143409 0 -0.41577697810000619 -0.44714405475981528 0 -0.40767283848596508 -0.46380886324193138 0 -0.42307890318373031 -0.473572027379907 0 -0.41577697810000619 -0.44714405475981528 0 -0.42307890318373031 -0.473572027379907 0 -0.41577697810000619 -0.44714405475981528 0 -0.40767283848596508 -0.46380886324193138 0 -0.4517060328297729 -0.25742115279182293 0 -0.42782778756187212 -0.27049475279747198 0 -0.43720463103343432 -0.24532999276255929 0 -0.45188519170791208 -0.2775948083423383 0 -0.42782778756187212 -0.27049475279747198 0 -0.4517060328297729 -0.25742115279182293 0 -0.45188519170791208 -0.2775948083423383 0 -0.42782778756187212 -0.27049475279747198 0 -0.4517060328297729 -0.25742115279182293 0 -0.45188519170791208 -0.2775948083423383 0 -0.47801028507236171 -0.26303348017155709 0 -0.45188519170791208 -0.2775948083423383 0 -0.47801028507236171 -0.26303348017155709 0 -0.47594259585395221 -0.28469486388720461 0 -0.45188519170791208 -0.2775948083423383 0 -0.47594259585395221 -0.28469486388720461 0 -0.4517060328297729 -0.25742115279182293 0 -0.47801028507236171 -0.26303348017155709 0 -0.47108645465469129 -0.24279908680053611 0 -0.47801028507236171 -0.26303348017155709 0 -0.5 -0.2635743895537338 0 -0.5 -0.23535385967539879 0 -0.47801028507236171 -0.26303348017155709 0 -0.5 -0.2635743895537338 0 -0.47594259585395221 -0.28469486388720461 0 -0.5 -0.2635743895537338 0 -0.47594259585395221 -0.28469486388720461 0 -0.49999999999999267 -0.29179491943206892 0 -0.47594259585395221 -0.28469486388720461 0 -0.49999999999999267 -0.29179491943206892 0 -0.47773506997171211 -0.31869924483644257 0 -0.47594259585395221 -0.28469486388720461 0 -0.45511715101202499 -0.31095119391339149 0 -0.47773506997171211 -0.31869924483644257 0 -0.47594259585395221 -0.28469486388720461 0 -0.49999999999999267 -0.29179491943206892 0 -0.45188519170791208 -0.2775948083423383 0 -0.45511715101202499 -0.31095119391339149 0 -0.43856226479945842 -0.29572045825563681 0 -0.45188519170791208 -0.2775948083423383 0 -0.47594259585395221 -0.28469486388720461 0 -0.45511715101202499 -0.31095119391339149 0 -0.45511715101202499 -0.31095119391339149 0 -0.43856226479945842 -0.29572045825563681 0 -0.42518276535044852 -0.32753129974171641 0 -0.45188519170791208 -0.2775948083423383 0 -0.43856226479945842 -0.29572045825563681 0 -0.42782778756187212 -0.27049475279747198 0 -0.49999999999999267 -0.29179491943206892 0 -0.47773506997171211 -0.31869924483644257 0 -0.5 -0.36520886151232462 0 -0.45511715101202499 -0.31095119391339149 0 -0.45761560299259108 -0.34084638543722168 0 -0.42518276535044852 -0.32753129974171641 0 -0.45761560299259108 -0.34084638543722168 0 -0.43395812472395168 -0.35553464953327979 0 -0.42518276535044852 -0.32753129974171641 0 -0.45511715101202499 -0.31095119391339149 0 -0.45761560299259108 -0.34084638543722168 0 -0.47773506997171211 -0.31869924483644257 0 -0.45761560299259108 -0.34084638543722168 0 -0.47773506997171211 -0.31869924483644257 0 -0.5 -0.36520886151232462 0 -0.45281283076783679 -0.37775023980159539 0 -0.45761560299259108 -0.34084638543722168 0 -0.5 -0.36520886151232462 0 -0.45281283076783679 -0.37775023980159539 0 -0.45761560299259108 -0.34084638543722168 0 -0.43395812472395168 -0.35553464953327979 0 -0.42434083462006589 -0.37509154756030549 0 -0.43395812472395168 -0.35553464953327979 0 -0.40983858988881611 -0.35645377512556042 0 -0.45281283076783679 -0.37775023980159539 0 -0.42434083462006589 -0.37509154756030549 0 -0.43395812472395168 -0.35553464953327979 0 -0.43395812472395168 -0.35553464953327979 0 -0.40983858988881611 -0.35645377512556042 0 -0.42518276535044852 -0.32753129974171641 0 -0.42434083462006589 -0.37509154756030549 0 -0.40287028915620737 -0.38302311380434312 0 -0.40983858988881611 -0.35645377512556042 0 -0.40287028915620737 -0.38302311380434312 0 -0.40983858988881611 -0.35645377512556042 0 -0.3924123979290069 -0.36739161731746339 0 -0.37563926782329998 -0.38492387898446812 0 -0.37611616070321052 -0.35640878668893677 0 -0.37563926782329998 -0.38492387898446812 0 -0.3924123979290069 -0.36739161731746339 0 -0.37611616070321052 -0.35640878668893677 0 -0.3924123979290069 -0.36739161731746339 0 -0.37611616070321052 -0.35640878668893677 0 -0.39515635275952021 -0.34112831949423178 0 -0.37611616070321052 -0.35640878668893677 0 -0.39515635275952021 -0.34112831949423178 0 -0.37675157074558968 -0.33496260167900782 0 -0.40983858988881611 -0.35645377512556042 0 -0.3924123979290069 -0.36739161731746339 0 -0.39515635275952021 -0.34112831949423178 0 -0.39515635275952021 -0.34112831949423178 0 -0.39800852433974898 -0.32063229121785769 0 -0.42518276535044852 -0.32753129974171641 0 -0.39515635275952021 -0.34112831949423178 0 -0.37675157074558968 -0.33496260167900782 0 -0.39800852433974898 -0.32063229121785769 0 -0.37913031170999723 -0.32070086936311482 0 -0.39800852433974898 -0.32063229121785769 0 -0.38509159994575548 -0.30858244265622481 0 -0.37913031170999723 -0.32070086936311482 0 -0.38509159994575548 -0.30858244265622481 0 -0.36807931511281572 -0.31236012476619113 0 -0.37675157074558968 -0.33496260167900782 0 -0.37913031170999723 -0.32070086936311482 0 -0.39800852433974898 -0.32063229121785769 0 -0.39800852433974898 -0.32063229121785769 0 -0.42518276535044852 -0.32753129974171641 0 -0.41708394324090642 -0.29707325886565561 0 -0.40983858988881611 -0.35645377512556042 0 -0.39515635275952021 -0.34112831949423178 0 -0.42518276535044852 -0.32753129974171641 0 -0.43856226479945842 -0.29572045825563681 0 -0.42518276535044852 -0.32753129974171641 0 -0.41708394324090642 -0.29707325886565561 0 -0.43856226479945842 -0.29572045825563681 0 -0.41708394324090642 -0.29707325886565561 0 -0.42782778756187212 -0.27049475279747198 0 -0.41708394324090642 -0.29707325886565561 0 -0.39869282917400972 -0.29462836426946393 0 -0.40917188449201908 -0.27954612669420642 0 -0.41708394324090642 -0.29707325886565561 0 -0.40917188449201908 -0.27954612669420642 0 -0.42782778756187212 -0.27049475279747198 0 -0.39800852433974898 -0.32063229121785769 0 -0.41708394324090642 -0.29707325886565561 0 -0.39869282917400972 -0.29462836426946393 0 -0.39800852433974898 -0.32063229121785769 0 -0.38509159994575548 -0.30858244265622481 0 -0.39869282917400972 -0.29462836426946393 0 -0.38509159994575548 -0.30858244265622481 0 -0.38270709327458541 -0.29361280731990652 0 -0.36807931511281572 -0.31236012476619113 0 -0.38270709327458541 -0.29361280731990652 0 -0.36807931511281572 -0.31236012476619113 0 -0.38509159994575548 -0.30858244265622481 0 -0.38270709327458541 -0.29361280731990652 0 -0.39869282917400972 -0.29462836426946393 0 -0.38270709327458541 -0.29361280731990652 0 -0.39733487143635499 -0.2748654898736218 0 -0.37814083965415318 -0.27584309158926779 0 -0.38270709327458541 -0.29361280731990652 0 -0.39733487143635499 -0.2748654898736218 0 -0.38270709327458541 -0.29361280731990652 0 -0.37814083965415318 -0.27584309158926779 0 -0.37037583265406149 -0.28676986979911789 0 -0.39869282917400972 -0.29462836426946393 0 -0.39733487143635499 -0.2748654898736218 0 -0.40917188449201908 -0.27954612669420642 0 -0.38270709327458541 -0.29361280731990652 0 -0.39869282917400972 -0.29462836426946393 0 -0.39733487143635499 -0.2748654898736218 0 -0.39733487143635499 -0.2748654898736218 0 -0.4037703834158321 -0.26339469725260573 0 -0.40917188449201908 -0.27954612669420642 0 -0.39733487143635499 -0.2748654898736218 0 -0.37814083965415318 -0.27584309158926779 0 -0.37971297926979208 -0.25629464170773941 0 -0.37971297926979208 -0.25629464170773941 0 -0.4037703834158321 -0.26339469725260573 0 -0.37971297926979208 -0.25629464170773941 0 -0.4037703834158321 -0.26339469725260573 0 -0.39895324178003361 -0.24710746596356351 0 -0.39733487143635499 -0.2748654898736218 0 -0.37971297926979208 -0.25629464170773941 0 -0.4037703834158321 -0.26339469725260573 0 -0.4037703834158321 -0.26339469725260573 0 -0.41880099419671729 -0.25193098532517139 0 -0.42782778756187212 -0.27049475279747198 0 -0.4037703834158321 -0.26339469725260573 0 -0.41880099419671729 -0.25193098532517139 0 -0.39895324178003361 -0.24710746596356351 0 -0.4037703834158321 -0.26339469725260573 0 -0.42782778756187212 -0.27049475279747198 0 -0.4037703834158321 -0.26339469725260573 0 -0.40917188449201908 -0.27954612669420642 0 -0.42782778756187212 -0.27049475279747198 0 -0.41880099419671729 -0.25193098532517139 0 -0.42782778756187212 -0.27049475279747198 0 -0.43720463103343432 -0.24532999276255929 0 -0.31955021384196908 -0.25465610241978293 0 -0.32455329444836528 -0.27055975534205612 0 -0.33258965804886009 -0.26217542219288958 0 -0.31955021384196908 -0.25465610241978293 0 -0.3130810632097224 -0.266588991848489 0 -0.32455329444836528 -0.27055975534205612 0 -0.31955021384196908 -0.25465610241978293 0 -0.3130810632097224 -0.266588991848489 0 -0.30493877401889841 -0.2577176602661187 0 -0.3130810632097224 -0.266588991848489 0 -0.3159928134352134 -0.27679644605737819 0 -0.32455329444836528 -0.27055975534205612 0 -0.3159928134352134 -0.27679644605737819 0 -0.32455329444836528 -0.27055975534205612 0 -0.32661217087960692 -0.28164576066575381 0 -0.32455329444836528 -0.27055975534205612 0 -0.34054507434425019 -0.27892723375737472 0 -0.32661217087960692 -0.28164576066575381 0 -0.32455329444836528 -0.27055975534205612 0 -0.34054507434425019 -0.27892723375737472 0 -0.33258965804886009 -0.26217542219288958 0 -0.34054507434425019 -0.27892723375737472 0 -0.33258965804886009 -0.26217542219288958 0 -0.34605509987574118 -0.26472625058024002 0 -0.31955021384196908 -0.25465610241978293 0 -0.33258965804886009 -0.26217542219288958 0 -0.33369744999331669 -0.24271409029803229 0 -0.33258965804886009 -0.26217542219288958 0 -0.34605509987574118 -0.26472625058024002 0 -0.33369744999331669 -0.24271409029803229 0 -0.34605509987574118 -0.26472625058024002 0 -0.35565557512375162 -0.2491945861628749 0 -0.33369744999331669 -0.24271409029803229 0 -0.3567688166846078 -0.27711533607942479 0 -0.35565557512375162 -0.2491945861628749 0 -0.34605509987574118 -0.26472625058024002 0 -0.3567688166846078 -0.27711533607942479 0 -0.35565557512375162 -0.2491945861628749 0 -0.37971297926979208 -0.25629464170773941 0 -0.35565557512375162 -0.2491945861628749 0 -0.37971297926979208 -0.25629464170773941 0 -0.3567688166846078 -0.27711533607942479 0 -0.35565557512375162 -0.2491945861628749 0 -0.37814083965415318 -0.27584309158926779 0 -0.3567688166846078 -0.27711533607942479 0 -0.37037583265406149 -0.28676986979911789 0 -0.37814083965415318 -0.27584309158926779 0 -0.37971297926979208 -0.25629464170773941 0 -0.3567688166846078 -0.27711533607942479 0 -0.34054507434425019 -0.27892723375737472 0 -0.34605509987574118 -0.26472625058024002 0 -0.3567688166846078 -0.27711533607942479 0 -0.3567688166846078 -0.27711533607942479 0 -0.34931238225875849 -0.30044388803875599 0 -0.34136650435184812 -0.2930122589682857 0 -0.34054507434425019 -0.27892723375737472 0 -0.3567688166846078 -0.27711533607942479 0 -0.34136650435184812 -0.2930122589682857 0 -0.3567688166846078 -0.27711533607942479 0 -0.3578820582454646 -0.30503608599597498 0 -0.3567688166846078 -0.27711533607942479 0 -0.36253815662029087 -0.29849405918663541 0 -0.3578820582454646 -0.30503608599597498 0 -0.3567688166846078 -0.27711533607942479 0 -0.3578820582454646 -0.30503608599597498 0 -0.34931238225875849 -0.30044388803875599 0 -0.3567688166846078 -0.27711533607942479 0 -0.37037583265406149 -0.28676986979911789 0 -0.36253815662029087 -0.29849405918663541 0 -0.38270709327458541 -0.29361280731990652 0 -0.37037583265406149 -0.28676986979911789 0 -0.36253815662029087 -0.29849405918663541 0 -0.38270709327458541 -0.29361280731990652 0 -0.36253815662029087 -0.29849405918663541 0 -0.36807931511281572 -0.31236012476619113 0 -0.36253815662029087 -0.29849405918663541 0 -0.35799484678566917 -0.31480075069955588 0 -0.36253815662029087 -0.29849405918663541 0 -0.3578820582454646 -0.30503608599597498 0 -0.35799484678566917 -0.31480075069955588 0 -0.36253815662029087 -0.29849405918663541 0 -0.36807931511281572 -0.31236012476619113 0 -0.35799484678566917 -0.31480075069955588 0 -0.3578820582454646 -0.30503608599597498 0 -0.35191182475278798 -0.30998803001066921 0 -0.35799484678566917 -0.31480075069955588 0 -0.3578820582454646 -0.30503608599597498 0 -0.35191182475278798 -0.30998803001066921 0 -0.34931238225875849 -0.30044388803875599 0 -0.34931238225875849 -0.30044388803875599 0 -0.34275495320500698 -0.30634958732048828 0 -0.34136650435184812 -0.2930122589682857 0 -0.35191182475278798 -0.30998803001066921 0 -0.34931238225875849 -0.30044388803875599 0 -0.34275495320500698 -0.30634958732048828 0 -0.34275495320500698 -0.30634958732048828 0 -0.33002411743105842 -0.31074236029271041 0 -0.33573259532603572 -0.30153762490127278 0 -0.33002411743105842 -0.31074236029271041 0 -0.33573259532603572 -0.30153762490127278 0 -0.32878480631622958 -0.29604629302360691 0 -0.34275495320500698 -0.30634958732048828 0 -0.33573259532603572 -0.30153762490127278 0 -0.34136650435184812 -0.2930122589682857 0 -0.34054507434425019 -0.27892723375737472 0 -0.34136650435184812 -0.2930122589682857 0 -0.33359499545321758 -0.28770151100930058 0 -0.34054507434425019 -0.27892723375737472 0 -0.33359499545321758 -0.28770151100930058 0 -0.32661217087960692 -0.28164576066575381 0 -0.33359499545321758 -0.28770151100930058 0 -0.32661217087960692 -0.28164576066575381 0 -0.32551048539622829 -0.28836359510754972 0 -0.33359499545321758 -0.28770151100930058 0 -0.32878480631622958 -0.29604629302360691 0 -0.32551048539622829 -0.28836359510754972 0 -0.33573259532603572 -0.30153762490127278 0 -0.34136650435184812 -0.2930122589682857 0 -0.32878480631622958 -0.29604629302360691 0 -0.34136650435184812 -0.2930122589682857 0 -0.33359499545321758 -0.28770151100930058 0 -0.32878480631622958 -0.29604629302360691 0 -0.32878480631622958 -0.29604629302360691 0 -0.32034053516511479 -0.29196899580146968 0 -0.32551048539622829 -0.28836359510754972 0 -0.32878480631622958 -0.29604629302360691 0 -0.32034053516511479 -0.29196899580146968 0 -0.31466565495850929 -0.2974090456543183 0 -0.32661217087960692 -0.28164576066575381 0 -0.32551048539622829 -0.28836359510754972 0 -0.31736914112743059 -0.28634151259894669 0 -0.32034053516511479 -0.29196899580146968 0 -0.32551048539622829 -0.28836359510754972 0 -0.31736914112743059 -0.28634151259894669 0 -0.31736914112743059 -0.28634151259894669 0 -0.31500625676850219 -0.29109275302077142 0 -0.30764969582295432 -0.28865145802835079 0 -0.3159928134352134 -0.27679644605737819 0 -0.31736914112743059 -0.28634151259894669 0 -0.30827396028889797 -0.28246554331183521 0 -0.3159928134352134 -0.27679644605737819 0 -0.32661217087960692 -0.28164576066575381 0 -0.31736914112743059 -0.28634151259894669 0 -0.32034053516511479 -0.29196899580146968 0 -0.31500625676850219 -0.29109275302077142 0 -0.31466565495850929 -0.2974090456543183 0 -0.32034053516511479 -0.29196899580146968 0 -0.31736914112743059 -0.28634151259894669 0 -0.31500625676850219 -0.29109275302077142 0 -0.33002411743105842 -0.31074236029271041 0 -0.31466565495850929 -0.2974090456543183 0 -0.31063857588596733 -0.29958800090163717 0 -0.33002411743105842 -0.31074236029271041 0 -0.31495477517251641 -0.31313886456682077 0 -0.31063857588596733 -0.29958800090163717 0 -0.33002411743105842 -0.31074236029271041 0 -0.31063857588596733 -0.29958800090163717 0 -0.33002411743105842 -0.31074236029271041 0 -0.32878480631622958 -0.29604629302360691 0 -0.31466565495850929 -0.2974090456543183 0 -0.33002411743105842 -0.31074236029271041 0 -0.32291467161018089 -0.32664930718677099 0 -0.31495477517251641 -0.31313886456682077 0 -0.32291467161018089 -0.32664930718677099 0 -0.31495477517251641 -0.31313886456682077 0 -0.30721375527201811 -0.32184777315592672 0 -0.32291467161018089 -0.32664930718677099 0 -0.31175980601858128 -0.34019638230809079 0 -0.30721375527201811 -0.32184777315592672 0 -0.32291467161018089 -0.32664930718677099 0 -0.3251081952613652 -0.34153234091611018 0 -0.31175980601858128 -0.34019638230809079 0 -0.32291467161018089 -0.32664930718677099 0 -0.3251081952613652 -0.34153234091611018 0 -0.33346072588489101 -0.33449977003857428 0 -0.33346072588489101 -0.33449977003857428 0 -0.34165122610453669 -0.33242535186189848 0 -0.33681624893332152 -0.35242763327838472 0 -0.3251081952613652 -0.34153234091611018 0 -0.33346072588489101 -0.33449977003857428 0 -0.33681624893332152 -0.35242763327838472 0 -0.32291467161018089 -0.32664930718677099 0 -0.33346072588489101 -0.33449977003857428 0 -0.33549208000136332 -0.32524270181274761 0 -0.33346072588489101 -0.33449977003857428 0 -0.34165122610453669 -0.33242535186189848 0 -0.33549208000136332 -0.32524270181274761 0 -0.33002411743105842 -0.31074236029271041 0 -0.34940965897614951 -0.32189671968378369 0 -0.33002411743105842 -0.31074236029271041 0 -0.32291467161018089 -0.32664930718677099 0 -0.33549208000136332 -0.32524270181274761 0 -0.34165122610453669 -0.33242535186189848 0 -0.33549208000136332 -0.32524270181274761 0 -0.34940965897614951 -0.32189671968378369 0 -0.33002411743105842 -0.31074236029271041 0 -0.33549208000136332 -0.32524270181274761 0 -0.34940965897614951 -0.32189671968378369 0 -0.34275495320500698 -0.30634958732048828 0 -0.33002411743105842 -0.31074236029271041 0 -0.34940965897614951 -0.32189671968378369 0 -0.34940965897614951 -0.32189671968378369 0 -0.35799484678566917 -0.31480075069955588 0 -0.3534515369510467 -0.33110744221247618 0 -0.35191182475278798 -0.30998803001066921 0 -0.34275495320500698 -0.30634958732048828 0 -0.34940965897614951 -0.32189671968378369 0 -0.35799484678566917 -0.31480075069955588 0 -0.3534515369510467 -0.33110744221247618 0 -0.35191182475278798 -0.30998803001066921 0 -0.34940965897614951 -0.32189671968378369 0 -0.35799484678566917 -0.31480075069955588 0 -0.36807931511281572 -0.31236012476619113 0 -0.35799484678566917 -0.31480075069955588 0 -0.3534515369510467 -0.33110744221247618 0 -0.36807931511281572 -0.31236012476619113 0 -0.36772054840607588 -0.32696688649629291 0 -0.3534515369510467 -0.33110744221247618 0 -0.36807931511281572 -0.31236012476619113 0 -0.3534515369510467 -0.33110744221247618 0 -0.37675157074558968 -0.33496260167900782 0 -0.37913031170999723 -0.32070086936311482 0 -0.36772054840607588 -0.32696688649629291 0 -0.37913031170999723 -0.32070086936311482 0 -0.36807931511281572 -0.31236012476619113 0 -0.36772054840607588 -0.32696688649629291 0 -0.37675157074558968 -0.33496260167900782 0 -0.36400108140264131 -0.33505134348596632 0 -0.36256610829087521 -0.34574473831889152 0 -0.37675157074558968 -0.33496260167900782 0 -0.36772054840607588 -0.32696688649629291 0 -0.36400108140264131 -0.33505134348596632 0 -0.36772054840607588 -0.32696688649629291 0 -0.36400108140264131 -0.33505134348596632 0 -0.3534515369510467 -0.33110744221247618 0 -0.36400108140264131 -0.33505134348596632 0 -0.3534515369510467 -0.33110744221247618 0 -0.36256610829087521 -0.34574473831889152 0 -0.34165122610453669 -0.33242535186189848 0 -0.3534515369510467 -0.33110744221247618 0 -0.33681624893332152 -0.35242763327838472 0 -0.3534515369510467 -0.33110744221247618 0 -0.34719584397654191 -0.3535601604394959 0 -0.36256610829087521 -0.34574473831889152 0 -0.3534515369510467 -0.33110744221247618 0 -0.33681624893332152 -0.35242763327838472 0 -0.3534515369510467 -0.33110744221247618 0 -0.34719584397654191 -0.3535601604394959 0 -0.34165122610453669 -0.33242535186189848 0 -0.34940965897614951 -0.32189671968378369 0 -0.3534515369510467 -0.33110744221247618 0 -0.3534515369510467 -0.33110744221247618 0 -0.34719584397654191 -0.3535601604394959 0 -0.33681624893332152 -0.35242763327838472 0 -0.34719584397654191 -0.3535601604394959 0 -0.36256610829087521 -0.34574473831889152 0 -0.3602465147127849 -0.36929411794308148 0 -0.37611616070321052 -0.35640878668893677 0 -0.37675157074558968 -0.33496260167900782 0 -0.36256610829087521 -0.34574473831889152 0 -0.37611616070321052 -0.35640878668893677 0 -0.36256610829087521 -0.34574473831889152 0 -0.3602465147127849 -0.36929411794308148 0 -0.37563926782329998 -0.38492387898446812 0 -0.37611616070321052 -0.35640878668893677 0 -0.3602465147127849 -0.36929411794308148 0 -0.34719584397654191 -0.3535601604394959 0 -0.34094015100203628 -0.37601287866651539 0 -0.34719584397654191 -0.3535601604394959 0 -0.3602465147127849 -0.36929411794308148 0 -0.34094015100203628 -0.37601287866651539 0 -0.34719584397654191 -0.3535601604394959 0 -0.33104643945140239 -0.36446501815213461 0 -0.34094015100203628 -0.37601287866651539 0 -0.33104643945140239 -0.36446501815213461 0 -0.34094015100203628 -0.37601287866651539 0 -0.324275152004534 -0.38298704724794808 0 -0.34719584397654191 -0.3535601604394959 0 -0.33104643945140239 -0.36446501815213461 0 -0.33681624893332152 -0.35242763327838472 0 -0.33104643945140239 -0.36446501815213461 0 -0.33681624893332152 -0.35242763327838472 0 -0.32058952385985118 -0.35388861176873038 0 -0.32058952385985118 -0.35388861176873038 0 -0.30540694851791839 -0.36078642842739372 0 -0.31175980601858128 -0.34019638230809079 0 -0.3251081952613652 -0.34153234091611018 0 -0.33681624893332152 -0.35242763327838472 0 -0.32058952385985118 -0.35388861176873038 0 -0.3251081952613652 -0.34153234091611018 0 -0.32058952385985118 -0.35388861176873038 0 -0.31175980601858128 -0.34019638230809079 0 -0.33104643945140239 -0.36446501815213461 0 -0.31646171693212999 -0.36791377751173321 0 -0.324275152004534 -0.38298704724794808 0 -0.32058952385985118 -0.35388861176873038 0 -0.31646171693212999 -0.36791377751173321 0 -0.30540694851791839 -0.36078642842739372 0 -0.33104643945140239 -0.36446501815213461 0 -0.32058952385985118 -0.35388861176873038 0 -0.31646171693212999 -0.36791377751173321 0 -0.31646171693212999 -0.36791377751173321 0 -0.30540694851791839 -0.36078642842739372 0 -0.30509416676471951 -0.38035487576632621 0 -0.30540694851791839 -0.36078642842739372 0 -0.28820621045501149 -0.37243698815395382 0 -0.30509416676471951 -0.38035487576632621 0 -0.30540694851791839 -0.36078642842739372 0 -0.29033026707721699 -0.34992793505552761 0 -0.31175980601858128 -0.34019638230809079 0 -0.30540694851791839 -0.36078642842739372 0 -0.29033026707721699 -0.34992793505552761 0 -0.28820621045501149 -0.37243698815395382 0 -0.29033026707721699 -0.34992793505552761 0 -0.28820621045501149 -0.37243698815395382 0 -0.27291059931952732 -0.36251293801855861 0 -0.28820621045501149 -0.37243698815395382 0 -0.27291059931952732 -0.36251293801855861 0 -0.27563161656916879 -0.38444197320118279 0 -0.27291059931952732 -0.36251293801855861 0 -0.27563161656916879 -0.38444197320118279 0 -0.25799796589382717 -0.37580106798200941 0 -0.27291059931952732 -0.36251293801855861 0 -0.25941438816316292 -0.35605377812029432 0 -0.25799796589382717 -0.37580106798200941 0 -0.25941438816316292 -0.35605377812029432 0 -0.25799796589382717 -0.37580106798200941 0 -0.2440942507316548 -0.3627173211519682 0 -0.25941438816316292 -0.35605377812029432 0 -0.2526560430109932 -0.33946468702546317 0 -0.2440942507316548 -0.3627173211519682 0 -0.25941438816316292 -0.35605377812029432 0 -0.26941308185981172 -0.33977287642347209 0 -0.2526560430109932 -0.33946468702546317 0 -0.29033026707721699 -0.34992793505552761 0 -0.27291059931952732 -0.36251293801855861 0 -0.26941308185981172 -0.33977287642347209 0 -0.27291059931952732 -0.36251293801855861 0 -0.25941438816316292 -0.35605377812029432 0 -0.26941308185981172 -0.33977287642347209 0 -0.26941308185981172 -0.33977287642347209 0 -0.27032855052393001 -0.31932189721490251 0 -0.29104417827125573 -0.32975913976149668 0 -0.26941308185981172 -0.33977287642347209 0 -0.2526560430109932 -0.33946468702546317 0 -0.25369446209554852 -0.32391991884343901 0 -0.26941308185981172 -0.33977287642347209 0 -0.25369446209554852 -0.32391991884343901 0 -0.27032855052393001 -0.31932189721490251 0 -0.27032855052393001 -0.31932189721490251 0 -0.24961292277660421 -0.30888465466830839 0 -0.25369446209554852 -0.32391991884343901 0 -0.27032855052393001 -0.31932189721490251 0 -0.24961292277660421 -0.30888465466830839 0 -0.27032855052393001 -0.31932189721490251 0 -0.29104417827125573 -0.32975913976149668 0 -0.27032855052393001 -0.31932189721490251 0 -0.29104417827125573 -0.32975913976149668 0 -0.28928403284679383 -0.3104234145876813 0 -0.29104417827125573 -0.32975913976149668 0 -0.29768417632379318 -0.3178619954984907 0 -0.28928403284679383 -0.3104234145876813 0 -0.29768417632379318 -0.3178619954984907 0 -0.3031947389051054 -0.30941765448885838 0 -0.28928403284679383 -0.3104234145876813 0 -0.29033026707721699 -0.34992793505552761 0 -0.26941308185981172 -0.33977287642347209 0 -0.29104417827125573 -0.32975913976149668 0 -0.29104417827125573 -0.32975913976149668 0 -0.31175980601858128 -0.34019638230809079 0 -0.29033026707721699 -0.34992793505552761 0 -0.29104417827125573 -0.32975913976149668 0 -0.31175980601858128 -0.34019638230809079 0 -0.29104417827125573 -0.32975913976149668 0 -0.31175980601858128 -0.34019638230809079 0 -0.30721375527201811 -0.32184777315592672 0 -0.29104417827125573 -0.32975913976149668 0 -0.30721375527201811 -0.32184777315592672 0 -0.29768417632379318 -0.3178619954984907 0 -0.31495477517251641 -0.31313886456682077 0 -0.30721375527201811 -0.32184777315592672 0 -0.3031947389051054 -0.30941765448885838 0 -0.30721375527201811 -0.32184777315592672 0 -0.29768417632379318 -0.3178619954984907 0 -0.3031947389051054 -0.30941765448885838 0 -0.3031947389051054 -0.30941765448885838 0 -0.31063857588596733 -0.29958800090163717 0 -0.29639794938686909 -0.30117581179586073 0 -0.31495477517251641 -0.31313886456682077 0 -0.3031947389051054 -0.30941765448885838 0 -0.31063857588596733 -0.29958800090163717 0 -0.31063857588596733 -0.29958800090163717 0 -0.29125303434087652 -0.28843364151056361 0 -0.30764969582295432 -0.28865145802835079 0 -0.30138264113133362 -0.28233104881848642 0 -0.29125303434087652 -0.28843364151056361 0 -0.31063857588596733 -0.29958800090163717 0 -0.29125303434087652 -0.28843364151056361 0 -0.29639794938686909 -0.30117581179586073 0 -0.31466565495850929 -0.2974090456543183 0 -0.30764969582295432 -0.28865145802835079 0 -0.29125303434087652 -0.28843364151056361 0 -0.31466565495850929 -0.2974090456543183 0 -0.31063857588596733 -0.29958800090163717 0 -0.29125303434087652 -0.28843364151056361 0 -0.31466565495850929 -0.2974090456543183 0 -0.29125303434087652 -0.28843364151056361 0 -0.31500625676850219 -0.29109275302077142 0 -0.31466565495850929 -0.2974090456543183 0 -0.30764969582295432 -0.28865145802835079 0 -0.31736914112743059 -0.28634151259894669 0 -0.30764969582295432 -0.28865145802835079 0 -0.30827396028889797 -0.28246554331183521 0 -0.30764969582295432 -0.28865145802835079 0 -0.30827396028889797 -0.28246554331183521 0 -0.30138264113133362 -0.28233104881848642 0 -0.29125303434087652 -0.28843364151056361 0 -0.28322388665475751 -0.28381370356935881 0 -0.27206312355763679 -0.28107704493066321 0 -0.29125303434087652 -0.28843364151056361 0 -0.27206312355763679 -0.28107704493066321 0 -0.29125303434087652 -0.28843364151056361 0 -0.28718806244084438 -0.29888693612293682 0 -0.29639794938686909 -0.30117581179586073 0 -0.30138264113133362 -0.28233104881848642 0 -0.29125303434087652 -0.28843364151056361 0 -0.29366926454668207 -0.27892748866449379 0 -0.29125303434087652 -0.28843364151056361 0 -0.28859689564597601 -0.28169193885522131 0 -0.29366926454668207 -0.27892748866449379 0 -0.29125303434087652 -0.28843364151056361 0 -0.28322388665475751 -0.28381370356935881 0 -0.29125303434087652 -0.28843364151056361 0 -0.28859689564597601 -0.28169193885522131 0 -0.28322388665475751 -0.28381370356935881 0 -0.28859689564597601 -0.28169193885522131 0 -0.28322388665475751 -0.28381370356935881 0 -0.28387722226910261 -0.27836090383026341 0 -0.29125303434087652 -0.28843364151056361 0 -0.28718806244084438 -0.29888693612293682 0 -0.27808265267008198 -0.29093779703761419 0 -0.28718806244084438 -0.29888693612293682 0 -0.28928403284679383 -0.3104234145876813 0 -0.27599111050925051 -0.29953780649612882 0 -0.28718806244084438 -0.29888693612293682 0 -0.29639794938686909 -0.30117581179586073 0 -0.28928403284679383 -0.3104234145876813 0 -0.3031947389051054 -0.30941765448885838 0 -0.29639794938686909 -0.30117581179586073 0 -0.28928403284679383 -0.3104234145876813 0 -0.27032855052393001 -0.31932189721490251 0 -0.27599111050925051 -0.29953780649612882 0 -0.26297816128042789 -0.30652936428722521 0 -0.27032855052393001 -0.31932189721490251 0 -0.28928403284679383 -0.3104234145876813 0 -0.27599111050925051 -0.29953780649612882 0 -0.27599111050925051 -0.29953780649612882 0 -0.26297816128042789 -0.30652936428722521 0 -0.26378851188932928 -0.29668079980425383 0 -0.27032855052393001 -0.31932189721490251 0 -0.26297816128042789 -0.30652936428722521 0 -0.24961292277660421 -0.30888465466830839 0 -0.26297816128042789 -0.30652936428722521 0 -0.25701652882273351 -0.29828319366394679 0 -0.26378851188932928 -0.29668079980425383 0 -0.26297816128042789 -0.30652936428722521 0 -0.25701652882273351 -0.29828319366394679 0 -0.25334040355741511 -0.30360199425325679 0 -0.25701652882273351 -0.29828319366394679 0 -0.25334040355741511 -0.30360199425325679 0 -0.25080396598643939 -0.29595923645909822 0 -0.25334040355741511 -0.30360199425325679 0 -0.25080396598643939 -0.29595923645909822 0 -0.2471461391624904 -0.30215923705505032 0 -0.25334040355741511 -0.30360199425325679 0 -0.2471461391624904 -0.30215923705505032 0 -0.24961292277660421 -0.30888465466830839 0 -0.26297816128042789 -0.30652936428722521 0 -0.25334040355741511 -0.30360199425325679 0 -0.24961292277660421 -0.30888465466830839 0 -0.25334040355741511 -0.30360199425325679 0 -0.24961292277660421 -0.30888465466830839 0 -0.25417160140005551 -0.28864457351590012 0 -0.26391793250180162 -0.28675355612777897 0 -0.25287321277439723 -0.27372044835076298 0 -0.25701652882273351 -0.29828319366394679 0 -0.25417160140005551 -0.28864457351590012 0 -0.25080396598643939 -0.29595923645909822 0 -0.25701652882273351 -0.29828319366394679 0 -0.25417160140005551 -0.28864457351590012 0 -0.26378851188932928 -0.29668079980425383 0 -0.25417160140005551 -0.28864457351590012 0 -0.26378851188932928 -0.29668079980425383 0 -0.26391793250180162 -0.28675355612777897 0 -0.29125303434087652 -0.28843364151056361 0 -0.27808265267008198 -0.29093779703761419 0 -0.27206312355763679 -0.28107704493066321 0 -0.26391793250180162 -0.28675355612777897 0 -0.27808265267008198 -0.29093779703761419 0 -0.27206312355763679 -0.28107704493066321 0 -0.27599111050925051 -0.29953780649612882 0 -0.26391793250180162 -0.28675355612777897 0 -0.27808265267008198 -0.29093779703761419 0 -0.27599111050925051 -0.29953780649612882 0 -0.26378851188932928 -0.29668079980425383 0 -0.26391793250180162 -0.28675355612777897 0 -0.28718806244084438 -0.29888693612293682 0 -0.27599111050925051 -0.29953780649612882 0 -0.27808265267008198 -0.29093779703761419 0 -0.27579622653959968 -0.26224597648920028 0 -0.28387722226910261 -0.27836090383026341 0 -0.27491878772327433 -0.27305288167517472 0 -0.27579622653959968 -0.26224597648920028 0 -0.28387722226910261 -0.27836090383026341 0 -0.27491878772327433 -0.27305288167517472 0 -0.27206312355763679 -0.28107704493066321 0 -0.28387722226910261 -0.27836090383026341 0 -0.28322388665475751 -0.28381370356935881 0 -0.27206312355763679 -0.28107704493066321 0 -0.28387722226910261 -0.27836090383026341 0 -0.27491878772327433 -0.27305288167517472 0 -0.26793857852675801 -0.27052760145057198 0 -0.27579622653959968 -0.26224597648920028 0 -0.27491878772327433 -0.27305288167517472 0 -0.26793857852675801 -0.27052760145057198 0 -0.27206312355763679 -0.28107704493066321 0 -0.26391793250180162 -0.28675355612777897 0 -0.27206312355763679 -0.28107704493066321 0 -0.25287321277439723 -0.27372044835076298 0 -0.27206312355763679 -0.28107704493066321 0 -0.25287321277439723 -0.27372044835076298 0 -0.26793857852675801 -0.27052760145057198 0 -0.27206312355763679 -0.28107704493066321 0 -0.25287321277439723 -0.27372044835076298 0 -0.26793857852675801 -0.27052760145057198 0 -0.25287321277439723 -0.27372044835076298 0 -0.26227794933149973 -0.26147693171565539 0 -0.25287321277439723 -0.27372044835076298 0 -0.25142328947476522 -0.26295063516029488 0 -0.26227794933149973 -0.26147693171565539 0 -0.25722652137655938 -0.25156229858660373 0 -0.25380271698037138 -0.25700138034771891 0 -0.26227794933149973 -0.26147693171565539 0 -0.25380271698037138 -0.25700138034771891 0 -0.24732520214061929 -0.25772363101875601 0 -0.24962427814893129 -0.249267442217251 0 -0.25722652137655938 -0.25156229858660373 0 -0.25380271698037138 -0.25700138034771891 0 -0.24962427814893129 -0.249267442217251 0 -0.25380271698037138 -0.25700138034771891 0 -0.25142328947476522 -0.26295063516029488 0 -0.26227794933149973 -0.26147693171565539 0 -0.25380271698037138 -0.25700138034771891 0 -0.25142328947476522 -0.26295063516029488 0 -0.24732520214061929 -0.25772363101875601 0 -0.25722652137655938 -0.25156229858660373 0 -0.26227794933149973 -0.26147693171565539 0 -0.26381250405875373 -0.24902775701919841 0 -0.27579622653959968 -0.26224597648920028 0 -0.26771523081009702 -0.24613104914813719 0 -0.26381250405875373 -0.24902775701919841 0 -0.27579622653959968 -0.26224597648920028 0 -0.26771523081009702 -0.24613104914813719 0 -0.26227794933149973 -0.26147693171565539 0 -0.27579622653959968 -0.26224597648920028 0 -0.26381250405875373 -0.24902775701919841 0 -0.27579622653959968 -0.26224597648920028 0 -0.28330269037410288 -0.25159757207075412 0 -0.26771523081009702 -0.24613104914813719 0 -0.26793857852675801 -0.27052760145057198 0 -0.26227794933149973 -0.26147693171565539 0 -0.27579622653959968 -0.26224597648920028 0 -0.28330269037410288 -0.25159757207075412 0 -0.29325557616829279 -0.25850649293211397 0 -0.29557820019815922 -0.24692677995950271 0 -0.29325557616829279 -0.25850649293211397 0 -0.2861738961398877 -0.26712560034400401 0 -0.2962843201104155 -0.26916485202019053 0 -0.28330269037410288 -0.25159757207075412 0 -0.29325557616829279 -0.25850649293211397 0 -0.2861738961398877 -0.26712560034400401 0 -0.27579622653959968 -0.26224597648920028 0 -0.28330269037410288 -0.25159757207075412 0 -0.2861738961398877 -0.26712560034400401 0 -0.2861738961398877 -0.26712560034400401 0 -0.28387722226910261 -0.27836090383026341 0 -0.28906688223882709 -0.27356936248350228 0 -0.27579622653959968 -0.26224597648920028 0 -0.2861738961398877 -0.26712560034400401 0 -0.28387722226910261 -0.27836090383026341 0 -0.28859689564597601 -0.28169193885522131 0 -0.28387722226910261 -0.27836090383026341 0 -0.28906688223882709 -0.27356936248350228 0 -0.29366926454668207 -0.27892748866449379 0 -0.28906688223882709 -0.27356936248350228 0 -0.2962843201104155 -0.26916485202019053 0 -0.28859689564597601 -0.28169193885522131 0 -0.29366926454668207 -0.27892748866449379 0 -0.28906688223882709 -0.27356936248350228 0 -0.2861738961398877 -0.26712560034400401 0 -0.28906688223882709 -0.27356936248350228 0 -0.2962843201104155 -0.26916485202019053 0 -0.2962843201104155 -0.26916485202019053 0 -0.30560661353420249 -0.27326833722039301 0 -0.30493877401889841 -0.2577176602661187 0 -0.29366926454668207 -0.27892748866449379 0 -0.2962843201104155 -0.26916485202019053 0 -0.30560661353420249 -0.27326833722039301 0 -0.30138264113133362 -0.28233104881848642 0 -0.29366926454668207 -0.27892748866449379 0 -0.30560661353420249 -0.27326833722039301 0 -0.30827396028889797 -0.28246554331183521 0 -0.30138264113133362 -0.28233104881848642 0 -0.30560661353420249 -0.27326833722039301 0 -0.3159928134352134 -0.27679644605737819 0 -0.30827396028889797 -0.28246554331183521 0 -0.30560661353420249 -0.27326833722039301 0 -0.3130810632097224 -0.266588991848489 0 -0.30560661353420249 -0.27326833722039301 0 -0.30493877401889841 -0.2577176602661187 0 -0.3130810632097224 -0.266588991848489 0 -0.3159928134352134 -0.27679644605737819 0 -0.30560661353420249 -0.27326833722039301 0 -0.29325557616829279 -0.25850649293211397 0 -0.30493877401889841 -0.2577176602661187 0 -0.29557820019815922 -0.24692677995950271 0 -0.29325557616829279 -0.25850649293211397 0 -0.2962843201104155 -0.26916485202019053 0 -0.30493877401889841 -0.2577176602661187 0 -0.32988258233185558 -0.44653712452775612 0 -0.35149546716705832 -0.46019447376830952 0 -0.32988258233185558 -0.44653712452775612 0 -0.33182942840753382 -0.47428340630655641 0 -0.35149546716705832 -0.46019447376830952 0 -0.32988258233185558 -0.44653712452775612 0 -0.30826969749665312 -0.43287977528720262 0 -0.32988258233185558 -0.44653712452775612 0 -0.30826969749665312 -0.43287977528720262 0 -0.30871875766539142 -0.4604543527894408 0 -0.32988258233185558 -0.44653712452775612 0 -0.33182942840753382 -0.47428340630655641 0 -0.30871875766539142 -0.4604543527894408 0 -0.33182942840753382 -0.47428340630655641 0 -0.30871875766539142 -0.4604543527894408 0 -0.30831285976237022 -0.4857068019043505 0 -0.32966387233205452 -0.50000000000000078 0 -0.33182942840753382 -0.47428340630655641 0 -0.30831285976237022 -0.4857068019043505 0 -0.32966387233205452 -0.50000000000000078 0 -0.3031920390651841 -0.5 0 -0.30831285976237022 -0.4857068019043505 0 -0.32966387233205452 -0.50000000000000078 0 -0.30831285976237022 -0.4857068019043505 0 -0.32966387233205452 -0.50000000000000078 0 -0.33182942840753382 -0.47428340630655641 0 -0.34600896103530371 -0.48910549716678342 0 -0.33182942840753382 -0.47428340630655641 0 -0.35399614569873528 -0.47715222382091371 0 -0.35149546716705832 -0.46019447376830952 0 -0.33182942840753382 -0.47428340630655641 0 -0.35399614569873528 -0.47715222382091371 0 -0.34600896103530371 -0.48910549716678342 0 -0.32966387233205452 -0.50000000000000078 0 -0.34600896103530371 -0.48910549716678342 0 -0.35793861166801461 -0.5 0 -0.35399614569873528 -0.47715222382091371 0 -0.34600896103530371 -0.48910549716678342 0 -0.35661674707018032 -0.49409185570644698 0 -0.34600896103530371 -0.48910549716678342 0 -0.35793861166801461 -0.5 0 -0.35661674707018032 -0.49409185570644698 0 -0.35661674707018032 -0.49409185570644698 0 -0.37111642342747142 -0.47799766480426031 0 -0.35661674707018032 -0.49409185570644698 0 -0.36620810960871081 -0.4882134390204626 0 -0.37111642342747142 -0.47799766480426031 0 -0.3862133510039743 -0.5 0 -0.35793861166801461 -0.5 0 -0.37322388179364202 -0.49139696819120832 0 -0.35793861166801461 -0.5 0 -0.35661674707018032 -0.49409185570644698 0 -0.36620810960871081 -0.4882134390204626 0 -0.35793861166801461 -0.5 0 -0.36620810960871081 -0.4882134390204626 0 -0.37322388179364202 -0.49139696819120832 0 -0.36620810960871081 -0.4882134390204626 0 -0.37322388179364202 -0.49139696819120832 0 -0.37381966240987041 -0.48414241096890182 0 -0.35399614569873528 -0.47715222382091371 0 -0.37421914409173829 -0.47455374112924897 0 -0.35149546716705832 -0.46019447376830952 0 -0.35399614569873528 -0.47715222382091371 0 -0.35661674707018032 -0.49409185570644698 0 -0.37111642342747142 -0.47799766480426031 0 -0.35399614569873528 -0.47715222382091371 0 -0.37111642342747142 -0.47799766480426031 0 -0.37421914409173829 -0.47455374112924897 0 -0.36620810960871081 -0.4882134390204626 0 -0.37111642342747142 -0.47799766480426031 0 -0.36620810960871081 -0.4882134390204626 0 -0.37381966240987041 -0.48414241096890182 0 -0.37111642342747142 -0.47799766480426031 0 -0.37381966240987041 -0.48414241096890182 0 -0.37388848253625662 -0.47927133090340779 0 -0.37111642342747142 -0.47799766480426031 0 -0.37639870021594612 -0.48039150671122011 0 -0.37381966240987041 -0.48414241096890182 0 -0.37388848253625662 -0.47927133090340779 0 -0.37388848253625662 -0.47927133090340779 0 -0.37111642342747142 -0.47799766480426031 0 -0.37421914409173829 -0.47455374112924897 0 -0.37639870021594612 -0.48039150671122011 0 -0.37388848253625662 -0.47927133090340779 0 -0.37421914409173829 -0.47455374112924897 0 -0.37111642342747142 -0.47799766480426031 0 -0.37421914409173829 -0.47455374112924897 0 -0.37420858918356842 -0.47046915587106197 0 -0.36461591012889538 -0.45367916410644471 0 -0.37468548206347879 -0.44195406357553069 0 -0.37421914409173829 -0.47455374112924897 0 -0.35149546716705832 -0.46019447376830952 0 -0.37420858918356842 -0.47046915587106197 0 -0.37468548206347879 -0.44195406357553069 0 -0.37420858918356842 -0.47046915587106197 0 -0.37421914409173829 -0.47455374112924897 0 -0.35149546716705832 -0.46019447376830952 0 -0.37420858918356842 -0.47046915587106197 0 -0.36461591012889538 -0.45367916410644471 0 -0.35149546716705832 -0.46019447376830952 0 -0.36461591012889538 -0.45367916410644471 0 -0.35149546716705832 -0.46019447376830952 0 -0.35624336511554772 -0.44279362475169348 0 -0.32988258233185558 -0.44653712452775612 0 -0.35624336511554772 -0.44279362475169348 0 -0.35051788445781279 -0.42577505133792048 0 -0.32988258233185558 -0.44653712452775612 0 -0.35149546716705832 -0.46019447376830952 0 -0.35624336511554772 -0.44279362475169348 0 -0.35624336511554772 -0.44279362475169348 0 -0.37468548206347879 -0.44195406357553069 0 -0.36415227664505723 -0.43099042773628599 0 -0.36461591012889538 -0.45367916410644471 0 -0.35624336511554772 -0.44279362475169348 0 -0.37468548206347879 -0.44195406357553069 0 -0.37516237494338939 -0.4134389712799994 0 -0.37468548206347879 -0.44195406357553069 0 -0.37516237494338939 -0.4134389712799994 0 -0.37468548206347879 -0.44195406357553069 0 -0.36415227664505723 -0.43099042773628599 0 -0.37516237494338939 -0.4134389712799994 0 -0.36415227664505723 -0.43099042773628599 0 -0.35051788445781279 -0.42577505133792048 0 -0.37516237494338939 -0.4134389712799994 0 -0.35051788445781279 -0.42577505133792048 0 -0.34191273716771298 -0.40116891745173949 0 -0.35624336511554772 -0.44279362475169348 0 -0.36415227664505723 -0.43099042773628599 0 -0.35051788445781279 -0.42577505133792048 0 -0.37516237494338939 -0.4134389712799994 0 -0.35784251889029028 -0.38833351078814321 0 -0.34191273716771298 -0.40116891745173949 0 -0.37563926782329998 -0.38492387898446812 0 -0.3602465147127849 -0.36929411794308148 0 -0.35784251889029028 -0.38833351078814321 0 -0.37563926782329998 -0.38492387898446812 0 -0.37516237494338939 -0.4134389712799994 0 -0.35784251889029028 -0.38833351078814321 0 -0.3602465147127849 -0.36929411794308148 0 -0.35784251889029028 -0.38833351078814321 0 -0.34094015100203628 -0.37601287866651539 0 -0.35784251889029028 -0.38833351078814321 0 -0.34094015100203628 -0.37601287866651539 0 -0.34191273716771298 -0.40116891745173949 0 -0.34094015100203628 -0.37601287866651539 0 -0.34191273716771298 -0.40116891745173949 0 -0.324275152004534 -0.38298704724794808 0 -0.34191273716771298 -0.40116891745173949 0 -0.31862443198152018 -0.40099120937543098 0 -0.324275152004534 -0.38298704724794808 0 -0.31646171693212999 -0.36791377751173321 0 -0.324275152004534 -0.38298704724794808 0 -0.30509416676471951 -0.38035487576632621 0 -0.31862443198152018 -0.40099120937543098 0 -0.324275152004534 -0.38298704724794808 0 -0.30509416676471951 -0.38035487576632621 0 -0.32988258233185558 -0.44653712452775612 0 -0.35051788445781279 -0.42577505133792048 0 -0.32645551636310471 -0.42078542637000887 0 -0.35051788445781279 -0.42577505133792048 0 -0.34191273716771298 -0.40116891745173949 0 -0.32645551636310471 -0.42078542637000887 0 -0.34191273716771298 -0.40116891745173949 0 -0.31862443198152018 -0.40099120937543098 0 -0.32645551636310471 -0.42078542637000887 0 -0.31862443198152018 -0.40099120937543098 0 -0.32645551636310471 -0.42078542637000887 0 -0.30547320772972059 -0.41396379215526058 0 -0.32645551636310471 -0.42078542637000887 0 -0.30826969749665312 -0.43287977528720262 0 -0.30547320772972059 -0.41396379215526058 0 -0.32988258233185558 -0.44653712452775612 0 -0.32645551636310471 -0.42078542637000887 0 -0.30826969749665312 -0.43287977528720262 0 -0.30826969749665312 -0.43287977528720262 0 -0.30547320772972059 -0.41396379215526058 0 -0.28665681266145049 -0.41922242604664922 0 -0.30826969749665312 -0.43287977528720262 0 -0.28665681266145049 -0.41922242604664922 0 -0.30547320772972059 -0.41396379215526058 0 -0.28665681266145049 -0.41922242604664922 0 -0.29509296185472028 -0.39691691528967971 0 -0.30826969749665312 -0.43287977528720262 0 -0.28665681266145049 -0.41922242604664922 0 -0.28797057360089251 -0.44681323427319769 0 -0.28665681266145049 -0.41922242604664922 0 -0.2698735733824621 -0.43696122524874559 0 -0.28797057360089251 -0.44681323427319769 0 -0.31862443198152018 -0.40099120937543098 0 -0.30547320772972059 -0.41396379215526058 0 -0.29509296185472028 -0.39691691528967971 0 -0.31862443198152018 -0.40099120937543098 0 -0.30509416676471951 -0.38035487576632621 0 -0.29509296185472028 -0.39691691528967971 0 -0.28665681266145049 -0.41922242604664922 0 -0.29509296185472028 -0.39691691528967971 0 -0.27687180257843791 -0.40258034852602997 0 -0.29509296185472028 -0.39691691528967971 0 -0.27563161656916879 -0.38444197320118279 0 -0.27687180257843791 -0.40258034852602997 0 -0.28820621045501149 -0.37243698815395382 0 -0.30509416676471951 -0.38035487576632621 0 -0.29509296185472028 -0.39691691528967971 0 -0.28820621045501149 -0.37243698815395382 0 -0.29509296185472028 -0.39691691528967971 0 -0.27563161656916879 -0.38444197320118279 0 -0.27563161656916879 -0.38444197320118279 0 -0.27687180257843791 -0.40258034852602997 0 -0.26271015931348918 -0.39640358123686592 0 -0.27687180257843791 -0.40258034852602997 0 -0.26271015931348918 -0.39640358123686592 0 -0.26344634059265332 -0.41738434660608792 0 -0.25381845132695718 -0.40570678155870032 0 -0.26271015931348918 -0.39640358123686592 0 -0.2483850395406228 -0.39677103774543709 0 -0.27563161656916879 -0.38444197320118279 0 -0.26271015931348918 -0.39640358123686592 0 -0.25799796589382717 -0.37580106798200941 0 -0.26271015931348918 -0.39640358123686592 0 -0.25799796589382717 -0.37580106798200941 0 -0.2483850395406228 -0.39677103774543709 0 -0.28665681266145049 -0.41922242604664922 0 -0.2698735733824621 -0.43696122524874559 0 -0.26344634059265332 -0.41738434660608792 0 -0.28665681266145049 -0.41922242604664922 0 -0.27687180257843791 -0.40258034852602997 0 -0.26344634059265332 -0.41738434660608792 0 -0.25381845132695718 -0.40570678155870032 0 -0.26344634059265332 -0.41738434660608792 0 -0.24073226586106369 -0.41226816064641059 0 -0.25381845132695718 -0.40570678155870032 0 -0.26271015931348918 -0.39640358123686592 0 -0.26344634059265332 -0.41738434660608792 0 -0.26344634059265332 -0.41738434660608792 0 -0.24593207326981181 -0.43856636601434817 0 -0.24073226586106369 -0.41226816064641059 0 -0.2698735733824621 -0.43696122524874559 0 -0.26344634059265332 -0.41738434660608792 0 -0.24593207326981181 -0.43856636601434817 0 -0.2698735733824621 -0.43696122524874559 0 -0.2656108346230025 -0.45712040571304879 0 -0.24593207326981181 -0.43856636601434817 0 -0.2656108346230025 -0.45712040571304879 0 -0.25113188067855979 -0.46486457138228587 0 -0.26591829474559819 -0.47463076961417522 0 -0.2656108346230025 -0.45712040571304879 0 -0.25113188067855979 -0.46486457138228587 0 -0.24593207326981181 -0.43856636601434817 0 -0.2656108346230025 -0.45712040571304879 0 -0.28797057360089251 -0.44681323427319769 0 -0.28696184719268641 -0.47141360380869968 0 -0.2656108346230025 -0.45712040571304879 0 -0.28696184719268641 -0.47141360380869968 0 -0.26591829474559819 -0.47463076961417522 0 -0.2656108346230025 -0.45712040571304879 0 -0.28696184719268641 -0.47141360380869968 0 -0.2698735733824621 -0.43696122524874559 0 -0.2656108346230025 -0.45712040571304879 0 -0.28797057360089251 -0.44681323427319769 0 -0.28797057360089251 -0.44681323427319769 0 -0.30871875766539142 -0.4604543527894408 0 -0.28696184719268641 -0.47141360380869968 0 -0.30826969749665312 -0.43287977528720262 0 -0.28797057360089251 -0.44681323427319769 0 -0.30871875766539142 -0.4604543527894408 0 -0.3031920390651841 -0.5 0 -0.30831285976237022 -0.4857068019043505 0 -0.29019313802062369 -0.48845731123615049 0 -0.30871875766539142 -0.4604543527894408 0 -0.30831285976237022 -0.4857068019043505 0 -0.28696184719268641 -0.47141360380869968 0 -0.30831285976237022 -0.4857068019043505 0 -0.28696184719268641 -0.47141360380869968 0 -0.30831285976237022 -0.4857068019043505 0 -0.28696184719268641 -0.47141360380869968 0 -0.29019313802062369 -0.48845731123615049 0 -0.28696184719268641 -0.47141360380869968 0 -0.29019313802062369 -0.48845731123615049 0 -0.27522503476890597 -0.4851328922818498 0 -0.3031920390651841 -0.5 0 -0.29019313802062369 -0.48845731123615049 0 -0.27672020579831369 -0.5 0 -0.27672020579831369 -0.5 0 -0.27522503476890597 -0.4851328922818498 0 -0.25633168808730777 -0.49116277675022368 0 -0.29019313802062369 -0.48845731123615049 0 -0.27672020579831369 -0.5 0 -0.27522503476890597 -0.4851328922818498 0 -0.27522503476890597 -0.4851328922818498 0 -0.26591829474559819 -0.47463076961417522 0 -0.25633168808730777 -0.49116277675022368 0 -0.28696184719268641 -0.47141360380869968 0 -0.27522503476890597 -0.4851328922818498 0 -0.26591829474559819 -0.47463076961417522 0 -0.25113188067855979 -0.46486457138228587 0 -0.25633168808730777 -0.49116277675022368 0 -0.25113188067855979 -0.46486457138228587 0 -0.26591829474559819 -0.47463076961417522 0 -0.25633168808730777 -0.49116277675022368 0 -0.25113188067855979 -0.46486457138228587 0 -0.25633168808730777 -0.49116277675022368 0 -0.24462939296018549 -0.48913875954654479 0 -0.27672020579831369 -0.5 0 -0.25633168808730777 -0.49116277675022368 0 -0.25024837253144339 -0.5 0 -0.25633168808730777 -0.49116277675022368 0 -0.25024837253144339 -0.5 0 -0.24462939296018549 -0.48913875954654479 0 -0.25024837253144339 -0.5 0 -0.24462939296018549 -0.48913875954654479 0 -0.22377653926457311 -0.5 0 -0.24462939296018549 -0.48913875954654479 0 -0.23530980873527341 -0.482988007772084 0 -0.22377653926457311 -0.5 0 -0.25113188067855979 -0.46486457138228587 0 -0.24462939296018549 -0.48913875954654479 0 -0.23530980873527341 -0.482988007772084 0 -0.25113188067855979 -0.46486457138228587 0 -0.23530980873527341 -0.482988007772084 0 -0.2355750297610246 -0.46613566839865878 0 -0.23530980873527341 -0.482988007772084 0 -0.22182106042337649 -0.46981597033153077 0 -0.21057564326432679 -0.48458856899312719 0 -0.23530980873527341 -0.482988007772084 0 -0.22182106042337649 -0.46981597033153077 0 -0.2355750297610246 -0.46613566839865878 0 -0.23530980873527341 -0.482988007772084 0 -0.22377653926457311 -0.5 0 -0.21057564326432679 -0.48458856899312719 0 -0.24593207326981181 -0.43856636601434817 0 -0.22623700788273901 -0.45001322027868212 0 -0.23270584624616819 -0.42730533856508091 0 -0.25113188067855979 -0.46486457138228587 0 -0.24593207326981181 -0.43856636601434817 0 -0.24593207326981181 -0.43856636601434817 0 -0.2397189978980338 -0.45489495651849382 0 -0.22623700788273901 -0.45001322027868212 0 -0.25113188067855979 -0.46486457138228587 0 -0.24593207326981181 -0.43856636601434817 0 -0.2397189978980338 -0.45489495651849382 0 -0.25113188067855979 -0.46486457138228587 0 -0.2397189978980338 -0.45489495651849382 0 -0.2355750297610246 -0.46613566839865878 0 -0.22182106042337649 -0.46981597033153077 0 -0.22623700788273901 -0.45001322027868212 0 -0.21459898147763859 -0.45838425426728768 0 -0.22182106042337649 -0.46981597033153077 0 -0.2355750297610246 -0.46613566839865878 0 -0.22623700788273901 -0.45001322027868212 0 -0.2397189978980338 -0.45489495651849382 0 -0.2355750297610246 -0.46613566839865878 0 -0.22623700788273901 -0.45001322027868212 0 -0.22623700788273901 -0.45001322027868212 0 -0.2067650594155637 -0.44633636461588772 0 -0.21836881630969451 -0.43021604752807152 0 -0.22623700788273901 -0.45001322027868212 0 -0.2067650594155637 -0.44633636461588772 0 -0.21459898147763859 -0.45838425426728768 0 -0.2067650594155637 -0.44633636461588772 0 -0.19767672386055371 -0.43573229091467619 0 -0.20605001365878381 -0.43097216445049041 0 -0.2067650594155637 -0.44633636461588772 0 -0.20357279818887519 -0.46737146184305028 0 -0.21459898147763859 -0.45838425426728768 0 -0.22182106042337649 -0.46981597033153077 0 -0.20357279818887519 -0.46737146184305028 0 -0.21459898147763859 -0.45838425426728768 0 -0.20357279818887519 -0.46737146184305028 0 -0.1935682390765954 -0.45723686757952142 0 -0.18687447335381599 -0.47742627581825209 0 -0.1935682390765954 -0.45723686757952142 0 -0.18687447335381599 -0.47742627581825209 0 -0.18217109391214489 -0.45887260602029051 0 -0.2067650594155637 -0.44633636461588772 0 -0.20357279818887519 -0.46737146184305028 0 -0.1935682390765954 -0.45723686757952142 0 -0.1935682390765954 -0.45723686757952142 0 -0.18217109391214489 -0.45887260602029051 0 -0.1874885540795703 -0.44855744547175569 0 -0.2067650594155637 -0.44633636461588772 0 -0.1935682390765954 -0.45723686757952142 0 -0.1945374555096025 -0.4448570517078923 0 -0.1935682390765954 -0.45723686757952142 0 -0.1945374555096025 -0.4448570517078923 0 -0.1874885540795703 -0.44855744547175569 0 -0.1945374555096025 -0.4448570517078923 0 -0.18688322382571421 -0.43986627843166892 0 -0.1874885540795703 -0.44855744547175569 0 -0.1945374555096025 -0.4448570517078923 0 -0.18688322382571421 -0.43986627843166892 0 -0.19767672386055371 -0.43573229091467619 0 -0.2067650594155637 -0.44633636461588772 0 -0.1945374555096025 -0.4448570517078923 0 -0.19767672386055371 -0.43573229091467619 0 -0.22377653926457311 -0.5 0 -0.21057564326432679 -0.48458856899312719 0 -0.1973047059977027 -0.5 0 -0.22182106042337649 -0.46981597033153077 0 -0.20357279818887519 -0.46737146184305028 0 -0.21057564326432679 -0.48458856899312719 0 -0.20357279818887519 -0.46737146184305028 0 -0.21057564326432679 -0.48458856899312719 0 -0.18687447335381599 -0.47742627581825209 0 -0.21057564326432679 -0.48458856899312719 0 -0.1973047059977027 -0.5 0 -0.18687447335381599 -0.47742627581825209 0 -0.1973047059977027 -0.5 0 -0.1708328727308322 -0.5 0 -0.18687447335381599 -0.47742627581825209 0 -0.1708328727308322 -0.5 0 -0.15790454739405579 -0.46978252980790652 0 -0.14620357217370339 -0.48364883761756527 0 -0.1708328727308322 -0.5 0 -0.15790454739405579 -0.46978252980790652 0 -0.173798779415861 -0.4715743357374621 0 -0.1708328727308322 -0.5 0 -0.18687447335381599 -0.47742627581825209 0 -0.173798779415861 -0.4715743357374621 0 -0.18687447335381599 -0.47742627581825209 0 -0.173798779415861 -0.4715743357374621 0 -0.18217109391214489 -0.45887260602029051 0 -0.18687447335381599 -0.47742627581825209 0 -0.18217109391214489 -0.45887260602029051 0 -0.173798779415861 -0.4715743357374621 0 -0.18217109391214489 -0.45887260602029051 0 -0.16803706018234271 -0.45400753360486301 0 -0.18217109391214489 -0.45887260602029051 0 -0.18016386091494629 -0.44304891382654032 0 -0.1774677144704748 -0.44031893622232848 0 -0.18217109391214489 -0.45887260602029051 0 -0.18016386091494629 -0.44304891382654032 0 -0.1874885540795703 -0.44855744547175569 0 -0.18217109391214489 -0.45887260602029051 0 -0.1774677144704748 -0.44031893622232848 0 -0.18217109391214489 -0.45887260602029051 0 -0.1774677144704748 -0.44031893622232848 0 -0.16803706018234271 -0.45400753360486301 0 -0.18688322382571421 -0.43986627843166892 0 -0.18016386091494629 -0.44304891382654032 0 -0.1874885540795703 -0.44855744547175569 0 -0.18688322382571421 -0.43986627843166892 0 -0.18016386091494629 -0.44304891382654032 0 -0.1774677144704748 -0.44031893622232848 0 -0.18016386091494629 -0.44304891382654032 0 -0.1774677144704748 -0.44031893622232848 0 -0.15217964003084289 -0.44696905433028511 0 -0.1654547784624941 -0.42815526227580381 0 -0.16578479828653869 -0.44236269660832001 0 -0.15217964003084289 -0.44696905433028511 0 -0.1654547784624941 -0.42815526227580381 0 -0.16578479828653869 -0.44236269660832001 0 -0.16803706018234271 -0.45400753360486301 0 -0.15217964003084289 -0.44696905433028511 0 -0.1774677144704748 -0.44031893622232848 0 -0.16578479828653869 -0.44236269660832001 0 -0.16803706018234271 -0.45400753360486301 0 -0.15790454739405579 -0.46978252980790652 0 -0.173798779415861 -0.4715743357374621 0 -0.16803706018234271 -0.45400753360486301 0 -0.15790454739405579 -0.46978252980790652 0 -0.16803706018234271 -0.45400753360486301 0 -0.15217964003084289 -0.44696905433028511 0 -0.15790454739405579 -0.46978252980790652 0 -0.15217964003084289 -0.44696905433028511 0 -0.13890450159919129 -0.46578284638476608 0 -0.15217964003084289 -0.44696905433028511 0 -0.13890450159919129 -0.46578284638476608 0 -0.15217964003084289 -0.44696905433028511 0 -0.1326752624444559 -0.44952647105154431 0 -0.13890450159919129 -0.46578284638476608 0 -0.15217964003084289 -0.44696905433028511 0 -0.1326752624444559 -0.44952647105154431 0 -0.14562072192549941 -0.43117111919182671 0 -0.1326752624444559 -0.44952647105154431 0 -0.14562072192549941 -0.43117111919182671 0 -0.12496787136215361 -0.4339165613104235 0 -0.1326752624444559 -0.44952647105154431 0 -0.13890450159919129 -0.46578284638476608 0 -0.1166621345051833 -0.46349723396995829 0 -0.13890450159919129 -0.46578284638476608 0 -0.12562936316753959 -0.48459663843924727 0 -0.13890450159919129 -0.46578284638476608 0 -0.12562936316753959 -0.48459663843924727 0 -0.14620357217370339 -0.48364883761756527 0 -0.13890450159919129 -0.46578284638476608 0 -0.12562936316753959 -0.48459663843924727 0 -0.1166621345051833 -0.46349723396995829 0 -0.12562936316753959 -0.48459663843924727 0 -0.1443610394639617 -0.5 0 -0.1178892061970912 -0.49999999999999001 0 -0.12562936316753959 -0.48459663843924727 0 -0.1443610394639617 -0.5 0 -0.14620357217370339 -0.48364883761756527 0 -0.1708328727308322 -0.5 0 -0.1443610394639617 -0.5 0 -0.14620357217370339 -0.48364883761756527 0 -0.15790454739405579 -0.46978252980790652 0 -0.13890450159919129 -0.46578284638476608 0 -0.14620357217370339 -0.48364883761756527 0 -0.13443090869063479 -0.39674210597383047 0 -0.14994284357656451 -0.41244868412481722 0 -0.15308611904745459 -0.39715272614777569 0 -0.14199408616524031 -0.38727169524546828 0 -0.13443090869063479 -0.39674210597383047 0 -0.15308611904745459 -0.39715272614777569 0 -0.13443090869063479 -0.39674210597383047 0 -0.14994284357656451 -0.41244868412481722 0 -0.15308611904745459 -0.39715272614777569 0 -0.15152968734136399 -0.38480684922074659 0 -0.16320077543217859 -0.38403938675648058 0 -0.15308611904745459 -0.39715272614777569 0 -0.15152968734136399 -0.38480684922074659 0 -0.14199408616524031 -0.38727169524546828 0 -0.15152968734136399 -0.38480684922074659 0 -0.1541125811890855 -0.37614695852486463 0 -0.14294847837633951 -0.37726615828070181 0 -0.15152968734136399 -0.38480684922074659 0 -0.14294847837633951 -0.37726615828070181 0 -0.14199408616524031 -0.38727169524546828 0 -0.14199408616524031 -0.38727169524546828 0 -0.13259445116056631 -0.37838894091975223 0 -0.13443090869063479 -0.39674210597383047 0 -0.13443090869063479 -0.39674210597383047 0 -0.1189189738047052 -0.38103552782284372 0 -0.13259445116056631 -0.37838894091975223 0 -0.13443090869063479 -0.39674210597383047 0 -0.1189189738047052 -0.38103552782284372 0 -0.14294847837633951 -0.37726615828070181 0 -0.13259445116056631 -0.37838894091975223 0 -0.13784862147681989 -0.36989818520166051 0 -0.14294847837633951 -0.37726615828070181 0 -0.14199408616524031 -0.38727169524546828 0 -0.13259445116056631 -0.37838894091975223 0 -0.13443090869063479 -0.39674210597383047 0 -0.13518438902224669 -0.41795404086700849 0 -0.14994284357656451 -0.41244868412481722 0 -0.13443090869063479 -0.39674210597383047 0 -0.13518438902224669 -0.41795404086700849 0 -0.120959599556381 -0.41549173373414472 0 -0.13518438902224669 -0.41795404086700849 0 -0.12496787136215361 -0.4339165613104235 0 -0.120959599556381 -0.41549173373414472 0 -0.13518438902224669 -0.41795404086700849 0 -0.14562072192549941 -0.43117111919182671 0 -0.12496787136215361 -0.4339165613104235 0 -0.15217964003084289 -0.44696905433028511 0 -0.14562072192549941 -0.43117111919182671 0 -0.1654547784624941 -0.42815526227580381 0 -0.14562072192549941 -0.43117111919182671 0 -0.14994284357656451 -0.41244868412481722 0 -0.1654547784624941 -0.42815526227580381 0 -0.13518438902224669 -0.41795404086700849 0 -0.14562072192549941 -0.43117111919182671 0 -0.14994284357656451 -0.41244868412481722 0 -0.15308611904745459 -0.39715272614777569 0 -0.14994284357656451 -0.41244868412481722 0 -0.16200377182453371 -0.41212466982304902 0 -0.1759088424236491 -0.40884935337513861 0 -0.17202407502671621 -0.41884512361775278 0 -0.16761242522944689 -0.40144225518711679 0 -0.14994284357656451 -0.41244868412481722 0 -0.1654547784624941 -0.42815526227580381 0 -0.16200377182453371 -0.41212466982304902 0 -0.1654547784624941 -0.42815526227580381 0 -0.17202407502671621 -0.41884512361775278 0 -0.17202407502671621 -0.41884512361775278 0 -0.16761242522944689 -0.40144225518711679 0 -0.16200377182453371 -0.41212466982304902 0 -0.17202407502671621 -0.41884512361775278 0 -0.16761242522944689 -0.40144225518711679 0 -0.14994284357656451 -0.41244868412481722 0 -0.16200377182453371 -0.41212466982304902 0 -0.1654547784624941 -0.42815526227580381 0 -0.1774677144704748 -0.44031893622232848 0 -0.1654547784624941 -0.42815526227580381 0 -0.17202407502671621 -0.41884512361775278 0 -0.1654547784624941 -0.42815526227580381 0 -0.17202407502671621 -0.41884512361775278 0 -0.1774677144704748 -0.44031893622232848 0 -0.1654547784624941 -0.42815526227580381 0 -0.1774677144704748 -0.44031893622232848 0 -0.16578479828653869 -0.44236269660832001 0 -0.1654547784624941 -0.42815526227580381 0 -0.1774677144704748 -0.44031893622232848 0 -0.17202407502671621 -0.41884512361775278 0 -0.1774677144704748 -0.44031893622232848 0 -0.18258405952874379 -0.42604011971629713 0 -0.17202407502671621 -0.41884512361775278 0 -0.18258405952874379 -0.42604011971629713 0 -0.18869252968221531 -0.43157192333605737 0 -0.18994168199323719 -0.42277072049553838 0 -0.1774677144704748 -0.44031893622232848 0 -0.18258405952874379 -0.42604011971629713 0 -0.18869252968221531 -0.43157192333605737 0 -0.18688322382571421 -0.43986627843166892 0 -0.1774677144704748 -0.44031893622232848 0 -0.18869252968221531 -0.43157192333605737 0 -0.17202407502671621 -0.41884512361775278 0 -0.18464119415635319 -0.40096388969663471 0 -0.1759088424236491 -0.40884935337513861 0 -0.17202407502671621 -0.41884512361775278 0 -0.18464119415635319 -0.40096388969663471 0 -0.17202407502671621 -0.41884512361775278 0 -0.18536882681276531 -0.41529317951474998 0 -0.18464119415635319 -0.40096388969663471 0 -0.18258405952874379 -0.42604011971629713 0 -0.17202407502671621 -0.41884512361775278 0 -0.18536882681276531 -0.41529317951474998 0 -0.18258405952874379 -0.42604011971629713 0 -0.18536882681276531 -0.41529317951474998 0 -0.18994168199323719 -0.42277072049553838 0 -0.18536882681276531 -0.41529317951474998 0 -0.18464119415635319 -0.40096388969663471 0 -0.1923851856351623 -0.4072418103365214 0 -0.1759088424236491 -0.40884935337513861 0 -0.18464119415635319 -0.40096388969663471 0 -0.17902971109084359 -0.39564984876477538 0 -0.18464119415635319 -0.40096388969663471 0 -0.17902971109084359 -0.39564984876477538 0 -0.18425085992393009 -0.38514811224615619 0 -0.1759088424236491 -0.40884935337513861 0 -0.17902971109084359 -0.39564984876477538 0 -0.17131794785944179 -0.38763803974117222 0 -0.1759088424236491 -0.40884935337513861 0 -0.17131794785944179 -0.38763803974117222 0 -0.16761242522944689 -0.40144225518711679 0 -0.16320077543217859 -0.38403938675648058 0 -0.15308611904745459 -0.39715272614777569 0 -0.16761242522944689 -0.40144225518711679 0 -0.16320077543217859 -0.38403938675648058 0 -0.16761242522944689 -0.40144225518711679 0 -0.16320077543217859 -0.38403938675648058 0 -0.17131794785944179 -0.38763803974117222 0 -0.1759088424236491 -0.40884935337513861 0 -0.16761242522944689 -0.40144225518711679 0 -0.17131794785944179 -0.38763803974117222 0 -0.15308611904745459 -0.39715272614777569 0 -0.16200377182453371 -0.41212466982304902 0 -0.16761242522944689 -0.40144225518711679 0 -0.17131794785944179 -0.38763803974117222 0 -0.1667270532952346 -0.36642672610720578 0 -0.17131794785944179 -0.38763803974117222 0 -0.17549827427177839 -0.37584047805472792 0 -0.1667270532952346 -0.36642672610720578 0 -0.16265291029837989 -0.37673207977072037 0 -0.17131794785944179 -0.38763803974117222 0 -0.1667270532952346 -0.36642672610720578 0 -0.15152968734136399 -0.38480684922074659 0 -0.1541125811890855 -0.37614695852486463 0 -0.16320077543217859 -0.38403938675648058 0 -0.1541125811890855 -0.37614695852486463 0 -0.16265291029837989 -0.37673207977072037 0 -0.16320077543217859 -0.38403938675648058 0 -0.16265291029837989 -0.37673207977072037 0 -0.16320077543217859 -0.38403938675648058 0 -0.17131794785944179 -0.38763803974117222 0 -0.17549827427177839 -0.37584047805472792 0 -0.18425085992393009 -0.38514811224615619 0 -0.17969723600850701 -0.3641490341243776 0 -0.18425085992393009 -0.38514811224615619 0 -0.19725831328598789 -0.38308265577551481 0 -0.17969723600850701 -0.3641490341243776 0 -0.17902971109084359 -0.39564984876477538 0 -0.17131794785944179 -0.38763803974117222 0 -0.18425085992393009 -0.38514811224615619 0 -0.17131794785944179 -0.38763803974117222 0 -0.17549827427177839 -0.37584047805472792 0 -0.18425085992393009 -0.38514811224615619 0 -0.18464119415635319 -0.40096388969663471 0 -0.18425085992393009 -0.38514811224615619 0 -0.19725831328598789 -0.38308265577551481 0 -0.18464119415635319 -0.40096388969663471 0 -0.19725831328598789 -0.38308265577551481 0 -0.19707271713142319 -0.39885176369171049 0 -0.18464119415635319 -0.40096388969663471 0 -0.19725831328598789 -0.38308265577551481 0 -0.19725831328598789 -0.38308265577551481 0 -0.19707271713142319 -0.39885176369171049 0 -0.2123526336361162 -0.39935672291129859 0 -0.18464119415635319 -0.40096388969663471 0 -0.19707271713142319 -0.39885176369171049 0 -0.1923851856351623 -0.4072418103365214 0 -0.19707271713142319 -0.39885176369171049 0 -0.1923851856351623 -0.4072418103365214 0 -0.20096536963236911 -0.40740494361103791 0 -0.19725831328598789 -0.38308265577551481 0 -0.2123526336361162 -0.39935672291129859 0 -0.19707271713142319 -0.39885176369171049 0 -0.2123526336361162 -0.39935672291129859 0 -0.20096536963236911 -0.40740494361103791 0 -0.19725831328598789 -0.38308265577551481 0 -0.21650158932078131 -0.38025414339718899 0 -0.21198362135204529 -0.36221365427174201 0 -0.19725831328598789 -0.38308265577551481 0 -0.2123526336361162 -0.39935672291129859 0 -0.21650158932078131 -0.38025414339718899 0 -0.19767672386055371 -0.43573229091467619 0 -0.1983141060141165 -0.42548355383860248 0 -0.20605001365878381 -0.43097216445049041 0 -0.19767672386055371 -0.43573229091467619 0 -0.18869252968221531 -0.43157192333605737 0 -0.1983141060141165 -0.42548355383860248 0 -0.18688322382571421 -0.43986627843166892 0 -0.19767672386055371 -0.43573229091467619 0 -0.18869252968221531 -0.43157192333605737 0 -0.18869252968221531 -0.43157192333605737 0 -0.18994168199323719 -0.42277072049553838 0 -0.1983141060141165 -0.42548355383860248 0 -0.1983141060141165 -0.42548355383860248 0 -0.19499737578733689 -0.41559087710470149 0 -0.20912536269399071 -0.41709256535521388 0 -0.18536882681276531 -0.41529317951474998 0 -0.18994168199323719 -0.42277072049553838 0 -0.19499737578733689 -0.41559087710470149 0 -0.18994168199323719 -0.42277072049553838 0 -0.1983141060141165 -0.42548355383860248 0 -0.19499737578733689 -0.41559087710470149 0 -0.18536882681276531 -0.41529317951474998 0 -0.19499737578733689 -0.41559087710470149 0 -0.1923851856351623 -0.4072418103365214 0 -0.19499737578733689 -0.41559087710470149 0 -0.20096536963236911 -0.40740494361103791 0 -0.20912536269399071 -0.41709256535521388 0 -0.19499737578733689 -0.41559087710470149 0 -0.1923851856351623 -0.4072418103365214 0 -0.20096536963236911 -0.40740494361103791 0 -0.2123526336361162 -0.39935672291129859 0 -0.20912536269399071 -0.41709256535521388 0 -0.22591250159935131 -0.41209641685528342 0 -0.20912536269399071 -0.41709256535521388 0 -0.21836881630969451 -0.43021604752807152 0 -0.22591250159935131 -0.41209641685528342 0 -0.2123526336361162 -0.39935672291129859 0 -0.20096536963236911 -0.40740494361103791 0 -0.20912536269399071 -0.41709256535521388 0 -0.2067650594155637 -0.44633636461588772 0 -0.21836881630969451 -0.43021604752807152 0 -0.20605001365878381 -0.43097216445049041 0 -0.1983141060141165 -0.42548355383860248 0 -0.20912536269399071 -0.41709256535521388 0 -0.20605001365878381 -0.43097216445049041 0 -0.20912536269399071 -0.41709256535521388 0 -0.21836881630969451 -0.43021604752807152 0 -0.20605001365878381 -0.43097216445049041 0 -0.21836881630969451 -0.43021604752807152 0 -0.23270584624616819 -0.42730533856508091 0 -0.22591250159935131 -0.41209641685528342 0 -0.22623700788273901 -0.45001322027868212 0 -0.21836881630969451 -0.43021604752807152 0 -0.23270584624616819 -0.42730533856508091 0 -0.23270584624616819 -0.42730533856508091 0 -0.22591250159935131 -0.41209641685528342 0 -0.24073226586106369 -0.41226816064641059 0 -0.24593207326981181 -0.43856636601434817 0 -0.24073226586106369 -0.41226816064641059 0 -0.24593207326981181 -0.43856636601434817 0 -0.23270584624616819 -0.42730533856508091 0 -0.24073226586106369 -0.41226816064641059 0 -0.21650158932078131 -0.38025414339718899 0 -0.2355324584523161 -0.38596995527847289 0 -0.2311206939352082 -0.36365730402322027 0 -0.2123526336361162 -0.39935672291129859 0 -0.21650158932078131 -0.38025414339718899 0 -0.2355324584523161 -0.38596995527847289 0 -0.22591250159935131 -0.41209641685528342 0 -0.24073226586106369 -0.41226816064641059 0 -0.2355324584523161 -0.38596995527847289 0 -0.2123526336361162 -0.39935672291129859 0 -0.22591250159935131 -0.41209641685528342 0 -0.2355324584523161 -0.38596995527847289 0 -0.22591250159935131 -0.41209641685528342 0 -0.2355324584523161 -0.38596995527847289 0 -0.24073226586106369 -0.41226816064641059 0 -0.2483850395406228 -0.39677103774543709 0 -0.2355324584523161 -0.38596995527847289 0 -0.24073226586106369 -0.41226816064641059 0 -0.2355324584523161 -0.38596995527847289 0 -0.25381845132695718 -0.40570678155870032 0 -0.24073226586106369 -0.41226816064641059 0 -0.2483850395406228 -0.39677103774543709 0 -0.25799796589382717 -0.37580106798200941 0 -0.2483850395406228 -0.39677103774543709 0 -0.2355324584523161 -0.38596995527847289 0 -0.2355324584523161 -0.38596995527847289 0 -0.2440942507316548 -0.3627173211519682 0 -0.2311206939352082 -0.36365730402322027 0 -0.2355324584523161 -0.38596995527847289 0 -0.2440942507316548 -0.3627173211519682 0 -0.25799796589382717 -0.37580106798200941 0 -0.2355324584523161 -0.38596995527847289 0 -0.2440942507316548 -0.3627173211519682 0 -0.2355324584523161 -0.38596995527847289 0 -0.2311206939352082 -0.36365730402322027 0 -0.21650158932078131 -0.38025414339718899 0 -0.2311206939352082 -0.36365730402322027 0 -0.21198362135204529 -0.36221365427174201 0 -0.2311206939352082 -0.36365730402322027 0 -0.226708929418101 -0.34134465276796783 0 -0.2311206939352082 -0.36365730402322027 0 -0.226708929418101 -0.34134465276796783 0 -0.21198362135204529 -0.36221365427174201 0 -0.2311206939352082 -0.36365730402322027 0 -0.2387962610664319 -0.34906583993236878 0 -0.226708929418101 -0.34134465276796783 0 -0.226708929418101 -0.34134465276796783 0 -0.21198362135204529 -0.36221365427174201 0 -0.2526560430109932 -0.33946468702546317 0 -0.2440942507316548 -0.3627173211519682 0 -0.2526560430109932 -0.33946468702546317 0 -0.2440942507316548 -0.3627173211519682 0 -0.2387962610664319 -0.34906583993236878 0 -0.2440942507316548 -0.3627173211519682 0 -0.2311206939352082 -0.36365730402322027 0 -0.2387962610664319 -0.34906583993236878 0 -0.2526560430109932 -0.33946468702546317 0 -0.2387962610664319 -0.34906583993236878 0 -0.239401388236202 -0.33814523469322438 0 -0.239401388236202 -0.33814523469322438 0 -0.23816092609735329 -0.32511465371813858 0 -0.226708929418101 -0.34134465276796783 0 -0.25369446209554852 -0.32391991884343901 0 -0.239401388236202 -0.33814523469322438 0 -0.23816092609735329 -0.32511465371813858 0 -0.2526560430109932 -0.33946468702546317 0 -0.25369446209554852 -0.32391991884343901 0 -0.239401388236202 -0.33814523469322438 0 -0.2387962610664319 -0.34906583993236878 0 -0.239401388236202 -0.33814523469322438 0 -0.226708929418101 -0.34134465276796783 0 -0.23816092609735329 -0.32511465371813858 0 -0.24008677595869629 -0.31123809350909248 0 -0.23170028542827789 -0.30745465263148652 0 -0.23816092609735329 -0.32511465371813858 0 -0.24961292277660421 -0.30888465466830839 0 -0.23816092609735329 -0.32511465371813858 0 -0.24961292277660421 -0.30888465466830839 0 -0.24008677595869629 -0.31123809350909248 0 -0.25369446209554852 -0.32391991884343901 0 -0.23816092609735329 -0.32511465371813858 0 -0.24961292277660421 -0.30888465466830839 0 -0.23816092609735329 -0.32511465371813858 0 -0.22190682906741879 -0.31705786456746321 0 -0.226708929418101 -0.34134465276796783 0 -0.23816092609735329 -0.32511465371813858 0 -0.22190682906741879 -0.31705786456746321 0 -0.23170028542827789 -0.30745465263148652 0 -0.22190682906741879 -0.31705786456746321 0 -0.226708929418101 -0.34134465276796783 0 -0.20779016000858611 -0.32952983220594018 0 -0.22190682906741879 -0.31705786456746321 0 -0.226708929418101 -0.34134465276796783 0 -0.23816092609735329 -0.32511465371813858 0 -0.226708929418101 -0.34134465276796783 0 -0.226708929418101 -0.34134465276796783 0 -0.20779016000858611 -0.32952983220594018 0 -0.2079422223924613 -0.34500469081357649 0 -0.20779016000858611 -0.32952983220594018 0 -0.19631397311823551 -0.34073754469885698 0 -0.2079422223924613 -0.34500469081357649 0 -0.22190682906741879 -0.31705786456746321 0 -0.20779016000858611 -0.32952983220594018 0 -0.20893244203842459 -0.31377494782851412 0 -0.20779016000858611 -0.32952983220594018 0 -0.20893244203842459 -0.31377494782851412 0 -0.19885890759314651 -0.31972722297849038 0 -0.20893244203842459 -0.31377494782851412 0 -0.19885890759314651 -0.31972722297849038 0 -0.1980674361735229 -0.30643090183365801 0 -0.20779016000858611 -0.32952983220594018 0 -0.19885890759314651 -0.31972722297849038 0 -0.19251100860520581 -0.32972265176546062 0 -0.19885890759314651 -0.31972722297849038 0 -0.19251100860520581 -0.32972265176546062 0 -0.18652641682363699 -0.3174988606638488 0 -0.19885890759314651 -0.31972722297849038 0 -0.1980674361735229 -0.30643090183365801 0 -0.18652641682363699 -0.3174988606638488 0 -0.20779016000858611 -0.32952983220594018 0 -0.19631397311823551 -0.34073754469885698 0 -0.19251100860520581 -0.32972265176546062 0 -0.19631397311823551 -0.34073754469885698 0 -0.18803299890046479 -0.34949396446895092 0 -0.18451804220975571 -0.33885855651754287 0 -0.19631397311823551 -0.34073754469885698 0 -0.19251100860520581 -0.32972265176546062 0 -0.18451804220975571 -0.33885855651754287 0 -0.19631397311823551 -0.34073754469885698 0 -0.18803299890046479 -0.34949396446895092 0 -0.19905190516589219 -0.351846267704088 0 -0.19905190516589219 -0.351846267704088 0 -0.1949117072121595 -0.36184287483214678 0 -0.21198362135204529 -0.36221365427174201 0 -0.19631397311823551 -0.34073754469885698 0 -0.19905190516589219 -0.351846267704088 0 -0.2079422223924613 -0.34500469081357649 0 -0.18803299890046479 -0.34949396446895092 0 -0.1949117072121595 -0.36184287483214678 0 -0.18429943246876171 -0.35583650861236438 0 -0.18803299890046479 -0.34949396446895092 0 -0.19905190516589219 -0.351846267704088 0 -0.1949117072121595 -0.36184287483214678 0 -0.19725831328598789 -0.38308265577551481 0 -0.1949117072121595 -0.36184287483214678 0 -0.21198362135204529 -0.36221365427174201 0 -0.19725831328598789 -0.38308265577551481 0 -0.17969723600850701 -0.3641490341243776 0 -0.19725831328598789 -0.38308265577551481 0 -0.1949117072121595 -0.36184287483214678 0 -0.17969723600850701 -0.3641490341243776 0 -0.19725831328598789 -0.38308265577551481 0 -0.21198362135204529 -0.36221365427174201 0 -0.226708929418101 -0.34134465276796783 0 -0.21198362135204529 -0.36221365427174201 0 -0.2079422223924613 -0.34500469081357649 0 -0.19905190516589219 -0.351846267704088 0 -0.21198362135204529 -0.36221365427174201 0 -0.2079422223924613 -0.34500469081357649 0 -0.22213085402192559 -0.26193513398369161 0 -0.21588868556076199 -0.24385107089599919 0 -0.22213085402192559 -0.26193513398369161 0 -0.22986248486316421 -0.25346112034917878 0 -0.21588868556076199 -0.24385107089599919 0 -0.22213085402192559 -0.26193513398369161 0 -0.21636264336652611 -0.25972384706011292 0 -0.22213085402192559 -0.26193513398369161 0 -0.22327400621076229 -0.2688117771235855 0 -0.2181643797777974 -0.26407587195304982 0 -0.22213085402192559 -0.26193513398369161 0 -0.2181643797777974 -0.26407587195304982 0 -0.21636264336652611 -0.25972384706011292 0 -0.22213085402192559 -0.26193513398369161 0 -0.22986248486316421 -0.25346112034917878 0 -0.23368330199115839 -0.26636385177086058 0 -0.22213085402192559 -0.26193513398369161 0 -0.23368330199115839 -0.26636385177086058 0 -0.22986248486316421 -0.25346112034917878 0 -0.23368330199115839 -0.26636385177086058 0 -0.22986248486316421 -0.25346112034917878 0 -0.2418545889394263 -0.26170832003528799 0 -0.22986248486316421 -0.25346112034917878 0 -0.24365410585685729 -0.25271518056377179 0 -0.2418545889394263 -0.26170832003528799 0 -0.22986248486316421 -0.25346112034917878 0 -0.24365410585685729 -0.25271518056377179 0 -0.2397414864642112 -0.24651558165772669 0 -0.24365410585685729 -0.25271518056377179 0 -0.24732520214061929 -0.25772363101875601 0 -0.2418545889394263 -0.26170832003528799 0 -0.24365410585685729 -0.25271518056377179 0 -0.24732520214061929 -0.25772363101875601 0 -0.24962427814893129 -0.249267442217251 0 -0.25142328947476522 -0.26295063516029488 0 -0.24732520214061929 -0.25772363101875601 0 -0.2418545889394263 -0.26170832003528799 0 -0.22986248486316421 -0.25346112034917878 0 -0.2418545889394263 -0.26170832003528799 0 -0.23368330199115839 -0.26636385177086058 0 -0.23368330199115839 -0.26636385177086058 0 -0.23851572438307439 -0.28268272968368829 0 -0.25287321277439723 -0.27372044835076298 0 -0.2418545889394263 -0.26170832003528799 0 -0.23368330199115839 -0.26636385177086058 0 -0.25287321277439723 -0.27372044835076298 0 -0.23368330199115839 -0.26636385177086058 0 -0.25287321277439723 -0.27372044835076298 0 -0.23368330199115839 -0.26636385177086058 0 -0.23851572438307439 -0.28268272968368829 0 -0.25287321277439723 -0.27372044835076298 0 -0.25142328947476522 -0.26295063516029488 0 -0.2418545889394263 -0.26170832003528799 0 -0.23368330199115839 -0.26636385177086058 0 -0.2263969395688312 -0.27869271695990899 0 -0.23851572438307439 -0.28268272968368829 0 -0.23368330199115839 -0.26636385177086058 0 -0.22327400621076229 -0.2688117771235855 0 -0.2263969395688312 -0.27869271695990899 0 -0.22327400621076229 -0.2688117771235855 0 -0.2263969395688312 -0.27869271695990899 0 -0.21230262836605501 -0.26848428816645392 0 -0.22213085402192559 -0.26193513398369161 0 -0.23368330199115839 -0.26636385177086058 0 -0.22327400621076229 -0.2688117771235855 0 -0.2263969395688312 -0.27869271695990899 0 -0.2329123755027418 -0.29510395987896682 0 -0.23851572438307439 -0.28268272968368829 0 -0.2263969395688312 -0.27869271695990899 0 -0.2329123755027418 -0.29510395987896682 0 -0.21710472871673689 -0.29277107636695848 0 -0.25417160140005551 -0.28864457351590012 0 -0.25080396598643939 -0.29595923645909822 0 -0.23851572438307439 -0.28268272968368829 0 -0.25080396598643939 -0.29595923645909822 0 -0.23851572438307439 -0.28268272968368829 0 -0.243348146774989 -0.29900160759651628 0 -0.23851572438307439 -0.28268272968368829 0 -0.243348146774989 -0.29900160759651628 0 -0.2329123755027418 -0.29510395987896682 0 -0.23851572438307439 -0.28268272968368829 0 -0.243348146774989 -0.29900160759651628 0 -0.25417160140005551 -0.28864457351590012 0 -0.25287321277439723 -0.27372044835076298 0 -0.23851572438307439 -0.28268272968368829 0 -0.2329123755027418 -0.29510395987896682 0 -0.23862525671700421 -0.30334869229807149 0 -0.243348146774989 -0.29900160759651628 0 -0.2329123755027418 -0.29510395987896682 0 -0.23862525671700421 -0.30334869229807149 0 -0.23170028542827789 -0.30745465263148652 0 -0.23862525671700421 -0.30334869229807149 0 -0.243348146774989 -0.29900160759651628 0 -0.2471461391624904 -0.30215923705505032 0 -0.25080396598643939 -0.29595923645909822 0 -0.243348146774989 -0.29900160759651628 0 -0.2471461391624904 -0.30215923705505032 0 -0.23862525671700421 -0.30334869229807149 0 -0.24961292277660421 -0.30888465466830839 0 -0.23862525671700421 -0.30334869229807149 0 -0.24961292277660421 -0.30888465466830839 0 -0.24008677595869629 -0.31123809350909248 0 -0.23862525671700421 -0.30334869229807149 0 -0.2471461391624904 -0.30215923705505032 0 -0.24961292277660421 -0.30888465466830839 0 -0.23862525671700421 -0.30334869229807149 0 -0.24008677595869629 -0.31123809350909248 0 -0.23170028542827789 -0.30745465263148652 0 -0.22190682906741879 -0.31705786456746321 0 -0.21710472871673689 -0.29277107636695848 0 -0.2329123755027418 -0.29510395987896682 0 -0.23170028542827789 -0.30745465263148652 0 -0.21710472871673689 -0.29277107636695848 0 -0.22190682906741879 -0.31705786456746321 0 -0.23170028542827789 -0.30745465263148652 0 -0.21710472871673689 -0.29277107636695848 0 -0.20893244203842459 -0.31377494782851412 0 -0.1980674361735229 -0.30643090183365801 0 -0.21710472871673689 -0.29277107636695848 0 -0.22190682906741879 -0.31705786456746321 0 -0.20893244203842459 -0.31377494782851412 0 -0.21710472871673689 -0.29277107636695848 0 -0.1980674361735229 -0.30643090183365801 0 -0.19952085048696369 -0.29069074863582489 0 -0.18752559525942131 -0.29439512046333188 0 -0.1980674361735229 -0.30643090183365801 0 -0.1860411713637504 -0.30585758867999813 0 -0.18652641682363699 -0.3174988606638488 0 -0.1980674361735229 -0.30643090183365801 0 -0.18752559525942131 -0.29439512046333188 0 -0.1860411713637504 -0.30585758867999813 0 -0.19952085048696369 -0.29069074863582489 0 -0.18752559525942131 -0.29439512046333188 0 -0.19109528116756891 -0.28137828013613908 0 -0.19952085048696369 -0.29069074863582489 0 -0.19109528116756891 -0.28137828013613908 0 -0.20381121111756839 -0.27847836437903711 0 -0.19952085048696369 -0.29069074863582489 0 -0.21710472871673689 -0.29277107636695848 0 -0.20381121111756839 -0.27847836437903711 0 -0.1980674361735229 -0.30643090183365801 0 -0.19952085048696369 -0.29069074863582489 0 -0.21710472871673689 -0.29277107636695848 0 -0.2263969395688312 -0.27869271695990899 0 -0.21710472871673689 -0.29277107636695848 0 -0.21230262836605501 -0.26848428816645392 0 -0.21710472871673689 -0.29277107636695848 0 -0.21230262836605501 -0.26848428816645392 0 -0.21710472871673689 -0.29277107636695848 0 -0.21230262836605501 -0.26848428816645392 0 -0.20381121111756839 -0.27847836437903711 0 -0.22327400621076229 -0.2688117771235855 0 -0.21230262836605501 -0.26848428816645392 0 -0.2181643797777974 -0.26407587195304982 0 -0.21230262836605501 -0.26848428816645392 0 -0.20508461512495421 -0.26799458234579049 0 -0.20381121111756839 -0.27847836437903711 0 -0.21230262836605501 -0.26848428816645392 0 -0.20508461512495421 -0.26799458234579049 0 -0.21271211070318191 -0.26335303734083437 0 -0.19109528116756891 -0.28137828013613908 0 -0.20381121111756839 -0.27847836437903711 0 -0.19685767793420181 -0.26696861138753669 0 -0.19109528116756891 -0.28137828013613908 0 -0.19685767793420181 -0.26696861138753669 0 -0.18458928599434149 -0.27224563950889807 0 -0.20508461512495421 -0.26799458234579049 0 -0.20381121111756839 -0.27847836437903711 0 -0.19685767793420181 -0.26696861138753669 0 -0.19685767793420181 -0.26696861138753669 0 -0.1955574188947195 -0.25150403585599412 0 -0.20745460676017191 -0.26091645399822111 0 -0.19685767793420181 -0.26696861138753669 0 -0.1955574188947195 -0.25150403585599412 0 -0.17742027820487319 -0.26066594327904569 0 -0.1955574188947195 -0.25150403585599412 0 -0.20979158283334889 -0.25166750724865389 0 -0.20745460676017191 -0.26091645399822111 0 -0.22213085402192559 -0.26193513398369161 0 -0.21636264336652611 -0.25972384706011292 0 -0.21588868556076199 -0.24385107089599919 0 -0.20979158283334889 -0.25166750724865389 0 -0.21636264336652611 -0.25972384706011292 0 -0.21588868556076199 -0.24385107089599919 0 -0.20508461512495421 -0.26799458234579049 0 -0.19685767793420181 -0.26696861138753669 0 -0.20745460676017191 -0.26091645399822111 0 -0.20508461512495421 -0.26799458234579049 0 -0.20745460676017191 -0.26091645399822111 0 -0.21271211070318191 -0.26335303734083437 0 -0.20745460676017191 -0.26091645399822111 0 -0.21271211070318191 -0.26335303734083437 0 -0.21636264336652611 -0.25972384706011292 0 -0.21230262836605501 -0.26848428816645392 0 -0.21271211070318191 -0.26335303734083437 0 -0.2181643797777974 -0.26407587195304982 0 -0.21271211070318191 -0.26335303734083437 0 -0.2181643797777974 -0.26407587195304982 0 -0.21636264336652611 -0.25972384706011292 0 -0.20979158283334889 -0.25166750724865389 0 -0.20745460676017191 -0.26091645399822111 0 -0.21636264336652611 -0.25972384706011292 0 -0.17742027820487319 -0.26066594327904569 0 -0.15928313751502701 -0.26982785070209742 0 -0.17742027820487319 -0.26066594327904569 0 -0.15574900656767399 -0.25088930115713548 0 -0.17666510664643789 -0.24498908886430759 0 -0.17742027820487319 -0.26066594327904569 0 -0.15928313751502701 -0.26982785070209742 0 -0.15574900656767399 -0.25088930115713548 0 -0.1955574188947195 -0.25150403585599412 0 -0.17742027820487319 -0.26066594327904569 0 -0.17666510664643789 -0.24498908886430759 0 -0.1955574188947195 -0.25150403585599412 0 -0.17742027820487319 -0.26066594327904569 0 -0.19109528116756891 -0.28137828013613908 0 -0.18458928599434149 -0.27224563950889807 0 -0.17240478923424549 -0.28265991626114151 0 -0.17742027820487319 -0.26066594327904569 0 -0.18458928599434149 -0.27224563950889807 0 -0.17240478923424549 -0.28265991626114151 0 -0.19685767793420181 -0.26696861138753669 0 -0.17742027820487319 -0.26066594327904569 0 -0.18458928599434149 -0.27224563950889807 0 -0.17742027820487319 -0.26066594327904569 0 -0.15928313751502701 -0.26982785070209742 0 -0.17240478923424549 -0.28265991626114151 0 -0.15928313751502701 -0.26982785070209742 0 -0.17240478923424549 -0.28265991626114151 0 -0.1516229873611927 -0.27858892562180509 0 -0.17240478923424549 -0.28265991626114151 0 -0.17564652210804019 -0.30080358444860927 0 -0.16265120035035599 -0.30042923072353372 0 -0.17240478923424549 -0.28265991626114151 0 -0.16265120035035599 -0.30042923072353372 0 -0.1546208614672489 -0.29040374949457498 0 -0.17240478923424549 -0.28265991626114151 0 -0.1546208614672489 -0.29040374949457498 0 -0.1516229873611927 -0.27858892562180509 0 -0.18752559525942131 -0.29439512046333188 0 -0.19109528116756891 -0.28137828013613908 0 -0.17240478923424549 -0.28265991626114151 0 -0.18752559525942131 -0.29439512046333188 0 -0.17240478923424549 -0.28265991626114151 0 -0.17564652210804019 -0.30080358444860927 0 -0.18752559525942131 -0.29439512046333188 0 -0.17564652210804019 -0.30080358444860927 0 -0.1860411713637504 -0.30585758867999813 0 -0.17564652210804019 -0.30080358444860927 0 -0.1860411713637504 -0.30585758867999813 0 -0.17096826438893839 -0.31637425003199088 0 -0.17564652210804019 -0.30080358444860927 0 -0.16265120035035599 -0.30042923072353372 0 -0.17096826438893839 -0.31637425003199088 0 -0.16265120035035599 -0.30042923072353372 0 -0.15562016476114679 -0.31051674053100697 0 -0.17096826438893839 -0.31637425003199088 0 -0.16265120035035599 -0.30042923072353372 0 -0.14664660014251599 -0.30181714357387879 0 -0.1546208614672489 -0.29040374949457498 0 -0.16265120035035599 -0.30042923072353372 0 -0.15562016476114679 -0.31051674053100697 0 -0.14664660014251599 -0.30181714357387879 0 -0.15562016476114679 -0.31051674053100697 0 -0.14664660014251599 -0.30181714357387879 0 -0.1435683407151975 -0.3164286612724666 0 -0.14664660014251599 -0.30181714357387879 0 -0.13099392355644121 -0.30367664027166857 0 -0.1435683407151975 -0.3164286612724666 0 -0.14664660014251599 -0.30181714357387879 0 -0.13099392355644121 -0.30367664027166857 0 -0.1424250276466337 -0.2881105703596113 0 -0.13099392355644121 -0.30367664027166857 0 -0.13198023569989131 -0.27855636264241612 0 -0.1159048695342965 -0.28483319257883533 0 -0.13099392355644121 -0.30367664027166857 0 -0.13198023569989131 -0.27855636264241612 0 -0.13099392355644121 -0.30367664027166857 0 -0.1424250276466337 -0.2881105703596113 0 -0.13198023569989131 -0.27855636264241612 0 -0.14664660014251599 -0.30181714357387879 0 -0.1424250276466337 -0.2881105703596113 0 -0.1546208614672489 -0.29040374949457498 0 -0.1424250276466337 -0.2881105703596113 0 -0.1546208614672489 -0.29040374949457498 0 -0.1516229873611927 -0.27858892562180509 0 -0.15928313751502701 -0.26982785070209742 0 -0.1516229873611927 -0.27858892562180509 0 -0.14712430540488669 -0.2628482920456463 0 -0.1516229873611927 -0.27858892562180509 0 -0.1404781565643585 -0.27523824201424818 0 -0.14712430540488669 -0.2628482920456463 0 -0.1424250276466337 -0.2881105703596113 0 -0.1516229873611927 -0.27858892562180509 0 -0.1404781565643585 -0.27523824201424818 0 -0.13198023569989131 -0.27855636264241612 0 -0.132934929276076 -0.25424137489347087 0 -0.1424250276466337 -0.2881105703596113 0 -0.1404781565643585 -0.27523824201424818 0 -0.13198023569989131 -0.27855636264241612 0 -0.1404781565643585 -0.27523824201424818 0 -0.13198023569989131 -0.27855636264241612 0 -0.1404781565643585 -0.27523824201424818 0 -0.13198023569989131 -0.27855636264241612 0 -0.132934929276076 -0.25424137489347087 0 -0.1404781565643585 -0.27523824201424818 0 -0.132934929276076 -0.25424137489347087 0 -0.14712430540488669 -0.2628482920456463 0 -0.13198023569989131 -0.27855636264241612 0 -0.132934929276076 -0.25424137489347087 0 -0.1177478821021377 -0.26249760784366838 0 -0.132934929276076 -0.25424137489347087 0 -0.14712430540488669 -0.2628482920456463 0 -0.15574900656767399 -0.25088930115713548 0 -0.15928313751502701 -0.26982785070209742 0 -0.14712430540488669 -0.2628482920456463 0 -0.15574900656767399 -0.25088930115713548 0 -0.1621361587310268 -0.34521541247323961 0 -0.1667270532952346 -0.36642672610720578 0 -0.17969723600850701 -0.3641490341243776 0 -0.1621361587310268 -0.34521541247323961 0 -0.15887147207408051 -0.35590241508444792 0 -0.1667270532952346 -0.36642672610720578 0 -0.1621361587310268 -0.34521541247323961 0 -0.17969723600850701 -0.3641490341243776 0 -0.1621361587310268 -0.34521541247323961 0 -0.1667270532952346 -0.36642672610720578 0 -0.1621361587310268 -0.34521541247323961 0 -0.17455578775391559 -0.34786016102398221 0 -0.1694236585335637 -0.34184149103757328 0 -0.1621361587310268 -0.34521541247323961 0 -0.15796661323017969 -0.34979707817834971 0 -0.15887147207408051 -0.35590241508444792 0 -0.1621361587310268 -0.34521541247323961 0 -0.15796661323017969 -0.34979707817834971 0 -0.15547361729827491 -0.34609322862277753 0 -0.1621361587310268 -0.34521541247323961 0 -0.15578127135224931 -0.34111844581315343 0 -0.15547361729827491 -0.34609322862277753 0 -0.15796661323017969 -0.34979707817834971 0 -0.15887147207408051 -0.35590241508444792 0 -0.15458549865421661 -0.3513795090345227 0 -0.1572845753745867 -0.3702469702046961 0 -0.1667270532952346 -0.36642672610720578 0 -0.15514138661661081 -0.36260953239490179 0 -0.15887147207408051 -0.35590241508444792 0 -0.1667270532952346 -0.36642672610720578 0 -0.15514138661661081 -0.36260953239490179 0 -0.16265291029837989 -0.37673207977072037 0 -0.1572845753745867 -0.3702469702046961 0 -0.1667270532952346 -0.36642672610720578 0 -0.1541125811890855 -0.37614695852486463 0 -0.16265291029837989 -0.37673207977072037 0 -0.1572845753745867 -0.3702469702046961 0 -0.17549827427177839 -0.37584047805472792 0 -0.1667270532952346 -0.36642672610720578 0 -0.17969723600850701 -0.3641490341243776 0 -0.1949117072121595 -0.36184287483214678 0 -0.17969723600850701 -0.3641490341243776 0 -0.18429943246876171 -0.35583650861236438 0 -0.17969723600850701 -0.3641490341243776 0 -0.18429943246876171 -0.35583650861236438 0 -0.17455578775391559 -0.34786016102398221 0 -0.1621361587310268 -0.34521541247323961 0 -0.17969723600850701 -0.3641490341243776 0 -0.17455578775391559 -0.34786016102398221 0 -0.18803299890046479 -0.34949396446895092 0 -0.17455578775391559 -0.34786016102398221 0 -0.18451804220975571 -0.33885855651754287 0 -0.18803299890046479 -0.34949396446895092 0 -0.18429943246876171 -0.35583650861236438 0 -0.17455578775391559 -0.34786016102398221 0 -0.19251100860520581 -0.32972265176546062 0 -0.18451804220975571 -0.33885855651754287 0 -0.17945721572018761 -0.3279710712415046 0 -0.18451804220975571 -0.33885855651754287 0 -0.17429192662531659 -0.33711506791355789 0 -0.17945721572018761 -0.3279710712415046 0 -0.17429192662531659 -0.33711506791355789 0 -0.17945721572018761 -0.3279710712415046 0 -0.1679276356682726 -0.32825704055662691 0 -0.17455578775391559 -0.34786016102398221 0 -0.18451804220975571 -0.33885855651754287 0 -0.17429192662531659 -0.33711506791355789 0 -0.17455578775391559 -0.34786016102398221 0 -0.17429192662531659 -0.33711506791355789 0 -0.1694236585335637 -0.34184149103757328 0 -0.1860411713637504 -0.30585758867999813 0 -0.18652641682363699 -0.3174988606638488 0 -0.17096826438893839 -0.31637425003199088 0 -0.19251100860520581 -0.32972265176546062 0 -0.18652641682363699 -0.3174988606638488 0 -0.17945721572018761 -0.3279710712415046 0 -0.18652641682363699 -0.3174988606638488 0 -0.17945721572018761 -0.3279710712415046 0 -0.17096826438893839 -0.31637425003199088 0 -0.17945721572018761 -0.3279710712415046 0 -0.17096826438893839 -0.31637425003199088 0 -0.1679276356682726 -0.32825704055662691 0 -0.17096826438893839 -0.31637425003199088 0 -0.1679276356682726 -0.32825704055662691 0 -0.1558172779156248 -0.32353211747081922 0 -0.1679276356682726 -0.32825704055662691 0 -0.15922097822777859 -0.331746401784968 0 -0.1558172779156248 -0.32353211747081922 0 -0.15562016476114679 -0.31051674053100697 0 -0.17096826438893839 -0.31637425003199088 0 -0.1558172779156248 -0.32353211747081922 0 -0.1621361587310268 -0.34521541247323961 0 -0.16671076102399579 -0.33717532273951328 0 -0.1694236585335637 -0.34184149103757328 0 -0.17429192662531659 -0.33711506791355789 0 -0.16671076102399579 -0.33717532273951328 0 -0.1694236585335637 -0.34184149103757328 0 -0.16671076102399579 -0.33717532273951328 0 -0.1679276356682726 -0.32825704055662691 0 -0.15922097822777859 -0.331746401784968 0 -0.17429192662531659 -0.33711506791355789 0 -0.16671076102399579 -0.33717532273951328 0 -0.1679276356682726 -0.32825704055662691 0 -0.1621361587310268 -0.34521541247323961 0 -0.16671076102399579 -0.33717532273951328 0 -0.15922097822777859 -0.331746401784968 0 -0.1621361587310268 -0.34521541247323961 0 -0.15922097822777859 -0.331746401784968 0 -0.1621361587310268 -0.34521541247323961 0 -0.15922097822777859 -0.331746401784968 0 -0.15595321510555399 -0.33854922033449669 0 -0.1621361587310268 -0.34521541247323961 0 -0.15578127135224931 -0.34111844581315343 0 -0.15595321510555399 -0.33854922033449669 0 -0.1621361587310268 -0.34521541247323961 0 -0.15595321510555399 -0.33854922033449669 0 -0.15578127135224931 -0.34111844581315343 0 -0.1529171235935822 -0.33789026118577181 0 -0.14762815925373221 -0.33928243770807948 0 -0.15578127135224931 -0.34111844581315343 0 -0.14762815925373221 -0.33928243770807948 0 -0.13964495779747621 -0.34175481655480078 0 -0.15578127135224931 -0.34111844581315343 0 -0.15274537535572749 -0.34373000088996741 0 -0.15547361729827491 -0.34609322862277753 0 -0.1529171235935822 -0.33789026118577181 0 -0.152376268265837 -0.33312668589006672 0 -0.14762815925373221 -0.33928243770807948 0 -0.1529171235935822 -0.33789026118577181 0 -0.15595321510555399 -0.33854922033449669 0 -0.152376268265837 -0.33312668589006672 0 -0.15578127135224931 -0.34111844581315343 0 -0.1529171235935822 -0.33789026118577181 0 -0.15595321510555399 -0.33854922033449669 0 -0.15922097822777859 -0.331746401784968 0 -0.15595321510555399 -0.33854922033449669 0 -0.152376268265837 -0.33312668589006672 0 -0.15922097822777859 -0.331746401784968 0 -0.152376268265837 -0.33312668589006672 0 -0.1558172779156248 -0.32353211747081922 0 -0.152376268265837 -0.33312668589006672 0 -0.1441170654143116 -0.32985004934742929 0 -0.1558172779156248 -0.32353211747081922 0 -0.152376268265837 -0.33312668589006672 0 -0.1441170654143116 -0.32985004934742929 0 -0.14762815925373221 -0.33928243770807948 0 -0.1441170654143116 -0.32985004934742929 0 -0.14762815925373221 -0.33928243770807948 0 -0.13964495779747621 -0.34175481655480078 0 -0.15562016476114679 -0.31051674053100697 0 -0.1558172779156248 -0.32353211747081922 0 -0.1435683407151975 -0.3164286612724666 0 -0.1441170654143116 -0.32985004934742929 0 -0.1558172779156248 -0.32353211747081922 0 -0.1435683407151975 -0.3164286612724666 0 -0.13099392355644121 -0.30367664027166857 0 -0.13000761141299119 -0.32879691790092103 0 -0.1190051583195855 -0.31292309157300169 0 -0.13099392355644121 -0.30367664027166857 0 -0.1435683407151975 -0.3164286612724666 0 -0.13000761141299119 -0.32879691790092103 0 -0.13099392355644121 -0.30367664027166857 0 -0.13000761141299119 -0.32879691790092103 0 -0.1441170654143116 -0.32985004934742929 0 -0.1435683407151975 -0.3164286612724666 0 -0.13000761141299119 -0.32879691790092103 0 -0.13964495779747621 -0.34175481655480078 0 -0.13000761141299119 -0.32879691790092103 0 -0.12902129926954051 -0.35391719553017342 0 -0.13000761141299119 -0.32879691790092103 0 -0.12902129926954051 -0.35391719553017342 0 -0.1224934279712397 -0.34298238217264698 0 -0.13000761141299119 -0.32879691790092103 0 -0.12902129926954051 -0.35391719553017342 0 -0.1441170654143116 -0.32985004934742929 0 -0.13964495779747621 -0.34175481655480078 0 -0.13000761141299119 -0.32879691790092103 0 -0.12902129926954051 -0.35391719553017342 0 -0.12972527330292219 -0.35576029710962881 0 -0.12610854449418191 -0.35987770875781339 0 -0.13114813769202449 -0.35504649195112492 0 -0.12902129926954051 -0.35391719553017342 0 -0.13337811204372091 -0.35435131679074611 0 -0.13114813769202449 -0.35504649195112492 0 -0.12902129926954051 -0.35391719553017342 0 -0.12972527330292219 -0.35576029710962881 0 -0.13137210708112931 -0.35726384753010798 0 -0.1319681188915719 -0.36068072735786372 0 -0.12610854449418191 -0.35987770875781339 0 -0.12972527330292219 -0.35576029710962881 0 -0.13137210708112931 -0.35726384753010798 0 -0.12610854449418191 -0.35987770875781339 0 -0.13114813769202449 -0.35504649195112492 0 -0.12972527330292219 -0.35576029710962881 0 -0.13137210708112931 -0.35726384753010798 0 -0.13114813769202449 -0.35504649195112492 0 -0.13137210708112931 -0.35726384753010798 0 -0.13337811204372091 -0.35435131679074611 0 -0.13137210708112931 -0.35726384753010798 0 -0.1342270525071102 -0.35837792879021302 0 -0.1319681188915719 -0.36068072735786372 0 -0.12902129926954051 -0.35391719553017342 0 -0.13337811204372091 -0.35435131679074611 0 -0.1376657007217415 -0.34978275434696848 0 -0.12902129926954051 -0.35391719553017342 0 -0.1376657007217415 -0.34978275434696848 0 -0.1342270525071102 -0.35837792879021302 0 -0.13771148425206731 -0.35737665512119521 0 -0.13657035363216349 -0.36231032800252938 0 -0.13137210708112931 -0.35726384753010798 0 -0.1352781756889786 -0.35549757337289739 0 -0.13337811204372091 -0.35435131679074611 0 -0.13137210708112931 -0.35726384753010798 0 -0.1342270525071102 -0.35837792879021302 0 -0.1352781756889786 -0.35549757337289739 0 -0.1342270525071102 -0.35837792879021302 0 -0.1352781756889786 -0.35549757337289739 0 -0.13771148425206731 -0.35737665512119521 0 -0.13337811204372091 -0.35435131679074611 0 -0.13537585097698321 -0.35303200901343329 0 -0.1376657007217415 -0.34978275434696848 0 -0.1352781756889786 -0.35549757337289739 0 -0.13537585097698321 -0.35303200901343329 0 -0.13739800160433049 -0.35466724894401352 0 -0.1352781756889786 -0.35549757337289739 0 -0.13337811204372091 -0.35435131679074611 0 -0.13537585097698321 -0.35303200901343329 0 -0.13537585097698321 -0.35303200901343329 0 -0.1376268229556607 -0.35182929785280792 0 -0.13739800160433049 -0.35466724894401352 0 -0.1376268229556607 -0.35182929785280792 0 -0.14001997480939041 -0.35266394350974001 0 -0.1395220644569142 -0.35506142396433321 0 -0.1376268229556607 -0.35182929785280792 0 -0.14001997480939041 -0.35266394350974001 0 -0.13970771913161401 -0.35053004584710568 0 -0.14001997480939041 -0.35266394350974001 0 -0.1395220644569142 -0.35506142396433321 0 -0.1420810346748681 -0.3538283589040121 0 -0.1376268229556607 -0.35182929785280792 0 -0.1395220644569142 -0.35506142396433321 0 -0.13739800160433049 -0.35466724894401352 0 -0.1352781756889786 -0.35549757337289739 0 -0.13739800160433049 -0.35466724894401352 0 -0.13771148425206731 -0.35737665512119521 0 -0.1395220644569142 -0.35506142396433321 0 -0.13739800160433049 -0.35466724894401352 0 -0.13771148425206731 -0.35737665512119521 0 -0.1395220644569142 -0.35506142396433321 0 -0.13771148425206731 -0.35737665512119521 0 -0.14160033967505961 -0.3586644038237784 0 -0.13964495779747621 -0.34175481655480078 0 -0.12902129926954051 -0.35391719553017342 0 -0.1376657007217415 -0.34978275434696848 0 -0.1376268229556607 -0.35182929785280792 0 -0.1376657007217415 -0.34978275434696848 0 -0.13970771913161401 -0.35053004584710568 0 -0.13537585097698321 -0.35303200901343329 0 -0.1376268229556607 -0.35182929785280792 0 -0.1376657007217415 -0.34978275434696848 0 -0.14001997480939041 -0.35266394350974001 0 -0.13970771913161401 -0.35053004584710568 0 -0.14128233062050871 -0.34986552581656682 0 -0.1376657007217415 -0.34978275434696848 0 -0.13970771913161401 -0.35053004584710568 0 -0.14128233062050871 -0.34986552581656682 0 -0.15578127135224931 -0.34111844581315343 0 -0.13964495779747621 -0.34175481655480078 0 -0.1376657007217415 -0.34978275434696848 0 -0.15578127135224931 -0.34111844581315343 0 -0.1376657007217415 -0.34978275434696848 0 -0.1448616908812147 -0.34755388941876009 0 -0.15578127135224931 -0.34111844581315343 0 -0.1376657007217415 -0.34978275434696848 0 -0.1448616908812147 -0.34755388941876009 0 -0.1481863274187849 -0.34936669613735838 0 -0.14905042486474271 -0.34684892566093961 0 -0.1481863274187849 -0.34936669613735838 0 -0.1468230025556326 -0.35159030667526409 0 -0.14992616692153149 -0.35232291935184601 0 -0.1481863274187849 -0.34936669613735838 0 -0.14586159523759459 -0.34965254192947193 0 -0.1468230025556326 -0.35159030667526409 0 -0.1448616908812147 -0.34755388941876009 0 -0.1481863274187849 -0.34936669613735838 0 -0.14586159523759459 -0.34965254192947193 0 -0.1448616908812147 -0.34755388941876009 0 -0.14586159523759459 -0.34965254192947193 0 -0.1443696979686836 -0.34958894224628362 0 -0.14586159523759459 -0.34965254192947193 0 -0.1440154819879671 -0.35150025843575422 0 -0.1443696979686836 -0.34958894224628362 0 -0.14586159523759459 -0.34965254192947193 0 -0.1440154819879671 -0.35150025843575422 0 -0.1468230025556326 -0.35159030667526409 0 -0.1376657007217415 -0.34978275434696848 0 -0.1448616908812147 -0.34755388941876009 0 -0.14128233062050871 -0.34986552581656682 0 -0.14001997480939041 -0.35266394350974001 0 -0.1440154819879671 -0.35150025843575422 0 -0.142740023767958 -0.34964907920114791 0 -0.1440154819879671 -0.35150025843575422 0 -0.142740023767958 -0.34964907920114791 0 -0.1443696979686836 -0.34958894224628362 0 -0.1448616908812147 -0.34755388941876009 0 -0.142740023767958 -0.34964907920114791 0 -0.14128233062050871 -0.34986552581656682 0 -0.1448616908812147 -0.34755388941876009 0 -0.142740023767958 -0.34964907920114791 0 -0.1443696979686836 -0.34958894224628362 0 -0.14001997480939041 -0.35266394350974001 0 -0.142740023767958 -0.34964907920114791 0 -0.14128233062050871 -0.34986552581656682 0 -0.14001997480939041 -0.35266394350974001 0 -0.1440154819879671 -0.35150025843575422 0 -0.1420810346748681 -0.3538283589040121 0 -0.1440154819879671 -0.35150025843575422 0 -0.1420810346748681 -0.3538283589040121 0 -0.14612544121228471 -0.35510911752189001 0 -0.1395220644569142 -0.35506142396433321 0 -0.1420810346748681 -0.3538283589040121 0 -0.14160033967505961 -0.3586644038237784 0 -0.1420810346748681 -0.3538283589040121 0 -0.14160033967505961 -0.3586644038237784 0 -0.14612544121228471 -0.35510911752189001 0 -0.14160033967505961 -0.3586644038237784 0 -0.14612544121228471 -0.35510911752189001 0 -0.1473970005220919 -0.36125123905653062 0 -0.1440154819879671 -0.35150025843575422 0 -0.14612544121228471 -0.35510911752189001 0 -0.1468230025556326 -0.35159030667526409 0 -0.14612544121228471 -0.35510911752189001 0 -0.1468230025556326 -0.35159030667526409 0 -0.14992616692153149 -0.35232291935184601 0 -0.14612544121228471 -0.35510911752189001 0 -0.14992616692153149 -0.35232291935184601 0 -0.15206581441764111 -0.3565432067276183 0 -0.14992616692153149 -0.35232291935184601 0 -0.15206581441764111 -0.3565432067276183 0 -0.15458549865421661 -0.3513795090345227 0 -0.14612544121228471 -0.35510911752189001 0 -0.15206581441764111 -0.3565432067276183 0 -0.1473970005220919 -0.36125123905653062 0 -0.15887147207408051 -0.35590241508444792 0 -0.15206581441764111 -0.3565432067276183 0 -0.15514138661661081 -0.36260953239490179 0 -0.15887147207408051 -0.35590241508444792 0 -0.15206581441764111 -0.3565432067276183 0 -0.15458549865421661 -0.3513795090345227 0 -0.15796661323017969 -0.34979707817834971 0 -0.15458549865421661 -0.3513795090345227 0 -0.15547361729827491 -0.34609322862277753 0 -0.15274537535572749 -0.34373000088996741 0 -0.1448616908812147 -0.34755388941876009 0 -0.14905042486474271 -0.34684892566093961 0 -0.15578127135224931 -0.34111844581315343 0 -0.15274537535572749 -0.34373000088996741 0 -0.1448616908812147 -0.34755388941876009 0 -0.15458549865421661 -0.3513795090345227 0 -0.15547361729827491 -0.34609322862277753 0 -0.15175917181769419 -0.34817837433063242 0 -0.15547361729827491 -0.34609322862277753 0 -0.1515364649904074 -0.34574513411968189 0 -0.15175917181769419 -0.34817837433063242 0 -0.15274537535572749 -0.34373000088996741 0 -0.15547361729827491 -0.34609322862277753 0 -0.1515364649904074 -0.34574513411968189 0 -0.1515364649904074 -0.34574513411968189 0 -0.14905042486474271 -0.34684892566093961 0 -0.15175917181769419 -0.34817837433063242 0 -0.15274537535572749 -0.34373000088996741 0 -0.1515364649904074 -0.34574513411968189 0 -0.14905042486474271 -0.34684892566093961 0 -0.1481863274187849 -0.34936669613735838 0 -0.14905042486474271 -0.34684892566093961 0 -0.15175917181769419 -0.34817837433063242 0 -0.1481863274187849 -0.34936669613735838 0 -0.14992616692153149 -0.35232291935184601 0 -0.15175917181769419 -0.34817837433063242 0 -0.14992616692153149 -0.35232291935184601 0 -0.15458549865421661 -0.3513795090345227 0 -0.15175917181769419 -0.34817837433063242 0 -0.1541125811890855 -0.37614695852486463 0 -0.1572845753745867 -0.3702469702046961 0 -0.1477889454736229 -0.36931955422578783 0 -0.1572845753745867 -0.3702469702046961 0 -0.15514138661661081 -0.36260953239490179 0 -0.1477889454736229 -0.36931955422578783 0 -0.15514138661661081 -0.36260953239490179 0 -0.1473970005220919 -0.36125123905653062 0 -0.1477889454736229 -0.36931955422578783 0 -0.15206581441764111 -0.3565432067276183 0 -0.15514138661661081 -0.36260953239490179 0 -0.1473970005220919 -0.36125123905653062 0 -0.1473970005220919 -0.36125123905653062 0 -0.14204386305691091 -0.36467955401953311 0 -0.1477889454736229 -0.36931955422578783 0 -0.14160033967505961 -0.3586644038237784 0 -0.1473970005220919 -0.36125123905653062 0 -0.14204386305691091 -0.36467955401953311 0 -0.14294847837633951 -0.37726615828070181 0 -0.1477889454736229 -0.36931955422578783 0 -0.13784862147681989 -0.36989818520166051 0 -0.14204386305691091 -0.36467955401953311 0 -0.1477889454736229 -0.36931955422578783 0 -0.13784862147681989 -0.36989818520166051 0 -0.1541125811890855 -0.37614695852486463 0 -0.14294847837633951 -0.37726615828070181 0 -0.1477889454736229 -0.36931955422578783 0 -0.13259445116056631 -0.37838894091975223 0 -0.13784862147681989 -0.36989818520166051 0 -0.13020009083666051 -0.36632516002983551 0 -0.14160033967505961 -0.3586644038237784 0 -0.14204386305691091 -0.36467955401953311 0 -0.13657035363216349 -0.36231032800252938 0 -0.13771148425206731 -0.35737665512119521 0 -0.14160033967505961 -0.3586644038237784 0 -0.13657035363216349 -0.36231032800252938 0 -0.14204386305691091 -0.36467955401953311 0 -0.13784862147681989 -0.36989818520166051 0 -0.13657035363216349 -0.36231032800252938 0 -0.13784862147681989 -0.36989818520166051 0 -0.13657035363216349 -0.36231032800252938 0 -0.13020009083666051 -0.36632516002983551 0 -0.1342270525071102 -0.35837792879021302 0 -0.13657035363216349 -0.36231032800252938 0 -0.1319681188915719 -0.36068072735786372 0 -0.13657035363216349 -0.36231032800252938 0 -0.1319681188915719 -0.36068072735786372 0 -0.13020009083666051 -0.36632516002983551 0 -0.13020009083666051 -0.36632516002983551 0 -0.12610854449418191 -0.35987770875781339 0 -0.1226461809765368 -0.36988971825261441 0 -0.1319681188915719 -0.36068072735786372 0 -0.13020009083666051 -0.36632516002983551 0 -0.12610854449418191 -0.35987770875781339 0 -0.13259445116056631 -0.37838894091975223 0 -0.13020009083666051 -0.36632516002983551 0 -0.1226461809765368 -0.36988971825261441 0 -0.1081794879070465 -0.36388540948994019 0 -0.1189189738047052 -0.38103552782284372 0 -0.1012111920376392 -0.37765999489378638 0 -0.1226461809765368 -0.36988971825261441 0 -0.1081794879070465 -0.36388540948994019 0 -0.1189189738047052 -0.38103552782284372 0 -0.12610854449418191 -0.35987770875781339 0 -0.1226461809765368 -0.36988971825261441 0 -0.1081794879070465 -0.36388540948994019 0 -0.1081794879070465 -0.36388540948994019 0 -0.087337676544553003 -0.37385362344970829 0 -0.1012111920376392 -0.37765999489378638 0 -0.1081794879070465 -0.36388540948994019 0 -0.095303316024341514 -0.35786820884273163 0 -0.087337676544553003 -0.37385362344970829 0 -0.1081794879070465 -0.36388540948994019 0 -0.087337676544553003 -0.37385362344970829 0 -0.099694394704777589 -0.34715528081891278 0 -0.095303316024341514 -0.35786820884273163 0 -0.086480070187833311 -0.34581112914121043 0 -0.099694394704777589 -0.34715528081891278 0 -0.095303316024341514 -0.35786820884273163 0 -0.1065942088213626 -0.35293923270371602 0 -0.1081794879070465 -0.36388540948994019 0 -0.095303316024341514 -0.35786820884273163 0 -0.1065942088213626 -0.35293923270371602 0 -0.099694394704777589 -0.34715528081891278 0 -0.1065942088213626 -0.35293923270371602 0 -0.11182276420213701 -0.34459338402472228 0 -0.12902129926954051 -0.35391719553017342 0 -0.1081794879070465 -0.36388540948994019 0 -0.12902129926954051 -0.35391719553017342 0 -0.1081794879070465 -0.36388540948994019 0 -0.11797108126851021 -0.35119388034227322 0 -0.12902129926954051 -0.35391719553017342 0 -0.12610854449418191 -0.35987770875781339 0 -0.1081794879070465 -0.36388540948994019 0 -0.1065942088213626 -0.35293923270371602 0 -0.11182276420213701 -0.34459338402472228 0 -0.11797108126851021 -0.35119388034227322 0 -0.11182276420213701 -0.34459338402472228 0 -0.11797108126851021 -0.35119388034227322 0 -0.11703748721654619 -0.3435226923868625 0 -0.1081794879070465 -0.36388540948994019 0 -0.1065942088213626 -0.35293923270371602 0 -0.11797108126851021 -0.35119388034227322 0 -0.11797108126851021 -0.35119388034227322 0 -0.1224934279712397 -0.34298238217264698 0 -0.11703748721654619 -0.3435226923868625 0 -0.12902129926954051 -0.35391719553017342 0 -0.11797108126851021 -0.35119388034227322 0 -0.1224934279712397 -0.34298238217264698 0 -0.1224934279712397 -0.34298238217264698 0 -0.11586267542429809 -0.33532112300780759 0 -0.11703748721654619 -0.3435226923868625 0 -0.13000761141299119 -0.32879691790092103 0 -0.1224934279712397 -0.34298238217264698 0 -0.11586267542429809 -0.33532112300780759 0 -0.13000761141299119 -0.32879691790092103 0 -0.11586267542429809 -0.33532112300780759 0 -0.1149226004017536 -0.32242890604509639 0 -0.11182276420213701 -0.34459338402472228 0 -0.11586267542429809 -0.33532112300780759 0 -0.11703748721654619 -0.3435226923868625 0 -0.11182276420213701 -0.34459338402472228 0 -0.11586267542429809 -0.33532112300780759 0 -0.10526102349789659 -0.33605168543744868 0 -0.13000761141299119 -0.32879691790092103 0 -0.1190051583195855 -0.31292309157300169 0 -0.1149226004017536 -0.32242890604509639 0 -0.1190051583195855 -0.31292309157300169 0 -0.1149226004017536 -0.32242890604509639 0 -0.1031890200735321 -0.30873780675300211 0 -0.11586267542429809 -0.33532112300780759 0 -0.1149226004017536 -0.32242890604509639 0 -0.106548536778361 -0.3263655909907498 0 -0.106548536778361 -0.3263655909907498 0 -0.1011050781260623 -0.32238163819826199 0 -0.1031890200735321 -0.30873780675300211 0 -0.1149226004017536 -0.32242890604509639 0 -0.106548536778361 -0.3263655909907498 0 -0.1031890200735321 -0.30873780675300211 0 -0.106548536778361 -0.3263655909907498 0 -0.1031890200735321 -0.30873780675300211 0 -0.106548536778361 -0.3263655909907498 0 -0.1011050781260623 -0.32238163819826199 0 -0.1000583246901636 -0.32952266659527052 0 -0.094306549673946874 -0.32451874362100808 0 -0.1011050781260623 -0.32238163819826199 0 -0.1000583246901636 -0.32952266659527052 0 -0.1011050781260623 -0.32238163819826199 0 -0.089426017071905728 -0.31105703524182943 0 -0.094306549673946874 -0.32451874362100808 0 -0.1011050781260623 -0.32238163819826199 0 -0.089426017071905728 -0.31105703524182943 0 -0.1011050781260623 -0.32238163819826199 0 -0.1031890200735321 -0.30873780675300211 0 -0.089426017071905728 -0.31105703524182943 0 -0.099694394704777589 -0.34715528081891278 0 -0.11182276420213701 -0.34459338402472228 0 -0.10526102349789659 -0.33605168543744868 0 -0.11586267542429809 -0.33532112300780759 0 -0.106548536778361 -0.3263655909907498 0 -0.10526102349789659 -0.33605168543744868 0 -0.106548536778361 -0.3263655909907498 0 -0.10526102349789659 -0.33605168543744868 0 -0.1000583246901636 -0.32952266659527052 0 -0.094306549673946874 -0.32451874362100808 0 -0.094182304261268973 -0.33486212682340938 0 -0.1000583246901636 -0.32952266659527052 0 -0.10526102349789659 -0.33605168543744868 0 -0.094182304261268973 -0.33486212682340938 0 -0.1000583246901636 -0.32952266659527052 0 -0.099694394704777589 -0.34715528081891278 0 -0.10526102349789659 -0.33605168543744868 0 -0.094182304261268973 -0.33486212682340938 0 -0.094182304261268973 -0.33486212682340938 0 -0.08407271745418865 -0.33416399560864102 0 -0.086480070187833311 -0.34581112914121043 0 -0.099694394704777589 -0.34715528081891278 0 -0.094182304261268973 -0.33486212682340938 0 -0.086480070187833311 -0.34581112914121043 0 -0.094182304261268973 -0.33486212682340938 0 -0.08407271745418865 -0.33416399560864102 0 -0.086761024220333771 -0.32477025124626918 0 -0.08407271745418865 -0.33416399560864102 0 -0.086761024220333771 -0.32477025124626918 0 -0.07858204801972743 -0.32631738752588779 0 -0.08407271745418865 -0.33416399560864102 0 -0.07858204801972743 -0.32631738752588779 0 -0.07273125475583779 -0.33736018686339309 0 -0.08407271745418865 -0.33416399560864102 0 -0.07273125475583779 -0.33736018686339309 0 -0.086480070187833311 -0.34581112914121043 0 -0.07273125475583779 -0.33736018686339309 0 -0.086480070187833311 -0.34581112914121043 0 -0.094306549673946874 -0.32451874362100808 0 -0.086761024220333771 -0.32477025124626918 0 -0.089426017071905728 -0.31105703524182943 0 -0.094306549673946874 -0.32451874362100808 0 -0.094182304261268973 -0.33486212682340938 0 -0.086761024220333771 -0.32477025124626918 0 -0.086761024220333771 -0.32477025124626918 0 -0.07858204801972743 -0.32631738752588779 0 -0.081625355014615208 -0.31689463889199992 0 -0.081625355014615208 -0.31689463889199992 0 -0.089426017071905728 -0.31105703524182943 0 -0.074673414540133681 -0.31006833179754578 0 -0.086761024220333771 -0.32477025124626918 0 -0.081625355014615208 -0.31689463889199992 0 -0.089426017071905728 -0.31105703524182943 0 -0.066906445740690809 -0.31754841679761819 0 -0.07273125475583779 -0.33736018686339309 0 -0.055564942521545452 -0.32680862229170438 0 -0.066906445740690809 -0.31754841679761819 0 -0.07273125475583779 -0.33736018686339309 0 -0.07858204801972743 -0.32631738752588779 0 -0.066906445740690809 -0.31754841679761819 0 -0.07273125475583779 -0.33736018686339309 0 -0.081625355014615208 -0.31689463889199992 0 -0.066906445740690809 -0.31754841679761819 0 -0.074673414540133681 -0.31006833179754578 0 -0.07858204801972743 -0.32631738752588779 0 -0.081625355014615208 -0.31689463889199992 0 -0.066906445740690809 -0.31754841679761819 0 -0.07273125475583779 -0.33736018686339309 0 -0.063489668512105094 -0.3461790763238804 0 -0.055564942521545452 -0.32680862229170438 0 -0.07273125475583779 -0.33736018686339309 0 -0.055564942521545452 -0.32680862229170438 0 -0.063489668512105094 -0.3461790763238804 0 -0.079999488855277232 -0.36208144079426119 0 -0.058327050410461968 -0.36005531690615239 0 -0.07273125475583779 -0.33736018686339309 0 -0.079999488855277232 -0.36208144079426119 0 -0.07273125475583779 -0.33736018686339309 0 -0.063489668512105094 -0.3461790763238804 0 -0.079999488855277232 -0.36208144079426119 0 -0.067656658472595166 -0.3700164497304046 0 -0.079999488855277232 -0.36208144079426119 0 -0.058327050410461968 -0.36005531690615239 0 -0.067656658472595166 -0.3700164497304046 0 -0.07537242226362123 -0.37244333784596267 0 -0.079999488855277232 -0.36208144079426119 0 -0.095303316024341514 -0.35786820884273163 0 -0.079999488855277232 -0.36208144079426119 0 -0.087337676544553003 -0.37385362344970829 0 -0.07537242226362123 -0.37244333784596267 0 -0.079999488855277232 -0.36208144079426119 0 -0.087337676544553003 -0.37385362344970829 0 -0.07273125475583779 -0.33736018686339309 0 -0.079999488855277232 -0.36208144079426119 0 -0.086480070187833311 -0.34581112914121043 0 -0.095303316024341514 -0.35786820884273163 0 -0.079999488855277232 -0.36208144079426119 0 -0.086480070187833311 -0.34581112914121043 0 -0.094502101882266515 -0.26315651247145028 0 -0.1177478821021377 -0.26249760784366838 0 -0.107407660529706 -0.24900371388762341 0 -0.1177478821021377 -0.26249760784366838 0 -0.1237574956905899 -0.24519449058821441 0 -0.107407660529706 -0.24900371388762341 0 -0.132934929276076 -0.25424137489347087 0 -0.1177478821021377 -0.26249760784366838 0 -0.1237574956905899 -0.24519449058821441 0 -0.094502101882266515 -0.26315651247145028 0 -0.1177478821021377 -0.26249760784366838 0 -0.1159048695342965 -0.28483319257883533 0 -0.13198023569989131 -0.27855636264241612 0 -0.1177478821021377 -0.26249760784366838 0 -0.1159048695342965 -0.28483319257883533 0 -0.094502101882266515 -0.26315651247145028 0 -0.09982950336870193 -0.29111002251525481 0 -0.094502101882266515 -0.26315651247145028 0 -0.09982950336870193 -0.29111002251525481 0 -0.1159048695342965 -0.28483319257883533 0 -0.09982950336870193 -0.29111002251525481 0 -0.1159048695342965 -0.28483319257883533 0 -0.13198023569989131 -0.27855636264241612 0 -0.1159048695342965 -0.28483319257883533 0 -0.13099392355644121 -0.30367664027166857 0 -0.1159048695342965 -0.28483319257883533 0 -0.11378449497051139 -0.30025615073835249 0 -0.09982950336870193 -0.29111002251525481 0 -0.1159048695342965 -0.28483319257883533 0 -0.11378449497051139 -0.30025615073835249 0 -0.1190051583195855 -0.31292309157300169 0 -0.11378449497051139 -0.30025615073835249 0 -0.1031890200735321 -0.30873780675300211 0 -0.13099392355644121 -0.30367664027166857 0 -0.1190051583195855 -0.31292309157300169 0 -0.11378449497051139 -0.30025615073835249 0 -0.09982950336870193 -0.29111002251525481 0 -0.1031890200735321 -0.30873780675300211 0 -0.09982950336870193 -0.29111002251525481 0 -0.1031890200735321 -0.30873780675300211 0 -0.092547874132972011 -0.30265932419887109 0 -0.09982950336870193 -0.29111002251525481 0 -0.11378449497051139 -0.30025615073835249 0 -0.1031890200735321 -0.30873780675300211 0 -0.1031890200735321 -0.30873780675300211 0 -0.089426017071905728 -0.31105703524182943 0 -0.092547874132972011 -0.30265932419887109 0 -0.09982950336870193 -0.29111002251525481 0 -0.092547874132972011 -0.30265932419887109 0 -0.077746956017748226 -0.2997324322853977 0 -0.089426017071905728 -0.31105703524182943 0 -0.092547874132972011 -0.30265932419887109 0 -0.077746956017748226 -0.2997324322853977 0 -0.089426017071905728 -0.31105703524182943 0 -0.077746956017748226 -0.2997324322853977 0 -0.089426017071905728 -0.31105703524182943 0 -0.074673414540133681 -0.31006833179754578 0 -0.077746956017748226 -0.2997324322853977 0 -0.066906445740690809 -0.31754841679761819 0 -0.061081636725542593 -0.29773664673184369 0 -0.066906445740690809 -0.31754841679761819 0 -0.065409317443406251 -0.3045498192332548 0 -0.061081636725542593 -0.29773664673184369 0 -0.065409317443406251 -0.3045498192332548 0 -0.077746956017748226 -0.2997324322853977 0 -0.061081636725542593 -0.29773664673184369 0 -0.074673414540133681 -0.31006833179754578 0 -0.065409317443406251 -0.3045498192332548 0 -0.077746956017748226 -0.2997324322853977 0 -0.066906445740690809 -0.31754841679761819 0 -0.074673414540133681 -0.31006833179754578 0 -0.065409317443406251 -0.3045498192332548 0 -0.065409317443406251 -0.3045498192332548 0 -0.077746956017748226 -0.2997324322853977 0 -0.077746956017748226 -0.2997324322853977 0 -0.066501891864071155 -0.28882865447573342 0 -0.077746956017748226 -0.2997324322853977 0 -0.066501891864071155 -0.28882865447573342 0 -0.061081636725542593 -0.29773664673184369 0 -0.077746956017748226 -0.2997324322853977 0 -0.066501891864071155 -0.28882865447573342 0 -0.08092741423592073 -0.28088707665617618 0 -0.066501891864071155 -0.28882865447573342 0 -0.068491005739117192 -0.2772455486395381 0 -0.055256827710393717 -0.27792487666606952 0 -0.066501891864071155 -0.28882865447573342 0 -0.08092741423592073 -0.28088707665617618 0 -0.068491005739117192 -0.2772455486395381 0 -0.09982950336870193 -0.29111002251525481 0 -0.077746956017748226 -0.2997324322853977 0 -0.09982950336870193 -0.29111002251525481 0 -0.077746956017748226 -0.2997324322853977 0 -0.08092741423592073 -0.28088707665617618 0 -0.094502101882266515 -0.26315651247145028 0 -0.08092741423592073 -0.28088707665617618 0 -0.071277889146082518 -0.26134158676017372 0 -0.094502101882266515 -0.26315651247145028 0 -0.09982950336870193 -0.29111002251525481 0 -0.08092741423592073 -0.28088707665617618 0 -0.08092741423592073 -0.28088707665617618 0 -0.068491005739117192 -0.2772455486395381 0 -0.071277889146082518 -0.26134158676017372 0 -0.068491005739117192 -0.2772455486395381 0 -0.071277889146082518 -0.26134158676017372 0 -0.055256827710393717 -0.27792487666606952 0 -0.094502101882266515 -0.26315651247145028 0 -0.071277889146082518 -0.26134158676017372 0 -0.089174700395829837 -0.23520300242764619 0 -0.034819165871760809 -0.25810749540512018 0 -0.049272097018900882 -0.25756916919873429 0 -0.043287366327405707 -0.23721346173139979 0 -0.034819165871760809 -0.25810749540512018 0 -0.049272097018900882 -0.25756916919873429 0 -0.055256827710393717 -0.27792487666606952 0 -0.071277889146082518 -0.26134158676017372 0 -0.049272097018900882 -0.25756916919873429 0 -0.061564392766095571 -0.238872662007338 0 -0.071277889146082518 -0.26134158676017372 0 -0.049272097018900882 -0.25756916919873429 0 -0.055256827710393717 -0.27792487666606952 0 -0.055256827710393717 -0.27792487666606952 0 -0.038644503226762862 -0.27460979483356251 0 -0.050249198119850277 -0.28843925212624533 0 -0.049272097018900882 -0.25756916919873429 0 -0.055256827710393717 -0.27792487666606952 0 -0.034819165871760809 -0.25810749540512018 0 -0.055256827710393717 -0.27792487666606952 0 -0.038644503226762862 -0.27460979483356251 0 -0.034819165871760809 -0.25810749540512018 0 -0.055256827710393717 -0.27792487666606952 0 -0.034819165871760809 -0.25810749540512018 0 -0.038644503226762862 -0.27460979483356251 0 -0.02440930474754667 -0.28379228994997618 0 -0.04017690721236112 -0.29023569669289911 0 -0.035569414057395249 -0.30261210190399979 0 -0.02440930474754667 -0.28379228994997618 0 -0.038644503226762862 -0.27460979483356251 0 -0.04017690721236112 -0.29023569669289911 0 -0.050249198119850277 -0.28843925212624533 0 -0.038644503226762862 -0.27460979483356251 0 -0.04017690721236112 -0.29023569669289911 0 -0.02440930474754667 -0.28379228994997618 0 -0.04017690721236112 -0.29023569669289911 0 -0.050249198119850277 -0.28843925212624533 0 -0.04838693031610633 -0.29846421320493011 0 -0.066501891864071155 -0.28882865447573342 0 -0.055256827710393717 -0.27792487666606952 0 -0.061081636725542593 -0.29773664673184369 0 -0.055256827710393717 -0.27792487666606952 0 -0.050249198119850277 -0.28843925212624533 0 -0.061081636725542593 -0.29773664673184369 0 -0.055256827710393717 -0.27792487666606952 0 -0.061081636725542593 -0.29773664673184369 0 -0.066501891864071155 -0.28882865447573342 0 -0.055256827710393717 -0.27792487666606952 0 -0.050249198119850277 -0.28843925212624533 0 -0.04838693031610633 -0.29846421320493011 0 -0.061081636725542593 -0.29773664673184369 0 -0.066906445740690809 -0.31754841679761819 0 -0.061081636725542593 -0.29773664673184369 0 -0.051103674624797042 -0.31030395455797549 0 -0.04838693031610633 -0.29846421320493011 0 -0.061081636725542593 -0.29773664673184369 0 -0.051103674624797042 -0.31030395455797549 0 -0.051103674624797042 -0.31030395455797549 0 -0.035569414057395249 -0.30261210190399979 0 -0.038398630287253988 -0.31625705772001422 0 -0.035569414057395249 -0.30261210190399979 0 -0.02123231805296245 -0.3057054931483239 0 -0.038398630287253988 -0.31625705772001422 0 -0.04017690721236112 -0.29023569669289911 0 -0.04838693031610633 -0.29846421320493011 0 -0.035569414057395249 -0.30261210190399979 0 -0.04838693031610633 -0.29846421320493011 0 -0.051103674624797042 -0.31030395455797549 0 -0.035569414057395249 -0.30261210190399979 0 -0.02123231805296245 -0.3057054931483239 0 -0.013999443623337099 -0.30947708449483408 0 -0.02440930474754667 -0.28379228994997618 0 -0.02123231805296245 -0.3057054931483239 0 -0.038398630287253988 -0.31625705772001422 0 -0.021463444260520732 -0.31496985678859368 0 -0.035569414057395249 -0.30261210190399979 0 -0.02123231805296245 -0.3057054931483239 0 -0.02440930474754667 -0.28379228994997618 0 -0.02123231805296245 -0.3057054931483239 0 -0.038398630287253988 -0.31625705772001422 0 -0.02123231805296245 -0.3057054931483239 0 -0.013999443623337099 -0.30947708449483408 0 -0.021463444260520732 -0.31496985678859368 0 -0.013999443623337099 -0.30947708449483408 0 -0.0013654571246994251 -0.31111872375839289 0 -0.0082087295746136272 -0.29798166905644968 0 -0.013999443623337099 -0.30947708449483408 0 -0.0082087295746136272 -0.29798166905644968 0 -0.02440930474754667 -0.28379228994997618 0 -0.0013654571246994251 -0.31111872375839289 0 -0.0082087295746136272 -0.29798166905644968 0 0.0026705155070595862 -0.29676827545427142 0 -0.0082087295746136272 -0.29798166905644968 0 -0.006215011638951249 -0.28769528714327802 0 -0.02440930474754667 -0.28379228994997618 0 -0.006215011638951249 -0.28769528714327802 0 -0.02440930474754667 -0.28379228994997618 0 -0.0093086213395125531 -0.27843855962818609 0 -0.006215011638951249 -0.28769528714327802 0 0.0026705155070595862 -0.29676827545427142 0 0.0034228775624346531 -0.27956024016697489 0 -0.0082087295746136272 -0.29798166905644968 0 -0.006215011638951249 -0.28769528714327802 0 0.0026705155070595862 -0.29676827545427142 0 -0.006215011638951249 -0.28769528714327802 0 -0.0093086213395125531 -0.27843855962818609 0 0.0034228775624346531 -0.27956024016697489 0 -0.013999443623337099 -0.30947708449483408 0 -0.02440930474754667 -0.28379228994997618 0 -0.02440930474754667 -0.28379228994997618 0 -0.011802110750199671 -0.26657742365907278 0 -0.021472490143373411 -0.26027912567447598 0 -0.034819165871760809 -0.25810749540512018 0 -0.02440930474754667 -0.28379228994997618 0 -0.034819165871760809 -0.25810749540512018 0 -0.02440930474754667 -0.28379228994997618 0 -0.021472490143373411 -0.26027912567447598 0 -0.02440930474754667 -0.28379228994997618 0 -0.0093086213395125531 -0.27843855962818609 0 -0.011802110750199671 -0.26657742365907278 0 -0.011802110750199671 -0.26657742365907278 0 0.0034228775624346531 -0.27956024016697489 0 0.0072434275396657533 -0.26156772277052542 0 -0.0093086213395125531 -0.27843855962818609 0 -0.011802110750199671 -0.26657742365907278 0 0.0034228775624346531 -0.27956024016697489 0 -0.011802110750199671 -0.26657742365907278 0 -0.0080584849696134705 -0.24565963204858729 0 0.0072434275396657533 -0.26156772277052542 0 -0.011802110750199671 -0.26657742365907278 0 -0.021472490143373411 -0.26027912567447598 0 -0.0080584849696134705 -0.24565963204858729 0 -0.021472490143373411 -0.26027912567447598 0 -0.02462776661780653 -0.24822540389223649 0 -0.0080584849696134705 -0.24565963204858729 0 -0.034819165871760809 -0.25810749540512018 0 -0.021472490143373411 -0.26027912567447598 0 -0.02462776661780653 -0.24822540389223649 0 -0.034819165871760809 -0.25810749540512018 0 -0.02462776661780653 -0.24822540389223649 0 -0.036760449572486642 -0.35571020618982169 0 -0.05082560601740304 -0.34458981476389089 0 -0.039093241642939001 -0.33398512849921957 0 -0.036760449572486642 -0.35571020618982169 0 -0.03211568556297692 -0.37024402044158311 0 -0.047737070441530971 -0.37627678173299262 0 -0.036760449572486642 -0.35571020618982169 0 -0.047737070441530971 -0.37627678173299262 0 -0.067656658472595166 -0.3700164497304046 0 -0.058327050410461968 -0.36005531690615239 0 -0.059251390368185823 -0.37677745555530068 0 -0.058327050410461968 -0.36005531690615239 0 -0.059251390368185823 -0.37677745555530068 0 -0.047737070441530971 -0.37627678173299262 0 -0.036760449572486642 -0.35571020618982169 0 -0.058327050410461968 -0.36005531690615239 0 -0.047737070441530971 -0.37627678173299262 0 -0.036760449572486642 -0.35571020618982169 0 -0.058327050410461968 -0.36005531690615239 0 -0.05082560601740304 -0.34458981476389089 0 -0.063489668512105094 -0.3461790763238804 0 -0.058327050410461968 -0.36005531690615239 0 -0.05082560601740304 -0.34458981476389089 0 -0.063489668512105094 -0.3461790763238804 0 -0.05082560601740304 -0.34458981476389089 0 -0.055564942521545452 -0.32680862229170438 0 -0.05082560601740304 -0.34458981476389089 0 -0.055564942521545452 -0.32680862229170438 0 -0.039093241642939001 -0.33398512849921957 0 -0.051103674624797042 -0.31030395455797549 0 -0.055564942521545452 -0.32680862229170438 0 -0.038398630287253988 -0.31625705772001422 0 -0.066906445740690809 -0.31754841679761819 0 -0.051103674624797042 -0.31030395455797549 0 -0.055564942521545452 -0.32680862229170438 0 -0.055564942521545452 -0.32680862229170438 0 -0.038398630287253988 -0.31625705772001422 0 -0.055564942521545452 -0.32680862229170438 0 -0.038398630287253988 -0.31625705772001422 0 -0.039093241642939001 -0.33398512849921957 0 -0.038398630287253988 -0.31625705772001422 0 -0.039093241642939001 -0.33398512849921957 0 -0.02512263517614503 -0.32528662643712231 0 -0.036760449572486642 -0.35571020618982169 0 -0.039093241642939001 -0.33398512849921957 0 -0.025687554717212891 -0.33774287594088642 0 -0.039093241642939001 -0.33398512849921957 0 -0.025687554717212891 -0.33774287594088642 0 -0.02512263517614503 -0.32528662643712231 0 -0.025687554717212891 -0.33774287594088642 0 -0.02512263517614503 -0.32528662643712231 0 -0.01437203890237411 -0.33004659242487888 0 -0.025687554717212891 -0.33774287594088642 0 -0.014600756030723409 -0.33908421892508328 0 -0.01437203890237411 -0.33004659242487888 0 -0.025687554717212891 -0.33774287594088642 0 -0.014600756030723409 -0.33908421892508328 0 -0.020190764027993208 -0.34930051442133808 0 -0.038398630287253988 -0.31625705772001422 0 -0.02512263517614503 -0.32528662643712231 0 -0.021463444260520732 -0.31496985678859368 0 -0.02512263517614503 -0.32528662643712231 0 -0.01302843633573701 -0.31903014118438389 0 -0.01437203890237411 -0.33004659242487888 0 -0.013999443623337099 -0.30947708449483408 0 -0.021463444260520732 -0.31496985678859368 0 -0.01302843633573701 -0.31903014118438389 0 -0.02512263517614503 -0.32528662643712231 0 -0.021463444260520732 -0.31496985678859368 0 -0.01302843633573701 -0.31903014118438389 0 -0.013999443623337099 -0.30947708449483408 0 -0.0013654571246994251 -0.31111872375839289 0 -0.01302843633573701 -0.31903014118438389 0 -0.01302843633573701 -0.31903014118438389 0 -0.0029681218629519289 -0.32401569713955758 0 -0.01437203890237411 -0.33004659242487888 0 -0.0013654571246994251 -0.31111872375839289 0 -0.01302843633573701 -0.31903014118438389 0 -0.0029681218629519289 -0.32401569713955758 0 -0.014600756030723409 -0.33908421892508328 0 -0.0048247292914743766 -0.33511999492224048 0 -0.0074677708566662547 -0.34708780542305662 0 -0.014600756030723409 -0.33908421892508328 0 -0.01437203890237411 -0.33004659242487888 0 -0.0048247292914743766 -0.33511999492224048 0 -0.0029681218629519289 -0.32401569713955758 0 -0.01437203890237411 -0.33004659242487888 0 -0.0048247292914743766 -0.33511999492224048 0 -0.0029681218629519289 -0.32401569713955758 0 -0.0048247292914743766 -0.33511999492224048 0 0.0074847136339209579 -0.3318227770583429 0 -0.0048247292914743766 -0.33511999492224048 0 -0.0074677708566662547 -0.34708780542305662 0 0.0024151645633119778 -0.34330519641580892 0 -0.0074677708566662547 -0.34708780542305662 0 0.0018820081491096379 -0.35215421146137971 0 0.0024151645633119778 -0.34330519641580892 0 -0.0074677708566662547 -0.34708780542305662 0 -0.0047139885971552876 -0.3557667637078577 0 0.0018820081491096379 -0.35215421146137971 0 -0.0047139885971552876 -0.3557667637078577 0 -0.003767562224240786 -0.36135824039844699 0 0.0003366517691050342 -0.35702385607026987 0 -0.0047139885971552876 -0.3557667637078577 0 0.0018820081491096379 -0.35215421146137971 0 0.0003366517691050342 -0.35702385607026987 0 -0.0047139885971552876 -0.3557667637078577 0 -0.012934505191078289 -0.35615743223727392 0 -0.010348379002517319 -0.36170725625561823 0 -0.0074677708566662547 -0.34708780542305662 0 -0.0047139885971552876 -0.3557667637078577 0 -0.012934505191078289 -0.35615743223727392 0 -0.014600756030723409 -0.33908421892508328 0 -0.0074677708566662547 -0.34708780542305662 0 -0.020190764027993208 -0.34930051442133808 0 -0.0074677708566662547 -0.34708780542305662 0 -0.012934505191078289 -0.35615743223727392 0 -0.020190764027993208 -0.34930051442133808 0 -0.036760449572486642 -0.35571020618982169 0 -0.025687554717212891 -0.33774287594088642 0 -0.020190764027993208 -0.34930051442133808 0 -0.036760449572486642 -0.35571020618982169 0 -0.020190764027993208 -0.34930051442133808 0 -0.02254846578652479 -0.36098583851197541 0 -0.012934505191078289 -0.35615743223727392 0 -0.020190764027993208 -0.34930051442133808 0 -0.02254846578652479 -0.36098583851197541 0 -0.03211568556297692 -0.37024402044158311 0 -0.02254846578652479 -0.36098583851197541 0 -0.01548317485501724 -0.3724594618934205 0 -0.036760449572486642 -0.35571020618982169 0 -0.03211568556297692 -0.37024402044158311 0 -0.02254846578652479 -0.36098583851197541 0 -0.02254846578652479 -0.36098583851197541 0 -0.01548317485501724 -0.3724594618934205 0 -0.014842664145095 -0.36279438304109191 0 -0.012934505191078289 -0.35615743223727392 0 -0.02254846578652479 -0.36098583851197541 0 -0.014842664145095 -0.36279438304109191 0 -0.01548317485501724 -0.3724594618934205 0 -0.003064502032246555 -0.36850324202368318 0 -0.0094763514183901533 -0.37975693847908037 0 -0.01548317485501724 -0.3724594618934205 0 -0.003064502032246555 -0.36850324202368318 0 0.0070829174492904861 -0.35913110990713598 0 -0.003064502032246555 -0.36850324202368318 0 -0.0094763514183901533 -0.37975693847908037 0 0.0056186006951306896 -0.36266545781509602 0 -0.0094763514183901533 -0.37975693847908037 0 0.0056186006951306896 -0.36266545781509602 0 0.00313882802842756 -0.37205462437991083 0 -0.01548317485501724 -0.3724594618934205 0 0.0070829174492904861 -0.35913110990713598 0 -0.0094763514183901533 -0.37975693847908037 0 0.0056186006951306896 -0.36266545781509602 0 -0.01548317485501724 -0.3724594618934205 0 -0.003767562224240786 -0.36135824039844699 0 0.0070829174492904861 -0.35913110990713598 0 -0.01548317485501724 -0.3724594618934205 0 -0.010348379002517319 -0.36170725625561823 0 -0.003767562224240786 -0.36135824039844699 0 -0.01548317485501724 -0.3724594618934205 0 -0.014842664145095 -0.36279438304109191 0 -0.010348379002517319 -0.36170725625561823 0 -0.012934505191078289 -0.35615743223727392 0 -0.014842664145095 -0.36279438304109191 0 -0.010348379002517319 -0.36170725625561823 0 -0.0047139885971552876 -0.3557667637078577 0 -0.010348379002517319 -0.36170725625561823 0 -0.003767562224240786 -0.36135824039844699 0 -0.0094763514183901533 -0.37975693847908037 0 0.001028188193644269 -0.37902956558509743 0 0.00313882802842756 -0.37205462437991083 0 -0.0039971830888542031 -0.38487249821840858 0 -0.0094763514183901533 -0.37975693847908037 0 0.001028188193644269 -0.37902956558509743 0 -0.0039971830888542031 -0.38487249821840858 0 -0.0157364202992284 -0.39991105634779761 0 0.0081934150469744164 -0.38588221288854552 0 -0.0039971830888542031 -0.38487249821840858 0 -0.013445314584595931 -0.39034722804708782 0 -0.0094763514183901533 -0.37975693847908037 0 -0.0157364202992284 -0.39991105634779761 0 0.0081934150469744164 -0.38588221288854552 0 -0.0157364202992284 -0.39991105634779761 0 -0.01043253583862286 -0.41002966921832468 0 0.01098146097070357 -0.39210035529239229 0 -0.0039971830888542031 -0.38487249821840858 0 -0.013445314584595931 -0.39034722804708782 0 -0.0157364202992284 -0.39991105634779761 0 -0.0157364202992284 -0.39991105634779761 0 -0.024571303531910959 -0.39684841914306468 0 -0.039666255645431463 -0.41393989980704921 0 -0.013445314584595931 -0.39034722804708782 0 -0.0157364202992284 -0.39991105634779761 0 -0.024571303531910959 -0.39684841914306468 0 -0.03057240676890649 -0.39101674137770159 0 -0.024571303531910959 -0.39684841914306468 0 -0.023007915864094119 -0.38454873450823618 0 -0.03057240676890649 -0.39101674137770159 0 -0.024571303531910959 -0.39684841914306468 0 -0.038347351467088307 -0.39989317356934539 0 -0.03211568556297692 -0.37024402044158311 0 -0.01548317485501724 -0.3724594618934205 0 -0.038049267159324968 -0.38578781387970501 0 -0.0094763514183901533 -0.37975693847908037 0 -0.024571303531910959 -0.39684841914306468 0 -0.01548317485501724 -0.3724594618934205 0 -0.023007915864094119 -0.38454873450823618 0 -0.038049267159324968 -0.38578781387970501 0 -0.01548317485501724 -0.3724594618934205 0 -0.038049267159324968 -0.38578781387970501 0 -0.0094763514183901533 -0.37975693847908037 0 -0.024571303531910959 -0.39684841914306468 0 -0.023007915864094119 -0.38454873450823618 0 -0.013445314584595931 -0.39034722804708782 0 -0.0094763514183901533 -0.37975693847908037 0 -0.024571303531910959 -0.39684841914306468 0 -0.01548317485501724 -0.3724594618934205 0 -0.0094763514183901533 -0.37975693847908037 0 -0.023007915864094119 -0.38454873450823618 0 -0.03057240676890649 -0.39101674137770159 0 -0.023007915864094119 -0.38454873450823618 0 -0.038049267159324968 -0.38578781387970501 0 -0.038049267159324968 -0.38578781387970501 0 -0.046292298034279637 -0.39245465129159762 0 -0.047737070441530971 -0.37627678173299262 0 -0.03211568556297692 -0.37024402044158311 0 -0.038049267159324968 -0.38578781387970501 0 -0.047737070441530971 -0.37627678173299262 0 -0.024571303531910959 -0.39684841914306468 0 -0.038347351467088307 -0.39989317356934539 0 -0.039666255645431463 -0.41393989980704921 0 -0.024571303531910959 -0.39684841914306468 0 -0.039666255645431463 -0.41393989980704921 0 -0.03057240676890649 -0.39101674137770159 0 -0.038049267159324968 -0.38578781387970501 0 -0.038347351467088307 -0.39989317356934539 0 -0.038347351467088307 -0.39989317356934539 0 -0.046292298034279637 -0.39245465129159762 0 -0.048136481236561522 -0.40319612354495199 0 -0.038347351467088307 -0.39989317356934539 0 -0.048136481236561522 -0.40319612354495199 0 -0.039666255645431463 -0.41393989980704921 0 -0.038049267159324968 -0.38578781387970501 0 -0.038347351467088307 -0.39989317356934539 0 -0.046292298034279637 -0.39245465129159762 0 -0.046292298034279637 -0.39245465129159762 0 -0.048136481236561522 -0.40319612354495199 0 -0.058713691310575258 -0.39684335727616332 0 -0.048136481236561522 -0.40319612354495199 0 -0.058713691310575258 -0.39684335727616332 0 -0.055370192655110312 -0.41152470479742131 0 -0.058713691310575258 -0.39684335727616332 0 -0.047737070441530971 -0.37627678173299262 0 -0.058713691310575258 -0.39684335727616332 0 -0.059251390368185823 -0.37677745555530068 0 -0.047737070441530971 -0.37627678173299262 0 -0.046292298034279637 -0.39245465129159762 0 -0.058713691310575258 -0.39684335727616332 0 -0.047737070441530971 -0.37627678173299262 0 -0.058713691310575258 -0.39684335727616332 0 -0.059251390368185823 -0.37677745555530068 0 -0.066495865182059535 -0.38382183740947651 0 -0.058503964085629023 -0.4352691711514089 0 -0.039666255645431463 -0.41393989980704921 0 -0.050144050585040643 -0.43336632724210788 0 -0.058503964085629023 -0.4352691711514089 0 -0.039666255645431463 -0.41393989980704921 0 -0.058503964085629023 -0.4352691711514089 0 -0.060166594347046617 -0.42595820408477802 0 -0.039666255645431463 -0.41393989980704921 0 -0.058713691310575258 -0.39684335727616332 0 -0.055370192655110312 -0.41152470479742131 0 -0.069690312179619504 -0.41740993281933392 0 -0.060166594347046617 -0.42595820408477802 0 -0.055370192655110312 -0.41152470479742131 0 -0.039666255645431463 -0.41393989980704921 0 -0.060166594347046617 -0.42595820408477802 0 -0.039666255645431463 -0.41393989980704921 0 -0.060166594347046617 -0.42595820408477802 0 -0.055370192655110312 -0.41152470479742131 0 -0.069690312179619504 -0.41740993281933392 0 -0.048136481236561522 -0.40319612354495199 0 -0.055370192655110312 -0.41152470479742131 0 -0.039666255645431463 -0.41393989980704921 0 -0.050144050585040643 -0.43336632724210788 0 -0.031846532647949233 -0.42795898314425701 0 -0.053260529457278827 -0.44588829707018551 0 -0.031846532647949233 -0.42795898314425701 0 -0.053260529457278827 -0.44588829707018551 0 -0.050144050585040643 -0.43336632724210788 0 -0.039666255645431463 -0.41393989980704921 0 -0.031846532647949233 -0.42795898314425701 0 -0.031846532647949233 -0.42795898314425701 0 -0.01043253583862286 -0.41002966921832468 0 -0.016932733515437049 -0.44027422084603107 0 -0.0157364202992284 -0.39991105634779761 0 -0.039666255645431463 -0.41393989980704921 0 -0.0157364202992284 -0.39991105634779761 0 -0.039666255645431463 -0.41393989980704921 0 -0.01043253583862286 -0.41002966921832468 0 -0.031846532647949233 -0.42795898314425701 0 -0.01043253583862286 -0.41002966921832468 0 -0.039666255645431463 -0.41393989980704921 0 -0.031846532647949233 -0.42795898314425701 0 -0.01043253583862286 -0.41002966921832468 0 -0.01043253583862286 -0.41002966921832468 0 -0.016932733515437049 -0.44027422084603107 0 0.0026279632142770931 -0.4332866246474078 0 -0.004486613093427164 -0.45108458905496601 0 -0.016932733515437049 -0.44027422084603107 0 0.0026279632142770931 -0.4332866246474078 0 -0.004486613093427164 -0.45108458905496601 0 -0.020113276315870621 -0.4639254145806313 0 -0.016932733515437049 -0.44027422084603107 0 -0.004486613093427164 -0.45108458905496601 0 -0.00036192100802574963 -0.46814403673081412 0 -0.020113276315870621 -0.4639254145806313 0 -0.020113276315870621 -0.4639254145806313 0 -0.016932733515437049 -0.44027422084603107 0 -0.037345406411029479 -0.45536004443060007 0 -0.031846532647949233 -0.42795898314425701 0 -0.016932733515437049 -0.44027422084603107 0 -0.037345406411029479 -0.45536004443060007 0 -0.003546631538578648 -0.48872452402083028 0 -0.024507351803935821 -0.49208241556736487 0 -0.003546631538578648 -0.48872452402083028 0 -0.015025095015522251 -0.4787728528365327 0 -0.024507351803935821 -0.49208241556736487 0 -0.0078526267646957248 -0.5 0 -0.003546631538578648 -0.48872452402083028 0 -0.024507351803935821 -0.49208241556736487 0 -0.00036192100802574963 -0.46814403673081412 0 -0.020113276315870621 -0.4639254145806313 0 -0.015025095015522251 -0.4787728528365327 0 -0.00036192100802574963 -0.46814403673081412 0 -0.003546631538578648 -0.48872452402083028 0 -0.015025095015522251 -0.4787728528365327 0 -0.020113276315870621 -0.4639254145806313 0 -0.026596294411200431 -0.48098787328302289 0 -0.03806616542500052 -0.47387834525183892 0 -0.020113276315870621 -0.4639254145806313 0 -0.015025095015522251 -0.4787728528365327 0 -0.026596294411200431 -0.48098787328302289 0 -0.015025095015522251 -0.4787728528365327 0 -0.026596294411200431 -0.48098787328302289 0 -0.024507351803935821 -0.49208241556736487 0 -0.0078526267646957248 -0.5 0 -0.024507351803935821 -0.49208241556736487 0 -0.037290262237261403 -0.5 0 -0.026596294411200431 -0.48098787328302289 0 -0.024507351803935821 -0.49208241556736487 0 -0.036576518428636483 -0.48503233981828719 0 -0.024507351803935821 -0.49208241556736487 0 -0.037290262237261403 -0.5 0 -0.045468072069292993 -0.49544030711389953 0 -0.024507351803935821 -0.49208241556736487 0 -0.045468072069292993 -0.49544030711389953 0 -0.036576518428636483 -0.48503233981828719 0 -0.024507351803935821 -0.49208241556736487 0 -0.045468072069292993 -0.49544030711389953 0 -0.045468072069292993 -0.49544030711389953 0 -0.036576518428636483 -0.48503233981828719 0 -0.048244708433752628 -0.48277275787530982 0 -0.036576518428636483 -0.48503233981828719 0 -0.03806616542500052 -0.47387834525183892 0 -0.048244708433752628 -0.48277275787530982 0 -0.026596294411200431 -0.48098787328302289 0 -0.036576518428636483 -0.48503233981828719 0 -0.03806616542500052 -0.47387834525183892 0 -0.03806616542500052 -0.47387834525183892 0 -0.0598446608959671 -0.47234324786530918 0 -0.048244708433752628 -0.48277275787530982 0 -0.0598446608959671 -0.47234324786530918 0 -0.048244708433752628 -0.48277275787530982 0 -0.066428792334650127 -0.49879819866043429 0 -0.045468072069292993 -0.49544030711389953 0 -0.048244708433752628 -0.48277275787530982 0 -0.066428792334650127 -0.49879819866043429 0 -0.045468072069292993 -0.49544030711389953 0 -0.066428792334650127 -0.49879819866043429 0 -0.037290262237261403 -0.5 0 -0.045468072069292993 -0.49544030711389953 0 -0.066428792334650127 -0.49879819866043429 0 -0.031846532647949233 -0.42795898314425701 0 -0.037345406411029479 -0.45536004443060007 0 -0.053260529457278827 -0.44588829707018551 0 -0.020113276315870621 -0.4639254145806313 0 -0.03806616542500052 -0.47387834525183892 0 -0.037345406411029479 -0.45536004443060007 0 -0.03806616542500052 -0.47387834525183892 0 -0.0598446608959671 -0.47234324786530918 0 -0.037345406411029479 -0.45536004443060007 0 -0.0598446608959671 -0.47234324786530918 0 -0.053260529457278827 -0.44588829707018551 0 -0.0598446608959671 -0.47234324786530918 0 -0.037345406411029479 -0.45536004443060007 0 -0.053260529457278827 -0.44588829707018551 0 -0.050144050585040643 -0.43336632724210788 0 -0.058503964085629023 -0.4352691711514089 0 -0.053260529457278827 -0.44588829707018551 0 -0.050144050585040643 -0.43336632724210788 0 -0.053260529457278827 -0.44588829707018551 0 -0.058503964085629023 -0.4352691711514089 0 -0.053260529457278827 -0.44588829707018551 0 -0.077341672525826799 -0.45659844249576842 0 -0.058503964085629023 -0.4352691711514089 0 -0.077341672525826799 -0.45659844249576842 0 -0.058503964085629023 -0.4352691711514089 0 -0.071000407410356847 -0.44125052352622568 0 -0.077341672525826799 -0.45659844249576842 0 -0.071000407410356847 -0.44125052352622568 0 -0.07557030077326353 -0.44219637511993731 0 -0.080666933048662653 -0.43797650836250518 0 -0.071000407410356847 -0.44125052352622568 0 -0.07557030077326353 -0.44219637511993731 0 -0.078567728628522307 -0.44899582324112353 0 -0.071000407410356847 -0.44125052352622568 0 -0.077341672525826799 -0.45659844249576842 0 -0.078567728628522307 -0.44899582324112353 0 -0.077341672525826799 -0.45659844249576842 0 -0.078567728628522307 -0.44899582324112353 0 -0.053260529457278827 -0.44588829707018551 0 -0.075998663451462861 -0.46492627237678702 0 -0.077341672525826799 -0.45659844249576842 0 -0.053260529457278827 -0.44588829707018551 0 -0.075998663451462861 -0.46492627237678702 0 -0.0598446608959671 -0.47234324786530918 0 -0.053260529457278827 -0.44588829707018551 0 -0.075998663451462861 -0.46492627237678702 0 -0.075998663451462861 -0.46492627237678702 0 -0.077341672525826799 -0.45659844249576842 0 -0.077341672525826799 -0.45659844249576842 0 -0.088362841176097981 -0.45556513432898732 0 -0.078567728628522307 -0.44899582324112353 0 -0.077341672525826799 -0.45659844249576842 0 -0.088362841176097981 -0.45556513432898732 0 -0.088461346142124878 -0.46918885584544429 0 -0.075998663451462861 -0.46492627237678702 0 -0.077341672525826799 -0.45659844249576842 0 -0.088461346142124878 -0.46918885584544429 0 -0.077341672525826799 -0.45659844249576842 0 -0.088461346142124878 -0.46918885584544429 0 -0.088362841176097981 -0.45556513432898732 0 -0.088461346142124878 -0.46918885584544429 0 -0.1002293458837365 -0.46568478661365492 0 -0.080666933048662653 -0.43797650836250518 0 -0.081912879388849558 -0.44031100181307409 0 -0.098510386344841036 -0.44843721607081471 0 -0.081912879388849558 -0.44031100181307409 0 -0.085593191645152028 -0.44762116043122258 0 -0.098510386344841036 -0.44843721607081471 0 -0.080666933048662653 -0.43797650836250518 0 -0.098510386344841036 -0.44843721607081471 0 -0.095000465178971288 -0.43397562269992362 0 -0.088362841176097981 -0.45556513432898732 0 -0.085593191645152028 -0.44762116043122258 0 -0.098510386344841036 -0.44843721607081471 0 -0.080666933048662653 -0.43797650836250518 0 -0.098510386344841036 -0.44843721607081471 0 -0.081912879388849558 -0.44031100181307409 0 -0.080486324288986957 -0.44453870797720058 0 -0.085593191645152028 -0.44762116043122258 0 -0.07557030077326353 -0.44219637511993731 0 -0.080666933048662653 -0.43797650836250518 0 -0.07969055897455625 -0.44132012799940762 0 -0.080666933048662653 -0.43797650836250518 0 -0.081912879388849558 -0.44031100181307409 0 -0.080666933048662653 -0.43797650836250518 0 -0.081912879388849558 -0.44031100181307409 0 -0.07969055897455625 -0.44132012799940762 0 -0.07557030077326353 -0.44219637511993731 0 -0.080486324288986957 -0.44453870797720058 0 -0.078567728628522307 -0.44899582324112353 0 -0.07557030077326353 -0.44219637511993731 0 -0.07969055897455625 -0.44132012799940762 0 -0.080486324288986957 -0.44453870797720058 0 -0.081912879388849558 -0.44031100181307409 0 -0.07969055897455625 -0.44132012799940762 0 -0.080486324288986957 -0.44453870797720058 0 -0.080486324288986957 -0.44453870797720058 0 -0.078567728628522307 -0.44899582324112353 0 -0.085593191645152028 -0.44762116043122258 0 -0.088362841176097981 -0.45556513432898732 0 -0.078567728628522307 -0.44899582324112353 0 -0.085593191645152028 -0.44762116043122258 0 -0.070432776729382557 -0.499439633934667 0 -0.073215720090428676 -0.4821829531557279 0 -0.073930708743824014 -0.5 0 -0.073215720090428676 -0.4821829531557279 0 -0.085000080282246926 -0.49116152233602889 0 -0.073930708743824014 -0.5 0 -0.070432776729382557 -0.499439633934667 0 -0.073215720090428676 -0.4821829531557279 0 -0.0598446608959671 -0.47234324786530918 0 -0.066428792334650127 -0.49879819866043429 0 -0.0598446608959671 -0.47234324786530918 0 -0.066428792334650127 -0.49879819866043429 0 -0.073215720090428676 -0.4821829531557279 0 -0.070432776729382557 -0.499439633934667 0 -0.066428792334650127 -0.49879819866043429 0 -0.073215720090428676 -0.4821829531557279 0 -0.073930708743824014 -0.5 0 -0.070432776729382557 -0.499439633934667 0 -0.070432776729382557 -0.499439633934667 0 -0.066428792334650127 -0.49879819866043429 0 -0.075998663451462861 -0.46492627237678702 0 -0.073215720090428676 -0.4821829531557279 0 -0.0598446608959671 -0.47234324786530918 0 -0.075998663451462861 -0.46492627237678702 0 -0.073215720090428676 -0.4821829531557279 0 -0.075998663451462861 -0.46492627237678702 0 -0.073215720090428676 -0.4821829531557279 0 -0.096943934824277433 -0.48246313618838799 0 -0.075998663451462861 -0.46492627237678702 0 -0.088461346142124878 -0.46918885584544429 0 -0.096943934824277433 -0.48246313618838799 0 -0.075998663451462861 -0.46492627237678702 0 -0.096943934824277433 -0.48246313618838799 0 -0.073930708743824014 -0.5 0 -0.085000080282246926 -0.49116152233602889 0 -0.095909957470457607 -0.5 0 -0.073215720090428676 -0.4821829531557279 0 -0.085000080282246926 -0.49116152233602889 0 -0.096943934824277433 -0.48246313618838799 0 -0.085000080282246926 -0.49116152233602889 0 -0.095909957470457607 -0.5 0 -0.096943934824277433 -0.48246313618838799 0 -0.095909957470457607 -0.5 0 -0.096943934824277433 -0.48246313618838799 0 -0.1178892061970912 -0.49999999999999001 0 -0.096943934824277433 -0.48246313618838799 0 -0.1105411129606247 -0.48577809737254268 0 -0.1178892061970912 -0.49999999999999001 0 -0.096943934824277433 -0.48246313618838799 0 -0.1178892061970912 -0.49999999999999001 0 -0.099581019758423525 -0.48177926919511982 0 -0.1105285952551015 -0.47626720511810461 0 -0.1002293458837365 -0.46568478661365492 0 -0.088461346142124878 -0.46918885584544429 0 -0.099581019758423525 -0.48177926919511982 0 -0.1002293458837365 -0.46568478661365492 0 -0.096943934824277433 -0.48246313618838799 0 -0.099581019758423525 -0.48177926919511982 0 -0.1105411129606247 -0.48577809737254268 0 -0.099581019758423525 -0.48177926919511982 0 -0.1105285952551015 -0.47626720511810461 0 -0.1105411129606247 -0.48577809737254268 0 -0.088461346142124878 -0.46918885584544429 0 -0.096943934824277433 -0.48246313618838799 0 -0.099581019758423525 -0.48177926919511982 0 -0.088461346142124878 -0.46918885584544429 0 -0.099581019758423525 -0.48177926919511982 0 -0.12562936316753959 -0.48459663843924727 0 -0.1105285952551015 -0.47626720511810461 0 -0.1166621345051833 -0.46349723396995829 0 -0.12562936316753959 -0.48459663843924727 0 -0.1105285952551015 -0.47626720511810461 0 -0.1105411129606247 -0.48577809737254268 0 -0.12562936316753959 -0.48459663843924727 0 -0.1105411129606247 -0.48577809737254268 0 -0.1178892061970912 -0.49999999999999001 0 -0.1060296717450919 -0.43895550059384891 0 -0.098510386344841036 -0.44843721607081471 0 -0.11535549550408281 -0.44776612092937312 0 -0.1060296717450919 -0.43895550059384891 0 -0.098510386344841036 -0.44843721607081471 0 -0.095000465178971288 -0.43397562269992362 0 -0.098510386344841036 -0.44843721607081471 0 -0.1002293458837365 -0.46568478661365492 0 -0.1166621345051833 -0.46349723396995829 0 -0.088362841176097981 -0.45556513432898732 0 -0.098510386344841036 -0.44843721607081471 0 -0.1002293458837365 -0.46568478661365492 0 -0.1105285952551015 -0.47626720511810461 0 -0.1002293458837365 -0.46568478661365492 0 -0.1166621345051833 -0.46349723396995829 0 -0.1326752624444559 -0.44952647105154431 0 -0.1166621345051833 -0.46349723396995829 0 -0.11535549550408281 -0.44776612092937312 0 -0.098510386344841036 -0.44843721607081471 0 -0.1166621345051833 -0.46349723396995829 0 -0.11535549550408281 -0.44776612092937312 0 -0.1060296717450919 -0.43895550059384891 0 -0.11535549550408281 -0.44776612092937312 0 -0.12496787136215361 -0.4339165613104235 0 -0.1326752624444559 -0.44952647105154431 0 -0.11535549550408281 -0.44776612092937312 0 -0.12496787136215361 -0.4339165613104235 0 -0.12496787136215361 -0.4339165613104235 0 -0.108778842176733 -0.42631167000050862 0 -0.120959599556381 -0.41549173373414472 0 -0.1060296717450919 -0.43895550059384891 0 -0.12496787136215361 -0.4339165613104235 0 -0.108778842176733 -0.42631167000050862 0 -0.1060296717450919 -0.43895550059384891 0 -0.108778842176733 -0.42631167000050862 0 -0.095000465178971288 -0.43397562269992362 0 -0.108778842176733 -0.42631167000050862 0 -0.096301996708054394 -0.42197581891676761 0 -0.095000465178971288 -0.43397562269992362 0 -0.1066341615202806 -0.41245009760813017 0 -0.1000100163209541 -0.40191465924179581 0 -0.092898509508980737 -0.41072513746391232 0 -0.096301996708054394 -0.42197581891676761 0 -0.1066341615202806 -0.41245009760813017 0 -0.092898509508980737 -0.41072513746391232 0 -0.108778842176733 -0.42631167000050862 0 -0.096301996708054394 -0.42197581891676761 0 -0.1066341615202806 -0.41245009760813017 0 -0.1066341615202806 -0.41245009760813017 0 -0.120959599556381 -0.41549173373414472 0 -0.1136871912988944 -0.3994087876033266 0 -0.108778842176733 -0.42631167000050862 0 -0.1066341615202806 -0.41245009760813017 0 -0.120959599556381 -0.41549173373414472 0 -0.13443090869063479 -0.39674210597383047 0 -0.1136871912988944 -0.3994087876033266 0 -0.1189189738047052 -0.38103552782284372 0 -0.13443090869063479 -0.39674210597383047 0 -0.120959599556381 -0.41549173373414472 0 -0.1136871912988944 -0.3994087876033266 0 -0.1136871912988944 -0.3994087876033266 0 -0.1189189738047052 -0.38103552782284372 0 -0.1011663199564594 -0.38954342192769559 0 -0.13259445116056631 -0.37838894091975223 0 -0.1226461809765368 -0.36988971825261441 0 -0.1189189738047052 -0.38103552782284372 0 -0.1189189738047052 -0.38103552782284372 0 -0.1011663199564594 -0.38954342192769559 0 -0.1012111920376392 -0.37765999489378638 0 -0.1011663199564594 -0.38954342192769559 0 -0.1012111920376392 -0.37765999489378638 0 -0.090919329725029238 -0.38409929392679398 0 -0.1066341615202806 -0.41245009760813017 0 -0.1136871912988944 -0.3994087876033266 0 -0.1000100163209541 -0.40191465924179581 0 -0.1136871912988944 -0.3994087876033266 0 -0.1011663199564594 -0.38954342192769559 0 -0.1000100163209541 -0.40191465924179581 0 -0.1011663199564594 -0.38954342192769559 0 -0.1000100163209541 -0.40191465924179581 0 -0.085663899320155446 -0.39744585160591389 0 -0.1000100163209541 -0.40191465924179581 0 -0.085663899320155446 -0.39744585160591389 0 -0.092898509508980737 -0.41072513746391232 0 -0.085663899320155446 -0.39744585160591389 0 -0.080514072995979638 -0.38655709002360372 0 -0.072153594208100927 -0.39356484372612549 0 -0.085663899320155446 -0.39744585160591389 0 -0.073404285492539564 -0.4034580385923982 0 -0.080799930444246701 -0.41202620753445429 0 -0.087337676544553003 -0.37385362344970829 0 -0.1012111920376392 -0.37765999489378638 0 -0.090919329725029238 -0.38409929392679398 0 -0.087337676544553003 -0.37385362344970829 0 -0.090919329725029238 -0.38409929392679398 0 -0.080514072995979638 -0.38655709002360372 0 -0.1011663199564594 -0.38954342192769559 0 -0.085663899320155446 -0.39744585160591389 0 -0.090919329725029238 -0.38409929392679398 0 -0.085663899320155446 -0.39744585160591389 0 -0.090919329725029238 -0.38409929392679398 0 -0.080514072995979638 -0.38655709002360372 0 -0.087337676544553003 -0.37385362344970829 0 -0.080514072995979638 -0.38655709002360372 0 -0.066495865182059535 -0.38382183740947651 0 -0.07537242226362123 -0.37244333784596267 0 -0.087337676544553003 -0.37385362344970829 0 -0.066495865182059535 -0.38382183740947651 0 -0.087337676544553003 -0.37385362344970829 0 -0.066495865182059535 -0.38382183740947651 0 -0.080514072995979638 -0.38655709002360372 0 -0.066495865182059535 -0.38382183740947651 0 -0.072153594208100927 -0.39356484372612549 0 -0.067656658472595166 -0.3700164497304046 0 -0.059251390368185823 -0.37677745555530068 0 -0.066495865182059535 -0.38382183740947651 0 -0.067656658472595166 -0.3700164497304046 0 -0.07537242226362123 -0.37244333784596267 0 -0.066495865182059535 -0.38382183740947651 0 -0.058713691310575258 -0.39684335727616332 0 -0.073404285492539564 -0.4034580385923982 0 -0.069690312179619504 -0.41740993281933392 0 -0.085663899320155446 -0.39744585160591389 0 -0.073404285492539564 -0.4034580385923982 0 -0.072153594208100927 -0.39356484372612549 0 -0.058713691310575258 -0.39684335727616332 0 -0.066495865182059535 -0.38382183740947651 0 -0.072153594208100927 -0.39356484372612549 0 -0.058713691310575258 -0.39684335727616332 0 -0.073404285492539564 -0.4034580385923982 0 -0.072153594208100927 -0.39356484372612549 0 -0.058713691310575258 -0.39684335727616332 0 -0.069690312179619504 -0.41740993281933392 0 -0.073404285492539564 -0.4034580385923982 0 -0.069690312179619504 -0.41740993281933392 0 -0.080799930444246701 -0.41202620753445429 0 -0.069690312179619504 -0.41740993281933392 0 -0.081027478553660867 -0.42300325077828788 0 -0.080799930444246701 -0.41202620753445429 0 -0.080666933048662653 -0.43797650836250518 0 -0.069690312179619504 -0.41740993281933392 0 -0.060166594347046617 -0.42595820408477802 0 -0.080666933048662653 -0.43797650836250518 0 -0.060166594347046617 -0.42595820408477802 0 -0.080666933048662653 -0.43797650836250518 0 -0.069690312179619504 -0.41740993281933392 0 -0.080666933048662653 -0.43797650836250518 0 -0.069690312179619504 -0.41740993281933392 0 -0.081027478553660867 -0.42300325077828788 0 -0.060166594347046617 -0.42595820408477802 0 -0.071000407410356847 -0.44125052352622568 0 -0.080666933048662653 -0.43797650836250518 0 -0.058503964085629023 -0.4352691711514089 0 -0.060166594347046617 -0.42595820408477802 0 -0.071000407410356847 -0.44125052352622568 0 -0.081027478553660867 -0.42300325077828788 0 -0.087426454920050564 -0.42857114003059849 0 -0.087073546943310223 -0.41982124569753282 0 -0.080666933048662653 -0.43797650836250518 0 -0.081027478553660867 -0.42300325077828788 0 -0.087426454920050564 -0.42857114003059849 0 -0.080666933048662653 -0.43797650836250518 0 -0.095000465178971288 -0.43397562269992362 0 -0.087426454920050564 -0.42857114003059849 0 -0.096301996708054394 -0.42197581891676761 0 -0.087426454920050564 -0.42857114003059849 0 -0.087073546943310223 -0.41982124569753282 0 -0.096301996708054394 -0.42197581891676761 0 -0.095000465178971288 -0.43397562269992362 0 -0.087426454920050564 -0.42857114003059849 0 -0.096301996708054394 -0.42197581891676761 0 -0.087073546943310223 -0.41982124569753282 0 -0.092898509508980737 -0.41072513746391232 0 -0.087073546943310223 -0.41982124569753282 0 -0.092898509508980737 -0.41072513746391232 0 -0.080799930444246701 -0.41202620753445429 0 -0.085663899320155446 -0.39744585160591389 0 -0.092898509508980737 -0.41072513746391232 0 -0.080799930444246701 -0.41202620753445429 0 -0.081027478553660867 -0.42300325077828788 0 -0.087073546943310223 -0.41982124569753282 0 -0.080799930444246701 -0.41202620753445429 0 -0.085121348651617634 -0.093515325546903338 0 -0.084093252474648203 -0.07677281374373951 0 -0.1018736046674497 -0.092660573180311734 0 -0.084093252474648203 -0.07677281374373951 0 -0.081712930634359277 -0.071149165493217842 0 -0.10595996810019789 -0.069921147488086727 0 -0.081712930634359277 -0.071149165493217842 0 -0.093785621827228008 -0.063523245436259798 0 -0.085671122193315075 -0.061797578057771987 0 -0.081712930634359277 -0.071149165493217842 0 -0.085671122193315075 -0.061797578057771987 0 -0.077404331827614942 -0.061622854483345632 0 -0.084093252474648203 -0.07677281374373951 0 -0.081712930634359277 -0.071149165493217842 0 -0.062226536849098422 -0.083624479999391904 0 -0.081712930634359277 -0.071149165493217842 0 -0.057465893168520597 -0.07237718349834929 0 -0.081712930634359277 -0.071149165493217842 0 -0.062226536849098422 -0.083624479999391904 0 -0.057465893168520597 -0.07237718349834929 0 -0.081712930634359277 -0.071149165493217842 0 -0.070511756588334931 -0.066111828836122377 0 -0.057465893168520597 -0.07237718349834929 0 -0.081712930634359277 -0.071149165493217842 0 -0.070511756588334931 -0.066111828836122377 0 -0.077404331827614942 -0.061622854483345632 0 -0.070511756588334931 -0.066111828836122377 0 -0.064273762546583915 -0.064507423999310975 0 -0.057465893168520597 -0.07237718349834929 0 -0.070511756588334931 -0.066111828836122377 0 -0.064273762546583915 -0.064507423999310975 0 -0.068996332285565926 -0.059708601041779212 0 -0.085121348651617634 -0.093515325546903338 0 -0.071805168552596221 -0.1040637374611532 0 -0.062226536849098422 -0.083624479999391904 0 -0.084093252474648203 -0.07677281374373951 0 -0.062226536849098422 -0.083624479999391904 0 -0.085121348651617634 -0.093515325546903338 0 -0.084093252474648203 -0.07677281374373951 0 -0.062226536849098422 -0.083624479999391904 0 -0.071805168552596221 -0.1040637374611532 0 -0.062226536849098422 -0.083624479999391904 0 -0.054812213804794813 -0.1009967674702433 0 -0.071805168552596221 -0.1040637374611532 0 -0.061648602097330342 -0.12488921655819051 0 -0.054812213804794813 -0.1009967674702433 0 -0.071805168552596221 -0.1040637374611532 0 -0.092549977507218814 -0.1156652458811276 0 -0.061648602097330342 -0.12488921655819051 0 -0.085121348651617634 -0.093515325546903338 0 -0.092549977507218814 -0.1156652458811276 0 -0.1018736046674497 -0.092660573180311734 0 -0.085121348651617634 -0.093515325546903338 0 -0.071805168552596221 -0.1040637374611532 0 -0.092549977507218814 -0.1156652458811276 0 -0.092549977507218814 -0.1156652458811276 0 -0.1148487973200176 -0.099993361684772644 0 -0.1018736046674497 -0.092660573180311734 0 -0.092549977507218814 -0.1156652458811276 0 -0.1018736046674497 -0.092660573180311734 0 -0.092549977507218814 -0.1156652458811276 0 -0.1197664355065898 -0.1134613506783357 0 -0.1107012318907423 -0.12666355278782451 0 -0.092549977507218814 -0.1156652458811276 0 -0.1197664355065898 -0.1134613506783357 0 -0.1148487973200176 -0.099993361684772644 0 -0.1148487973200176 -0.099993361684772644 0 -0.1193594422888926 -0.089956040382980662 0 -0.1018736046674497 -0.092660573180311734 0 -0.1197664355065898 -0.1134613506783357 0 -0.1148487973200176 -0.099993361684772644 0 -0.12926418829970049 -0.099954548558512615 0 -0.1148487973200176 -0.099993361684772644 0 -0.1193594422888926 -0.089956040382980662 0 -0.12926418829970049 -0.099954548558512615 0 -0.1185069668054889 -0.079191918244455234 0 -0.1018736046674497 -0.092660573180311734 0 -0.1111972318276819 -0.069655900479496297 0 -0.1193594422888926 -0.089956040382980662 0 -0.1185069668054889 -0.079191918244455234 0 -0.1018736046674497 -0.092660573180311734 0 -0.1193594422888926 -0.089956040382980662 0 -0.1185069668054889 -0.079191918244455234 0 -0.13151349030026979 -0.080911988378094352 0 -0.1018736046674497 -0.092660573180311734 0 -0.1111972318276819 -0.069655900479496297 0 -0.084093252474648203 -0.07677281374373951 0 -0.1018736046674497 -0.092660573180311734 0 -0.10595996810019789 -0.069921147488086727 0 -0.081712930634359277 -0.071149165493217842 0 -0.093785621827228008 -0.063523245436259798 0 -0.10595996810019789 -0.069921147488086727 0 -0.081712930634359277 -0.071149165493217842 0 -0.10595996810019789 -0.069921147488086727 0 -0.1018736046674497 -0.092660573180311734 0 -0.10595996810019789 -0.069921147488086727 0 -0.1111972318276819 -0.069655900479496297 0 -0.084093252474648203 -0.07677281374373951 0 -0.10595996810019789 -0.069921147488086727 0 -0.093785621827228008 -0.063523245436259798 0 -0.10595996810019789 -0.069921147488086727 0 -0.10372281895516459 -0.05751000839004719 0 -0.10595996810019789 -0.069921147488086727 0 -0.1118359392641856 -0.068079984231890905 0 -0.10595996810019789 -0.069921147488086727 0 -0.1111972318276819 -0.069655900479496297 0 -0.10595996810019789 -0.069921147488086727 0 -0.1118359392641856 -0.068079984231890905 0 -0.10372281895516459 -0.05751000839004719 0 -0.1185069668054889 -0.079191918244455234 0 -0.1111972318276819 -0.069655900479496297 0 -0.12685500174418551 -0.068862895420435014 0 -0.1111972318276819 -0.069655900479496297 0 -0.1118359392641856 -0.068079984231890905 0 -0.12685500174418551 -0.068862895420435014 0 -0.1118359392641856 -0.068079984231890905 0 -0.12685500174418551 -0.068862895420435014 0 -0.1314094142815225 -0.061946876700850903 0 -0.1111972318276819 -0.069655900479496297 0 -0.12685500174418551 -0.068862895420435014 0 -0.1118359392641856 -0.068079984231890905 0 -0.1314094142815225 -0.061946876700850903 0 -0.10595996810019789 -0.069921147488086727 0 -0.1111972318276819 -0.069655900479496297 0 -0.1118359392641856 -0.068079984231890905 0 -0.1111972318276819 -0.069655900479496297 0 -0.1118359392641856 -0.068079984231890905 0 -0.1118359392641856 -0.068079984231890905 0 -0.1180762524873999 -0.052682933193331519 0 -0.1314094142815225 -0.061946876700850903 0 -0.1118359392641856 -0.068079984231890905 0 -0.1180762524873999 -0.052682933193331519 0 -0.1118359392641856 -0.068079984231890905 0 -0.1180762524873999 -0.052682933193331519 0 -0.10372281895516459 -0.05751000839004719 0 -0.1180762524873999 -0.052682933193331519 0 -0.1100228299656686 -0.045268843154629507 0 -0.10372281895516459 -0.05751000839004719 0 -0.1180762524873999 -0.052682933193331519 0 -0.1158801847687379 -0.036021262923754571 0 -0.1100228299656686 -0.045268843154629507 0 -0.1180762524873999 -0.052682933193331519 0 -0.1243165657106118 -0.037285882154771167 0 -0.1158801847687379 -0.036021262923754571 0 -0.1180762524873999 -0.052682933193331519 0 -0.1243165657106118 -0.037285882154771167 0 -0.1180762524873999 -0.052682933193331519 0 -0.1243165657106118 -0.037285882154771167 0 -0.1305707563616865 -0.050120171825992307 0 -0.1243165657106118 -0.037285882154771167 0 -0.1152946405117177 -0.033074726812632571 0 -0.1243165657106118 -0.037285882154771167 0 -0.1152946405117177 -0.033074726812632571 0 -0.129661637862758 -0.024097706211081479 0 -0.1243165657106118 -0.037285882154771167 0 -0.1152946405117177 -0.033074726812632571 0 -0.1158801847687379 -0.036021262923754571 0 -0.1152946405117177 -0.033074726812632571 0 -0.1158801847687379 -0.036021262923754571 0 -0.1067915648780151 -0.034790456911272853 0 -0.1158801847687379 -0.036021262923754571 0 -0.1100228299656686 -0.045268843154629507 0 -0.1067915648780151 -0.034790456911272853 0 -0.1152946405117177 -0.033074726812632571 0 -0.1158801847687379 -0.036021262923754571 0 -0.1100228299656686 -0.045268843154629507 0 -0.099729918399412087 -0.036905052636477829 0 -0.094105773240575924 -0.047080786473775789 0 -0.1100228299656686 -0.045268843154629507 0 -0.1067915648780151 -0.034790456911272853 0 -0.099729918399412087 -0.036905052636477829 0 -0.1067915648780151 -0.034790456911272853 0 -0.099729918399412087 -0.036905052636477829 0 -0.09303025074453905 -0.02268239902886977 0 -0.099729918399412087 -0.036905052636477829 0 -0.09303025074453905 -0.02268239902886977 0 -0.091209952172701725 -0.0344874428119432 0 -0.099729918399412087 -0.036905052636477829 0 -0.094105773240575924 -0.047080786473775789 0 -0.091209952172701725 -0.0344874428119432 0 -0.094105773240575924 -0.047080786473775789 0 -0.10372281895516459 -0.05751000839004719 0 -0.091878487187036229 -0.055987258686672203 0 -0.1100228299656686 -0.045268843154629507 0 -0.094105773240575924 -0.047080786473775789 0 -0.10372281895516459 -0.05751000839004719 0 -0.093785621827228008 -0.063523245436259798 0 -0.10372281895516459 -0.05751000839004719 0 -0.091878487187036229 -0.055987258686672203 0 -0.11237639501065511 -0.018389729655040189 0 -0.10731828618425041 0.0070633426487658807 0 -0.115421237406118 0.0038974226475877302 0 -0.13388815263487219 -0.013669405365648301 0 -0.115421237406118 0.0038974226475877302 0 -0.1229760097893568 -0.015317431265900249 0 -0.13388815263487219 -0.013669405365648301 0 -0.115421237406118 0.0038974226475877302 0 -0.1229760097893568 -0.015317431265900249 0 -0.11237639501065511 -0.018389729655040189 0 -0.115421237406118 0.0038974226475877302 0 -0.11237639501065511 -0.018389729655040189 0 -0.10731828618425041 0.0070633426487658807 0 -0.11237639501065511 -0.018389729655040189 0 -0.129661637862758 -0.024097706211081479 0 -0.1152946405117177 -0.033074726812632571 0 -0.11237639501065511 -0.018389729655040189 0 -0.129661637862758 -0.024097706211081479 0 -0.1229760097893568 -0.015317431265900249 0 -0.11237639501065511 -0.018389729655040189 0 -0.129661637862758 -0.024097706211081479 0 -0.1152946405117177 -0.033074726812632571 0 -0.11237639501065511 -0.018389729655040189 0 -0.11237639501065511 -0.018389729655040189 0 -0.091478143864519551 -0.01148865637392279 0 -0.09303025074453905 -0.02268239902886977 0 -0.1152946405117177 -0.033074726812632571 0 -0.11237639501065511 -0.018389729655040189 0 -0.09303025074453905 -0.02268239902886977 0 -0.1152946405117177 -0.033074726812632571 0 -0.1067915648780151 -0.034790456911272853 0 -0.09303025074453905 -0.02268239902886977 0 -0.1152946405117177 -0.033074726812632571 0 -0.09303025074453905 -0.02268239902886977 0 -0.091478143864519551 -0.01148865637392279 0 -0.10731828618425041 0.0070633426487658807 0 -0.084050593584032163 0.001111998914709314 0 -0.11237639501065511 -0.018389729655040189 0 -0.091478143864519551 -0.01148865637392279 0 -0.11237639501065511 -0.018389729655040189 0 -0.091478143864519551 -0.01148865637392279 0 -0.10731828618425041 0.0070633426487658807 0 -0.091478143864519551 -0.01148865637392279 0 -0.070579892718384968 -0.0045875830928024802 0 -0.084050593584032163 0.001111998914709314 0 -0.091478143864519551 -0.01148865637392279 0 -0.09303025074453905 -0.02268239902886977 0 -0.070765860977360595 -0.01229007124510661 0 -0.091478143864519551 -0.01148865637392279 0 -0.070579892718384968 -0.0045875830928024802 0 -0.09303025074453905 -0.02268239902886977 0 -0.075836862530712354 -0.02187803746272721 0 -0.070765860977360595 -0.01229007124510661 0 -0.09303025074453905 -0.02268239902886977 0 -0.070765860977360595 -0.01229007124510661 0 -0.09303025074453905 -0.02268239902886977 0 -0.083922905148109669 -0.029218330690795231 0 -0.075836862530712354 -0.02187803746272721 0 -0.09303025074453905 -0.02268239902886977 0 -0.083922905148109669 -0.029218330690795231 0 -0.091209952172701725 -0.0344874428119432 0 -0.083922905148109669 -0.029218330690795231 0 -0.076216276141672396 -0.028975386116667719 0 -0.075836862530712354 -0.02187803746272721 0 -0.076216276141672396 -0.028975386116667719 0 -0.066006548112949329 -0.02409954294808047 0 -0.075836862530712354 -0.02187803746272721 0 -0.076216276141672396 -0.028975386116667719 0 -0.066006548112949329 -0.02409954294808047 0 -0.067817524913031654 -0.034383574657083957 0 -0.066006548112949329 -0.02409954294808047 0 -0.067817524913031654 -0.034383574657083957 0 -0.060563186342001918 -0.030678451849418229 0 -0.063833509810142547 -0.01579514946321546 0 -0.075836862530712354 -0.02187803746272721 0 -0.070765860977360595 -0.01229007124510661 0 -0.066006548112949329 -0.02409954294808047 0 -0.063833509810142547 -0.01579514946321546 0 -0.075836862530712354 -0.02187803746272721 0 -0.091478143864519551 -0.01148865637392279 0 -0.070765860977360595 -0.01229007124510661 0 -0.070579892718384968 -0.0045875830928024802 0 -0.063833509810142547 -0.01579514946321546 0 -0.070579892718384968 -0.0045875830928024802 0 -0.055597394141078033 -0.012098423177702921 0 -0.063833509810142547 -0.01579514946321546 0 -0.070765860977360595 -0.01229007124510661 0 -0.070579892718384968 -0.0045875830928024802 0 -0.084073992507387021 -0.048891523862600282 0 -0.07761660528501986 -0.043888577427313218 0 -0.074609913906252615 -0.051681130710448962 0 -0.084073992507387021 -0.048891523862600282 0 -0.083179378876476764 -0.056679506123679772 0 -0.074609913906252615 -0.051681130710448962 0 -0.083179378876476764 -0.056679506123679772 0 -0.074609913906252615 -0.051681130710448962 0 -0.077404331827614942 -0.061622854483345632 0 -0.085671122193315075 -0.061797578057771987 0 -0.083179378876476764 -0.056679506123679772 0 -0.077404331827614942 -0.061622854483345632 0 -0.085671122193315075 -0.061797578057771987 0 -0.083179378876476764 -0.056679506123679772 0 -0.091878487187036229 -0.055987258686672203 0 -0.093785621827228008 -0.063523245436259798 0 -0.085671122193315075 -0.061797578057771987 0 -0.091878487187036229 -0.055987258686672203 0 -0.094105773240575924 -0.047080786473775789 0 -0.084073992507387021 -0.048891523862600282 0 -0.091878487187036229 -0.055987258686672203 0 -0.084073992507387021 -0.048891523862600282 0 -0.083179378876476764 -0.056679506123679772 0 -0.091878487187036229 -0.055987258686672203 0 -0.094105773240575924 -0.047080786473775789 0 -0.091209952172701725 -0.0344874428119432 0 -0.083321184150922781 -0.038068388033768247 0 -0.094105773240575924 -0.047080786473775789 0 -0.084073992507387021 -0.048891523862600282 0 -0.083321184150922781 -0.038068388033768247 0 -0.083922905148109669 -0.029218330690795231 0 -0.091209952172701725 -0.0344874428119432 0 -0.083321184150922781 -0.038068388033768247 0 -0.076216276141672396 -0.028975386116667719 0 -0.083321184150922781 -0.038068388033768247 0 -0.075168205100816704 -0.037510236122552137 0 -0.083922905148109669 -0.029218330690795231 0 -0.076216276141672396 -0.028975386116667719 0 -0.083321184150922781 -0.038068388033768247 0 -0.084073992507387021 -0.048891523862600282 0 -0.083321184150922781 -0.038068388033768247 0 -0.07761660528501986 -0.043888577427313218 0 -0.083321184150922781 -0.038068388033768247 0 -0.07761660528501986 -0.043888577427313218 0 -0.075168205100816704 -0.037510236122552137 0 -0.07761660528501986 -0.043888577427313218 0 -0.070909730759720166 -0.043291608407196487 0 -0.074609913906252615 -0.051681130710448962 0 -0.07761660528501986 -0.043888577427313218 0 -0.070909730759720166 -0.043291608407196487 0 -0.075168205100816704 -0.037510236122552137 0 -0.076216276141672396 -0.028975386116667719 0 -0.075168205100816704 -0.037510236122552137 0 -0.067817524913031654 -0.034383574657083957 0 -0.070909730759720166 -0.043291608407196487 0 -0.075168205100816704 -0.037510236122552137 0 -0.067817524913031654 -0.034383574657083957 0 -0.067817524913031654 -0.034383574657083957 0 -0.059439833618373031 -0.037270958092453142 0 -0.060563186342001918 -0.030678451849418229 0 -0.067817524913031654 -0.034383574657083957 0 -0.063055382618229558 -0.044101688489750213 0 -0.059439833618373031 -0.037270958092453142 0 -0.070909730759720166 -0.043291608407196487 0 -0.063055382618229558 -0.044101688489750213 0 -0.065988567129932812 -0.051509679174690577 0 -0.070909730759720166 -0.043291608407196487 0 -0.067817524913031654 -0.034383574657083957 0 -0.063055382618229558 -0.044101688489750213 0 -0.065988567129932812 -0.051509679174690577 0 -0.074609913906252615 -0.051681130710448962 0 -0.068996332285565926 -0.059708601041779212 0 -0.063055382618229558 -0.044101688489750213 0 -0.065988567129932812 -0.051509679174690577 0 -0.058802627665712412 -0.050691696208102377 0 -0.070909730759720166 -0.043291608407196487 0 -0.065988567129932812 -0.051509679174690577 0 -0.074609913906252615 -0.051681130710448962 0 -0.074609913906252615 -0.051681130710448962 0 -0.077404331827614942 -0.061622854483345632 0 -0.068996332285565926 -0.059708601041779212 0 -0.070511756588334931 -0.066111828836122377 0 -0.077404331827614942 -0.061622854483345632 0 -0.068996332285565926 -0.059708601041779212 0 -0.064273762546583915 -0.064507423999310975 0 -0.068996332285565926 -0.059708601041779212 0 -0.059557415544116317 -0.059583350190866233 0 -0.065988567129932812 -0.051509679174690577 0 -0.068996332285565926 -0.059708601041779212 0 -0.059557415544116317 -0.059583350190866233 0 -0.059557415544116317 -0.059583350190866233 0 -0.051241005727689651 -0.05398436161734247 0 -0.058802627665712412 -0.050691696208102377 0 -0.059557415544116317 -0.059583350190866233 0 -0.051241005727689651 -0.05398436161734247 0 -0.048858990635499207 -0.063557812587392709 0 -0.051241005727689651 -0.05398436161734247 0 -0.041575393360239042 -0.057917819222277282 0 -0.048858990635499207 -0.063557812587392709 0 -0.051241005727689651 -0.05398436161734247 0 -0.053316177819090912 -0.043788990979819101 0 -0.045335429341480042 -0.048366500515597162 0 -0.051241005727689651 -0.05398436161734247 0 -0.058802627665712412 -0.050691696208102377 0 -0.053316177819090912 -0.043788990979819101 0 -0.065988567129932812 -0.051509679174690577 0 -0.059557415544116317 -0.059583350190866233 0 -0.058802627665712412 -0.050691696208102377 0 -0.063055382618229558 -0.044101688489750213 0 -0.058802627665712412 -0.050691696208102377 0 -0.053316177819090912 -0.043788990979819101 0 -0.063055382618229558 -0.044101688489750213 0 -0.059439833618373031 -0.037270958092453142 0 -0.053316177819090912 -0.043788990979819101 0 -0.059439833618373031 -0.037270958092453142 0 -0.052460492140788843 -0.033681733577358333 0 -0.053316177819090912 -0.043788990979819101 0 -0.059439833618373031 -0.037270958092453142 0 -0.052460492140788843 -0.033681733577358333 0 -0.060563186342001918 -0.030678451849418229 0 -0.052460492140788843 -0.033681733577358333 0 -0.053316177819090912 -0.043788990979819101 0 -0.043133115080469998 -0.0378512130611032 0 -0.053316177819090912 -0.043788990979819101 0 -0.043133115080469998 -0.0378512130611032 0 -0.045335429341480042 -0.048366500515597162 0 -0.043133115080469998 -0.0378512130611032 0 -0.036771226277611702 -0.048794884003420698 0 -0.045335429341480042 -0.048366500515597162 0 -0.043133115080469998 -0.0378512130611032 0 -0.035318741583163081 -0.033418396560087507 0 -0.04404298669544808 -0.025477361607211889 0 -0.052460492140788843 -0.033681733577358333 0 -0.043133115080469998 -0.0378512130611032 0 -0.04404298669544808 -0.025477361607211889 0 -0.043133115080469998 -0.0378512130611032 0 -0.035318741583163081 -0.033418396560087507 0 -0.032009442176318362 -0.041180919834756149 0 -0.035318741583163081 -0.033418396560087507 0 -0.032009442176318362 -0.041180919834756149 0 -0.02650779185117209 -0.034712317325755228 0 -0.043133115080469998 -0.0378512130611032 0 -0.032009442176318362 -0.041180919834756149 0 -0.036771226277611702 -0.048794884003420698 0 -0.032009442176318362 -0.041180919834756149 0 -0.036771226277611702 -0.048794884003420698 0 -0.028072631711523539 -0.050235024755243607 0 -0.036771226277611702 -0.048794884003420698 0 -0.032835778826248913 -0.057768631337160752 0 -0.028072631711523539 -0.050235024755243607 0 -0.036771226277611702 -0.048794884003420698 0 -0.032835778826248913 -0.057768631337160752 0 -0.041575393360239042 -0.057917819222277282 0 -0.051241005727689651 -0.05398436161734247 0 -0.041575393360239042 -0.057917819222277282 0 -0.045335429341480042 -0.048366500515597162 0 -0.036771226277611702 -0.048794884003420698 0 -0.041575393360239042 -0.057917819222277282 0 -0.045335429341480042 -0.048366500515597162 0 -0.055597394141078033 -0.012098423177702921 0 -0.040652470999425649 -0.013773316754344929 0 -0.049681641572250398 0.0023134901883178609 0 -0.070579892718384968 -0.0045875830928024802 0 -0.055597394141078033 -0.012098423177702921 0 -0.049681641572250398 0.0023134901883178609 0 -0.070579892718384968 -0.0045875830928024802 0 -0.049681641572250398 0.0023134901883178609 0 -0.070579892718384968 -0.0045875830928024802 0 -0.055871588299595161 0.001039935613227596 0 -0.049681641572250398 0.0023134901883178609 0 -0.055597394141078033 -0.012098423177702921 0 -0.056045301882545237 -0.024504376994546329 0 -0.04404298669544808 -0.025477361607211889 0 -0.066006548112949329 -0.02409954294808047 0 -0.063833509810142547 -0.01579514946321546 0 -0.056045301882545237 -0.024504376994546329 0 -0.063833509810142547 -0.01579514946321546 0 -0.055597394141078033 -0.012098423177702921 0 -0.056045301882545237 -0.024504376994546329 0 -0.066006548112949329 -0.02409954294808047 0 -0.056045301882545237 -0.024504376994546329 0 -0.060563186342001918 -0.030678451849418229 0 -0.052460492140788843 -0.033681733577358333 0 -0.056045301882545237 -0.024504376994546329 0 -0.060563186342001918 -0.030678451849418229 0 -0.052460492140788843 -0.033681733577358333 0 -0.056045301882545237 -0.024504376994546329 0 -0.04404298669544808 -0.025477361607211889 0 -0.035318741583163081 -0.033418396560087507 0 -0.0319247489672356 -0.025267797813468829 0 -0.02650779185117209 -0.034712317325755228 0 -0.035318741583163081 -0.033418396560087507 0 -0.04404298669544808 -0.025477361607211889 0 -0.0319247489672356 -0.025267797813468829 0 -0.0319247489672356 -0.025267797813468829 0 -0.040652470999425649 -0.013773316754344929 0 -0.03028449254791489 -0.01520108695392809 0 -0.04404298669544808 -0.025477361607211889 0 -0.0319247489672356 -0.025267797813468829 0 -0.040652470999425649 -0.013773316754344929 0 -0.055597394141078033 -0.012098423177702921 0 -0.04404298669544808 -0.025477361607211889 0 -0.040652470999425649 -0.013773316754344929 0 -0.040652470999425649 -0.013773316754344929 0 -0.033170396118065902 -0.0054912752601619817 0 -0.049681641572250398 0.0023134901883178609 0 -0.040652470999425649 -0.013773316754344929 0 -0.033170396118065902 -0.0054912752601619817 0 -0.03028449254791489 -0.01520108695392809 0 -0.01822927046639845 -0.00031441950359401032 0 -0.020819304095042519 -0.0051932248197874868 0 -0.01430842160679568 -0.0054777922160815307 0 -0.020819304095042519 -0.0051932248197874868 0 -0.017054753229641562 -0.01010374054850853 0 -0.01430842160679568 -0.0054777922160815307 0 -0.01822927046639845 -0.00031441950359401032 0 -0.020819304095042519 -0.0051932248197874868 0 -0.025697331113898651 -0.001019181671247186 0 -0.020819304095042519 -0.0051932248197874868 0 -0.025697331113898651 -0.001019181671247186 0 -0.025232460446407031 -0.0095735253431606486 0 -0.033170396118065902 -0.0054912752601619817 0 -0.025697331113898651 -0.001019181671247186 0 -0.025232460446407031 -0.0095735253431606486 0 -0.025232460446407031 -0.0095735253431606486 0 -0.03028449254791489 -0.01520108695392809 0 -0.02140711668778425 -0.018503829519432191 0 -0.033170396118065902 -0.0054912752601619817 0 -0.025232460446407031 -0.0095735253431606486 0 -0.03028449254791489 -0.01520108695392809 0 -0.020819304095042519 -0.0051932248197874868 0 -0.025232460446407031 -0.0095735253431606486 0 -0.017054753229641562 -0.01010374054850853 0 -0.017054753229641562 -0.01010374054850853 0 -0.02140711668778425 -0.018503829519432191 0 -0.01103242181635896 -0.016431797918988949 0 -0.025232460446407031 -0.0095735253431606486 0 -0.017054753229641562 -0.01010374054850853 0 -0.02140711668778425 -0.018503829519432191 0 -0.02140711668778425 -0.018503829519432191 0 -0.02041827482114723 -0.027929427222219569 0 -0.01438503022545649 -0.023321585796214801 0 -0.0319247489672356 -0.025267797813468829 0 -0.03028449254791489 -0.01520108695392809 0 -0.02140711668778425 -0.018503829519432191 0 -0.0319247489672356 -0.025267797813468829 0 -0.02140711668778425 -0.018503829519432191 0 -0.02041827482114723 -0.027929427222219569 0 -0.0319247489672356 -0.025267797813468829 0 -0.02041827482114723 -0.027929427222219569 0 -0.02650779185117209 -0.034712317325755228 0 -0.02041827482114723 -0.027929427222219569 0 -0.01194976394671118 -0.03043769928127029 0 -0.01438503022545649 -0.023321585796214801 0 -0.01194976394671118 -0.03043769928127029 0 -0.0070757350787885101 -0.02576754167518976 0 -0.01438503022545649 -0.023321585796214801 0 -0.01194976394671118 -0.03043769928127029 0 -0.0070757350787885101 -0.02576754167518976 0 -0.0037506427981634418 -0.031297219054649952 0 -0.0070757350787885101 -0.02576754167518976 0 -0.0037506427981634418 -0.031297219054649952 0 5.7915888156767563e-05 -0.026155355212212461 0 -0.0037506427981634418 -0.031297219054649952 0 5.7915888156767563e-05 -0.026155355212212461 0 0.0019358410081795571 -0.032695467817506943 0 -0.0070757350787885101 -0.02576754167518976 0 -0.0035256653559218852 -0.01963818636738987 0 5.7915888156767563e-05 -0.026155355212212461 0 -0.0070757350787885101 -0.02576754167518976 0 -0.0035256653559218852 -0.01963818636738987 0 -0.01103242181635896 -0.016431797918988949 0 -0.0035256653559218852 -0.01963818636738987 0 -0.0041712514997064359 -0.01348727575066128 0 0.0042919125402528166 -0.018312964280429781 0 -0.0035256653559218852 -0.01963818636738987 0 -0.01103242181635896 -0.016431797918988949 0 -0.0041712514997064359 -0.01348727575066128 0 -0.02140711668778425 -0.018503829519432191 0 -0.01103242181635896 -0.016431797918988949 0 -0.01438503022545649 -0.023321585796214801 0 -0.0070757350787885101 -0.02576754167518976 0 -0.01103242181635896 -0.016431797918988949 0 -0.01438503022545649 -0.023321585796214801 0 -0.01103242181635896 -0.016431797918988949 0 -0.0085380144725274738 -0.0085964930674775376 0 -0.0041712514997064359 -0.01348727575066128 0 -0.017054753229641562 -0.01010374054850853 0 -0.0085380144725274738 -0.0085964930674775376 0 -0.01430842160679568 -0.0054777922160815307 0 -0.017054753229641562 -0.01010374054850853 0 -0.01103242181635896 -0.016431797918988949 0 -0.0085380144725274738 -0.0085964930674775376 0 -0.0085380144725274738 -0.0085964930674775376 0 -0.0041712514997064359 -0.01348727575066128 0 0.001191863774382809 -0.0090902042722187295 0 -0.0085380144725274738 -0.0085964930674775376 0 -0.0034533735751615269 -0.0031200744777948779 0 -0.01066505372454833 -0.001757425859714128 0 -0.0085380144725274738 -0.0085964930674775376 0 -0.0034533735751615269 -0.0031200744777948779 0 0.001191863774382809 -0.0090902042722187295 0 -0.0034533735751615269 -0.0031200744777948779 0 -0.01066505372454833 -0.001757425859714128 0 -0.0062888108209585569 0.0031791802248136341 0 -0.0085380144725274738 -0.0085964930674775376 0 -0.01066505372454833 -0.001757425859714128 0 -0.01430842160679568 -0.0054777922160815307 0 -0.01822927046639845 -0.00031441950359401032 0 -0.01066505372454833 -0.001757425859714128 0 -0.01430842160679568 -0.0054777922160815307 0 -0.019165685720290551 -0.051170256914350537 0 -0.028072631711523539 -0.050235024755243607 0 -0.022812841827356881 -0.042945024342257068 0 -0.019165685720290551 -0.051170256914350537 0 -0.02484081544131489 -0.059550432099516513 0 -0.01562021385551344 -0.059032194811479401 0 -0.02484081544131489 -0.059550432099516513 0 -0.01562021385551344 -0.059032194811479401 0 -0.020233984782169871 -0.066353129958941201 0 -0.032835778826248913 -0.057768631337160752 0 -0.02484081544131489 -0.059550432099516513 0 -0.028072631711523539 -0.050235024755243607 0 -0.019165685720290551 -0.051170256914350537 0 -0.02484081544131489 -0.059550432099516513 0 -0.028072631711523539 -0.050235024755243607 0 -0.032009442176318362 -0.041180919834756149 0 -0.02650779185117209 -0.034712317325755228 0 -0.022812841827356881 -0.042945024342257068 0 -0.032009442176318362 -0.041180919834756149 0 -0.028072631711523539 -0.050235024755243607 0 -0.022812841827356881 -0.042945024342257068 0 -0.02041827482114723 -0.027929427222219569 0 -0.01194976394671118 -0.03043769928127029 0 -0.0171822232213804 -0.036733759566935663 0 -0.02650779185117209 -0.034712317325755228 0 -0.0171822232213804 -0.036733759566935663 0 -0.022812841827356881 -0.042945024342257068 0 -0.02041827482114723 -0.027929427222219569 0 -0.02650779185117209 -0.034712317325755228 0 -0.0171822232213804 -0.036733759566935663 0 -0.0171822232213804 -0.036733759566935663 0 -0.022812841827356881 -0.042945024342257068 0 -0.0140415342339952 -0.044499714340058463 0 -0.019165685720290551 -0.051170256914350537 0 -0.022812841827356881 -0.042945024342257068 0 -0.0140415342339952 -0.044499714340058463 0 -0.0140415342339952 -0.044499714340058463 0 -0.0089955885354296664 -0.037740803160019223 0 -0.0057778322456747506 -0.045595879282600241 0 -0.0171822232213804 -0.036733759566935663 0 -0.0140415342339952 -0.044499714340058463 0 -0.0089955885354296664 -0.037740803160019223 0 -0.01194976394671118 -0.03043769928127029 0 -0.0171822232213804 -0.036733759566935663 0 -0.0089955885354296664 -0.037740803160019223 0 -0.01194976394671118 -0.03043769928127029 0 -0.0089955885354296664 -0.037740803160019223 0 -0.0037506427981634418 -0.031297219054649952 0 -0.0089955885354296664 -0.037740803160019223 0 -0.0011134606268889721 -0.038751911902321259 0 -0.0037506427981634418 -0.031297219054649952 0 -0.0011134606268889721 -0.038751911902321259 0 -0.0037506427981634418 -0.031297219054649952 0 0.0019358410081795571 -0.032695467817506943 0 -0.0089955885354296664 -0.037740803160019223 0 -0.0011134606268889721 -0.038751911902321259 0 -0.0057778322456747506 -0.045595879282600241 0 -0.0011134606268889721 -0.038751911902321259 0 -0.0057778322456747506 -0.045595879282600241 0 0.0023695236378624179 -0.046215750652769019 0 -0.0057778322456747506 -0.045595879282600241 0 -0.0026109280900245349 -0.053392068635790643 0 -0.010817080933450541 -0.052312421448159292 0 -0.0057778322456747506 -0.045595879282600241 0 -0.0026109280900245349 -0.053392068635790643 0 0.0023695236378624179 -0.046215750652769019 0 -0.0140415342339952 -0.044499714340058463 0 -0.0057778322456747506 -0.045595879282600241 0 -0.010817080933450541 -0.052312421448159292 0 -0.019165685720290551 -0.051170256914350537 0 -0.0140415342339952 -0.044499714340058463 0 -0.010817080933450541 -0.052312421448159292 0 -0.019165685720290551 -0.051170256914350537 0 -0.010817080933450541 -0.052312421448159292 0 -0.01562021385551344 -0.059032194811479401 0 -0.01562021385551344 -0.059032194811479401 0 -0.007626355421953215 -0.060223827877410957 0 -0.01152889299361355 -0.065774934690106979 0 -0.010817080933450541 -0.052312421448159292 0 -0.01562021385551344 -0.059032194811479401 0 -0.007626355421953215 -0.060223827877410957 0 -0.0026109280900245349 -0.053392068635790643 0 -0.010817080933450541 -0.052312421448159292 0 -0.007626355421953215 -0.060223827877410957 0 -0.007626355421953215 -0.060223827877410957 0 -0.0050778254206319791 -0.066061630188663956 0 9.7351971471751713e-05 -0.060723252509624827 0 -0.0026109280900245349 -0.053392068635790643 0 -0.007626355421953215 -0.060223827877410957 0 9.7351971471751713e-05 -0.060723252509624827 0 -0.0050778254206319791 -0.066061630188663956 0 0.0024170205478812878 -0.068542929743318284 0 9.7351971471751713e-05 -0.060723252509624827 0 -0.0050778254206319791 -0.066061630188663956 0 -0.0089718182368431348 -0.0748332195086122 0 0.0024170205478812878 -0.068542929743318284 0 -0.0089718182368431348 -0.0748332195086122 0 -0.010720750878320459 -0.0767770934561227 0 0.0090880749120619449 -0.079712998134601809 0 -0.0089718182368431348 -0.0748332195086122 0 -0.010720750878320459 -0.0767770934561227 0 -0.018476802160215331 -0.079228087899066227 0 -0.0050778254206319791 -0.066061630188663956 0 -0.0089718182368431348 -0.0748332195086122 0 -0.01152889299361355 -0.065774934690106979 0 -0.0089718182368431348 -0.0748332195086122 0 -0.01152889299361355 -0.065774934690106979 0 -0.020233984782169871 -0.066353129958941201 0 -0.007626355421953215 -0.060223827877410957 0 -0.0050778254206319791 -0.066061630188663956 0 -0.01152889299361355 -0.065774934690106979 0 -0.010720750878320459 -0.0767770934561227 0 -0.0047025153429677627 -0.088520405322652831 0 0.0090880749120619449 -0.079712998134601809 0 -0.010720750878320459 -0.0767770934561227 0 0.0090880749120619449 -0.079712998134601809 0 -0.0047025153429677627 -0.088520405322652831 0 -0.0048344039766217871 -0.096875899798362419 0 0.0048874746098515869 -0.094744987113775284 0 -0.010720750878320459 -0.0767770934561227 0 -0.0047025153429677627 -0.088520405322652831 0 -0.014809947977283361 -0.085581527107333577 0 -0.010720750878320459 -0.0767770934561227 0 -0.014809947977283361 -0.085581527107333577 0 -0.018476802160215331 -0.079228087899066227 0 -0.0047025153429677627 -0.088520405322652831 0 -0.014809947977283361 -0.085581527107333577 0 -0.01849310559799984 -0.097327812510700107 0 -0.0047025153429677627 -0.088520405322652831 0 -0.01849310559799984 -0.097327812510700107 0 -0.024662638005947809 -0.085343397919781919 0 -0.040359821223548573 -0.09047614625504434 0 -0.01849310559799984 -0.097327812510700107 0 -0.014809947977283361 -0.085581527107333577 0 -0.024662638005947809 -0.085343397919781919 0 -0.01849310559799984 -0.097327812510700107 0 -0.014809947977283361 -0.085581527107333577 0 -0.018476802160215331 -0.079228087899066227 0 -0.024662638005947809 -0.085343397919781919 0 -0.018476802160215331 -0.079228087899066227 0 -0.024662638005947809 -0.085343397919781919 0 -0.033218855702681897 -0.073605201503480752 0 -0.0089718182368431348 -0.0748332195086122 0 -0.020233984782169871 -0.066353129958941201 0 -0.033218855702681897 -0.073605201503480752 0 -0.032835778826248913 -0.057768631337160752 0 -0.02484081544131489 -0.059550432099516513 0 -0.033218855702681897 -0.073605201503480752 0 -0.0089718182368431348 -0.0748332195086122 0 -0.033218855702681897 -0.073605201503480752 0 -0.0089718182368431348 -0.0748332195086122 0 -0.018476802160215331 -0.079228087899066227 0 -0.033218855702681897 -0.073605201503480752 0 -0.01562021385551344 -0.059032194811479401 0 -0.01152889299361355 -0.065774934690106979 0 -0.020233984782169871 -0.066353129958941201 0 -0.02484081544131489 -0.059550432099516513 0 -0.020233984782169871 -0.066353129958941201 0 -0.033218855702681897 -0.073605201503480752 0 -0.032835778826248913 -0.057768631337160752 0 -0.041575393360239042 -0.057917819222277282 0 -0.033218855702681897 -0.073605201503480752 0 -0.041575393360239042 -0.057917819222277282 0 -0.033218855702681897 -0.073605201503480752 0 -0.048858990635499207 -0.063557812587392709 0 -0.033218855702681897 -0.073605201503480752 0 -0.057465893168520597 -0.07237718349834929 0 -0.048858990635499207 -0.063557812587392709 0 -0.033218855702681897 -0.073605201503480752 0 -0.057465893168520597 -0.07237718349834929 0 -0.024662638005947809 -0.085343397919781919 0 -0.033218855702681897 -0.073605201503480752 0 -0.040359821223548573 -0.09047614625504434 0 -0.033218855702681897 -0.073605201503480752 0 -0.040359821223548573 -0.09047614625504434 0 -0.057465893168520597 -0.07237718349834929 0 -0.040359821223548573 -0.09047614625504434 0 -0.062226536849098422 -0.083624479999391904 0 -0.054812213804794813 -0.1009967674702433 0 -0.040359821223548573 -0.09047614625504434 0 -0.062226536849098422 -0.083624479999391904 0 -0.057465893168520597 -0.07237718349834929 0 -0.040359821223548573 -0.09047614625504434 0 -0.062226536849098422 -0.083624479999391904 0 -0.059557415544116317 -0.059583350190866233 0 -0.057465893168520597 -0.07237718349834929 0 -0.048858990635499207 -0.063557812587392709 0 -0.064273762546583915 -0.064507423999310975 0 -0.059557415544116317 -0.059583350190866233 0 -0.057465893168520597 -0.07237718349834929 0 -0.061648602097330342 -0.12488921655819051 0 -0.054812213804794813 -0.1009967674702433 0 -0.040070853847663623 -0.1111085145344476 0 -0.061648602097330342 -0.12488921655819051 0 -0.040070853847663623 -0.1111085145344476 0 -0.040359821223548573 -0.09047614625504434 0 -0.040070853847663623 -0.1111085145344476 0 -0.01849310559799984 -0.097327812510700107 0 -0.040359821223548573 -0.09047614625504434 0 -0.054812213804794813 -0.1009967674702433 0 -0.040070853847663623 -0.1111085145344476 0 -0.040070853847663623 -0.1111085145344476 0 -0.021302745473944139 -0.1221285195561479 0 -0.036551960956931938 -0.12961581465213409 0 -0.061648602097330342 -0.12488921655819051 0 -0.040070853847663623 -0.1111085145344476 0 -0.036551960956931938 -0.12961581465213409 0 -0.040070853847663623 -0.1111085145344476 0 -0.021302745473944139 -0.1221285195561479 0 -0.016006024131288359 -0.1075834508430742 0 -0.040359821223548573 -0.09047614625504434 0 -0.01849310559799984 -0.097327812510700107 0 -0.040070853847663623 -0.1111085145344476 0 -0.016006024131288359 -0.1075834508430742 0 -0.01849310559799984 -0.097327812510700107 0 -0.040070853847663623 -0.1111085145344476 0 -0.01849310559799984 -0.097327812510700107 0 -0.016006024131288359 -0.1075834508430742 0 -0.016396964594694641 -0.09798461249956418 0 -0.01849310559799984 -0.097327812510700107 0 -0.016396964594694641 -0.09798461249956418 0 -0.01849310559799984 -0.097327812510700107 0 -0.0047025153429677627 -0.088520405322652831 0 -0.016396964594694641 -0.09798461249956418 0 -0.01849310559799984 -0.097327812510700107 0 -0.0047025153429677627 -0.088520405322652831 0 -0.016396964594694641 -0.09798461249956418 0 -0.0048344039766217871 -0.096875899798362419 0 -0.016396964594694641 -0.09798461249956418 0 -0.0095977003698107573 -0.1016426878803921 0 -0.0048344039766217871 -0.096875899798362419 0 -0.016006024131288359 -0.1075834508430742 0 -0.0095977003698107573 -0.1016426878803921 0 -0.0016877313628738909 -0.1047126534159272 0 -0.016006024131288359 -0.1075834508430742 0 -0.016396964594694641 -0.09798461249956418 0 -0.0095977003698107573 -0.1016426878803921 0 -0.0095977003698107573 -0.1016426878803921 0 -0.0016877313628738909 -0.1047126534159272 0 -0.0048344039766217871 -0.096875899798362419 0 -0.0016877313628738909 -0.1047126534159272 0 -0.0048344039766217871 -0.096875899798362419 0 0.0048874746098515869 -0.094744987113775284 0 -0.021302745473944139 -0.1221285195561479 0 -0.016006024131288359 -0.1075834508430742 0 -0.0057508377372143876 -0.11936735290759071 0 -0.016006024131288359 -0.1075834508430742 0 -0.0016877313628738909 -0.1047126534159272 0 -0.0057508377372143876 -0.11936735290759071 0 -0.0057508377372143876 -0.11936735290759071 0 -0.01528711659965298 -0.14104631972715459 0 0.0043993043058308066 -0.13131490851844729 0 -0.01528711659965298 -0.14104631972715459 0 0.0098073080996340274 -0.14722946158528771 0 0.0043993043058308066 -0.13131490851844729 0 -0.021302745473944139 -0.1221285195561479 0 -0.0057508377372143876 -0.11936735290759071 0 -0.01528711659965298 -0.14104631972715459 0 -0.021302745473944139 -0.1221285195561479 0 -0.01528711659965298 -0.14104631972715459 0 -0.036551960956931938 -0.12961581465213409 0 -0.01528711659965298 -0.14104631972715459 0 -0.01255754642986588 -0.15834031010668909 0 -0.030366792315963211 -0.16343297580536539 0 -0.01528711659965298 -0.14104631972715459 0 -0.030366792315963211 -0.16343297580536539 0 -0.044450486766068609 -0.1489065028847299 0 -0.01528711659965298 -0.14104631972715459 0 0.0098073080996340274 -0.14722946158528771 0 -0.01528711659965298 -0.14104631972715459 0 -0.01255754642986588 -0.15834031010668909 0 0.0098073080996340274 -0.14722946158528771 0 -0.00079089347172151003 -0.17130482069219971 0 -0.01255754642986588 -0.15834031010668909 0 0.0098073080996340274 -0.14722946158528771 0 -0.00079089347172151003 -0.17130482069219971 0 -0.01255754642986588 -0.15834031010668909 0 -0.01765995498169318 -0.1819694500909646 0 -0.00079089347172151003 -0.17130482069219971 0 -0.01765995498169318 -0.1819694500909646 0 -0.001470390448203369 -0.1912506934557355 0 -0.01765995498169318 -0.1819694500909646 0 -0.001470390448203369 -0.1912506934557355 0 -0.01765995498169318 -0.1819694500909646 0 -0.040896302328555359 -0.180928263384871 0 -0.033624134264436237 -0.19109790163980581 0 -0.01765995498169318 -0.1819694500909646 0 -0.030366792315963211 -0.16343297580536539 0 -0.040896302328555359 -0.180928263384871 0 -0.01255754642986588 -0.15834031010668909 0 -0.01765995498169318 -0.1819694500909646 0 -0.030366792315963211 -0.16343297580536539 0 -0.030366792315963211 -0.16343297580536539 0 -0.054030513855998982 -0.1660499566631092 0 -0.044450486766068609 -0.1489065028847299 0 -0.030366792315963211 -0.16343297580536539 0 -0.040896302328555359 -0.180928263384871 0 -0.054030513855998982 -0.1660499566631092 0 -0.040896302328555359 -0.180928263384871 0 -0.045353846935564393 -0.19756986268797161 0 -0.06516045108838224 -0.18324485624813841 0 -0.040896302328555359 -0.180928263384871 0 -0.054030513855998982 -0.1660499566631092 0 -0.06516045108838224 -0.18324485624813841 0 -0.054030513855998982 -0.1660499566631092 0 -0.044450486766068609 -0.1489065028847299 0 -0.063685418917211842 -0.1452911684593074 0 -0.061648602097330342 -0.12488921655819051 0 -0.036551960956931938 -0.12961581465213409 0 -0.044450486766068609 -0.1489065028847299 0 -0.061648602097330342 -0.12488921655819051 0 -0.044450486766068609 -0.1489065028847299 0 -0.063685418917211842 -0.1452911684593074 0 -0.01528711659965298 -0.14104631972715459 0 -0.036551960956931938 -0.12961581465213409 0 -0.044450486766068609 -0.1489065028847299 0 -0.02462776661780653 -0.24822540389223649 0 -0.0080584849696134705 -0.24565963204858729 0 -0.019232123022700789 -0.22828590635995949 0 -0.030029772957513329 -0.23606383531020159 0 -0.02462776661780653 -0.24822540389223649 0 -0.019232123022700789 -0.22828590635995949 0 -0.0080584849696134705 -0.24565963204858729 0 -0.0047526477166800109 -0.2198201769135828 0 0.01235453191993083 -0.22826922062572069 0 -0.0047526477166800109 -0.2198201769135828 0 -0.019232123022700789 -0.22828590635995949 0 -0.022048818161468631 -0.21503323305902089 0 -0.0080584849696134705 -0.24565963204858729 0 -0.0047526477166800109 -0.2198201769135828 0 -0.019232123022700789 -0.22828590635995949 0 -0.030029772957513329 -0.23606383531020159 0 -0.019232123022700789 -0.22828590635995949 0 -0.038395382063003858 -0.22057448401389851 0 -0.019232123022700789 -0.22828590635995949 0 -0.022048818161468631 -0.21503323305902089 0 -0.038395382063003858 -0.22057448401389851 0 -0.022048818161468631 -0.21503323305902089 0 -0.0093921118566575659 -0.20223372155845001 0 -0.033503397798601432 -0.20393550629639731 0 -0.0047526477166800109 -0.2198201769135828 0 -0.022048818161468631 -0.21503323305902089 0 -0.0093921118566575659 -0.20223372155845001 0 -0.01765995498169318 -0.1819694500909646 0 -0.001470390448203369 -0.1912506934557355 0 -0.022867441817550509 -0.19592752390310639 0 -0.0093921118566575659 -0.20223372155845001 0 -0.001470390448203369 -0.1912506934557355 0 -0.022867441817550509 -0.19592752390310639 0 -0.0093921118566575659 -0.20223372155845001 0 -0.022867441817550509 -0.19592752390310639 0 -0.033503397798601432 -0.20393550629639731 0 -0.0093921118566575659 -0.20223372155845001 0 -0.033503397798601432 -0.20393550629639731 0 -0.01765995498169318 -0.1819694500909646 0 -0.022867441817550509 -0.19592752390310639 0 -0.033624134264436237 -0.19109790163980581 0 -0.022867441817550509 -0.19592752390310639 0 -0.031323996760426832 -0.1973529100144179 0 -0.033503397798601432 -0.20393550629639731 0 -0.022867441817550509 -0.19592752390310639 0 -0.033624134264436237 -0.19109790163980581 0 -0.031323996760426832 -0.1973529100144179 0 -0.045353846935564393 -0.19756986268797161 0 -0.056127501459082497 -0.20553232508123701 0 -0.033503397798601432 -0.20393550629639731 0 -0.040896302328555359 -0.180928263384871 0 -0.033624134264436237 -0.19109790163980581 0 -0.045353846935564393 -0.19756986268797161 0 -0.033624134264436237 -0.19109790163980581 0 -0.031323996760426832 -0.1973529100144179 0 -0.035380696474372773 -0.19872173298091331 0 -0.035380696474372773 -0.19872173298091331 0 -0.045353846935564393 -0.19756986268797161 0 -0.033503397798601432 -0.20393550629639731 0 -0.033624134264436237 -0.19109790163980581 0 -0.035380696474372773 -0.19872173298091331 0 -0.045353846935564393 -0.19756986268797161 0 -0.031323996760426832 -0.1973529100144179 0 -0.035380696474372773 -0.19872173298091331 0 -0.033503397798601432 -0.20393550629639731 0 -0.045353846935564393 -0.19756986268797161 0 -0.056127501459082497 -0.20553232508123701 0 -0.06516045108838224 -0.18324485624813841 0 -0.056127501459082497 -0.20553232508123701 0 -0.06516045108838224 -0.18324485624813841 0 -0.056127501459082497 -0.20553232508123701 0 -0.049707433893241552 -0.22137289340631741 0 -0.066772004093066925 -0.22160131663852919 0 -0.056127501459082497 -0.20553232508123701 0 -0.049707433893241552 -0.22137289340631741 0 -0.056127501459082497 -0.20553232508123701 0 -0.038395382063003858 -0.22057448401389851 0 -0.049707433893241552 -0.22137289340631741 0 -0.022048818161468631 -0.21503323305902089 0 -0.033503397798601432 -0.20393550629639731 0 -0.038395382063003858 -0.22057448401389851 0 -0.056127501459082497 -0.20553232508123701 0 -0.033503397798601432 -0.20393550629639731 0 -0.056127501459082497 -0.20553232508123701 0 -0.033503397798601432 -0.20393550629639731 0 -0.038395382063003858 -0.22057448401389851 0 -0.033503397798601432 -0.20393550629639731 0 -0.038395382063003858 -0.22057448401389851 0 -0.049707433893241552 -0.22137289340631741 0 -0.043287366327405707 -0.23721346173139979 0 -0.038395382063003858 -0.22057448401389851 0 -0.049707433893241552 -0.22137289340631741 0 -0.043287366327405707 -0.23721346173139979 0 -0.038395382063003858 -0.22057448401389851 0 -0.043287366327405707 -0.23721346173139979 0 -0.030029772957513329 -0.23606383531020159 0 -0.038395382063003858 -0.22057448401389851 0 -0.043287366327405707 -0.23721346173139979 0 -0.049707433893241552 -0.22137289340631741 0 -0.061564392766095571 -0.238872662007338 0 -0.066772004093066925 -0.22160131663852919 0 -0.049707433893241552 -0.22137289340631741 0 -0.061564392766095571 -0.238872662007338 0 -0.043287366327405707 -0.23721346173139979 0 -0.049272097018900882 -0.25756916919873429 0 -0.061564392766095571 -0.238872662007338 0 -0.043287366327405707 -0.23721346173139979 0 -0.034819165871760809 -0.25810749540512018 0 -0.02462776661780653 -0.24822540389223649 0 -0.043287366327405707 -0.23721346173139979 0 -0.034819165871760809 -0.25810749540512018 0 -0.043287366327405707 -0.23721346173139979 0 -0.049272097018900882 -0.25756916919873429 0 -0.043287366327405707 -0.23721346173139979 0 -0.030029772957513329 -0.23606383531020159 0 -0.02462776661780653 -0.24822540389223649 0 -0.043287366327405707 -0.23721346173139979 0 -0.094502101882266515 -0.26315651247145028 0 -0.089174700395829837 -0.23520300242764619 0 -0.071277889146082518 -0.26134158676017372 0 -0.061564392766095571 -0.238872662007338 0 -0.089174700395829837 -0.23520300242764619 0 -0.089174700395829837 -0.23520300242764619 0 -0.066772004093066925 -0.22160131663852919 0 -0.077285991951088193 -0.20702570027010869 0 -0.061564392766095571 -0.238872662007338 0 -0.089174700395829837 -0.23520300242764619 0 -0.066772004093066925 -0.22160131663852919 0 -0.089174700395829837 -0.23520300242764619 0 -0.077285991951088193 -0.20702570027010869 0 -0.094873786843647195 -0.20778729232703499 0 -0.056127501459082497 -0.20553232508123701 0 -0.077285991951088193 -0.20702570027010869 0 -0.056127501459082497 -0.20553232508123701 0 -0.066772004093066925 -0.22160131663852919 0 -0.077285991951088193 -0.20702570027010869 0 -0.056127501459082497 -0.20553232508123701 0 -0.077285991951088193 -0.20702570027010869 0 -0.06516045108838224 -0.18324485624813841 0 -0.077285991951088193 -0.20702570027010869 0 -0.082707250451185016 -0.18861175503218469 0 -0.06516045108838224 -0.18324485624813841 0 -0.077285991951088193 -0.20702570027010869 0 -0.082707250451185016 -0.18861175503218469 0 -0.094873786843647195 -0.20778729232703499 0 -0.082707250451185016 -0.18861175503218469 0 -0.0980197315064745 -0.1926362629304216 0 -0.094873786843647195 -0.20778729232703499 0 -0.0980197315064745 -0.1926362629304216 0 -0.11632656491481121 -0.20180975640345439 0 -0.094873786843647195 -0.20778729232703499 0 -0.0980197315064745 -0.1926362629304216 0 -0.11632656491481121 -0.20180975640345439 0 -0.0980197315064745 -0.1926362629304216 0 -0.11167036283650129 -0.18824826529074681 0 -0.11632656491481121 -0.20180975640345439 0 -0.11167036283650129 -0.18824826529074681 0 -0.11632656491481121 -0.20180975640345439 0 -0.13551857231928671 -0.18843884881555209 0 -0.11632656491481121 -0.20180975640345439 0 -0.10572848184249441 -0.22143727689839471 0 -0.1172393877583341 -0.22579803743936119 0 -0.11632656491481121 -0.20180975640345439 0 -0.1172393877583341 -0.22579803743936119 0 -0.12638681136909671 -0.2201456295922963 0 -0.11632656491481121 -0.20180975640345439 0 -0.094873786843647195 -0.20778729232703499 0 -0.10572848184249441 -0.22143727689839471 0 -0.089174700395829837 -0.23520300242764619 0 -0.094873786843647195 -0.20778729232703499 0 -0.10572848184249441 -0.22143727689839471 0 -0.089174700395829837 -0.23520300242764619 0 -0.10572848184249441 -0.22143727689839471 0 -0.1114989083824928 -0.23484820281594451 0 -0.1172393877583341 -0.22579803743936119 0 -0.1256857240780026 -0.23245269565442739 0 -0.12638681136909671 -0.2201456295922963 0 -0.1172393877583341 -0.22579803743936119 0 -0.1114989083824928 -0.23484820281594451 0 -0.1256857240780026 -0.23245269565442739 0 -0.10572848184249441 -0.22143727689839471 0 -0.1172393877583341 -0.22579803743936119 0 -0.1114989083824928 -0.23484820281594451 0 -0.1114989083824928 -0.23484820281594451 0 -0.1237574956905899 -0.24519449058821441 0 -0.107407660529706 -0.24900371388762341 0 -0.1114989083824928 -0.23484820281594451 0 -0.1237574956905899 -0.24519449058821441 0 -0.1256857240780026 -0.23245269565442739 0 -0.089174700395829837 -0.23520300242764619 0 -0.1114989083824928 -0.23484820281594451 0 -0.107407660529706 -0.24900371388762341 0 -0.094502101882266515 -0.26315651247145028 0 -0.089174700395829837 -0.23520300242764619 0 -0.107407660529706 -0.24900371388762341 0 -0.08322635034699008 -0.13866991858194441 0 -0.074193400717685071 -0.16095738741504101 0 -0.08322635034699008 -0.13866991858194441 0 -0.074193400717685071 -0.16095738741504101 0 -0.093827666552644379 -0.15990737000347441 0 -0.08322635034699008 -0.13866991858194441 0 -0.093827666552644379 -0.15990737000347441 0 -0.096962185301908588 -0.14744235611205761 0 -0.08322635034699008 -0.13866991858194441 0 -0.096962185301908588 -0.14744235611205761 0 -0.08322635034699008 -0.13866991858194441 0 -0.096962185301908588 -0.14744235611205761 0 -0.1003370444157301 -0.13551028240792029 0 -0.092549977507218814 -0.1156652458811276 0 -0.061648602097330342 -0.12488921655819051 0 -0.08322635034699008 -0.13866991858194441 0 -0.092549977507218814 -0.1156652458811276 0 -0.08322635034699008 -0.13866991858194441 0 -0.1003370444157301 -0.13551028240792029 0 -0.092549977507218814 -0.1156652458811276 0 -0.08322635034699008 -0.13866991858194441 0 -0.061648602097330342 -0.12488921655819051 0 -0.08322635034699008 -0.13866991858194441 0 -0.063685418917211842 -0.1452911684593074 0 -0.061648602097330342 -0.12488921655819051 0 -0.08322635034699008 -0.13866991858194441 0 -0.08322635034699008 -0.13866991858194441 0 -0.063685418917211842 -0.1452911684593074 0 -0.074193400717685071 -0.16095738741504101 0 -0.054030513855998982 -0.1660499566631092 0 -0.063685418917211842 -0.1452911684593074 0 -0.074193400717685071 -0.16095738741504101 0 -0.054030513855998982 -0.1660499566631092 0 -0.074193400717685071 -0.16095738741504101 0 -0.06516045108838224 -0.18324485624813841 0 -0.082707250451185016 -0.18861175503218469 0 -0.06516045108838224 -0.18324485624813841 0 -0.082440970087724344 -0.17417513104246879 0 -0.074193400717685071 -0.16095738741504101 0 -0.06516045108838224 -0.18324485624813841 0 -0.082440970087724344 -0.17417513104246879 0 -0.074193400717685071 -0.16095738741504101 0 -0.06516045108838224 -0.18324485624813841 0 -0.082707250451185016 -0.18861175503218469 0 -0.0980197315064745 -0.1926362629304216 0 -0.097393646903555134 -0.1789640156622222 0 -0.082707250451185016 -0.18861175503218469 0 -0.082440970087724344 -0.17417513104246879 0 -0.097393646903555134 -0.1789640156622222 0 -0.074193400717685071 -0.16095738741504101 0 -0.082440970087724344 -0.17417513104246879 0 -0.093827666552644379 -0.15990737000347441 0 -0.082440970087724344 -0.17417513104246879 0 -0.093827666552644379 -0.15990737000347441 0 -0.097393646903555134 -0.1789640156622222 0 -0.093827666552644379 -0.15990737000347441 0 -0.11464038931995391 -0.1742206781253898 0 -0.093827666552644379 -0.15990737000347441 0 -0.1043413023733403 -0.16229616890702139 0 -0.11464038931995391 -0.1742206781253898 0 -0.093827666552644379 -0.15990737000347441 0 -0.097393646903555134 -0.1789640156622222 0 -0.11464038931995391 -0.1742206781253898 0 -0.093827666552644379 -0.15990737000347441 0 -0.1001350140739741 -0.1566737623814437 0 -0.1043413023733403 -0.16229616890702139 0 -0.1043413023733403 -0.16229616890702139 0 -0.11244576445278789 -0.15733099639418721 0 -0.1106980202568217 -0.15621479364217919 0 -0.1043413023733403 -0.16229616890702139 0 -0.1106980202568217 -0.15621479364217919 0 -0.103712636663366 -0.15605459432997429 0 -0.1043413023733403 -0.16229616890702139 0 -0.1106980202568217 -0.15621479364217919 0 -0.1001350140739741 -0.1566737623814437 0 -0.1043413023733403 -0.16229616890702139 0 -0.103712636663366 -0.15605459432997429 0 -0.11167036283650129 -0.18824826529074681 0 -0.097393646903555134 -0.1789640156622222 0 -0.11464038931995391 -0.1742206781253898 0 -0.0980197315064745 -0.1926362629304216 0 -0.11167036283650129 -0.18824826529074681 0 -0.097393646903555134 -0.1789640156622222 0 -0.11167036283650129 -0.18824826529074681 0 -0.11464038931995391 -0.1742206781253898 0 -0.13551857231928671 -0.18843884881555209 0 -0.11464038931995391 -0.1742206781253898 0 -0.1192147498112741 -0.1646628043643607 0 -0.1320749389571276 -0.17232133688374801 0 -0.1043413023733403 -0.16229616890702139 0 -0.11244576445278789 -0.15733099639418721 0 -0.1192147498112741 -0.1646628043643607 0 -0.1169365109917458 -0.15759547505293051 0 -0.11244576445278789 -0.15733099639418721 0 -0.1192147498112741 -0.1646628043643607 0 -0.1169365109917458 -0.15759547505293051 0 -0.11244576445278789 -0.15733099639418721 0 -0.1106980202568217 -0.15621479364217919 0 -0.11244576445278789 -0.15733099639418721 0 -0.1106980202568217 -0.15621479364217919 0 -0.1043413023733403 -0.16229616890702139 0 -0.11464038931995391 -0.1742206781253898 0 -0.1192147498112741 -0.1646628043643607 0 -0.1169365109917458 -0.15759547505293051 0 -0.1192147498112741 -0.1646628043643607 0 -0.12538750944609961 -0.15217330581099489 0 -0.1106980202568217 -0.15621479364217919 0 -0.12898970369751861 -0.13871541845082941 0 -0.12538750944609961 -0.15217330581099489 0 -0.1106980202568217 -0.15621479364217919 0 -0.11191194870255471 -0.13917406450291561 0 -0.12898970369751861 -0.13871541845082941 0 -0.1106980202568217 -0.15621479364217919 0 -0.12898970369751861 -0.13871541845082941 0 -0.1169365109917458 -0.15759547505293051 0 -0.1106980202568217 -0.15621479364217919 0 -0.12538750944609961 -0.15217330581099489 0 -0.1106980202568217 -0.15621479364217919 0 -0.1049772996692538 -0.14458537416626821 0 -0.096962185301908588 -0.14744235611205761 0 -0.1106980202568217 -0.15621479364217919 0 -0.103712636663366 -0.15605459432997429 0 -0.096962185301908588 -0.14744235611205761 0 -0.1106980202568217 -0.15621479364217919 0 -0.1049772996692538 -0.14458537416626821 0 -0.11191194870255471 -0.13917406450291561 0 -0.1106980202568217 -0.15621479364217919 0 -0.096962185301908588 -0.14744235611205761 0 -0.1049772996692538 -0.14458537416626821 0 -0.096962185301908588 -0.14744235611205761 0 -0.1003370444157301 -0.13551028240792029 0 -0.1001350140739741 -0.1566737623814437 0 -0.103712636663366 -0.15605459432997429 0 -0.096962185301908588 -0.14744235611205761 0 -0.093827666552644379 -0.15990737000347441 0 -0.1001350140739741 -0.1566737623814437 0 -0.096962185301908588 -0.14744235611205761 0 -0.092549977507218814 -0.1156652458811276 0 -0.1003370444157301 -0.13551028240792029 0 -0.1107012318907423 -0.12666355278782451 0 -0.1003370444157301 -0.13551028240792029 0 -0.1107012318907423 -0.12666355278782451 0 -0.11191194870255471 -0.13917406450291561 0 -0.1049772996692538 -0.14458537416626821 0 -0.1003370444157301 -0.13551028240792029 0 -0.11191194870255471 -0.13917406450291561 0 -0.1107012318907423 -0.12666355278782451 0 -0.11191194870255471 -0.13917406450291561 0 -0.12898970369751861 -0.13871541845082941 0 -0.1197664355065898 -0.1134613506783357 0 -0.1107012318907423 -0.12666355278782451 0 -0.12898970369751861 -0.13871541845082941 0 -0.12898970369751861 -0.13871541845082941 0 -0.14728138713821609 -0.12121604325948 0 -0.14826408066461461 -0.14102059234917011 0 -0.16381965852970831 -0.1347926885640425 0 -0.14728138713821609 -0.12121604325948 0 -0.12898970369751861 -0.13871541845082941 0 -0.14826408066461461 -0.14102059234917011 0 -0.14728138713821609 -0.12121604325948 0 -0.1401481345896346 -0.15834720527861981 0 -0.1610815193679952 -0.152031606192879 0 -0.14826408066461461 -0.14102059234917011 0 -0.1401481345896346 -0.15834720527861981 0 -0.1610815193679952 -0.152031606192879 0 -0.12898970369751861 -0.13871541845082941 0 -0.14826408066461461 -0.14102059234917011 0 -0.1401481345896346 -0.15834720527861981 0 -0.12898970369751861 -0.13871541845082941 0 -0.12538750944609961 -0.15217330581099489 0 -0.1401481345896346 -0.15834720527861981 0 -0.1192147498112741 -0.1646628043643607 0 -0.1401481345896346 -0.15834720527861981 0 -0.1320749389571276 -0.17232133688374801 0 -0.1192147498112741 -0.1646628043643607 0 -0.12538750944609961 -0.15217330581099489 0 -0.1401481345896346 -0.15834720527861981 0 -0.1192147498112741 -0.1646628043643607 0 -0.1401481345896346 -0.15834720527861981 0 -0.1320749389571276 -0.17232133688374801 0 -0.15085820707289119 -0.1758006771719787 0 -0.13551857231928671 -0.18843884881555209 0 -0.11464038931995391 -0.1742206781253898 0 -0.1320749389571276 -0.17232133688374801 0 -0.13551857231928671 -0.18843884881555209 0 -0.11464038931995391 -0.1742206781253898 0 -0.13551857231928671 -0.18843884881555209 0 -0.15085820707289119 -0.1758006771719787 0 -0.13551857231928671 -0.18843884881555209 0 -0.15714256750508979 -0.18883852550373051 0 -0.1401481345896346 -0.15834720527861981 0 -0.16322889768999491 -0.16607813728611021 0 -0.1610815193679952 -0.152031606192879 0 -0.1401481345896346 -0.15834720527861981 0 -0.1320749389571276 -0.17232133688374801 0 -0.15085820707289119 -0.1758006771719787 0 -0.1401481345896346 -0.15834720527861981 0 -0.15085820707289119 -0.1758006771719787 0 -0.16322889768999491 -0.16607813728611021 0 -0.16322889768999491 -0.16607813728611021 0 -0.17024929735889949 -0.16031377971805999 0 -0.17695406235339051 -0.1674266023801915 0 -0.16322889768999491 -0.16607813728611021 0 -0.17095996495017091 -0.17945119200844289 0 -0.17695406235339051 -0.1674266023801915 0 -0.16322889768999491 -0.16607813728611021 0 -0.17024929735889949 -0.16031377971805999 0 -0.1610815193679952 -0.152031606192879 0 -0.15085820707289119 -0.1758006771719787 0 -0.17095996495017091 -0.17945119200844289 0 -0.15714256750508979 -0.18883852550373051 0 -0.15085820707289119 -0.1758006771719787 0 -0.16322889768999491 -0.16607813728611021 0 -0.17095996495017091 -0.17945119200844289 0 -0.17095996495017091 -0.17945119200844289 0 -0.18264171043709559 -0.17604168454582531 0 -0.18369144547376001 -0.1909874371071803 0 -0.17095996495017091 -0.17945119200844289 0 -0.18264171043709559 -0.17604168454582531 0 -0.17695406235339051 -0.1674266023801915 0 -0.18264171043709559 -0.17604168454582531 0 -0.18369144547376001 -0.1909874371071803 0 -0.1945640582292055 -0.18207191379940979 0 -0.18264171043709559 -0.17604168454582531 0 -0.17695406235339051 -0.1674266023801915 0 -0.1870390211789508 -0.16027127743390199 0 -0.17024929735889949 -0.16031377971805999 0 -0.17695406235339051 -0.1674266023801915 0 -0.17973271002421751 -0.15571877301305961 0 -0.17695406235339051 -0.1674266023801915 0 -0.1870390211789508 -0.16027127743390199 0 -0.17973271002421751 -0.15571877301305961 0 -0.1870390211789508 -0.16027127743390199 0 -0.17973271002421751 -0.15571877301305961 0 -0.1870390211789508 -0.16027127743390199 0 -0.18201490414635579 -0.1457160071071382 0 -0.19003045763452209 -0.1506982780902569 0 -0.17973271002421751 -0.15571877301305961 0 -0.18201490414635579 -0.1457160071071382 0 -0.1610815193679952 -0.152031606192879 0 -0.1870390211789508 -0.16027127743390199 0 -0.17973271002421751 -0.15571877301305961 0 -0.18201490414635579 -0.1457160071071382 0 -0.1870390211789508 -0.16027127743390199 0 -0.18201490414635579 -0.1457160071071382 0 -0.18201490414635579 -0.1457160071071382 0 -0.17425690043448269 -0.1232404476228063 0 -0.18201490414635579 -0.1457160071071382 0 -0.18447655928356779 -0.13228959039142549 0 -0.17425690043448269 -0.1232404476228063 0 -0.18201490414635579 -0.1457160071071382 0 -0.16381965852970831 -0.1347926885640425 0 -0.17425690043448269 -0.1232404476228063 0 -0.18201490414635579 -0.1457160071071382 0 -0.18447655928356779 -0.13228959039142549 0 -0.18823408959645141 -0.1386607820310915 0 -0.16381965852970831 -0.1347926885640425 0 -0.16227557450298741 -0.11978241432151621 0 -0.14728138713821609 -0.12121604325948 0 -0.16381965852970831 -0.1347926885640425 0 -0.17425690043448269 -0.1232404476228063 0 -0.16227557450298741 -0.11978241432151621 0 -0.17024929735889949 -0.16031377971805999 0 -0.17973271002421751 -0.15571877301305961 0 -0.1610815193679952 -0.152031606192879 0 -0.18201490414635579 -0.1457160071071382 0 -0.16381965852970831 -0.1347926885640425 0 -0.1610815193679952 -0.152031606192879 0 -0.18201490414635579 -0.1457160071071382 0 -0.1610815193679952 -0.152031606192879 0 -0.14826408066461461 -0.14102059234917011 0 -0.16381965852970831 -0.1347926885640425 0 -0.1610815193679952 -0.152031606192879 0 -0.15574900656767399 -0.25088930115713548 0 -0.13388962285226019 -0.22992638714452579 0 -0.15974185162515731 -0.23588197654182541 0 -0.132934929276076 -0.25424137489347087 0 -0.15574900656767399 -0.25088930115713548 0 -0.13388962285226019 -0.22992638714452579 0 -0.132934929276076 -0.25424137489347087 0 -0.1237574956905899 -0.24519449058821441 0 -0.13388962285226019 -0.22992638714452579 0 -0.132934929276076 -0.25424137489347087 0 -0.13388962285226019 -0.22992638714452579 0 -0.1237574956905899 -0.24519449058821441 0 -0.13388962285226019 -0.22992638714452579 0 -0.1256857240780026 -0.23245269565442739 0 -0.13388962285226019 -0.22992638714452579 0 -0.13463339832314769 -0.21098324987648731 0 -0.13388962285226019 -0.22992638714452579 0 -0.12638681136909671 -0.2201456295922963 0 -0.13463339832314769 -0.21098324987648731 0 -0.13388962285226019 -0.22992638714452579 0 -0.1256857240780026 -0.23245269565442739 0 -0.12638681136909671 -0.2201456295922963 0 -0.13388962285226019 -0.22992638714452579 0 -0.1256857240780026 -0.23245269565442739 0 -0.13388962285226019 -0.22992638714452579 0 -0.13463339832314769 -0.21098324987648731 0 -0.15776473427131649 -0.22257428556300091 0 -0.13388962285226019 -0.22992638714452579 0 -0.15776473427131649 -0.22257428556300091 0 -0.15974185162515731 -0.23588197654182541 0 -0.13388962285226019 -0.22992638714452579 0 -0.15776473427131649 -0.22257428556300091 0 -0.13463339832314769 -0.21098324987648731 0 -0.15776473427131649 -0.22257428556300091 0 -0.13463339832314769 -0.21098324987648731 0 -0.1560278143951766 -0.20268360313993031 0 -0.15776473427131649 -0.22257428556300091 0 -0.11632656491481121 -0.20180975640345439 0 -0.13463339832314769 -0.21098324987648731 0 -0.11632656491481121 -0.20180975640345439 0 -0.12638681136909671 -0.2201456295922963 0 -0.13463339832314769 -0.21098324987648731 0 -0.11632656491481121 -0.20180975640345439 0 -0.13463339832314769 -0.21098324987648731 0 -0.13551857231928671 -0.18843884881555209 0 -0.13463339832314769 -0.21098324987648731 0 -0.13551857231928671 -0.18843884881555209 0 -0.13551857231928671 -0.18843884881555209 0 -0.1560278143951766 -0.20268360313993031 0 -0.15714256750508979 -0.18883852550373051 0 -0.13463339832314769 -0.21098324987648731 0 -0.13551857231928671 -0.18843884881555209 0 -0.1560278143951766 -0.20268360313993031 0 -0.13551857231928671 -0.18843884881555209 0 -0.1560278143951766 -0.20268360313993031 0 -0.17095996495017091 -0.17945119200844289 0 -0.15714256750508979 -0.18883852550373051 0 -0.17235363711532631 -0.19768183571990949 0 -0.1560278143951766 -0.20268360313993031 0 -0.15714256750508979 -0.18883852550373051 0 -0.17235363711532631 -0.19768183571990949 0 -0.17095996495017091 -0.17945119200844289 0 -0.18369144547376001 -0.1909874371071803 0 -0.17235363711532631 -0.19768183571990949 0 -0.18369144547376001 -0.1909874371071803 0 -0.17235363711532631 -0.19768183571990949 0 -0.1833967551117541 -0.20542732972711761 0 -0.18369144547376001 -0.1909874371071803 0 -0.1833967551117541 -0.20542732972711761 0 -0.19354639474320201 -0.20135134513621761 0 -0.17235363711532631 -0.19768183571990949 0 -0.17654241479846469 -0.21679188680147299 0 -0.1833967551117541 -0.20542732972711761 0 -0.1560278143951766 -0.20268360313993031 0 -0.17235363711532631 -0.19768183571990949 0 -0.17654241479846469 -0.21679188680147299 0 -0.1560278143951766 -0.20268360313993031 0 -0.17654241479846469 -0.21679188680147299 0 -0.15776473427131649 -0.22257428556300091 0 -0.1560278143951766 -0.20268360313993031 0 -0.17654241479846469 -0.21679188680147299 0 -0.17654241479846469 -0.21679188680147299 0 -0.15776473427131649 -0.22257428556300091 0 -0.15776473427131649 -0.22257428556300091 0 -0.17464078778809641 -0.23103081998015429 0 -0.17654241479846469 -0.21679188680147299 0 -0.15776473427131649 -0.22257428556300091 0 -0.17464078778809641 -0.23103081998015429 0 -0.15776473427131649 -0.22257428556300091 0 -0.17464078778809641 -0.23103081998015429 0 -0.15974185162515731 -0.23588197654182541 0 -0.17654241479846469 -0.21679188680147299 0 -0.17464078778809641 -0.23103081998015429 0 -0.19511848719151589 -0.22956700761720569 0 -0.17654241479846469 -0.21679188680147299 0 -0.19511848719151589 -0.22956700761720569 0 -0.17464078778809641 -0.23103081998015429 0 -0.1915168413048754 -0.23948735439730939 0 -0.19511848719151589 -0.22956700761720569 0 -0.17464078778809641 -0.23103081998015429 0 -0.17666510664643789 -0.24498908886430759 0 -0.1915168413048754 -0.23948735439730939 0 -0.17464078778809641 -0.23103081998015429 0 -0.1915168413048754 -0.23948735439730939 0 -0.15574900656767399 -0.25088930115713548 0 -0.17666510664643789 -0.24498908886430759 0 -0.15974185162515731 -0.23588197654182541 0 -0.17464078778809641 -0.23103081998015429 0 -0.17666510664643789 -0.24498908886430759 0 -0.15974185162515731 -0.23588197654182541 0 -0.21369455958456521 -0.2423421284329412 0 -0.20065074592301779 -0.24160214769084951 0 -0.19511848719151589 -0.22956700761720569 0 -0.1955574188947195 -0.25150403585599412 0 -0.21369455958456521 -0.2423421284329412 0 -0.20065074592301779 -0.24160214769084951 0 -0.1955574188947195 -0.25150403585599412 0 -0.20979158283334889 -0.25166750724865389 0 -0.21369455958456521 -0.2423421284329412 0 -0.21369455958456521 -0.2423421284329412 0 -0.19511848719151589 -0.22956700761720569 0 -0.2151193961368856 -0.2416223776845435 0 -0.20939246102108941 -0.22503098695589421 0 -0.22489451734359001 -0.2366845125008106 0 -0.21369455958456521 -0.2423421284329412 0 -0.2151193961368856 -0.2416223776845435 0 -0.20939246102108941 -0.22503098695589421 0 -0.1955574188947195 -0.25150403585599412 0 -0.21369455958456521 -0.2423421284329412 0 -0.20979158283334889 -0.25166750724865389 0 -0.21369455958456521 -0.2423421284329412 0 -0.21588868556076199 -0.24385107089599919 0 -0.21369455958456521 -0.2423421284329412 0 -0.21588868556076199 -0.24385107089599919 0 -0.21588868556076199 -0.24385107089599919 0 -0.2151193961368856 -0.2416223776845435 0 -0.21369455958456521 -0.2423421284329412 0 -0.21588868556076199 -0.24385107089599919 0 -0.2151193961368856 -0.2416223776845435 0 -0.21588868556076199 -0.24385107089599919 0 -0.2151193961368856 -0.2416223776845435 0 -0.22489451734359001 -0.2366845125008106 0 -0.21369455958456521 -0.2423421284329412 0 -0.2151193961368856 -0.2416223776845435 0 -0.1955574188947195 -0.25150403585599412 0 -0.17666510664643789 -0.24498908886430759 0 -0.1915168413048754 -0.23948735439730939 0 -0.1955574188947195 -0.25150403585599412 0 -0.1915168413048754 -0.23948735439730939 0 -0.20065074592301779 -0.24160214769084951 0 -0.1915168413048754 -0.23948735439730939 0 -0.20065074592301779 -0.24160214769084951 0 -0.19511848719151589 -0.22956700761720569 0 -0.17654241479846469 -0.21679188680147299 0 -0.19511848719151589 -0.22956700761720569 0 -0.19617972222909091 -0.21995736940045441 0 -0.19511848719151589 -0.22956700761720569 0 -0.19617972222909091 -0.21995736940045441 0 -0.20939246102108941 -0.22503098695589421 0 -0.2151193961368856 -0.2416223776845435 0 -0.20939246102108941 -0.22503098695589421 0 -0.20939246102108941 -0.22503098695589421 0 -0.21643154715333091 -0.20810543432548381 0 -0.22489451734359001 -0.2366845125008106 0 -0.21369455958456521 -0.2423421284329412 0 -0.19511848719151589 -0.22956700761720569 0 -0.20939246102108941 -0.22503098695589421 0 -0.20939246102108941 -0.22503098695589421 0 -0.21046705192287429 -0.20634513437058299 0 -0.2036655259052933 -0.20843959622724509 0 -0.20939246102108941 -0.22503098695589421 0 -0.2036655259052933 -0.20843959622724509 0 -0.20939246102108941 -0.22503098695589421 0 -0.21643154715333091 -0.20810543432548381 0 -0.21046705192287429 -0.20634513437058299 0 -0.21643154715333091 -0.20810543432548381 0 -0.21545539842519479 -0.2048090229964796 0 -0.22303984374759081 -0.2024734689765991 0 -0.21643154715333091 -0.20810543432548381 0 -0.21545539842519479 -0.2048090229964796 0 -0.21643154715333091 -0.20810543432548381 0 -0.21545539842519479 -0.2048090229964796 0 -0.21046705192287429 -0.20634513437058299 0 -0.21545539842519479 -0.2048090229964796 0 -0.21046705192287429 -0.20634513437058299 0 -0.21643154715333091 -0.20810543432548381 0 -0.21046705192287429 -0.20634513437058299 0 -0.21046705192287429 -0.20634513437058299 0 -0.20208909527945609 -0.20387255016491909 0 -0.21046705192287429 -0.20634513437058299 0 -0.2036655259052933 -0.20843959622724509 0 -0.21046705192287429 -0.20634513437058299 0 -0.2036655259052933 -0.20843959622724509 0 -0.20208909527945609 -0.20387255016491909 0 -0.17654241479846469 -0.21679188680147299 0 -0.1833967551117541 -0.20542732972711761 0 -0.2036655259052933 -0.20843959622724509 0 -0.1833967551117541 -0.20542732972711761 0 -0.2036655259052933 -0.20843959622724509 0 -0.19354639474320201 -0.20135134513621761 0 -0.17654241479846469 -0.21679188680147299 0 -0.19617972222909091 -0.21995736940045441 0 -0.2036655259052933 -0.20843959622724509 0 -0.19617972222909091 -0.21995736940045441 0 -0.20939246102108941 -0.22503098695589421 0 -0.2036655259052933 -0.20843959622724509 0 -0.17654241479846469 -0.21679188680147299 0 -0.2036655259052933 -0.20843959622724509 0 -0.2036655259052933 -0.20843959622724509 0 -0.20208909527945609 -0.20387255016491909 0 -0.19354639474320201 -0.20135134513621761 0 -0.2036655259052933 -0.20843959622724509 0 -0.20208909527945609 -0.20387255016491909 0 -0.18369144547376001 -0.1909874371071803 0 -0.19354639474320201 -0.20135134513621761 0 -0.1945640582292055 -0.18207191379940979 0 -0.20208909527945609 -0.20387255016491909 0 -0.19354639474320201 -0.20135134513621761 0 -0.20208909527945609 -0.20387255016491909 0 -0.1945640582292055 -0.18207191379940979 0 -0.20208909527945609 -0.20387255016491909 0 -0.19354639474320201 -0.20135134513621761 0 -0.1945640582292055 -0.18207191379940979 0 -0.20208909527945609 -0.20387255016491909 0 -0.20691251650199971 -0.195740796813103 0 -0.1945640582292055 -0.18207191379940979 0 -0.21079744198501729 -0.18907930893056721 0 -0.20691251650199971 -0.195740796813103 0 -0.20435634244013781 -0.1836345842818124 0 -0.21545539842519479 -0.2048090229964796 0 -0.21079744198501729 -0.18907930893056721 0 -0.21545539842519479 -0.2048090229964796 0 -0.21079744198501729 -0.18907930893056721 0 -0.21903271749696401 -0.19483852094341911 0 -0.21545539842519479 -0.2048090229964796 0 -0.21079744198501729 -0.18907930893056721 0 -0.20691251650199971 -0.195740796813103 0 -0.21046705192287429 -0.20634513437058299 0 -0.20208909527945609 -0.20387255016491909 0 -0.20691251650199971 -0.195740796813103 0 -0.21545539842519479 -0.2048090229964796 0 -0.21046705192287429 -0.20634513437058299 0 -0.20691251650199971 -0.195740796813103 0 -0.21079744198501729 -0.18907930893056721 0 -0.21903271749696401 -0.19483852094341911 0 -0.22351759868840201 -0.18300078920267451 0 -0.22303984374759081 -0.2024734689765991 0 -0.22678274867800319 -0.19325430152707451 0 -0.2417568874431269 -0.194365545087062 0 -0.22678274867800319 -0.19325430152707451 0 -0.2417568874431269 -0.194365545087062 0 -0.22351759868840201 -0.18300078920267451 0 -0.2417568874431269 -0.194365545087062 0 -0.22351759868840201 -0.18300078920267451 0 -0.21903271749696401 -0.19483852094341911 0 -0.22678274867800319 -0.19325430152707451 0 -0.22351759868840201 -0.18300078920267451 0 -0.21903271749696401 -0.19483852094341911 0 -0.22303984374759081 -0.2024734689765991 0 -0.22678274867800319 -0.19325430152707451 0 -0.21545539842519479 -0.2048090229964796 0 -0.21903271749696401 -0.19483852094341911 0 -0.22303984374759081 -0.2024734689765991 0 -0.2417568874431269 -0.194365545087062 0 -0.24538033542822071 -0.19133923748977399 0 -0.25988684736018852 -0.20566217904147979 0 -0.2417568874431269 -0.194365545087062 0 -0.24538033542822071 -0.19133923748977399 0 -0.23588363010276411 -0.1829676134618213 0 -0.2417568874431269 -0.194365545087062 0 -0.25424280476546102 -0.2192646611330637 0 -0.2417568874431269 -0.194365545087062 0 -0.2353371759593946 -0.21368504772927821 0 -0.25424280476546102 -0.2192646611330637 0 -0.2353371759593946 -0.21368504772927821 0 -0.25424280476546102 -0.2192646611330637 0 -0.21643154715333091 -0.20810543432548381 0 -0.2353371759593946 -0.21368504772927821 0 -0.21643154715333091 -0.20810543432548381 0 -0.22303984374759081 -0.2024734689765991 0 -0.2353371759593946 -0.21368504772927821 0 -0.21643154715333091 -0.20810543432548381 0 -0.2353371759593946 -0.21368504772927821 0 -0.23533496554996419 -0.22550560067877401 0 -0.22303984374759081 -0.2024734689765991 0 -0.2417568874431269 -0.194365545087062 0 -0.2353371759593946 -0.21368504772927821 0 -0.21545539842519479 -0.2048090229964796 0 -0.22303984374759081 -0.2024734689765991 0 -0.21643154715333091 -0.20810543432548381 0 -0.22489451734359001 -0.2366845125008106 0 -0.21643154715333091 -0.20810543432548381 0 -0.23533496554996419 -0.22550560067877401 0 -0.22489451734359001 -0.2366845125008106 0 -0.23109779021775109 -0.2335509528750154 0 -0.23533496554996419 -0.22550560067877401 0 -0.22489451734359001 -0.2366845125008106 0 -0.23533496554996419 -0.22550560067877401 0 -0.24511636918973989 -0.23010812977676109 0 -0.25424280476546102 -0.2192646611330637 0 -0.2353371759593946 -0.21368504772927821 0 -0.23533496554996419 -0.22550560067877401 0 -0.25424280476546102 -0.2192646611330637 0 -0.23533496554996419 -0.22550560067877401 0 -0.24511636918973989 -0.23010812977676109 0 -0.2402245542204812 -0.23714046641099959 0 -0.23109779021775109 -0.2335509528750154 0 -0.23533496554996419 -0.22550560067877401 0 -0.2402245542204812 -0.23714046641099959 0 -0.23109779021775109 -0.2335509528750154 0 -0.2402245542204812 -0.23714046641099959 0 -0.23430351868414331 -0.2426878383572087 0 -0.2402245542204812 -0.23714046641099959 0 -0.2397414864642112 -0.24651558165772669 0 -0.23430351868414331 -0.2426878383572087 0 -0.24511636918973989 -0.23010812977676109 0 -0.2402245542204812 -0.23714046641099959 0 -0.24677284420420101 -0.23790157994072619 0 -0.24511636918973989 -0.23010812977676109 0 -0.24677284420420101 -0.23790157994072619 0 -0.25416793356240353 -0.23823894190541789 0 -0.2402245542204812 -0.23714046641099959 0 -0.24677284420420101 -0.23790157994072619 0 -0.24621591896379361 -0.24390882307072231 0 -0.24677284420420101 -0.23790157994072619 0 -0.24621591896379361 -0.24390882307072231 0 -0.25058068953819879 -0.2425538979872125 0 -0.24365410585685729 -0.25271518056377179 0 -0.24962427814893129 -0.249267442217251 0 -0.24621591896379361 -0.24390882307072231 0 -0.24365410585685729 -0.25271518056377179 0 -0.24621591896379361 -0.24390882307072231 0 -0.2397414864642112 -0.24651558165772669 0 -0.24962427814893129 -0.249267442217251 0 -0.24621591896379361 -0.24390882307072231 0 -0.25058068953819879 -0.2425538979872125 0 -0.22986248486316421 -0.25346112034917878 0 -0.2397414864642112 -0.24651558165772669 0 -0.23430351868414331 -0.2426878383572087 0 -0.2402245542204812 -0.23714046641099959 0 -0.24621591896379361 -0.24390882307072231 0 -0.2397414864642112 -0.24651558165772669 0 -0.22986248486316421 -0.25346112034917878 0 -0.21588868556076199 -0.24385107089599919 0 -0.22489451734359001 -0.2366845125008106 0 -0.22986248486316421 -0.25346112034917878 0 -0.23430351868414331 -0.2426878383572087 0 -0.22489451734359001 -0.2366845125008106 0 -0.22986248486316421 -0.25346112034917878 0 -0.22489451734359001 -0.2366845125008106 0 -0.23109779021775109 -0.2335509528750154 0 -0.23430351868414331 -0.2426878383572087 0 -0.22489451734359001 -0.2366845125008106 0 -0.23109779021775109 -0.2335509528750154 0 -0.22489451734359001 -0.2366845125008106 0 -0.2151193961368856 -0.2416223776845435 0 -0.22489451734359001 -0.2366845125008106 0 -0.22986248486316421 -0.25346112034917878 0 -0.21588868556076199 -0.24385107089599919 0 -0.20706430835723821 -0.14404230841828791 0 -0.21537171874930169 -0.15548862504397951 0 -0.2013444169819002 -0.15466495767635319 0 -0.20706430835723821 -0.14404230841828791 0 -0.21537171874930169 -0.15548862504397951 0 -0.2184015385116064 -0.14237158116233861 0 -0.20706430835723821 -0.14404230841828791 0 -0.19582148560536 -0.1432460222632029 0 -0.20969180709601201 -0.1219862817958673 0 -0.2184015385116064 -0.14237158116233861 0 -0.2266066900312822 -0.13483914087826121 0 -0.20969180709601201 -0.1219862817958673 0 -0.20706430835723821 -0.14404230841828791 0 -0.2184015385116064 -0.14237158116233861 0 -0.20969180709601201 -0.1219862817958673 0 -0.19582148560536 -0.1432460222632029 0 -0.20969180709601201 -0.1219862817958673 0 -0.18447655928356779 -0.13228959039142549 0 -0.19707748878725781 -0.12908932633264369 0 -0.19251026215839759 -0.1159187289246278 0 -0.19707748878725781 -0.12908932633264369 0 -0.19582148560536 -0.1432460222632029 0 -0.20969180709601201 -0.1219862817958673 0 -0.18447655928356779 -0.13228959039142549 0 -0.19707748878725781 -0.12908932633264369 0 -0.19207804968128289 -0.13634950237838869 0 -0.19707748878725781 -0.12908932633264369 0 -0.19207804968128289 -0.13634950237838869 0 -0.19582148560536 -0.1432460222632029 0 -0.19207804968128289 -0.13634950237838869 0 -0.18823408959645141 -0.1386607820310915 0 -0.19395306541542179 -0.14211426562124721 0 -0.19207804968128289 -0.13634950237838869 0 -0.19395306541542179 -0.14211426562124721 0 -0.19582148560536 -0.1432460222632029 0 -0.18447655928356779 -0.13228959039142549 0 -0.19207804968128289 -0.13634950237838869 0 -0.18823408959645141 -0.1386607820310915 0 -0.18201490414635579 -0.1457160071071382 0 -0.18823408959645141 -0.1386607820310915 0 -0.19395306541542179 -0.14211426562124721 0 -0.18201490414635579 -0.1457160071071382 0 -0.19249183242400161 -0.14663478760018039 0 -0.19395306541542179 -0.14211426562124721 0 -0.18201490414635579 -0.1457160071071382 0 -0.19249183242400161 -0.14663478760018039 0 -0.19003045763452209 -0.1506982780902569 0 -0.18201490414635579 -0.1457160071071382 0 -0.19395306541542179 -0.14211426562124721 0 -0.19249183242400161 -0.14663478760018039 0 -0.19395306541542179 -0.14211426562124721 0 -0.19582148560536 -0.1432460222632029 0 -0.20706430835723821 -0.14404230841828791 0 -0.19582148560536 -0.1432460222632029 0 -0.19809166752845109 -0.14874917620141709 0 -0.19249183242400161 -0.14663478760018039 0 -0.19582148560536 -0.1432460222632029 0 -0.19809166752845109 -0.14874917620141709 0 -0.2013444169819002 -0.15466495767635319 0 -0.19809166752845109 -0.14874917620141709 0 -0.19003045763452209 -0.1506982780902569 0 -0.20706430835723821 -0.14404230841828791 0 -0.2013444169819002 -0.15466495767635319 0 -0.19809166752845109 -0.14874917620141709 0 -0.19249183242400161 -0.14663478760018039 0 -0.19809166752845109 -0.14874917620141709 0 -0.19003045763452209 -0.1506982780902569 0 -0.1870390211789508 -0.16027127743390199 0 -0.2013444169819002 -0.15466495767635319 0 -0.19003045763452209 -0.1506982780902569 0 -0.1870390211789508 -0.16027127743390199 0 -0.1945640582292055 -0.18207191379940979 0 -0.1870390211789508 -0.16027127743390199 0 -0.2013444169819002 -0.15466495767635319 0 -0.20527830993367641 -0.17163603331828831 0 -0.1870390211789508 -0.16027127743390199 0 -0.20527830993367641 -0.17163603331828831 0 -0.1870390211789508 -0.16027127743390199 0 -0.1945640582292055 -0.18207191379940979 0 -0.20527830993367641 -0.17163603331828831 0 -0.18264171043709559 -0.17604168454582531 0 -0.1870390211789508 -0.16027127743390199 0 -0.1945640582292055 -0.18207191379940979 0 -0.1945640582292055 -0.18207191379940979 0 -0.20435634244013781 -0.1836345842818124 0 -0.20613948554483971 -0.17334959486465479 0 -0.1945640582292055 -0.18207191379940979 0 -0.20613948554483971 -0.17334959486465479 0 -0.20527830993367641 -0.17163603331828831 0 -0.20691251650199971 -0.195740796813103 0 -0.1945640582292055 -0.18207191379940979 0 -0.20435634244013781 -0.1836345842818124 0 -0.20527830993367641 -0.17163603331828831 0 -0.22727167722223121 -0.1711099969397413 0 -0.22351759868840201 -0.18300078920267451 0 -0.21079744198501729 -0.18907930893056721 0 -0.20435634244013781 -0.1836345842818124 0 -0.20613948554483971 -0.17334959486465479 0 -0.20613948554483971 -0.17334959486465479 0 -0.20527830993367641 -0.17163603331828831 0 -0.22351759868840201 -0.18300078920267451 0 -0.20527830993367641 -0.17163603331828831 0 -0.22351759868840201 -0.18300078920267451 0 -0.21079744198501729 -0.18907930893056721 0 -0.20613948554483971 -0.17334959486465479 0 -0.22351759868840201 -0.18300078920267451 0 -0.21079744198501729 -0.18907930893056721 0 -0.20613948554483971 -0.17334959486465479 0 -0.21537171874930169 -0.15548862504397951 0 -0.2013444169819002 -0.15466495767635319 0 -0.20527830993367641 -0.17163603331828831 0 -0.21537171874930169 -0.15548862504397951 0 -0.20527830993367641 -0.17163603331828831 0 -0.22727167722223121 -0.1711099969397413 0 -0.21537171874930169 -0.15548862504397951 0 -0.22727167722223121 -0.1711099969397413 0 -0.23575692145276561 -0.15382388739396299 0 -0.2417568874431269 -0.194365545087062 0 -0.22351759868840201 -0.18300078920267451 0 -0.23588363010276411 -0.1829676134618213 0 -0.22727167722223121 -0.1711099969397413 0 -0.22351759868840201 -0.18300078920267451 0 -0.23588363010276411 -0.1829676134618213 0 -0.22727167722223121 -0.1711099969397413 0 -0.23588363010276411 -0.1829676134618213 0 -0.24782188440647729 -0.1797430332177212 0 -0.24538033542822071 -0.19133923748977399 0 -0.23588363010276411 -0.1829676134618213 0 -0.24782188440647729 -0.1797430332177212 0 -0.24782188440647729 -0.1797430332177212 0 -0.24703020523104019 -0.17051586770726321 0 -0.23575692145276561 -0.15382388739396299 0 -0.24782188440647729 -0.1797430332177212 0 -0.23575692145276561 -0.15382388739396299 0 -0.22727167722223121 -0.1711099969397413 0 -0.24782188440647729 -0.1797430332177212 0 -0.23575692145276561 -0.15382388739396299 0 -0.24703020523104019 -0.17051586770726321 0 -0.23575692145276561 -0.15382388739396299 0 -0.25327020623507968 -0.15169592267379139 0 -0.23575692145276561 -0.15382388739396299 0 -0.25327020623507968 -0.15169592267379139 0 -0.2501656495548979 -0.1378698551600121 0 -0.23575692145276561 -0.15382388739396299 0 -0.23794248756495329 -0.1379019013183693 0 -0.2501656495548979 -0.1378698551600121 0 -0.23575692145276561 -0.15382388739396299 0 -0.2266066900312822 -0.13483914087826121 0 -0.23794248756495329 -0.1379019013183693 0 -0.2184015385116064 -0.14237158116233861 0 -0.23575692145276561 -0.15382388739396299 0 -0.2266066900312822 -0.13483914087826121 0 -0.21537171874930169 -0.15548862504397951 0 -0.2184015385116064 -0.14237158116233861 0 -0.23575692145276561 -0.15382388739396299 0 -0.2266066900312822 -0.13483914087826121 0 -0.22767938766819509 -0.1186822091197601 0 -0.20969180709601201 -0.1219862817958673 0 -0.2266066900312822 -0.13483914087826121 0 -0.2392406892208675 -0.12507472184124099 0 -0.22767938766819509 -0.1186822091197601 0 -0.2392406892208675 -0.12507472184124099 0 -0.25517816819888028 -0.1186538974609114 0 -0.2501656495548979 -0.1378698551600121 0 -0.2266066900312822 -0.13483914087826121 0 -0.2392406892208675 -0.12507472184124099 0 -0.23794248756495329 -0.1379019013183693 0 -0.2392406892208675 -0.12507472184124099 0 -0.23794248756495329 -0.1379019013183693 0 -0.2501656495548979 -0.1378698551600121 0 -0.2392406892208675 -0.12507472184124099 0 -0.23929562340614971 -0.1107843597548992 0 -0.25517816819888028 -0.1186538974609114 0 -0.2392406892208675 -0.12507472184124099 0 -0.23929562340614971 -0.1107843597548992 0 -0.22767938766819509 -0.1186822091197601 0 -0.23639694075430559 -0.096255210178154083 0 -0.25846098882620011 -0.1027031305936689 0 -0.23929562340614971 -0.1107843597548992 0 -0.23639694075430559 -0.096255210178154083 0 -0.25846098882620011 -0.1027031305936689 0 -0.23639694075430559 -0.096255210178154083 0 -0.25476971962087458 -0.087562748228348086 0 -0.25846098882620011 -0.1027031305936689 0 -0.23929562340614971 -0.1107843597548992 0 -0.23639694075430559 -0.096255210178154083 0 -0.22356212858666399 -0.10072654132853159 0 -0.23929562340614971 -0.1107843597548992 0 -0.22356212858666399 -0.10072654132853159 0 -0.22767938766819509 -0.1186822091197601 0 -0.22356212858666399 -0.10072654132853159 0 -0.22767938766819509 -0.1186822091197601 0 -0.20969180709601201 -0.1219862817958673 0 -0.23743245007731609 -0.079466800861195966 0 -0.23441361283901349 -0.062342723778561107 0 -0.2513027715679681 -0.05820706039386029 0 -0.23743245007731609 -0.079466800861195966 0 -0.2513027715679681 -0.05820706039386029 0 -0.25632156800307321 -0.073583306545420196 0 -0.23743245007731609 -0.079466800861195966 0 -0.2513027715679681 -0.05820706039386029 0 -0.23743245007731609 -0.079466800861195966 0 -0.25632156800307321 -0.073583306545420196 0 -0.25476971962087458 -0.087562748228348086 0 -0.23639694075430559 -0.096255210178154083 0 -0.23743245007731609 -0.079466800861195966 0 -0.25476971962087458 -0.087562748228348086 0 -0.22356212858666399 -0.10072654132853159 0 -0.23743245007731609 -0.079466800861195966 0 -0.22356212858666399 -0.10072654132853159 0 -0.22141602652978881 -0.085051772214960686 0 -0.2149291866863475 -0.093012768665591966 0 -0.23743245007731609 -0.079466800861195966 0 -0.22141602652978881 -0.085051772214960686 0 -0.21883631058434749 -0.070068980871756781 0 -0.22356212858666399 -0.10072654132853159 0 -0.23743245007731609 -0.079466800861195966 0 -0.22141602652978881 -0.085051772214960686 0 -0.23639694075430559 -0.096255210178154083 0 -0.22356212858666399 -0.10072654132853159 0 -0.23743245007731609 -0.079466800861195966 0 -0.23743245007731609 -0.079466800861195966 0 -0.21883631058434749 -0.070068980871756781 0 -0.23441361283901349 -0.062342723778561107 0 -0.21883631058434749 -0.070068980871756781 0 -0.2081910904273685 -0.063699933304776746 0 -0.2055222876500912 -0.073021218806808202 0 -0.2081910904273685 -0.063699933304776746 0 -0.20115326739606029 -0.067167325786277765 0 -0.20235154518463061 -0.058659052093317628 0 -0.2081910904273685 -0.063699933304776746 0 -0.2055222876500912 -0.073021218806808202 0 -0.20115326739606029 -0.067167325786277765 0 -0.21883631058434749 -0.070068980871756781 0 -0.2081910904273685 -0.063699933304776746 0 -0.2147025835759154 -0.05489128059661709 0 -0.21883631058434749 -0.070068980871756781 0 -0.2055222876500912 -0.073021218806808202 0 -0.21119345384533081 -0.081783572405199428 0 -0.2055222876500912 -0.073021218806808202 0 -0.21119345384533081 -0.081783572405199428 0 -0.19968180294462831 -0.08208699420250562 0 -0.21119345384533081 -0.081783572405199428 0 -0.20532979744798011 -0.09146852947487423 0 -0.19968180294462831 -0.08208699420250562 0 -0.22141602652978881 -0.085051772214960686 0 -0.21883631058434749 -0.070068980871756781 0 -0.21119345384533081 -0.081783572405199428 0 -0.22141602652978881 -0.085051772214960686 0 -0.21119345384533081 -0.081783572405199428 0 -0.2149291866863475 -0.093012768665591966 0 -0.21119345384533081 -0.081783572405199428 0 -0.2149291866863475 -0.093012768665591966 0 -0.20532979744798011 -0.09146852947487423 0 -0.20532979744798011 -0.09146852947487423 0 -0.19968180294462831 -0.08208699420250562 0 -0.19271961910189769 -0.094598677076164386 0 -0.19968180294462831 -0.08208699420250562 0 -0.19271961910189769 -0.094598677076164386 0 -0.18743352319734219 -0.080306544168013028 0 -0.2055222876500912 -0.073021218806808202 0 -0.19968180294462831 -0.08208699420250562 0 -0.19494588051281589 -0.071798036818656638 0 -0.2055222876500912 -0.073021218806808202 0 -0.19494588051281589 -0.071798036818656638 0 -0.20115326739606029 -0.067167325786277765 0 -0.19494588051281589 -0.071798036818656638 0 -0.18743352319734219 -0.080306544168013028 0 -0.1839419321538969 -0.070137377360398795 0 -0.19968180294462831 -0.08208699420250562 0 -0.19494588051281589 -0.071798036818656638 0 -0.18743352319734219 -0.080306544168013028 0 -0.19494588051281589 -0.071798036818656638 0 -0.18892085136125311 -0.063174676907141486 0 -0.19646579172579029 -0.061043772455312319 0 -0.19494588051281589 -0.071798036818656638 0 -0.18892085136125311 -0.063174676907141486 0 -0.1839419321538969 -0.070137377360398795 0 -0.19494588051281589 -0.071798036818656638 0 -0.20115326739606029 -0.067167325786277765 0 -0.19646579172579029 -0.061043772455312319 0 -0.20969180709601201 -0.1219862817958673 0 -0.20773683325106959 -0.1050724825802609 0 -0.19251026215839759 -0.1159187289246278 0 -0.22356212858666399 -0.10072654132853159 0 -0.20969180709601201 -0.1219862817958673 0 -0.22356212858666399 -0.10072654132853159 0 -0.20969180709601201 -0.1219862817958673 0 -0.20773683325106959 -0.1050724825802609 0 -0.22356212858666399 -0.10072654132853159 0 -0.2149291866863475 -0.093012768665591966 0 -0.20773683325106959 -0.1050724825802609 0 -0.2149291866863475 -0.093012768665591966 0 -0.20532979744798011 -0.09146852947487423 0 -0.20773683325106959 -0.1050724825802609 0 -0.19271961910189769 -0.094598677076164386 0 -0.19251026215839759 -0.1159187289246278 0 -0.18056504349161209 -0.1046877206642062 0 -0.20773683325106959 -0.1050724825802609 0 -0.19271961910189769 -0.094598677076164386 0 -0.19251026215839759 -0.1159187289246278 0 -0.20532979744798011 -0.09146852947487423 0 -0.20773683325106959 -0.1050724825802609 0 -0.19271961910189769 -0.094598677076164386 0 -0.19707748878725781 -0.12908932633264369 0 -0.20969180709601201 -0.1219862817958673 0 -0.19251026215839759 -0.1159187289246278 0 -0.18447655928356779 -0.13228959039142549 0 -0.19251026215839759 -0.1159187289246278 0 -0.17425690043448269 -0.1232404476228063 0 -0.19251026215839759 -0.1159187289246278 0 -0.17425690043448269 -0.1232404476228063 0 -0.18056504349161209 -0.1046877206642062 0 -0.17425690043448269 -0.1232404476228063 0 -0.16649889672260981 -0.1007648881384743 0 -0.18056504349161209 -0.1046877206642062 0 -0.17425690043448269 -0.1232404476228063 0 -0.16649889672260981 -0.1007648881384743 0 -0.17425690043448269 -0.1232404476228063 0 -0.16227557450298741 -0.11978241432151621 0 -0.1655730705789136 -0.1037166680681305 0 -0.1655730705789136 -0.1037166680681305 0 -0.14728138713821609 -0.12121604325948 0 -0.16227557450298741 -0.11978241432151621 0 -0.1655730705789136 -0.1037166680681305 0 -0.14728138713821609 -0.12121604325948 0 -0.15644748704803391 -0.099254147196815967 0 -0.1655730705789136 -0.1037166680681305 0 -0.14728138713821609 -0.12121604325948 0 -0.17425690043448269 -0.1232404476228063 0 -0.1655730705789136 -0.1037166680681305 0 -0.16649889672260981 -0.1007648881384743 0 -0.15644748704803391 -0.099254147196815967 0 -0.1655730705789136 -0.1037166680681305 0 -0.16649889672260981 -0.1007648881384743 0 -0.19271961910189769 -0.094598677076164386 0 -0.18056504349161209 -0.1046877206642062 0 -0.17683953904067251 -0.088915861558958392 0 -0.16649889672260981 -0.1007648881384743 0 -0.18056504349161209 -0.1046877206642062 0 -0.17683953904067251 -0.088915861558958392 0 -0.19271961910189769 -0.094598677076164386 0 -0.18743352319734219 -0.080306544168013028 0 -0.17683953904067251 -0.088915861558958392 0 -0.18743352319734219 -0.080306544168013028 0 -0.17683953904067251 -0.088915861558958392 0 -0.17461359737360879 -0.074750649673112235 0 -0.1839419321538969 -0.070137377360398795 0 -0.17521216769145129 -0.064565261802043236 0 -0.1821271417879595 -0.061422574564793567 0 -0.18892085136125311 -0.063174676907141486 0 -0.1839419321538969 -0.070137377360398795 0 -0.1821271417879595 -0.061422574564793567 0 -0.18743352319734219 -0.080306544168013028 0 -0.1839419321538969 -0.070137377360398795 0 -0.17461359737360879 -0.074750649673112235 0 -0.1839419321538969 -0.070137377360398795 0 -0.17461359737360879 -0.074750649673112235 0 -0.17521216769145129 -0.064565261802043236 0 -0.17461359737360879 -0.074750649673112235 0 -0.1655135291475528 -0.066289524495117699 0 -0.15874089301073699 -0.078289328654142287 0 -0.1655135291475528 -0.066289524495117699 0 -0.15874089301073699 -0.078289328654142287 0 -0.1509828892988597 -0.055813769169811893 0 -0.17461359737360879 -0.074750649673112235 0 -0.17521216769145129 -0.064565261802043236 0 -0.1655135291475528 -0.066289524495117699 0 -0.17521216769145129 -0.064565261802043236 0 -0.1655135291475528 -0.066289524495117699 0 -0.1688990349584932 -0.057327738827664509 0 -0.17683953904067251 -0.088915861558958392 0 -0.17461359737360879 -0.074750649673112235 0 -0.15874089301073699 -0.078289328654142287 0 -0.16649889672260981 -0.1007648881384743 0 -0.17683953904067251 -0.088915861558958392 0 -0.15874089301073699 -0.078289328654142287 0 -0.16649889672260981 -0.1007648881384743 0 -0.15874089301073699 -0.078289328654142287 0 -0.15644748704803391 -0.099254147196815967 0 -0.16649889672260981 -0.1007648881384743 0 -0.15874089301073699 -0.078289328654142287 0 -0.15874089301073699 -0.078289328654142287 0 -0.14414318778969271 -0.092283807863852679 0 -0.14415978188810599 -0.075368692909577428 0 -0.15644748704803391 -0.099254147196815967 0 -0.15874089301073699 -0.078289328654142287 0 -0.14414318778969271 -0.092283807863852679 0 -0.14415978188810599 -0.075368692909577428 0 -0.13698411550258871 -0.068580844515753941 0 -0.1509828892988597 -0.055813769169811893 0 -0.15874089301073699 -0.078289328654142287 0 -0.14415978188810599 -0.075368692909577428 0 -0.1509828892988597 -0.055813769169811893 0 -0.15874089301073699 -0.078289328654142287 0 -0.1509828892988597 -0.055813769169811893 0 -0.14415978188810599 -0.075368692909577428 0 -0.13698411550258871 -0.068580844515753941 0 -0.13151349030026979 -0.080911988378094352 0 -0.13698411550258871 -0.068580844515753941 0 -0.12685500174418551 -0.068862895420435014 0 -0.13151349030026979 -0.080911988378094352 0 -0.1185069668054889 -0.079191918244455234 0 -0.12685500174418551 -0.068862895420435014 0 -0.13151349030026979 -0.080911988378094352 0 -0.13698411550258871 -0.068580844515753941 0 -0.12685500174418551 -0.068862895420435014 0 -0.1314094142815225 -0.061946876700850903 0 -0.14414318778969271 -0.092283807863852679 0 -0.14415978188810599 -0.075368692909577428 0 -0.13151349030026979 -0.080911988378094352 0 -0.1193594422888926 -0.089956040382980662 0 -0.13151349030026979 -0.080911988378094352 0 -0.12926418829970049 -0.099954548558512615 0 -0.14414318778969271 -0.092283807863852679 0 -0.13151349030026979 -0.080911988378094352 0 -0.12926418829970049 -0.099954548558512615 0 -0.14414318778969271 -0.092283807863852679 0 -0.12926418829970049 -0.099954548558512615 0 -0.14728138713821609 -0.12121604325948 0 -0.1197664355065898 -0.1134613506783357 0 -0.12898970369751861 -0.13871541845082941 0 -0.14728138713821609 -0.12121604325948 0 -0.1197664355065898 -0.1134613506783357 0 -0.12926418829970049 -0.099954548558512615 0 -0.14728138713821609 -0.12121604325948 0 -0.15644748704803391 -0.099254147196815967 0 -0.14414318778969271 -0.092283807863852679 0 -0.14728138713821609 -0.12121604325948 0 -0.13388815263487219 -0.013669405365648301 0 -0.15266914885854899 -0.031535005899996603 0 -0.1610251665380398 -0.01392057815457798 0 -0.13388815263487219 -0.013669405365648301 0 -0.13786248439976481 -0.026805810469344511 0 -0.15266914885854899 -0.031535005899996603 0 -0.13388815263487219 -0.013669405365648301 0 -0.15266914885854899 -0.031535005899996603 0 -0.13388815263487219 -0.013669405365648301 0 -0.1375100387725828 -0.00473293635783981 0 -0.1610251665380398 -0.01392057815457798 0 -0.1375100387725828 -0.00473293635783981 0 -0.1610251665380398 -0.01392057815457798 0 -0.1375100387725828 -0.00473293635783981 0 -0.1610251665380398 -0.01392057815457798 0 -0.1532190245587064 0.0036016463931156698 0 -0.13388815263487219 -0.013669405365648301 0 -0.1375100387725828 -0.00473293635783981 0 -0.115421237406118 0.0038974226475877302 0 -0.1375100387725828 -0.00473293635783981 0 -0.115421237406118 0.0038974226475877302 0 -0.13388815263487219 -0.013669405365648301 0 -0.1375100387725828 -0.00473293635783981 0 -0.1229760097893568 -0.015317431265900249 0 -0.13388815263487219 -0.013669405365648301 0 -0.129661637862758 -0.024097706211081479 0 -0.13388815263487219 -0.013669405365648301 0 -0.129661637862758 -0.024097706211081479 0 -0.13388815263487219 -0.013669405365648301 0 -0.13786248439976481 -0.026805810469344511 0 -0.129661637862758 -0.024097706211081479 0 -0.13786248439976481 -0.026805810469344511 0 -0.129661637862758 -0.024097706211081479 0 -0.134124848371246 -0.031420374983744143 0 -0.13786248439976481 -0.026805810469344511 0 -0.129661637862758 -0.024097706211081479 0 -0.1243165657106118 -0.037285882154771167 0 -0.129661637862758 -0.024097706211081479 0 -0.134124848371246 -0.031420374983744143 0 -0.1243165657106118 -0.037285882154771167 0 -0.129661637862758 -0.024097706211081479 0 -0.1243165657106118 -0.037285882154771167 0 -0.134124848371246 -0.031420374983744143 0 -0.14465870551184409 -0.03749210109977727 0 -0.1243165657106118 -0.037285882154771167 0 -0.1305707563616865 -0.050120171825992307 0 -0.14848079296721231 -0.048564995255014128 0 -0.1243165657106118 -0.037285882154771167 0 -0.14848079296721231 -0.048564995255014128 0 -0.1243165657106118 -0.037285882154771167 0 -0.14848079296721231 -0.048564995255014128 0 -0.14465870551184409 -0.03749210109977727 0 -0.13786248439976481 -0.026805810469344511 0 -0.134124848371246 -0.031420374983744143 0 -0.14465870551184409 -0.03749210109977727 0 -0.13698411550258871 -0.068580844515753941 0 -0.1314094142815225 -0.061946876700850903 0 -0.1509828892988597 -0.055813769169811893 0 -0.1314094142815225 -0.061946876700850903 0 -0.1305707563616865 -0.050120171825992307 0 -0.14848079296721231 -0.048564995255014128 0 -0.1180762524873999 -0.052682933193331519 0 -0.1314094142815225 -0.061946876700850903 0 -0.1305707563616865 -0.050120171825992307 0 -0.1314094142815225 -0.061946876700850903 0 -0.14848079296721231 -0.048564995255014128 0 -0.1509828892988597 -0.055813769169811893 0 -0.1314094142815225 -0.061946876700850903 0 -0.1509828892988597 -0.055813769169811893 0 -0.14848079296721231 -0.048564995255014128 0 -0.1535285448326266 -0.050921129535139727 0 -0.14848079296721231 -0.048564995255014128 0 -0.1535285448326266 -0.050921129535139727 0 -0.1541574674504908 -0.043582767644856267 0 -0.14848079296721231 -0.048564995255014128 0 -0.1509828892988597 -0.055813769169811893 0 -0.14848079296721231 -0.048564995255014128 0 -0.1535285448326266 -0.050921129535139727 0 -0.1509828892988597 -0.055813769169811893 0 -0.13786248439976481 -0.026805810469344511 0 -0.14465870551184409 -0.03749210109977727 0 -0.15266914885854899 -0.031535005899996603 0 -0.14848079296721231 -0.048564995255014128 0 -0.14465870551184409 -0.03749210109977727 0 -0.14848079296721231 -0.048564995255014128 0 -0.14465870551184409 -0.03749210109977727 0 -0.1541574674504908 -0.043582767644856267 0 -0.14465870551184409 -0.03749210109977727 0 -0.1541574674504908 -0.043582767644856267 0 -0.15266914885854899 -0.031535005899996603 0 -0.15266914885854899 -0.031535005899996603 0 -0.1689664507749512 -0.033200396301880652 0 -0.17145014508222159 -0.049400606434349202 0 -0.15266914885854899 -0.031535005899996603 0 -0.17145014508222159 -0.049400606434349202 0 -0.1541574674504908 -0.043582767644856267 0 -0.15266914885854899 -0.031535005899996603 0 -0.17145014508222159 -0.049400606434349202 0 -0.1509828892988597 -0.055813769169811893 0 -0.17145014508222159 -0.049400606434349202 0 -0.1688990349584932 -0.057327738827664509 0 -0.1509828892988597 -0.055813769169811893 0 -0.17145014508222159 -0.049400606434349202 0 -0.1535285448326266 -0.050921129535139727 0 -0.1509828892988597 -0.055813769169811893 0 -0.17145014508222159 -0.049400606434349202 0 -0.1535285448326266 -0.050921129535139727 0 -0.1541574674504908 -0.043582767644856267 0 -0.17145014508222159 -0.049400606434349202 0 -0.1655135291475528 -0.066289524495117699 0 -0.1509828892988597 -0.055813769169811893 0 -0.1688990349584932 -0.057327738827664509 0 -0.17145014508222159 -0.049400606434349202 0 -0.1688990349584932 -0.057327738827664509 0 -0.17315664271559961 -0.051023928470490122 0 -0.17521216769145129 -0.064565261802043236 0 -0.17659001686021089 -0.05682096508965357 0 -0.1821271417879595 -0.061422574564793567 0 -0.17521216769145129 -0.064565261802043236 0 -0.1688990349584932 -0.057327738827664509 0 -0.17659001686021089 -0.05682096508965357 0 -0.1688990349584932 -0.057327738827664509 0 -0.17659001686021089 -0.05682096508965357 0 -0.17315664271559961 -0.051023928470490122 0 -0.17145014508222159 -0.049400606434349202 0 -0.17860884175156691 -0.051244211685084209 0 -0.18546964839908281 -0.045007767590053968 0 -0.17145014508222159 -0.049400606434349202 0 -0.18546964839908281 -0.045007767590053968 0 -0.17659001686021089 -0.05682096508965357 0 -0.17860884175156691 -0.051244211685084209 0 -0.18203396866967639 -0.055242171455674061 0 -0.17659001686021089 -0.05682096508965357 0 -0.17860884175156691 -0.051244211685084209 0 -0.17315664271559961 -0.051023928470490122 0 -0.17145014508222159 -0.049400606434349202 0 -0.17860884175156691 -0.051244211685084209 0 -0.17315664271559961 -0.051023928470490122 0 -0.17145014508222159 -0.049400606434349202 0 -0.17315664271559961 -0.051023928470490122 0 -0.17860884175156691 -0.051244211685084209 0 -0.18363152145910899 -0.050675888298517692 0 -0.18546964839908281 -0.045007767590053968 0 -0.18363152145910899 -0.050675888298517692 0 -0.18655188535656839 -0.048409809812908079 0 -0.18546964839908281 -0.045007767590053968 0 -0.18363152145910899 -0.050675888298517692 0 -0.18552226906976069 -0.053433710763991622 0 -0.18203396866967639 -0.055242171455674061 0 -0.18363152145910899 -0.050675888298517692 0 -0.18655188535656839 -0.048409809812908079 0 -0.18552226906976069 -0.053433710763991622 0 -0.17860884175156691 -0.051244211685084209 0 -0.18363152145910899 -0.050675888298517692 0 -0.18203396866967639 -0.055242171455674061 0 -0.17659001686021089 -0.05682096508965357 0 -0.18203396866967639 -0.055242171455674061 0 -0.1821271417879595 -0.061422574564793567 0 -0.18203396866967639 -0.055242171455674061 0 -0.1857240210894513 -0.057855678332003731 0 -0.1821271417879595 -0.061422574564793567 0 -0.18552226906976069 -0.053433710763991622 0 -0.1857240210894513 -0.057855678332003731 0 -0.190392830473365 -0.057008288787510943 0 -0.18552226906976069 -0.053433710763991622 0 -0.18203396866967639 -0.055242171455674061 0 -0.1857240210894513 -0.057855678332003731 0 -0.18892085136125311 -0.063174676907141486 0 -0.1857240210894513 -0.057855678332003731 0 -0.1821271417879595 -0.061422574564793567 0 -0.1689664507749512 -0.033200396301880652 0 -0.17145014508222159 -0.049400606434349202 0 -0.18546964839908281 -0.045007767590053968 0 -0.18546964839908281 -0.045007767590053968 0 -0.17814385521490009 -0.021978931293279921 0 -0.1926936633070444 -0.028900424671232959 0 -0.18546964839908281 -0.045007767590053968 0 -0.17814385521490009 -0.021978931293279921 0 -0.1689664507749512 -0.033200396301880652 0 -0.18546964839908281 -0.045007767590053968 0 -0.17814385521490009 -0.021978931293279921 0 -0.18655188535656839 -0.048409809812908079 0 -0.18546964839908281 -0.045007767590053968 0 -0.17814385521490009 -0.021978931293279921 0 -0.18906504466313809 -0.0053416003071723702 0 -0.1926936633070444 -0.028900424671232959 0 -0.1689664507749512 -0.033200396301880652 0 -0.17814385521490009 -0.021978931293279921 0 -0.1610251665380398 -0.01392057815457798 0 -0.15266914885854899 -0.031535005899996603 0 -0.1689664507749512 -0.033200396301880652 0 -0.1610251665380398 -0.01392057815457798 0 -0.1610251665380398 -0.01392057815457798 0 -0.1532190245587064 0.0036016463931156698 0 -0.1708180620307255 0.001049905003496544 0 -0.17814385521490009 -0.021978931293279921 0 -0.1610251665380398 -0.01392057815457798 0 -0.1708180620307255 0.001049905003496544 0 -0.17814385521490009 -0.021978931293279921 0 -0.1708180620307255 0.001049905003496544 0 -0.17814385521490009 -0.021978931293279921 0 -0.18906504466313809 -0.0053416003071723702 0 -0.1708180620307255 0.001049905003496544 0 -0.18906504466313809 -0.0053416003071723702 0 -0.20395769010638881 -0.01779998916163705 0 -0.20845065687622341 0.00034172042793286981 0 -0.18906504466313809 -0.0053416003071723702 0 -0.1926936633070444 -0.028900424671232959 0 -0.20395769010638881 -0.01779998916163705 0 -0.1926936633070444 -0.028900424671232959 0 -0.20395769010638881 -0.01779998916163705 0 -0.20886308993662769 -0.037677720557334801 0 -0.20395769010638881 -0.01779998916163705 0 -0.20886308993662769 -0.037677720557334801 0 -0.22210309490731051 -0.012913091267563809 0 -0.22210309490731051 -0.012913091267563809 0 -0.20845065687622341 0.00034172042793286981 0 -0.22279273163251881 0.0092344643629644792 0 -0.20395769010638881 -0.01779998916163705 0 -0.22210309490731051 -0.012913091267563809 0 -0.20845065687622341 0.00034172042793286981 0 -0.20115326739606029 -0.067167325786277765 0 -0.20235154518463061 -0.058659052093317628 0 -0.19646579172579029 -0.061043772455312319 0 -0.20235154518463061 -0.058659052093317628 0 -0.19582616594348359 -0.055402424378868498 0 -0.19646579172579029 -0.061043772455312319 0 -0.18892085136125311 -0.063174676907141486 0 -0.19646579172579029 -0.061043772455312319 0 -0.190392830473365 -0.057008288787510943 0 -0.18892085136125311 -0.063174676907141486 0 -0.1857240210894513 -0.057855678332003731 0 -0.190392830473365 -0.057008288787510943 0 -0.19582616594348359 -0.055402424378868498 0 -0.19646579172579029 -0.061043772455312319 0 -0.190392830473365 -0.057008288787510943 0 -0.19582616594348359 -0.055402424378868498 0 -0.190392830473365 -0.057008288787510943 0 -0.19128478146060979 -0.052458336915917669 0 -0.19582616594348359 -0.055402424378868498 0 -0.19128478146060979 -0.052458336915917669 0 -0.19777037203916559 -0.049749576038053467 0 -0.18655188535656839 -0.048409809812908079 0 -0.18546964839908281 -0.045007767590053968 0 -0.19777037203916559 -0.049749576038053467 0 -0.18655188535656839 -0.048409809812908079 0 -0.19128478146060979 -0.052458336915917669 0 -0.19777037203916559 -0.049749576038053467 0 -0.18655188535656839 -0.048409809812908079 0 -0.18552226906976069 -0.053433710763991622 0 -0.19128478146060979 -0.052458336915917669 0 -0.18552226906976069 -0.053433710763991622 0 -0.190392830473365 -0.057008288787510943 0 -0.19128478146060979 -0.052458336915917669 0 -0.20235154518463061 -0.058659052093317628 0 -0.19582616594348359 -0.055402424378868498 0 -0.19777037203916559 -0.049749576038053467 0 -0.18546964839908281 -0.045007767590053968 0 -0.19777037203916559 -0.049749576038053467 0 -0.20886308993662769 -0.037677720557334801 0 -0.18546964839908281 -0.045007767590053968 0 -0.20886308993662769 -0.037677720557334801 0 -0.18546964839908281 -0.045007767590053968 0 -0.1926936633070444 -0.028900424671232959 0 -0.20886308993662769 -0.037677720557334801 0 -0.20886308993662769 -0.037677720557334801 0 -0.2147025835759154 -0.05489128059661709 0 -0.22983572599352159 -0.046581121844006507 0 -0.19777037203916559 -0.049749576038053467 0 -0.20886308993662769 -0.037677720557334801 0 -0.2147025835759154 -0.05489128059661709 0 -0.20235154518463061 -0.058659052093317628 0 -0.19777037203916559 -0.049749576038053467 0 -0.2147025835759154 -0.05489128059661709 0 -0.2081910904273685 -0.063699933304776746 0 -0.20235154518463061 -0.058659052093317628 0 -0.2147025835759154 -0.05489128059661709 0 -0.2147025835759154 -0.05489128059661709 0 -0.22983572599352159 -0.046581121844006507 0 -0.23441361283901349 -0.062342723778561107 0 -0.21883631058434749 -0.070068980871756781 0 -0.2147025835759154 -0.05489128059661709 0 -0.23441361283901349 -0.062342723778561107 0 -0.20886308993662769 -0.037677720557334801 0 -0.22983572599352159 -0.046581121844006507 0 -0.23225653147417261 -0.030347673524615679 0 -0.20886308993662769 -0.037677720557334801 0 -0.23225653147417261 -0.030347673524615679 0 -0.22983572599352159 -0.046581121844006507 0 -0.24726719158697191 -0.038847202924023549 0 -0.23225653147417261 -0.030347673524615679 0 -0.22983572599352159 -0.046581121844006507 0 -0.23441361283901349 -0.062342723778561107 0 -0.2513027715679681 -0.05820706039386029 0 -0.22983572599352159 -0.046581121844006507 0 -0.24726719158697191 -0.038847202924023549 0 -0.2513027715679681 -0.05820706039386029 0 -0.22210309490731051 -0.012913091267563809 0 -0.2430680818751586 -0.013434807292780279 0 -0.23556882495632811 0.00032806392891222239 0 -0.22210309490731051 -0.012913091267563809 0 -0.22279273163251881 0.0092344643629644792 0 -0.23556882495632811 0.00032806392891222239 0 -0.20886308993662769 -0.037677720557334801 0 -0.22210309490731051 -0.012913091267563809 0 -0.23225653147417261 -0.030347673524615679 0 -0.22210309490731051 -0.012913091267563809 0 -0.23225653147417261 -0.030347673524615679 0 -0.2430680818751586 -0.013434807292780279 0 -0.24726719158697191 -0.038847202924023549 0 -0.23225653147417261 -0.030347673524615679 0 -0.25564997301171749 -0.023017626491896589 0 -0.23225653147417261 -0.030347673524615679 0 -0.2430680818751586 -0.013434807292780279 0 -0.25564997301171749 -0.023017626491896589 0 -0.23225653147417261 -0.030347673524615679 0 -0.25564997301171749 -0.023017626491896589 0 -0.2430680818751586 -0.013434807292780279 0 -0.25080528299249649 -0.001461169191011345 0 -0.25199524554079228 -0.0097387798922213276 0 -0.2430680818751586 -0.013434807292780279 0 -0.25080528299249649 -0.001461169191011345 0 -0.23556882495632811 0.00032806392891222239 0 -0.25851686688388748 -0.0075763711495226427 0 -0.25559075041162671 -0.016482771935571051 0 -0.28094722485089763 -0.01276951350527328 0 -0.25080528299249649 -0.001461169191011345 0 -0.25851686688388748 -0.0075763711495226427 0 -0.26724344056698479 -0.00084071798374889609 0 -0.25080528299249649 -0.001461169191011345 0 -0.25199524554079228 -0.0097387798922213276 0 -0.25851686688388748 -0.0075763711495226427 0 -0.25199524554079228 -0.0097387798922213276 0 -0.25851686688388748 -0.0075763711495226427 0 -0.25559075041162671 -0.016482771935571051 0 -0.2430680818751586 -0.013434807292780279 0 -0.25199524554079228 -0.0097387798922213276 0 -0.25559075041162671 -0.016482771935571051 0 -0.25564997301171749 -0.023017626491896589 0 -0.25559075041162671 -0.016482771935571051 0 -0.27904341454926451 -0.015687579459184111 0 -0.2430680818751586 -0.013434807292780279 0 -0.25564997301171749 -0.023017626491896589 0 -0.25559075041162671 -0.016482771935571051 0 -0.25564997301171749 -0.023017626491896589 0 -0.27904341454926451 -0.015687579459184111 0 -0.25564997301171749 -0.023017626491896589 0 -0.27904341454926451 -0.015687579459184111 0 -0.26517309305862008 -0.036947319926524662 0 -0.27904341454926451 -0.015687579459184111 0 -0.26517309305862008 -0.036947319926524662 0 -0.27904341454926451 -0.015687579459184111 0 -0.27947269787298579 -0.031879796288089048 0 -0.26517309305862008 -0.036947319926524662 0 -0.26724344056698479 -0.00084071798374889609 0 -0.28094722485089763 -0.01276951350527328 0 -0.27832368885397618 0.0063642707838428769 0 -0.25559075041162671 -0.016482771935571051 0 -0.28094722485089763 -0.01276951350527328 0 -0.25851686688388748 -0.0075763711495226427 0 -0.26724344056698479 -0.00084071798374889609 0 -0.28094722485089763 -0.01276951350527328 0 -0.25559075041162671 -0.016482771935571051 0 -0.27904341454926451 -0.015687579459184111 0 -0.28094722485089763 -0.01276951350527328 0 -0.27904341454926451 -0.015687579459184111 0 -0.28094722485089763 -0.01276951350527328 0 -0.28094722485089763 -0.01276951350527328 0 -0.29485731106328777 -0.01073248958784339 0 -0.29604372759886599 0.010369656744125339 0 -0.28094722485089763 -0.01276951350527328 0 -0.29604372759886599 0.010369656744125339 0 -0.27904341454926451 -0.015687579459184111 0 -0.29485731106328777 -0.01073248958784339 0 -0.27904341454926451 -0.015687579459184111 0 -0.28094722485089763 -0.01276951350527328 0 -0.29485731106328777 -0.01073248958784339 0 -0.28094722485089763 -0.01276951350527328 0 -0.29485731106328777 -0.01073248958784339 0 -0.27904341454926451 -0.015687579459184111 0 -0.28942589646267658 -0.023814269494748831 0 -0.27947269787298579 -0.031879796288089048 0 -0.27904341454926451 -0.015687579459184111 0 -0.29485731106328777 -0.01073248958784339 0 -0.28942589646267658 -0.023814269494748831 0 -0.28942589646267658 -0.023814269494748831 0 -0.29184430008426798 -0.03789821038942523 0 -0.27947269787298579 -0.031879796288089048 0 -0.28942589646267658 -0.023814269494748831 0 -0.30208401058327339 -0.025303833392165749 0 -0.29184430008426798 -0.03789821038942523 0 -0.29485731106328777 -0.01073248958784339 0 -0.28942589646267658 -0.023814269494748831 0 -0.30208401058327339 -0.025303833392165749 0 -0.30208401058327339 -0.025303833392165749 0 -0.31781648952476232 -0.0073702965046123807 0 -0.31715466056583891 -0.031421410961669408 0 -0.29485731106328777 -0.01073248958784339 0 -0.31781648952476232 -0.0073702965046123807 0 -0.29485731106328777 -0.01073248958784339 0 -0.31688985811285197 -0.003828862096149611 0 -0.29485731106328777 -0.01073248958784339 0 -0.30208401058327339 -0.025303833392165749 0 -0.31781648952476232 -0.0073702965046123807 0 -0.29485731106328777 -0.01073248958784339 0 -0.31688985811285197 -0.003828862096149611 0 -0.29604372759886599 0.010369656744125339 0 -0.29485731106328777 -0.01073248958784339 0 -0.31688985811285197 -0.003828862096149611 0 -0.31781648952476232 -0.0073702965046123807 0 -0.31178575416698728 -0.058471514281158918 0 -0.29619572547071538 -0.05095563764277003 0 -0.29615740320495559 -0.06408361595652376 0 -0.31178575416698728 -0.058471514281158918 0 -0.30879783890915358 -0.043663026636321767 0 -0.29619572547071538 -0.05095563764277003 0 -0.30879783890915358 -0.043663026636321767 0 -0.29184430008426798 -0.03789821038942523 0 -0.29619572547071538 -0.05095563764277003 0 -0.30208401058327339 -0.025303833392165749 0 -0.30879783890915358 -0.043663026636321767 0 -0.29184430008426798 -0.03789821038942523 0 -0.30208401058327339 -0.025303833392165749 0 -0.30879783890915358 -0.043663026636321767 0 -0.31715466056583891 -0.031421410961669408 0 -0.29184430008426798 -0.03789821038942523 0 -0.27668777151244262 -0.05527980977533626 0 -0.27947269787298579 -0.031879796288089048 0 -0.29619572547071538 -0.05095563764277003 0 -0.27668777151244262 -0.05527980977533626 0 -0.29615740320495559 -0.06408361595652376 0 -0.29184430008426798 -0.03789821038942523 0 -0.29619572547071538 -0.05095563764277003 0 -0.27668777151244262 -0.05527980977533626 0 -0.27668777151244262 -0.05527980977533626 0 -0.27947269787298579 -0.031879796288089048 0 -0.26517309305862008 -0.036947319926524662 0 -0.24726719158697191 -0.038847202924023549 0 -0.26517309305862008 -0.036947319926524662 0 -0.2513027715679681 -0.05820706039386029 0 -0.24726719158697191 -0.038847202924023549 0 -0.25564997301171749 -0.023017626491896589 0 -0.26517309305862008 -0.036947319926524662 0 -0.26517309305862008 -0.036947319926524662 0 -0.2513027715679681 -0.05820706039386029 0 -0.27668777151244262 -0.05527980977533626 0 -0.2513027715679681 -0.05820706039386029 0 -0.25632156800307321 -0.073583306545420196 0 -0.27668777151244262 -0.05527980977533626 0 -0.26517309305862008 -0.036947319926524662 0 -0.2513027715679681 -0.05820706039386029 0 -0.25632156800307321 -0.073583306545420196 0 -0.25476971962087458 -0.087562748228348086 0 -0.27196154235967618 -0.077707438635349152 0 -0.27538242403509422 -0.09324386341053037 0 -0.27196154235967618 -0.077707438635349152 0 -0.29254928057898288 -0.083359373070791692 0 -0.25476971962087458 -0.087562748228348086 0 -0.27538242403509422 -0.09324386341053037 0 -0.27196154235967618 -0.077707438635349152 0 -0.27668777151244262 -0.05527980977533626 0 -0.27196154235967618 -0.077707438635349152 0 -0.28384519968509869 -0.069418490840576497 0 -0.27668777151244262 -0.05527980977533626 0 -0.25632156800307321 -0.073583306545420196 0 -0.27196154235967618 -0.077707438635349152 0 -0.25517816819888028 -0.1186538974609114 0 -0.25846098882620011 -0.1027031305936689 0 -0.28052503689809438 -0.10915105100918369 0 -0.23929562340614971 -0.1107843597548992 0 -0.25517816819888028 -0.1186538974609114 0 -0.25846098882620011 -0.1027031305936689 0 -0.25476971962087458 -0.087562748228348086 0 -0.27538242403509422 -0.09324386341053037 0 -0.25846098882620011 -0.1027031305936689 0 -0.27538242403509422 -0.09324386341053037 0 -0.25846098882620011 -0.1027031305936689 0 -0.28052503689809438 -0.10915105100918369 0 -0.25846098882620011 -0.1027031305936689 0 -0.28052503689809438 -0.10915105100918369 0 -0.28052503689809438 -0.10915105100918369 0 -0.28284101745063511 -0.1248831293213786 0 -0.26784677301000898 -0.1285663695548149 0 -0.25517816819888028 -0.1186538974609114 0 -0.28052503689809438 -0.10915105100918369 0 -0.26784677301000898 -0.1285663695548149 0 -0.28052503689809438 -0.10915105100918369 0 -0.30258908496998788 -0.1155989714247017 0 -0.28052503689809438 -0.10915105100918369 0 -0.28284101745063511 -0.1248831293213786 0 -0.30258908496998788 -0.1155989714247017 0 -0.28052503689809438 -0.10915105100918369 0 -0.29402797592673718 -0.09897943892584074 0 -0.30258908496998788 -0.1155989714247017 0 -0.27538242403509422 -0.09324386341053037 0 -0.28052503689809438 -0.10915105100918369 0 -0.29402797592673718 -0.09897943892584074 0 -0.30258908496998788 -0.1155989714247017 0 -0.31504263803867938 -0.088531600079895995 0 -0.31664366883141881 -0.1086515097304056 0 -0.29402797592673718 -0.09897943892584074 0 -0.30258908496998788 -0.1155989714247017 0 -0.31504263803867938 -0.088531600079895995 0 -0.30258908496998788 -0.1155989714247017 0 -0.31504263803867938 -0.088531600079895995 0 -0.30258908496998788 -0.1155989714247017 0 -0.3169240931676045 -0.1197881841980224 0 -0.2925086453029434 -0.13750846201600689 0 -0.30258908496998788 -0.1155989714247017 0 -0.3169240931676045 -0.1197881841980224 0 -0.31664366883141881 -0.1086515097304056 0 -0.30258908496998788 -0.1155989714247017 0 -0.3169240931676045 -0.1197881841980224 0 -0.27668777151244262 -0.05527980977533626 0 -0.29615740320495559 -0.06408361595652376 0 -0.28384519968509869 -0.069418490840576497 0 -0.29615740320495559 -0.06408361595652376 0 -0.28384519968509869 -0.069418490840576497 0 -0.29254928057898288 -0.083359373070791692 0 -0.27196154235967618 -0.077707438635349152 0 -0.28384519968509869 -0.069418490840576497 0 -0.29254928057898288 -0.083359373070791692 0 -0.27538242403509422 -0.09324386341053037 0 -0.29402797592673718 -0.09897943892584074 0 -0.29254928057898288 -0.083359373070791692 0 -0.29254928057898288 -0.083359373070791692 0 -0.30726405100614029 -0.075060966356580855 0 -0.31504263803867938 -0.088531600079895995 0 -0.29402797592673718 -0.09897943892584074 0 -0.29254928057898288 -0.083359373070791692 0 -0.31504263803867938 -0.088531600079895995 0 -0.31178575416698728 -0.058471514281158918 0 -0.29615740320495559 -0.06408361595652376 0 -0.30726405100614029 -0.075060966356580855 0 -0.29615740320495559 -0.06408361595652376 0 -0.29254928057898288 -0.083359373070791692 0 -0.30726405100614029 -0.075060966356580855 0 -0.31178575416698728 -0.058471514281158918 0 -0.30726405100614029 -0.075060966356580855 0 -0.3167649925908716 -0.068810646182767513 0 -0.3167649925908716 -0.068810646182767513 0 -0.31504263803867938 -0.088531600079895995 0 -0.32749619110736972 -0.06146422873508986 0 -0.31178575416698728 -0.058471514281158918 0 -0.3167649925908716 -0.068810646182767513 0 -0.31913604715652039 -0.061054794126079517 0 -0.31504263803867938 -0.088531600079895995 0 -0.32749619110736972 -0.06146422873508986 0 -0.30726405100614029 -0.075060966356580855 0 -0.3167649925908716 -0.068810646182767513 0 -0.31504263803867938 -0.088531600079895995 0 -0.31504263803867938 -0.088531600079895995 0 -0.33470746826036157 -0.082413457144848212 0 -0.32749619110736972 -0.06146422873508986 0 -0.3167649925908716 -0.068810646182767513 0 -0.31913604715652039 -0.061054794126079517 0 -0.32749619110736972 -0.06146422873508986 0 -0.31504263803867938 -0.088531600079895995 0 -0.33470746826036157 -0.082413457144848212 0 -0.32977625752917789 -0.094545087727741825 0 -0.33470746826036157 -0.082413457144848212 0 -0.32977625752917789 -0.094545087727741825 0 -0.34191874541335449 -0.1033626855546062 0 -0.33470746826036157 -0.082413457144848212 0 -0.34191874541335449 -0.1033626855546062 0 -0.33470746826036157 -0.082413457144848212 0 -0.34191874541335449 -0.1033626855546062 0 -0.35452160375110808 -0.090056499186388583 0 -0.33470746826036157 -0.082413457144848212 0 -0.33871682963860528 -0.067224886751834786 0 -0.32749619110736972 -0.06146422873508986 0 -0.33470746826036157 -0.082413457144848212 0 -0.32749619110736972 -0.06146422873508986 0 -0.33470746826036157 -0.082413457144848212 0 -0.33871682963860528 -0.067224886751834786 0 -0.34686267124169817 -0.076253477432397021 0 -0.33871682963860528 -0.067224886751834786 0 -0.34962902189214901 -0.065334665813652271 0 -0.34187396492788141 -0.059719157572755553 0 -0.33871682963860528 -0.067224886751834786 0 -0.32749619110736972 -0.06146422873508986 0 -0.33438409913507888 -0.059503078007896518 0 -0.3169240931676045 -0.1197881841980224 0 -0.32300995794316889 -0.1153711767696335 0 -0.33499131787790237 -0.11810503976917219 0 -0.3169240931676045 -0.1197881841980224 0 -0.32300995794316889 -0.1153711767696335 0 -0.3169240931676045 -0.1197881841980224 0 -0.32300995794316889 -0.1153711767696335 0 -0.31664366883141881 -0.1086515097304056 0 -0.32300995794316889 -0.1153711767696335 0 -0.32546174707955933 -0.10859274492636969 0 -0.33094372842505448 -0.1117361495961538 0 -0.32300995794316889 -0.1153711767696335 0 -0.32546174707955933 -0.10859274492636969 0 -0.31664366883141881 -0.1086515097304056 0 -0.31504263803867938 -0.088531600079895995 0 -0.31664366883141881 -0.1086515097304056 0 -0.32335586731653099 -0.1012797968287715 0 -0.32546174707955933 -0.10859274492636969 0 -0.32335586731653099 -0.1012797968287715 0 -0.33335551288162357 -0.1059250917068843 0 -0.32546174707955933 -0.10859274492636969 0 -0.31664366883141881 -0.1086515097304056 0 -0.32335586731653099 -0.1012797968287715 0 -0.31504263803867938 -0.088531600079895995 0 -0.32335586731653099 -0.1012797968287715 0 -0.32977625752917789 -0.094545087727741825 0 -0.32335586731653099 -0.1012797968287715 0 -0.32977625752917789 -0.094545087727741825 0 -0.33335551288162357 -0.1059250917068843 0 -0.32977625752917789 -0.094545087727741825 0 -0.34191874541335449 -0.1033626855546062 0 -0.33335551288162357 -0.1059250917068843 0 -0.32546174707955933 -0.10859274492636969 0 -0.33335551288162357 -0.1059250917068843 0 -0.33094372842505448 -0.1117361495961538 0 -0.3169240931676045 -0.1197881841980224 0 -0.32938545452968793 -0.12699082374907061 0 -0.34301552402293972 -0.12741305290452129 0 -0.3169240931676045 -0.1197881841980224 0 -0.33499131787790237 -0.11810503976917219 0 -0.34301552402293972 -0.12741305290452129 0 -0.3169240931676045 -0.1197881841980224 0 -0.34301552402293972 -0.12741305290452129 0 -0.32300995794316889 -0.1153711767696335 0 -0.33094372842505448 -0.1117361495961538 0 -0.33499131787790237 -0.11810503976917219 0 -0.33094372842505448 -0.1117361495961538 0 -0.33663155318584798 -0.11209170594700001 0 -0.33499131787790237 -0.11810503976917219 0 -0.33335551288162357 -0.1059250917068843 0 -0.33094372842505448 -0.1117361495961538 0 -0.33663155318584798 -0.11209170594700001 0 -0.33663155318584798 -0.11209170594700001 0 -0.33499131787790237 -0.11810503976917219 0 -0.34723565355881142 -0.1126005427157895 0 -0.33335551288162357 -0.1059250917068843 0 -0.33663155318584798 -0.11209170594700001 0 -0.34723565355881142 -0.1126005427157895 0 -0.33499131787790237 -0.11810503976917219 0 -0.34723565355881142 -0.1126005427157895 0 -0.34301552402293972 -0.12741305290452129 0 -0.3590356938999289 -0.1203389009678674 0 -0.34723565355881142 -0.1126005427157895 0 -0.34301552402293972 -0.12741305290452129 0 -0.3590356938999289 -0.1203389009678674 0 -0.34723565355881142 -0.1126005427157895 0 -0.36158056728700311 -0.1069931010958033 0 -0.34191874541335449 -0.1033626855546062 0 -0.33335551288162357 -0.1059250917068843 0 -0.36158056728700311 -0.1069931010958033 0 -0.33335551288162357 -0.1059250917068843 0 -0.34723565355881142 -0.1126005427157895 0 -0.36158056728700311 -0.1069931010958033 0 -0.33335551288162357 -0.1059250917068843 0 -0.36158056728700311 -0.1069931010958033 0 -0.34191874541335449 -0.1033626855546062 0 -0.36158056728700311 -0.1069931010958033 0 -0.35452160375110808 -0.090056499186388583 0 -0.37298471675565109 -0.10627354816840411 0 -0.36158056728700311 -0.1069931010958033 0 -0.38980562169238248 -0.10806111048472231 0 -0.37298471675565109 -0.10627354816840411 0 -0.36158056728700311 -0.1069931010958033 0 -0.35452160375110808 -0.090056499186388583 0 -0.3590356938999289 -0.1203389009678674 0 -0.36158056728700311 -0.1069931010958033 0 -0.37423976975261591 -0.119649886512201 0 -0.35673843266626698 -0.076237878265261169 0 -0.34962902189214901 -0.065334665813652271 0 -0.36033614073406389 -0.065419536657632588 0 -0.33871682963860528 -0.067224886751834786 0 -0.34962902189214901 -0.065334665813652271 0 -0.34686267124169817 -0.076253477432397021 0 -0.35673843266626698 -0.076237878265261169 0 -0.34962902189214901 -0.065334665813652271 0 -0.34686267124169817 -0.076253477432397021 0 -0.33470746826036157 -0.082413457144848212 0 -0.34686267124169817 -0.076253477432397021 0 -0.35452160375110808 -0.090056499186388583 0 -0.35673843266626698 -0.076237878265261169 0 -0.34686267124169817 -0.076253477432397021 0 -0.35452160375110808 -0.090056499186388583 0 -0.37298471675565109 -0.10627354816840411 0 -0.35452160375110808 -0.090056499186388583 0 -0.37001260434386429 -0.079387668110176904 0 -0.37298471675565109 -0.10627354816840411 0 -0.37001260434386429 -0.079387668110176904 0 -0.37298471675565109 -0.10627354816840411 0 -0.37001260434386429 -0.079387668110176904 0 -0.38043114531846012 -0.092760574716205496 0 -0.35673843266626698 -0.076237878265261169 0 -0.35452160375110808 -0.090056499186388583 0 -0.37001260434386429 -0.079387668110176904 0 -0.37001260434386429 -0.079387668110176904 0 -0.36704049193207761 -0.05250178805194973 0 -0.37001260434386429 -0.079387668110176904 0 -0.36033614073406389 -0.065419536657632588 0 -0.36704049193207761 -0.05250178805194973 0 -0.37001260434386429 -0.079387668110176904 0 -0.36704049193207761 -0.05250178805194973 0 -0.38107090177848552 -0.06690149164727828 0 -0.35673843266626698 -0.076237878265261169 0 -0.37001260434386429 -0.079387668110176904 0 -0.36033614073406389 -0.065419536657632588 0 -0.36704049193207761 -0.05250178805194973 0 -0.37529221666822732 -0.04481629787756853 0 -0.38107090177848552 -0.06690149164727828 0 -0.36704049193207761 -0.05250178805194973 0 -0.35723531287577698 -0.054874841909118122 0 -0.35597645933216421 -0.043798346328932133 0 -0.36033614073406389 -0.065419536657632588 0 -0.36704049193207761 -0.05250178805194973 0 -0.35723531287577698 -0.054874841909118122 0 -0.34962902189214901 -0.065334665813652271 0 -0.36033614073406389 -0.065419536657632588 0 -0.35723531287577698 -0.054874841909118122 0 -0.34962902189214901 -0.065334665813652271 0 -0.35723531287577698 -0.054874841909118122 0 -0.34827521867954292 -0.05326783523100112 0 -0.35723531287577698 -0.054874841909118122 0 -0.34827521867954292 -0.05326783523100112 0 -0.35597645933216421 -0.043798346328932133 0 -0.34827521867954292 -0.05326783523100112 0 -0.34541151980812218 -0.044095538671503752 0 -0.35597645933216421 -0.043798346328932133 0 -0.34827521867954292 -0.05326783523100112 0 -0.34541151980812218 -0.044095538671503752 0 -0.33836465529403048 -0.053265322059392967 0 -0.34962902189214901 -0.065334665813652271 0 -0.34827521867954292 -0.05326783523100112 0 -0.34187396492788141 -0.059719157572755553 0 -0.35597645933216421 -0.043798346328932133 0 -0.35162615556897597 -0.032412443903281248 0 -0.36406837952029081 -0.025615907993722559 0 -0.34541151980812218 -0.044095538671503752 0 -0.35162615556897597 -0.032412443903281248 0 -0.34075858291324629 -0.033963804357150053 0 -0.34541151980812218 -0.044095538671503752 0 -0.35597645933216421 -0.043798346328932133 0 -0.35162615556897597 -0.032412443903281248 0 -0.36704049193207761 -0.05250178805194973 0 -0.35597645933216421 -0.043798346328932133 0 -0.36406837952029081 -0.025615907993722559 0 -0.36704049193207761 -0.05250178805194973 0 -0.36406837952029081 -0.025615907993722559 0 -0.37529221666822732 -0.04481629787756853 0 -0.36704049193207761 -0.05250178805194973 0 -0.36406837952029081 -0.025615907993722559 0 -0.36951353155796912 -0.0227311041078588 0 -0.37852659662774291 -0.033898309540005993 0 -0.37529221666822732 -0.04481629787756853 0 -0.36951353155796912 -0.0227311041078588 0 -0.37529221666822732 -0.04481629787756853 0 -0.36951353155796912 -0.0227311041078588 0 -0.36406837952029081 -0.025615907993722559 0 -0.37529221666822732 -0.04481629787756853 0 -0.36951353155796912 -0.0227311041078588 0 -0.36406837952029081 -0.025615907993722559 0 -0.35628109687905019 -0.016469359927209749 0 -0.36951353155796912 -0.0227311041078588 0 -0.36373484644771098 -0.00064591033814894068 0 -0.37816546053191391 -0.01055137608656331 0 -0.36951353155796912 -0.0227311041078588 0 -0.36373484644771098 -0.00064591033814894068 0 -0.36951353155796912 -0.0227311041078588 0 -0.36373484644771098 -0.00064591033814894068 0 -0.35628109687905019 -0.016469359927209749 0 -0.36373484644771098 -0.00064591033814894068 0 -0.34077566798623649 -0.004008103421380433 0 -0.36373484644771098 -0.00064591033814894068 0 -0.35628109687905019 -0.016469359927209749 0 -0.34077566798623649 -0.004008103421380433 0 -0.35628109687905019 -0.016469359927209749 0 -0.34537158148055619 -0.0224840686642158 0 -0.34077566798623649 -0.004008103421380433 0 -0.35162615556897597 -0.032412443903281248 0 -0.36406837952029081 -0.025615907993722559 0 -0.3543041664820239 -0.023984193669485929 0 -0.36406837952029081 -0.025615907993722559 0 -0.3543041664820239 -0.023984193669485929 0 -0.35628109687905019 -0.016469359927209749 0 -0.3543041664820239 -0.023984193669485929 0 -0.35628109687905019 -0.016469359927209749 0 -0.34537158148055619 -0.0224840686642158 0 -0.35162615556897597 -0.032412443903281248 0 -0.3543041664820239 -0.023984193669485929 0 -0.34537158148055619 -0.0224840686642158 0 -0.35162615556897597 -0.032412443903281248 0 -0.34537158148055619 -0.0224840686642158 0 -0.34075858291324629 -0.033963804357150053 0 -0.34537158148055619 -0.0224840686642158 0 -0.33083755586529129 -0.02291449560337008 0 -0.34075858291324629 -0.033963804357150053 0 -0.34537158148055619 -0.0224840686642158 0 -0.33083755586529129 -0.02291449560337008 0 -0.34077566798623649 -0.004008103421380433 0 -0.33083755586529129 -0.02291449560337008 0 -0.34075858291324629 -0.033963804357150053 0 -0.32959607821172732 -0.036118377156072197 0 -0.34077566798623649 -0.004008103421380433 0 -0.31781648952476232 -0.0073702965046123807 0 -0.3389224051624164 0.0030747653955432021 0 -0.34077566798623649 -0.004008103421380433 0 -0.31781648952476232 -0.0073702965046123807 0 -0.33083755586529129 -0.02291449560337008 0 -0.34077566798623649 -0.004008103421380433 0 -0.31781648952476232 -0.0073702965046123807 0 -0.31688985811285197 -0.003828862096149611 0 -0.31781648952476232 -0.0073702965046123807 0 -0.3389224051624164 0.0030747653955432021 0 -0.31688985811285197 -0.003828862096149611 0 -0.3389224051624164 0.0030747653955432021 0 -0.33083755586529129 -0.02291449560337008 0 -0.31781648952476232 -0.0073702965046123807 0 -0.31715466056583891 -0.031421410961669408 0 -0.33083755586529129 -0.02291449560337008 0 -0.31715466056583891 -0.031421410961669408 0 -0.32959607821172732 -0.036118377156072197 0 -0.31715466056583891 -0.031421410961669408 0 -0.32232542583660378 -0.046442819848379793 0 -0.31715466056583891 -0.031421410961669408 0 -0.32232542583660378 -0.046442819848379793 0 -0.32959607821172732 -0.036118377156072197 0 -0.30879783890915358 -0.043663026636321767 0 -0.31715466056583891 -0.031421410961669408 0 -0.32232542583660378 -0.046442819848379793 0 -0.30879783890915358 -0.043663026636321767 0 -0.32232542583660378 -0.046442819848379793 0 -0.32049725076085328 -0.055472787305301773 0 -0.31178575416698728 -0.058471514281158918 0 -0.30879783890915358 -0.043663026636321767 0 -0.32049725076085328 -0.055472787305301773 0 -0.31178575416698728 -0.058471514281158918 0 -0.31913604715652039 -0.061054794126079517 0 -0.32049725076085328 -0.055472787305301773 0 -0.31913604715652039 -0.061054794126079517 0 -0.32049725076085328 -0.055472787305301773 0 -0.32749619110736972 -0.06146422873508986 0 -0.32232542583660378 -0.046442819848379793 0 -0.32749619110736972 -0.06146422873508986 0 -0.32828397832968093 -0.059752000171132837 0 -0.32749619110736972 -0.06146422873508986 0 -0.32828397832968093 -0.059752000171132837 0 -0.32232542583660378 -0.046442819848379793 0 -0.32049725076085328 -0.055472787305301773 0 -0.32749619110736972 -0.06146422873508986 0 -0.32232542583660378 -0.046442819848379793 0 -0.32749619110736972 -0.06146422873508986 0 -0.32232542583660378 -0.046442819848379793 0 -0.32983627583443198 -0.051068613388288303 0 -0.32828397832968093 -0.059752000171132837 0 -0.32983627583443198 -0.051068613388288303 0 -0.33836465529403048 -0.053265322059392967 0 -0.33438208964969368 -0.044159079246797829 0 -0.32983627583443198 -0.051068613388288303 0 -0.33208844498633888 -0.055866553712562543 0 -0.33836465529403048 -0.053265322059392967 0 -0.32232542583660378 -0.046442819848379793 0 -0.32983627583443198 -0.051068613388288303 0 -0.33438208964969368 -0.044159079246797829 0 -0.32983627583443198 -0.051068613388288303 0 -0.32828397832968093 -0.059752000171132837 0 -0.33208844498633888 -0.055866553712562543 0 -0.32749619110736972 -0.06146422873508986 0 -0.32828397832968093 -0.059752000171132837 0 -0.33438409913507888 -0.059503078007896518 0 -0.32828397832968093 -0.059752000171132837 0 -0.33208844498633888 -0.055866553712562543 0 -0.33438409913507888 -0.059503078007896518 0 -0.33208844498633888 -0.055866553712562543 0 -0.33438409913507888 -0.059503078007896518 0 -0.33836465529403048 -0.053265322059392967 0 -0.34827521867954292 -0.05326783523100112 0 -0.34187396492788141 -0.059719157572755553 0 -0.33836465529403048 -0.053265322059392967 0 -0.33871682963860528 -0.067224886751834786 0 -0.33438409913507888 -0.059503078007896518 0 -0.34187396492788141 -0.059719157572755553 0 -0.33438409913507888 -0.059503078007896518 0 -0.34187396492788141 -0.059719157572755553 0 -0.33836465529403048 -0.053265322059392967 0 -0.34541151980812218 -0.044095538671503752 0 -0.33836465529403048 -0.053265322059392967 0 -0.33438208964969368 -0.044159079246797829 0 -0.34541151980812218 -0.044095538671503752 0 -0.34075858291324629 -0.033963804357150053 0 -0.33438208964969368 -0.044159079246797829 0 -0.34075858291324629 -0.033963804357150053 0 -0.32959607821172732 -0.036118377156072197 0 -0.33438208964969368 -0.044159079246797829 0 -0.32232542583660378 -0.046442819848379793 0 -0.32959607821172732 -0.036118377156072197 0 -0.33438208964969368 -0.044159079246797829 0 -0.30493877401889841 -0.2577176602661187 0 -0.31173932486288147 -0.23623359443319161 0 -0.29557820019815922 -0.24692677995950271 0 -0.31955021384196908 -0.25465610241978293 0 -0.30493877401889841 -0.2577176602661187 0 -0.31173932486288147 -0.23623359443319161 0 -0.31173932486288147 -0.23623359443319161 0 -0.28978119973244698 -0.22975309856834811 0 -0.29557820019815922 -0.24692677995950271 0 -0.31173932486288147 -0.23623359443319161 0 -0.28978119973244698 -0.22975309856834811 0 -0.30716267822819388 -0.2168521017071173 0 -0.28978119973244698 -0.22975309856834811 0 -0.30716267822819388 -0.2168521017071173 0 -0.31173932486288147 -0.23623359443319161 0 -0.28978119973244698 -0.22975309856834811 0 -0.28978119973244698 -0.22975309856834811 0 -0.2858493948814283 -0.21429750855816199 0 -0.30716267822819388 -0.2168521017071173 0 -0.28978119973244698 -0.22975309856834811 0 -0.27565148222714159 -0.21548499775325669 0 -0.2858493948814283 -0.21429750855816199 0 -0.28330269037410288 -0.25159757207075412 0 -0.28978119973244698 -0.22975309856834811 0 -0.29557820019815922 -0.24692677995950271 0 -0.26771523081009702 -0.24613104914813719 0 -0.26812581866908669 -0.22336195148275029 0 -0.27312727155289951 -0.23410656687225201 0 -0.28978119973244698 -0.22975309856834811 0 -0.26771523081009702 -0.24613104914813719 0 -0.27312727155289951 -0.23410656687225201 0 -0.28330269037410288 -0.25159757207075412 0 -0.28978119973244698 -0.22975309856834811 0 -0.26771523081009702 -0.24613104914813719 0 -0.28978119973244698 -0.22975309856834811 0 -0.26771523081009702 -0.24613104914813719 0 -0.26771523081009702 -0.24613104914813719 0 -0.26381250405875373 -0.24902775701919841 0 -0.26771523081009702 -0.24613104914813719 0 -0.26381250405875373 -0.24902775701919841 0 -0.25950905091210619 -0.24702573973484421 0 -0.26771523081009702 -0.24613104914813719 0 -0.25416793356240353 -0.23823894190541789 0 -0.25424280476546102 -0.2192646611330637 0 -0.26771523081009702 -0.24613104914813719 0 -0.25950905091210619 -0.24702573973484421 0 -0.25416793356240353 -0.23823894190541789 0 -0.25722652137655938 -0.25156229858660373 0 -0.26381250405875373 -0.24902775701919841 0 -0.25950905091210619 -0.24702573973484421 0 -0.25416793356240353 -0.23823894190541789 0 -0.25058068953819879 -0.2425538979872125 0 -0.25431063943300752 -0.2452267125375053 0 -0.24677284420420101 -0.23790157994072619 0 -0.25416793356240353 -0.23823894190541789 0 -0.25058068953819879 -0.2425538979872125 0 -0.25950905091210619 -0.24702573973484421 0 -0.25416793356240353 -0.23823894190541789 0 -0.25431063943300752 -0.2452267125375053 0 -0.24962427814893129 -0.249267442217251 0 -0.25058068953819879 -0.2425538979872125 0 -0.25431063943300752 -0.2452267125375053 0 -0.25722652137655938 -0.25156229858660373 0 -0.24962427814893129 -0.249267442217251 0 -0.25431063943300752 -0.2452267125375053 0 -0.25722652137655938 -0.25156229858660373 0 -0.25950905091210619 -0.24702573973484421 0 -0.25431063943300752 -0.2452267125375053 0 -0.26771523081009702 -0.24613104914813719 0 -0.25424280476546102 -0.2192646611330637 0 -0.24511636918973989 -0.23010812977676109 0 -0.25416793356240353 -0.23823894190541789 0 -0.25424280476546102 -0.2192646611330637 0 -0.26771523081009702 -0.24613104914813719 0 -0.25424280476546102 -0.2192646611330637 0 -0.26812581866908669 -0.22336195148275029 0 -0.25424280476546102 -0.2192646611330637 0 -0.26812581866908669 -0.22336195148275029 0 -0.28978119973244698 -0.22975309856834811 0 -0.26812581866908669 -0.22336195148275029 0 -0.28978119973244698 -0.22975309856834811 0 -0.26812581866908669 -0.22336195148275029 0 -0.27312727155289951 -0.23410656687225201 0 -0.28978119973244698 -0.22975309856834811 0 -0.26812581866908669 -0.22336195148275029 0 -0.27565148222714159 -0.21548499775325669 0 -0.26812581866908669 -0.22336195148275029 0 -0.27312727155289951 -0.23410656687225201 0 -0.26812581866908669 -0.22336195148275029 0 -0.27565148222714159 -0.21548499775325669 0 -0.25988684736018852 -0.20566217904147979 0 -0.27565148222714159 -0.21548499775325669 0 -0.27668564063410889 -0.19691051362774839 0 -0.2858493948814283 -0.21429750855816199 0 -0.27565148222714159 -0.21548499775325669 0 -0.25988684736018852 -0.20566217904147979 0 -0.27565148222714159 -0.21548499775325669 0 -0.25988684736018852 -0.20566217904147979 0 -0.27668564063410889 -0.19691051362774839 0 -0.2417568874431269 -0.194365545087062 0 -0.25424280476546102 -0.2192646611330637 0 -0.25988684736018852 -0.20566217904147979 0 -0.26812581866908669 -0.22336195148275029 0 -0.25988684736018852 -0.20566217904147979 0 -0.25424280476546102 -0.2192646611330637 0 -0.26812581866908669 -0.22336195148275029 0 -0.25988684736018852 -0.20566217904147979 0 -0.2417568874431269 -0.194365545087062 0 -0.25988684736018852 -0.20566217904147979 0 -0.24538033542822071 -0.19133923748977399 0 -0.24782188440647729 -0.1797430332177212 0 -0.25988684736018852 -0.20566217904147979 0 -0.24782188440647729 -0.1797430332177212 0 -0.25988684736018852 -0.20566217904147979 0 -0.25988684736018852 -0.20566217904147979 0 -0.26635319251277478 -0.18917761599573721 0 -0.25887707279423372 -0.183973381950605 0 -0.24782188440647729 -0.1797430332177212 0 -0.25988684736018852 -0.20566217904147979 0 -0.25887707279423372 -0.183973381950605 0 -0.26635319251277478 -0.18917761599573721 0 -0.27668564063410889 -0.19691051362774839 0 -0.27268541872963198 -0.18420720881547151 0 -0.25988684736018852 -0.20566217904147979 0 -0.26635319251277478 -0.18917761599573721 0 -0.27668564063410889 -0.19691051362774839 0 -0.27668564063410889 -0.19691051362774839 0 -0.2858493948814283 -0.21429750855816199 0 -0.29757642207987822 -0.19078027076414331 0 -0.2858493948814283 -0.21429750855816199 0 -0.29757642207987822 -0.19078027076414331 0 -0.27668564063410889 -0.19691051362774839 0 -0.29757642207987822 -0.19078027076414331 0 -0.28248592381930449 -0.17825852879857959 0 -0.2858493948814283 -0.21429750855816199 0 -0.29921838539085138 -0.20636600603910971 0 -0.29757642207987822 -0.19078027076414331 0 -0.2858493948814283 -0.21429750855816199 0 -0.29921838539085138 -0.20636600603910971 0 -0.30716267822819388 -0.2168521017071173 0 -0.29921838539085138 -0.20636600603910971 0 -0.30716267822819388 -0.2168521017071173 0 -0.30912259481660159 -0.20133318394637931 0 -0.30912259481660159 -0.20133318394637931 0 -0.29757642207987822 -0.19078027076414331 0 -0.32112472897254007 -0.18390320943680019 0 -0.29921838539085138 -0.20636600603910971 0 -0.30912259481660159 -0.20133318394637931 0 -0.29757642207987822 -0.19078027076414331 0 -0.29757642207987822 -0.19078027076414331 0 -0.30930344927832809 -0.16726303297012449 0 -0.32112472897254007 -0.18390320943680019 0 -0.29757642207987822 -0.19078027076414331 0 -0.30930344927832809 -0.16726303297012449 0 -0.29436920749845441 -0.1699043907013362 0 -0.29757642207987822 -0.19078027076414331 0 -0.30930344927832809 -0.16726303297012449 0 -0.30930344927832809 -0.16726303297012449 0 -0.29436920749845441 -0.1699043907013362 0 -0.30071295162199457 -0.15236569235887651 0 -0.29436920749845441 -0.1699043907013362 0 -0.28176729069276663 -0.160854428614957 0 -0.28248592381930449 -0.17825852879857959 0 -0.29436920749845441 -0.1699043907013362 0 -0.28176729069276663 -0.160854428614957 0 -0.30071295162199457 -0.15236569235887651 0 -0.29757642207987822 -0.19078027076414331 0 -0.29436920749845441 -0.1699043907013362 0 -0.28248592381930449 -0.17825852879857959 0 -0.27668564063410889 -0.19691051362774839 0 -0.28248592381930449 -0.17825852879857959 0 -0.27268541872963198 -0.18420720881547151 0 -0.28248592381930449 -0.17825852879857959 0 -0.26676347515158011 -0.17627480288716291 0 -0.27268541872963198 -0.18420720881547151 0 -0.28248592381930449 -0.17825852879857959 0 -0.26676347515158011 -0.17627480288716291 0 -0.27203590103089359 -0.16705746049734971 0 -0.26635319251277478 -0.18917761599573721 0 -0.26676347515158011 -0.17627480288716291 0 -0.27268541872963198 -0.18420720881547151 0 -0.26635319251277478 -0.18917761599573721 0 -0.26676347515158011 -0.17627480288716291 0 -0.25887707279423372 -0.183973381950605 0 -0.26676347515158011 -0.17627480288716291 0 -0.25887707279423372 -0.183973381950605 0 -0.25982494875188611 -0.1712892912984865 0 -0.24782188440647729 -0.1797430332177212 0 -0.25887707279423372 -0.183973381950605 0 -0.25982494875188611 -0.1712892912984865 0 -0.24782188440647729 -0.1797430332177212 0 -0.24703020523104019 -0.17051586770726321 0 -0.25982494875188611 -0.1712892912984865 0 -0.24703020523104019 -0.17051586770726321 0 -0.25982494875188611 -0.1712892912984865 0 -0.2697694252669916 -0.1540121648616348 0 -0.24703020523104019 -0.17051586770726321 0 -0.2697694252669916 -0.1540121648616348 0 -0.25327020623507968 -0.15169592267379139 0 -0.24703020523104019 -0.17051586770726321 0 -0.2697694252669916 -0.1540121648616348 0 -0.25982494875188611 -0.1712892912984865 0 -0.27203590103089359 -0.16705746049734971 0 -0.2697694252669916 -0.1540121648616348 0 -0.28176729069276663 -0.160854428614957 0 -0.28248592381930449 -0.17825852879857959 0 -0.27203590103089359 -0.16705746049734971 0 -0.26676347515158011 -0.17627480288716291 0 -0.25982494875188611 -0.1712892912984865 0 -0.27203590103089359 -0.16705746049734971 0 -0.28176729069276663 -0.160854428614957 0 -0.27203590103089359 -0.16705746049734971 0 -0.2697694252669916 -0.1540121648616348 0 -0.2697694252669916 -0.1540121648616348 0 -0.2925086453029434 -0.13750846201600689 0 -0.2697694252669916 -0.1540121648616348 0 -0.27531893814005648 -0.13744559279998381 0 -0.2925086453029434 -0.13750846201600689 0 -0.2697694252669916 -0.1540121648616348 0 -0.26362882966970291 -0.14225783824608371 0 -0.27531893814005648 -0.13744559279998381 0 -0.2697694252669916 -0.1540121648616348 0 -0.26362882966970291 -0.14225783824608371 0 -0.25327020623507968 -0.15169592267379139 0 -0.26362882966970291 -0.14225783824608371 0 -0.25327020623507968 -0.15169592267379139 0 -0.2501656495548979 -0.1378698551600121 0 -0.25517816819888028 -0.1186538974609114 0 -0.2501656495548979 -0.1378698551600121 0 -0.26784677301000898 -0.1285663695548149 0 -0.26362882966970291 -0.14225783824608371 0 -0.2501656495548979 -0.1378698551600121 0 -0.26784677301000898 -0.1285663695548149 0 -0.26362882966970291 -0.14225783824608371 0 -0.26784677301000898 -0.1285663695548149 0 -0.27531893814005648 -0.13744559279998381 0 -0.28284101745063511 -0.1248831293213786 0 -0.26784677301000898 -0.1285663695548149 0 -0.27531893814005648 -0.13744559279998381 0 -0.28284101745063511 -0.1248831293213786 0 -0.27531893814005648 -0.13744559279998381 0 -0.2925086453029434 -0.13750846201600689 0 -0.28284101745063511 -0.1248831293213786 0 -0.30258908496998788 -0.1155989714247017 0 -0.2925086453029434 -0.13750846201600689 0 -0.28176729069276663 -0.160854428614957 0 -0.2925086453029434 -0.13750846201600689 0 -0.28176729069276663 -0.160854428614957 0 -0.2697694252669916 -0.1540121648616348 0 -0.2925086453029434 -0.13750846201600689 0 -0.28176729069276663 -0.160854428614957 0 -0.2925086453029434 -0.13750846201600689 0 -0.30071295162199457 -0.15236569235887651 0 -0.30071295162199457 -0.15236569235887651 0 -0.30516371249408181 -0.13633274971172649 0 -0.32103047647677668 -0.1437457951761052 0 -0.30930344927832809 -0.16726303297012449 0 -0.30071295162199457 -0.15236569235887651 0 -0.32103047647677668 -0.1437457951761052 0 -0.2925086453029434 -0.13750846201600689 0 -0.30071295162199457 -0.15236569235887651 0 -0.30516371249408181 -0.13633274971172649 0 -0.30258908496998788 -0.1155989714247017 0 -0.2925086453029434 -0.13750846201600689 0 -0.3169240931676045 -0.1197881841980224 0 -0.2925086453029434 -0.13750846201600689 0 -0.30516371249408181 -0.13633274971172649 0 -0.3169240931676045 -0.1197881841980224 0 -0.2925086453029434 -0.13750846201600689 0 -0.3169240931676045 -0.1197881841980224 0 -0.30516371249408181 -0.13633274971172649 0 -0.31812593416703783 -0.1317143882087313 0 -0.32103047647677668 -0.1437457951761052 0 -0.32938545452968793 -0.12699082374907061 0 -0.30516371249408181 -0.13633274971172649 0 -0.32103047647677668 -0.1437457951761052 0 -0.30516371249408181 -0.13633274971172649 0 -0.31812593416703783 -0.1317143882087313 0 -0.32103047647677668 -0.1437457951761052 0 -0.31812593416703783 -0.1317143882087313 0 -0.32103047647677668 -0.1437457951761052 0 -0.32938545452968793 -0.12699082374907061 0 -0.3169240931676045 -0.1197881841980224 0 -0.31812593416703783 -0.1317143882087313 0 -0.32938545452968793 -0.12699082374907061 0 -0.30930344927832809 -0.16726303297012449 0 -0.32103047647677668 -0.1437457951761052 0 -0.32103047647677668 -0.1437457951761052 0 -0.33937751781422859 -0.15231764081014251 0 -0.33405846752601071 -0.13978167122089211 0 -0.32103047647677668 -0.1437457951761052 0 -0.33937751781422859 -0.15231764081014251 0 -0.32624453031494982 -0.16380561572254559 0 -0.33937751781422859 -0.15231764081014251 0 -0.33405846752601071 -0.13978167122089211 0 -0.35270940226496578 -0.14460194751041019 0 -0.32103047647677668 -0.1437457951761052 0 -0.33937751781422859 -0.15231764081014251 0 -0.32103047647677668 -0.1437457951761052 0 -0.33405846752601071 -0.13978167122089211 0 -0.32938545452968793 -0.12699082374907061 0 -0.33405846752601071 -0.13978167122089211 0 -0.34301552402293972 -0.12741305290452129 0 -0.35270940226496578 -0.14460194751041019 0 -0.33405846752601071 -0.13978167122089211 0 -0.32938545452968793 -0.12699082374907061 0 -0.34301552402293972 -0.12741305290452129 0 -0.34301552402293972 -0.12741305290452129 0 -0.36910695487827461 -0.13503792161102171 0 -0.35270940226496578 -0.14460194751041019 0 -0.34301552402293972 -0.12741305290452129 0 -0.36910695487827461 -0.13503792161102171 0 -0.3590356938999289 -0.1203389009678674 0 -0.34301552402293972 -0.12741305290452129 0 -0.36910695487827461 -0.13503792161102171 0 -0.3590356938999289 -0.1203389009678674 0 -0.37423976975261591 -0.119649886512201 0 -0.36910695487827461 -0.13503792161102171 0 -0.36910695487827461 -0.13503792161102171 0 -0.37297339019666093 -0.15217191207170391 0 -0.35270940226496578 -0.14460194751041019 0 -0.37297339019666093 -0.15217191207170391 0 -0.35270940226496578 -0.14460194751041019 0 -0.35772455915168039 -0.16088948644418 0 -0.33937751781422859 -0.15231764081014251 0 -0.35270940226496578 -0.14460194751041019 0 -0.35772455915168039 -0.16088948644418 0 -0.33937751781422859 -0.15231764081014251 0 -0.35772455915168039 -0.16088948644418 0 -0.34038647903287578 -0.17179840021955539 0 -0.33937751781422859 -0.15231764081014251 0 -0.35772455915168039 -0.16088948644418 0 -0.35772455915168039 -0.16088948644418 0 -0.35451331870691688 -0.18064701085961279 0 -0.34038647903287578 -0.17179840021955539 0 -0.37297339019666093 -0.15217191207170391 0 -0.35772455915168039 -0.16088948644418 0 -0.37607160048913219 -0.1694613320782174 0 -0.35772455915168039 -0.16088948644418 0 -0.37607160048913219 -0.1694613320782174 0 -0.35772455915168039 -0.16088948644418 0 -0.36534621735571221 -0.17564448996739901 0 -0.37607160048913219 -0.1694613320782174 0 -0.36534621735571221 -0.17564448996739901 0 -0.37044632648638581 -0.18676120454049361 0 -0.37607160048913219 -0.1694613320782174 0 -0.36534621735571221 -0.17564448996739901 0 -0.37044632648638581 -0.18676120454049361 0 -0.35451331870691688 -0.18064701085961279 0 -0.35451331870691688 -0.18064701085961279 0 -0.34038647903287578 -0.17179840021955539 0 -0.34192563521969321 -0.19105010798466329 0 -0.35772455915168039 -0.16088948644418 0 -0.36534621735571221 -0.17564448996739901 0 -0.35451331870691688 -0.18064701085961279 0 -0.34038647903287578 -0.17179840021955539 0 -0.32624453031494982 -0.16380561572254559 0 -0.32112472897254007 -0.18390320943680019 0 -0.34038647903287578 -0.17179840021955539 0 -0.32112472897254007 -0.18390320943680019 0 -0.34192563521969321 -0.19105010798466329 0 -0.33937751781422859 -0.15231764081014251 0 -0.34038647903287578 -0.17179840021955539 0 -0.32624453031494982 -0.16380561572254559 0 -0.30930344927832809 -0.16726303297012449 0 -0.32624453031494982 -0.16380561572254559 0 -0.32112472897254007 -0.18390320943680019 0 -0.30930344927832809 -0.16726303297012449 0 -0.32103047647677668 -0.1437457951761052 0 -0.32624453031494982 -0.16380561572254559 0 -0.30912259481660159 -0.20133318394637931 0 -0.32112472897254007 -0.18390320943680019 0 -0.32454415672394349 -0.2039511048458903 0 -0.30716267822819388 -0.2168521017071173 0 -0.30912259481660159 -0.20133318394637931 0 -0.32454415672394349 -0.2039511048458903 0 -0.30716267822819388 -0.2168521017071173 0 -0.32454415672394349 -0.2039511048458903 0 -0.30716267822819388 -0.2168521017071173 0 -0.32454415672394349 -0.2039511048458903 0 -0.32539973298991748 -0.2229712282797344 0 -0.32454415672394349 -0.2039511048458903 0 -0.3414179281901214 -0.21267974982842719 0 -0.34339314692011891 -0.2023938407184909 0 -0.32454415672394349 -0.2039511048458903 0 -0.3414179281901214 -0.21267974982842719 0 -0.32539973298991748 -0.2229712282797344 0 -0.32454415672394349 -0.2039511048458903 0 -0.34192563521969321 -0.19105010798466329 0 -0.32112472897254007 -0.18390320943680019 0 -0.32454415672394349 -0.2039511048458903 0 -0.34192563521969321 -0.19105010798466329 0 -0.32454415672394349 -0.2039511048458903 0 -0.34339314692011891 -0.2023938407184909 0 -0.34192563521969321 -0.19105010798466329 0 -0.35451331870691688 -0.18064701085961279 0 -0.34192563521969321 -0.19105010798466329 0 -0.35360164427362573 -0.19768079829449761 0 -0.34339314692011891 -0.2023938407184909 0 -0.34192563521969321 -0.19105010798466329 0 -0.35360164427362573 -0.19768079829449761 0 -0.37044632648638581 -0.18676120454049361 0 -0.35451331870691688 -0.18064701085961279 0 -0.35360164427362573 -0.19768079829449761 0 -0.37044632648638581 -0.18676120454049361 0 -0.35360164427362573 -0.19768079829449761 0 -0.36992353827157781 -0.20188730433228599 0 -0.37044632648638581 -0.18676120454049361 0 -0.36992353827157781 -0.20188730433228599 0 -0.37865847777269862 -0.19537449765307899 0 -0.36992353827157781 -0.20188730433228599 0 -0.35423313530484218 -0.21351896296342121 0 -0.37714238403837103 -0.215019191736776 0 -0.35423313530484218 -0.21351896296342121 0 -0.3669096218239416 -0.22493230294125 0 -0.37714238403837103 -0.215019191736776 0 -0.35423313530484218 -0.21351896296342121 0 -0.37714238403837103 -0.215019191736776 0 -0.34339314692011891 -0.2023938407184909 0 -0.35360164427362573 -0.19768079829449761 0 -0.35423313530484218 -0.21351896296342121 0 -0.35360164427362573 -0.19768079829449761 0 -0.36992353827157781 -0.20188730433228599 0 -0.35423313530484218 -0.21351896296342121 0 -0.35360164427362573 -0.19768079829449761 0 -0.35423313530484218 -0.21351896296342121 0 -0.3414179281901214 -0.21267974982842719 0 -0.34339314692011891 -0.2023938407184909 0 -0.35423313530484218 -0.21351896296342121 0 -0.3414179281901214 -0.21267974982842719 0 -0.35423313530484218 -0.21351896296342121 0 -0.3414179281901214 -0.21267974982842719 0 -0.35423313530484218 -0.21351896296342121 0 -0.33993815245800418 -0.2279880670258643 0 -0.35423313530484218 -0.21351896296342121 0 -0.35494435521429663 -0.23135677456314799 0 -0.35423313530484218 -0.21351896296342121 0 -0.35494435521429663 -0.23135677456314799 0 -0.3669096218239416 -0.22493230294125 0 -0.35423313530484218 -0.21351896296342121 0 -0.35494435521429663 -0.23135677456314799 0 -0.33993815245800418 -0.2279880670258643 0 -0.35494435521429663 -0.23135677456314799 0 -0.3669096218239416 -0.22493230294125 0 -0.37003964676613982 -0.23723138134731589 0 -0.3669096218239416 -0.22493230294125 0 -0.37003964676613982 -0.23723138134731589 0 -0.37777480243678352 -0.22792799341932149 0 -0.3669096218239416 -0.22493230294125 0 -0.37777480243678352 -0.22792799341932149 0 -0.37714238403837103 -0.215019191736776 0 -0.37971297926979208 -0.25629464170773941 0 -0.37003964676613982 -0.23723138134731589 0 -0.35565557512375162 -0.2491945861628749 0 -0.35494435521429663 -0.23135677456314799 0 -0.37003964676613982 -0.23723138134731589 0 -0.35565557512375162 -0.2491945861628749 0 -0.35565557512375162 -0.2491945861628749 0 -0.33369744999331669 -0.24271409029803229 0 -0.35494435521429663 -0.23135677456314799 0 -0.35565557512375162 -0.2491945861628749 0 -0.33369744999331669 -0.24271409029803229 0 -0.35494435521429663 -0.23135677456314799 0 -0.35565557512375162 -0.2491945861628749 0 -0.35494435521429663 -0.23135677456314799 0 -0.33369744999331669 -0.24271409029803229 0 -0.33993815245800418 -0.2279880670258643 0 -0.3414179281901214 -0.21267974982842719 0 -0.33993815245800418 -0.2279880670258643 0 -0.32539973298991748 -0.2229712282797344 0 -0.33369744999331669 -0.24271409029803229 0 -0.33993815245800418 -0.2279880670258643 0 -0.32539973298991748 -0.2229712282797344 0 -0.31173932486288147 -0.23623359443319161 0 -0.30716267822819388 -0.2168521017071173 0 -0.32539973298991748 -0.2229712282797344 0 -0.31173932486288147 -0.23623359443319161 0 -0.33369744999331669 -0.24271409029803229 0 -0.32539973298991748 -0.2229712282797344 0 -0.31955021384196908 -0.25465610241978293 0 -0.31173932486288147 -0.23623359443319161 0 -0.33369744999331669 -0.24271409029803229 0 -0.31173932486288147 -0.23623359443319161 0 -0.33369744999331669 -0.24271409029803229 0 -0.41880099419671729 -0.25193098532517139 0 -0.43720463103343432 -0.24532999276255929 0 -0.42473780422584051 -0.23368502216388251 0 -0.43720463103343432 -0.24532999276255929 0 -0.42473780422584051 -0.23368502216388251 0 -0.44587013023895727 -0.21951987805684189 0 -0.42473780422584051 -0.23368502216388251 0 -0.42296088150542849 -0.21801964928348661 0 -0.44587013023895727 -0.21951987805684189 0 -0.42296088150542849 -0.21801964928348661 0 -0.44587013023895727 -0.21951987805684189 0 -0.41151907249832548 -0.22768516038595449 0 -0.4000516327718997 -0.21651942051013129 0 -0.42296088150542849 -0.21801964928348661 0 -0.42473780422584051 -0.23368502216388251 0 -0.41151907249832548 -0.22768516038595449 0 -0.41035301510009797 -0.23879523068122699 0 -0.42473780422584051 -0.23368502216388251 0 -0.41151907249832548 -0.22768516038595449 0 -0.42296088150542849 -0.21801964928348661 0 -0.41151907249832548 -0.22768516038595449 0 -0.41035301510009797 -0.23879523068122699 0 -0.39919374750258252 -0.2312625146229802 0 -0.41880099419671729 -0.25193098532517139 0 -0.42473780422584051 -0.23368502216388251 0 -0.41035301510009797 -0.23879523068122699 0 -0.41880099419671729 -0.25193098532517139 0 -0.41035301510009797 -0.23879523068122699 0 -0.39895324178003361 -0.24710746596356351 0 -0.39895324178003361 -0.24710746596356351 0 -0.38655590761140252 -0.2369915207318084 0 -0.39919374750258252 -0.2312625146229802 0 -0.41035301510009797 -0.23879523068122699 0 -0.39895324178003361 -0.24710746596356351 0 -0.39919374750258252 -0.2312625146229802 0 -0.37971297926979208 -0.25629464170773941 0 -0.37003964676613982 -0.23723138134731589 0 -0.38655590761140252 -0.2369915207318084 0 -0.37971297926979208 -0.25629464170773941 0 -0.39895324178003361 -0.24710746596356351 0 -0.38655590761140252 -0.2369915207318084 0 -0.3882264519440628 -0.22546557033945699 0 -0.4000516327718997 -0.21651942051013129 0 -0.37714238403837103 -0.215019191736776 0 -0.37003964676613982 -0.23723138134731589 0 -0.38655590761140252 -0.2369915207318084 0 -0.37777480243678352 -0.22792799341932149 0 -0.37777480243678352 -0.22792799341932149 0 -0.3882264519440628 -0.22546557033945699 0 -0.37714238403837103 -0.215019191736776 0 -0.38655590761140252 -0.2369915207318084 0 -0.37777480243678352 -0.22792799341932149 0 -0.3882264519440628 -0.22546557033945699 0 -0.3882264519440628 -0.22546557033945699 0 -0.39919374750258252 -0.2312625146229802 0 -0.4000516327718997 -0.21651942051013129 0 -0.38655590761140252 -0.2369915207318084 0 -0.3882264519440628 -0.22546557033945699 0 -0.39919374750258252 -0.2312625146229802 0 -0.41151907249832548 -0.22768516038595449 0 -0.39919374750258252 -0.2312625146229802 0 -0.4000516327718997 -0.21651942051013129 0 -0.4000516327718997 -0.21651942051013129 0 -0.39851185958291863 -0.21042580348813039 0 -0.37714238403837103 -0.215019191736776 0 -0.4000516327718997 -0.21651942051013129 0 -0.39851185958291863 -0.21042580348813039 0 -0.4090077094198149 -0.21228549482305811 0 -0.39851185958291863 -0.21042580348813039 0 -0.40798404966568719 -0.20501277786049951 0 -0.4090077094198149 -0.21228549482305811 0 -0.39851185958291863 -0.21042580348813039 0 -0.38584927587573781 -0.20352111335120771 0 -0.39691798093496811 -0.19569664533448319 0 -0.39851185958291863 -0.21042580348813039 0 -0.38584927587573781 -0.20352111335120771 0 -0.37714238403837103 -0.215019191736776 0 -0.4000516327718997 -0.21651942051013129 0 -0.37714238403837103 -0.215019191736776 0 -0.36992353827157781 -0.20188730433228599 0 -0.38584927587573781 -0.20352111335120771 0 -0.37714238403837103 -0.215019191736776 0 -0.37044632648638581 -0.18676120454049361 0 -0.37865847777269862 -0.19537449765307899 0 -0.38841477045709288 -0.18932836838832839 0 -0.36992353827157781 -0.20188730433228599 0 -0.38584927587573781 -0.20352111335120771 0 -0.37865847777269862 -0.19537449765307899 0 -0.38584927587573781 -0.20352111335120771 0 -0.38841477045709288 -0.18932836838832839 0 -0.39691798093496811 -0.19569664533448319 0 -0.38584927587573781 -0.20352111335120771 0 -0.37865847777269862 -0.19537449765307899 0 -0.38841477045709288 -0.18932836838832839 0 -0.39851185958291863 -0.21042580348813039 0 -0.41178959857440051 -0.18850959669147421 0 -0.40798404966568719 -0.20501277786049951 0 -0.39851185958291863 -0.21042580348813039 0 -0.41178959857440051 -0.18850959669147421 0 -0.39851185958291863 -0.21042580348813039 0 -0.39691798093496811 -0.19569664533448319 0 -0.41178959857440051 -0.18850959669147421 0 -0.38841477045709288 -0.18932836838832839 0 -0.39691798093496811 -0.19569664533448319 0 -0.39847989173211817 -0.18242524588663381 0 -0.39691798093496811 -0.19569664533448319 0 -0.41178959857440051 -0.18850959669147421 0 -0.39847989173211817 -0.18242524588663381 0 -0.40798404966568719 -0.20501277786049951 0 -0.42569883841432993 -0.1877963874840875 0 -0.42304915173108631 -0.20279199768534051 0 -0.41178959857440051 -0.18850959669147421 0 -0.40798404966568719 -0.20501277786049951 0 -0.42569883841432993 -0.1877963874840875 0 -0.40798404966568719 -0.20501277786049951 0 -0.42569883841432993 -0.1877963874840875 0 -0.4000516327718997 -0.21651942051013129 0 -0.4090077094198149 -0.21228549482305811 0 -0.42296088150542849 -0.21801964928348661 0 -0.4000516327718997 -0.21651942051013129 0 -0.42296088150542849 -0.21801964928348661 0 -0.40798404966568719 -0.20501277786049951 0 -0.4090077094198149 -0.21228549482305811 0 -0.41575044808050421 -0.2095274799130962 0 -0.4090077094198149 -0.21228549482305811 0 -0.41575044808050421 -0.2095274799130962 0 -0.42296088150542849 -0.21801964928348661 0 -0.41575044808050421 -0.2095274799130962 0 -0.42296088150542849 -0.21801964928348661 0 -0.42304915173108631 -0.20279199768534051 0 -0.40798404966568719 -0.20501277786049951 0 -0.41575044808050421 -0.2095274799130962 0 -0.42304915173108631 -0.20279199768534051 0 -0.42296088150542849 -0.21801964928348661 0 -0.42304915173108631 -0.20279199768534051 0 -0.43769176769541868 -0.20474833656770591 0 -0.42296088150542849 -0.21801964928348661 0 -0.43769176769541868 -0.20474833656770591 0 -0.44587013023895727 -0.21951987805684189 0 -0.42569883841432993 -0.1877963874840875 0 -0.44815560878679478 -0.19042645948464221 0 -0.43769176769541868 -0.20474833656770591 0 -0.42569883841432993 -0.1877963874840875 0 -0.42304915173108631 -0.20279199768534051 0 -0.43769176769541868 -0.20474833656770591 0 -0.42569883841432993 -0.1877963874840875 0 -0.42506733756588239 -0.16659338989481789 0 -0.44341362716297261 -0.17057999710767549 0 -0.42569883841432993 -0.1877963874840875 0 -0.44341362716297261 -0.17057999710767549 0 -0.42506733756588239 -0.16659338989481789 0 -0.43834507655736432 -0.1446771830981618 0 -0.44341362716297261 -0.17057999710767549 0 -0.42506733756588239 -0.16659338989481789 0 -0.40887768517210332 -0.15951096287182531 0 -0.41663927374122678 -0.1465071189314345 0 -0.42506733756588239 -0.16659338989481789 0 -0.40887768517210332 -0.15951096287182531 0 -0.40913994663949671 -0.17407494358603531 0 -0.41178959857440051 -0.18850959669147421 0 -0.42506733756588239 -0.16659338989481789 0 -0.40913994663949671 -0.17407494358603531 0 -0.41178959857440051 -0.18850959669147421 0 -0.42569883841432993 -0.1877963874840875 0 -0.42506733756588239 -0.16659338989481789 0 -0.41178959857440051 -0.18850959669147421 0 -0.42506733756588239 -0.16659338989481789 0 -0.41178959857440051 -0.18850959669147421 0 -0.40913994663949671 -0.17407494358603531 0 -0.39847989173211817 -0.18242524588663381 0 -0.40913994663949671 -0.17407494358603531 0 -0.39847989173211817 -0.18242524588663381 0 -0.39834348218030108 -0.16771657162931661 0 -0.39847989173211817 -0.18242524588663381 0 -0.38794278267493282 -0.17585375351845081 0 -0.39834348218030108 -0.16771657162931661 0 -0.38841477045709288 -0.18932836838832839 0 -0.39847989173211817 -0.18242524588663381 0 -0.38794278267493282 -0.17585375351845081 0 -0.37044632648638581 -0.18676120454049361 0 -0.38794278267493282 -0.17585375351845081 0 -0.37607160048913219 -0.1694613320782174 0 -0.37044632648638581 -0.18676120454049361 0 -0.38841477045709288 -0.18932836838832839 0 -0.38794278267493282 -0.17585375351845081 0 -0.38794278267493282 -0.17585375351845081 0 -0.37607160048913219 -0.1694613320782174 0 -0.38740516577277911 -0.15850808760096791 0 -0.37297339019666093 -0.15217191207170391 0 -0.37607160048913219 -0.1694613320782174 0 -0.38740516577277911 -0.15850808760096791 0 -0.38794278267493282 -0.17585375351845081 0 -0.38740516577277911 -0.15850808760096791 0 -0.39834348218030108 -0.16771657162931661 0 -0.38740516577277911 -0.15850808760096791 0 -0.39834348218030108 -0.16771657162931661 0 -0.39519838573360938 -0.14266279031752199 0 -0.40887768517210332 -0.15951096287182531 0 -0.39834348218030108 -0.16771657162931661 0 -0.39519838573360938 -0.14266279031752199 0 -0.40887768517210332 -0.15951096287182531 0 -0.40913994663949671 -0.17407494358603531 0 -0.39834348218030108 -0.16771657162931661 0 -0.37297339019666093 -0.15217191207170391 0 -0.38740516577277911 -0.15850808760096791 0 -0.39519838573360938 -0.14266279031752199 0 -0.36910695487827461 -0.13503792161102171 0 -0.37297339019666093 -0.15217191207170391 0 -0.39519838573360938 -0.14266279031752199 0 -0.36910695487827461 -0.13503792161102171 0 -0.39519838573360938 -0.14266279031752199 0 -0.38786000493649198 -0.1265984240442419 0 -0.37423976975261591 -0.119649886512201 0 -0.36910695487827461 -0.13503792161102171 0 -0.38786000493649198 -0.1265984240442419 0 -0.36910695487827461 -0.13503792161102171 0 -0.39519838573360938 -0.14266279031752199 0 -0.39519838573360938 -0.14266279031752199 0 -0.40652282239645809 -0.12632357344542819 0 -0.41663927374122678 -0.1465071189314345 0 -0.39519838573360938 -0.14266279031752199 0 -0.38786000493649198 -0.1265984240442419 0 -0.40652282239645809 -0.12632357344542819 0 -0.40652282239645809 -0.12632357344542819 0 -0.41663927374122678 -0.1465071189314345 0 -0.43128998840328953 -0.1257607366158541 0 -0.40887768517210332 -0.15951096287182531 0 -0.39519838573360938 -0.14266279031752199 0 -0.41663927374122678 -0.1465071189314345 0 -0.42506733756588239 -0.16659338989481789 0 -0.43834507655736432 -0.1446771830981618 0 -0.42506733756588239 -0.16659338989481789 0 -0.41663927374122678 -0.1465071189314345 0 -0.43834507655736432 -0.1446771830981618 0 -0.41663927374122678 -0.1465071189314345 0 -0.43128998840328953 -0.1257607366158541 0 -0.43834507655736432 -0.1446771830981618 0 -0.43128998840328953 -0.1257607366158541 0 -0.43834507655736432 -0.1446771830981618 0 -0.4566101029708261 -0.13099249003219871 0 -0.43834507655736432 -0.1446771830981618 0 -0.46112841591161519 -0.15336360673126351 0 -0.44341362716297261 -0.17057999710767549 0 -0.43834507655736432 -0.1446771830981618 0 -0.46112841591161519 -0.15336360673126351 0 -0.4566101029708261 -0.13099249003219871 0 -0.46112841591161519 -0.15336360673126351 0 -0.4566101029708261 -0.13099249003219871 0 -0.47884320466025782 -0.13614721635485169 0 -0.4566101029708261 -0.13099249003219871 0 -0.47884320466025782 -0.13614721635485169 0 -0.4756231120506228 -0.1084026389375469 0 -0.47884320466025782 -0.13614721635485169 0 -0.5 -0.1506922700403934 0 -0.5 -0.12247174016205831 0 -0.47884320466025782 -0.13614721635485169 0 -0.5 -0.1506922700403934 0 -0.48328278903044231 -0.15866289599773081 0 -0.46112841591161519 -0.15336360673126351 0 -0.47884320466025782 -0.13614721635485169 0 -0.46112841591161519 -0.15336360673126351 0 -0.47884320466025782 -0.13614721635485169 0 -0.48328278903044231 -0.15866289599773081 0 -0.46112841591161519 -0.15336360673126351 0 -0.48328278903044231 -0.15866289599773081 0 -0.47644232458033781 -0.17419858694341661 0 -0.48328278903044231 -0.15866289599773081 0 -0.5 -0.17891279991872849 0 -0.47644232458033781 -0.17419858694341661 0 -0.5 -0.1506922700403934 0 -0.48328278903044231 -0.15866289599773081 0 -0.5 -0.17891279991872849 0 -0.5 -0.17891279991872849 0 -0.47644232458033781 -0.17419858694341661 0 -0.48527985758979941 -0.1937005342559 0 -0.47644232458033781 -0.17419858694341661 0 -0.46737743165567791 -0.19373271612277759 0 -0.48527985758979941 -0.1937005342559 0 -0.47644232458033781 -0.17419858694341661 0 -0.4590800887194274 -0.17806149577988661 0 -0.46737743165567791 -0.19373271612277759 0 -0.4590800887194274 -0.17806149577988661 0 -0.44815560878679478 -0.19042645948464221 0 -0.46737743165567791 -0.19373271612277759 0 -0.46112841591161519 -0.15336360673126351 0 -0.4590800887194274 -0.17806149577988661 0 -0.44341362716297261 -0.17057999710767549 0 -0.46112841591161519 -0.15336360673126351 0 -0.47644232458033781 -0.17419858694341661 0 -0.4590800887194274 -0.17806149577988661 0 -0.46112841591161519 -0.15336360673126351 0 -0.44341362716297261 -0.17057999710767549 0 -0.4590800887194274 -0.17806149577988661 0 -0.44341362716297261 -0.17057999710767549 0 -0.44815560878679478 -0.19042645948464221 0 -0.42569883841432993 -0.1877963874840875 0 -0.44341362716297261 -0.17057999710767549 0 -0.44815560878679478 -0.19042645948464221 0 -0.44815560878679478 -0.19042645948464221 0 -0.43769176769541868 -0.20474833656770591 0 -0.45431224930505709 -0.2052408963679799 0 -0.43769176769541868 -0.20474833656770591 0 -0.45431224930505709 -0.2052408963679799 0 -0.44587013023895727 -0.21951987805684189 0 -0.45431224930505709 -0.2052408963679799 0 -0.47246630814843638 -0.21777709160793191 0 -0.44587013023895727 -0.21951987805684189 0 -0.45431224930505709 -0.2052408963679799 0 -0.46737743165567791 -0.19373271612277759 0 -0.47246630814843638 -0.21777709160793191 0 -0.44815560878679478 -0.19042645948464221 0 -0.45431224930505709 -0.2052408963679799 0 -0.46737743165567791 -0.19373271612277759 0 -0.46737743165567791 -0.19373271612277759 0 -0.48527985758979941 -0.1937005342559 0 -0.47246630814843638 -0.21777709160793191 0 -0.5 -0.17891279991872849 0 -0.48527985758979941 -0.1937005342559 0 -0.5 -0.2071333297970637 0 -0.48527985758979941 -0.1937005342559 0 -0.5 -0.2071333297970637 0 -0.47246630814843638 -0.21777709160793191 0 -0.47246630814843638 -0.21777709160793191 0 -0.5 -0.23535385967539879 0 -0.47108645465469129 -0.24279908680053611 0 -0.5 -0.2071333297970637 0 -0.47246630814843638 -0.21777709160793191 0 -0.5 -0.23535385967539879 0 -0.47801028507236171 -0.26303348017155709 0 -0.5 -0.23535385967539879 0 -0.47108645465469129 -0.24279908680053611 0 -0.4517060328297729 -0.25742115279182293 0 -0.47108645465469129 -0.24279908680053611 0 -0.4540935144035001 -0.23646443563532701 0 -0.47246630814843638 -0.21777709160793191 0 -0.4540935144035001 -0.23646443563532701 0 -0.44587013023895727 -0.21951987805684189 0 -0.47246630814843638 -0.21777709160793191 0 -0.47108645465469129 -0.24279908680053611 0 -0.4540935144035001 -0.23646443563532701 0 -0.43720463103343432 -0.24532999276255929 0 -0.4540935144035001 -0.23646443563532701 0 -0.44587013023895727 -0.21951987805684189 0 -0.4517060328297729 -0.25742115279182293 0 -0.43720463103343432 -0.24532999276255929 0 -0.4540935144035001 -0.23646443563532701 0 -0.41818868207322679 -0.042913132397725047 0 -0.40424162963109173 -0.029076214395192309 0 -0.39960120618028161 -0.04760809686787263 0 -0.41818868207322679 -0.042913132397725047 0 -0.40424162963109173 -0.029076214395192309 0 -0.41818868207322679 -0.042913132397725047 0 -0.42112011107388148 -0.061015845179541763 0 -0.40515055423846141 -0.07003109562127327 0 -0.41818868207322679 -0.042913132397725047 0 -0.39960120618028161 -0.04760809686787263 0 -0.40515055423846141 -0.07003109562127327 0 -0.41818868207322679 -0.042913132397725047 0 -0.40515055423846141 -0.07003109562127327 0 -0.41818868207322679 -0.042913132397725047 0 -0.43924549471733909 -0.063803667595751568 0 -0.44087843856606462 -0.036057220140216319 0 -0.41818868207322679 -0.042913132397725047 0 -0.42112011107388148 -0.061015845179541763 0 -0.43924549471733909 -0.063803667595751568 0 -0.41818868207322679 -0.042913132397725047 0 -0.43924549471733909 -0.063803667595751568 0 -0.41818868207322679 -0.042913132397725047 0 -0.43118137337345502 -0.015889672486933931 0 -0.44087843856606462 -0.036057220140216319 0 -0.41818868207322679 -0.042913132397725047 0 -0.43118137337345502 -0.015889672486933931 0 -0.43118137337345502 -0.015889672486933931 0 -0.40903599793447959 -0.01029619474609228 0 -0.41736099193169529 0.0072072215031841746 0 -0.43118137337345502 -0.015889672486933931 0 -0.40903599793447959 -0.01029619474609228 0 -0.40424162963109173 -0.029076214395192309 0 -0.41818868207322679 -0.042913132397725047 0 -0.43118137337345502 -0.015889672486933931 0 -0.40424162963109173 -0.029076214395192309 0 -0.40424162963109173 -0.029076214395192309 0 -0.39029457718895461 -0.015239296392661399 0 -0.38578733650673391 -0.028370992254361651 0 -0.40903599793447959 -0.01029619474609228 0 -0.40424162963109173 -0.029076214395192309 0 -0.39029457718895461 -0.015239296392661399 0 -0.40424162963109173 -0.029076214395192309 0 -0.39029457718895461 -0.015239296392661399 0 -0.40903599793447959 -0.01029619474609228 0 -0.39029457718895461 -0.015239296392661399 0 -0.390547919189703 0.0032806555825178421 0 -0.36373484644771098 -0.00064591033814894068 0 -0.37816546053191391 -0.01055137608656331 0 -0.390547919189703 0.0032806555825178421 0 -0.39029457718895461 -0.015239296392661399 0 -0.37816546053191391 -0.01055137608656331 0 -0.390547919189703 0.0032806555825178421 0 -0.39029457718895461 -0.015239296392661399 0 -0.37816546053191391 -0.01055137608656331 0 -0.38018479144880168 -0.020575780905058249 0 -0.39029457718895461 -0.015239296392661399 0 -0.38578733650673391 -0.028370992254361651 0 -0.38018479144880168 -0.020575780905058249 0 -0.36951353155796912 -0.0227311041078588 0 -0.37816546053191391 -0.01055137608656331 0 -0.38018479144880168 -0.020575780905058249 0 -0.36951353155796912 -0.0227311041078588 0 -0.38018479144880168 -0.020575780905058249 0 -0.37821746034669163 -0.026995420096475368 0 -0.36951353155796912 -0.0227311041078588 0 -0.37821746034669163 -0.026995420096475368 0 -0.37852659662774291 -0.033898309540005993 0 -0.38578733650673391 -0.028370992254361651 0 -0.38018479144880168 -0.020575780905058249 0 -0.37821746034669163 -0.026995420096475368 0 -0.38578733650673391 -0.028370992254361651 0 -0.37821746034669163 -0.026995420096475368 0 -0.37852659662774291 -0.033898309540005993 0 -0.37852659662774291 -0.033898309540005993 0 -0.37529221666822732 -0.04481629787756853 0 -0.38610726756805469 -0.041766746206532021 0 -0.38578733650673391 -0.028370992254361651 0 -0.37852659662774291 -0.033898309540005993 0 -0.38610726756805469 -0.041766746206532021 0 -0.40424162963109173 -0.029076214395192309 0 -0.38610726756805469 -0.041766746206532021 0 -0.39960120618028161 -0.04760809686787263 0 -0.40424162963109173 -0.029076214395192309 0 -0.38578733650673391 -0.028370992254361651 0 -0.38610726756805469 -0.041766746206532021 0 -0.39960120618028161 -0.04760809686787263 0 -0.38693347488859819 -0.054238729354081541 0 -0.40515055423846141 -0.07003109562127327 0 -0.38610726756805469 -0.041766746206532021 0 -0.39960120618028161 -0.04760809686787263 0 -0.38693347488859819 -0.054238729354081541 0 -0.37529221666822732 -0.04481629787756853 0 -0.38107090177848552 -0.06690149164727828 0 -0.37529221666822732 -0.04481629787756853 0 -0.38693347488859819 -0.054238729354081541 0 -0.38107090177848552 -0.06690149164727828 0 -0.37529221666822732 -0.04481629787756853 0 -0.38610726756805469 -0.041766746206532021 0 -0.38693347488859819 -0.054238729354081541 0 -0.37001260434386429 -0.079387668110176904 0 -0.38107090177848552 -0.06690149164727828 0 -0.38575552641659361 -0.08124597778795116 0 -0.37001260434386429 -0.079387668110176904 0 -0.38575552641659361 -0.08124597778795116 0 -0.38043114531846012 -0.092760574716205496 0 -0.38575552641659361 -0.08124597778795116 0 -0.38043114531846012 -0.092760574716205496 0 -0.3921124264036967 -0.097149058844821862 0 -0.38575552641659361 -0.08124597778795116 0 -0.40515055423846141 -0.07003109562127327 0 -0.3921124264036967 -0.097149058844821862 0 -0.40515055423846141 -0.07003109562127327 0 -0.3921124264036967 -0.097149058844821862 0 -0.40515055423846141 -0.07003109562127327 0 -0.3921124264036967 -0.097149058844821862 0 -0.41243735423471889 -0.088001135265322772 0 -0.38693347488859819 -0.054238729354081541 0 -0.38107090177848552 -0.06690149164727828 0 -0.40515055423846141 -0.07003109562127327 0 -0.38107090177848552 -0.06690149164727828 0 -0.38575552641659361 -0.08124597778795116 0 -0.40515055423846141 -0.07003109562127327 0 -0.37423976975261591 -0.119649886512201 0 -0.38786000493649198 -0.1265984240442419 0 -0.38980562169238248 -0.10806111048472231 0 -0.36158056728700311 -0.1069931010958033 0 -0.37423976975261591 -0.119649886512201 0 -0.38980562169238248 -0.10806111048472231 0 -0.37298471675565109 -0.10627354816840411 0 -0.38980562169238248 -0.10806111048472231 0 -0.38247610406889349 -0.1013788746549753 0 -0.36158056728700311 -0.1069931010958033 0 -0.38980562169238248 -0.10806111048472231 0 -0.38980562169238248 -0.10806111048472231 0 -0.38247610406889349 -0.1013788746549753 0 -0.3921124264036967 -0.097149058844821862 0 -0.37298471675565109 -0.10627354816840411 0 -0.38043114531846012 -0.092760574716205496 0 -0.38247610406889349 -0.1013788746549753 0 -0.38043114531846012 -0.092760574716205496 0 -0.38247610406889349 -0.1013788746549753 0 -0.3921124264036967 -0.097149058844821862 0 -0.38980562169238248 -0.10806111048472231 0 -0.3921124264036967 -0.097149058844821862 0 -0.41803067609776212 -0.10912911987364129 0 -0.38980562169238248 -0.10806111048472231 0 -0.41803067609776212 -0.10912911987364129 0 -0.38786000493649198 -0.1265984240442419 0 -0.40652282239645809 -0.12632357344542819 0 -0.38980562169238248 -0.10806111048472231 0 -0.40652282239645809 -0.12632357344542819 0 -0.38980562169238248 -0.10806111048472231 0 -0.41803067609776212 -0.10912911987364129 0 -0.40652282239645809 -0.12632357344542819 0 -0.43128998840328953 -0.1257607366158541 0 -0.41803067609776212 -0.10912911987364129 0 -0.41803067609776212 -0.10912911987364129 0 -0.41243735423471889 -0.088001135265322772 0 -0.4328986123313821 -0.086140183328432943 0 -0.3921124264036967 -0.097149058844821862 0 -0.41803067609776212 -0.10912911987364129 0 -0.41243735423471889 -0.088001135265322772 0 -0.41803067609776212 -0.10912911987364129 0 -0.4328986123313821 -0.086140183328432943 0 -0.44625573050314171 -0.1101971292625603 0 -0.41803067609776212 -0.10912911987364129 0 -0.44625573050314171 -0.1101971292625603 0 -0.43128998840328953 -0.1257607366158541 0 -0.41803067609776212 -0.10912911987364129 0 -0.44625573050314171 -0.1101971292625603 0 -0.42112011107388148 -0.061015845179541763 0 -0.40515055423846141 -0.07003109562127327 0 -0.41243735423471889 -0.088001135265322772 0 -0.42112011107388148 -0.061015845179541763 0 -0.41243735423471889 -0.088001135265322772 0 -0.4328986123313821 -0.086140183328432943 0 -0.42112011107388148 -0.061015845179541763 0 -0.4328986123313821 -0.086140183328432943 0 -0.43924549471733909 -0.063803667595751568 0 -0.43924549471733909 -0.063803667595751568 0 -0.46030230736144961 -0.084694202793779941 0 -0.43924549471733909 -0.063803667595751568 0 -0.46030230736144961 -0.084694202793779941 0 -0.47443574184935938 -0.061750696210719172 0 -0.4328986123313821 -0.086140183328432943 0 -0.43924549471733909 -0.063803667595751568 0 -0.46030230736144961 -0.084694202793779941 0 -0.4328986123313821 -0.086140183328432943 0 -0.46030230736144961 -0.084694202793779941 0 -0.44625573050314171 -0.1101971292625603 0 -0.43128998840328953 -0.1257607366158541 0 -0.4566101029708261 -0.13099249003219871 0 -0.44625573050314171 -0.1101971292625603 0 -0.46030230736144961 -0.084694202793779941 0 -0.44625573050314171 -0.1101971292625603 0 -0.4756231120506228 -0.1084026389375469 0 -0.4566101029708261 -0.13099249003219871 0 -0.44625573050314171 -0.1101971292625603 0 -0.4756231120506228 -0.1084026389375469 0 -0.4756231120506228 -0.1084026389375469 0 -0.5 -0.094251210283723297 0 -0.5 -0.12247174016205831 0 -0.4756231120506228 -0.1084026389375469 0 -0.5 -0.094251210283723297 0 -0.48221901240189718 -0.080883279354622487 0 -0.47884320466025782 -0.13614721635485169 0 -0.4756231120506228 -0.1084026389375469 0 -0.5 -0.12247174016205831 0 -0.46030230736144961 -0.084694202793779941 0 -0.48221901240189718 -0.080883279354622487 0 -0.47443574184935938 -0.061750696210719172 0 -0.46030230736144961 -0.084694202793779941 0 -0.4756231120506228 -0.1084026389375469 0 -0.48221901240189718 -0.080883279354622487 0 -0.5 -0.094251210283723297 0 -0.48221901240189718 -0.080883279354622487 0 -0.5 -0.066030680405388176 0 -0.48221901240189718 -0.080883279354622487 0 -0.5 -0.066030680405388176 0 -0.47443574184935938 -0.061750696210719172 0 -0.5 -0.037810150527053048 0 -0.47443574184935938 -0.061750696210719172 0 -0.46484763661547079 -0.037282196587719807 0 -0.5 -0.066030680405388176 0 -0.5 -0.037810150527053048 0 -0.47443574184935938 -0.061750696210719172 0 -0.5 -0.037810150527053048 0 -0.46484763661547079 -0.037282196587719807 0 -0.48133926233701729 -0.01929771179063992 0 -0.43924549471733909 -0.063803667595751568 0 -0.47443574184935938 -0.061750696210719172 0 -0.46484763661547079 -0.037282196587719807 0 -0.43924549471733909 -0.063803667595751568 0 -0.46484763661547079 -0.037282196587719807 0 -0.44087843856606462 -0.036057220140216319 0 -0.43118137337345502 -0.015889672486933931 0 -0.44417406467368659 0.01113378742385557 0 -0.43118137337345502 -0.015889672486933931 0 -0.46079807335039302 -0.0090893390494895046 0 -0.44417406467368659 0.01113378742385557 0 -0.43118137337345502 -0.015889672486933931 0 -0.44087843856606462 -0.036057220140216319 0 -0.46079807335039302 -0.0090893390494895046 0 -0.46484763661547079 -0.037282196587719807 0 -0.44087843856606462 -0.036057220140216319 0 -0.46079807335039302 -0.0090893390494895046 0 -0.46079807335039302 -0.0090893390494895046 0 -0.48133926233701729 -0.01929771179063992 0 -0.48625514560716238 0.003665903108154225 0 -0.46484763661547079 -0.037282196587719807 0 -0.46079807335039302 -0.0090893390494895046 0 -0.48133926233701729 -0.01929771179063992 0 -0.5 -0.037810150527053048 0 -0.48133926233701729 -0.01929771179063992 0 -0.5 -0.0095896206487179336 0 -0.48133926233701729 -0.01929771179063992 0 -0.5 -0.0095896206487179336 0 -0.48625514560716238 0.003665903108154225 0 -0.48625514560716238 0.003665903108154225 0 -0.49767664107715698 0.01896882353460299 0 -0.47092535287542231 0.015051305479226149 0 -0.5 -0.0095896206487179336 0 -0.48625514560716238 0.003665903108154225 0 -0.49999999999999678 0.01863090922961718 0 -0.48625514560716238 0.003665903108154225 0 -0.49767664107715698 0.01896882353460299 0 -0.49999999999999678 0.01863090922961718 0 -0.49767664107715698 0.01896882353460299 0 -0.5 0.036427754468873308 0 -0.48224574890554489 0.031390084234409359 0 -0.49767664107715698 0.01896882353460299 0 -0.49999999999999678 0.01863090922961718 0 -0.5 0.036427754468873308 0 -0.49767664107715698 0.01896882353460299 0 -0.49999999999999678 0.01863090922961718 0 -0.49767664107715698 0.01896882353460299 0 -0.46805390535642682 0.02327721775406694 0 -0.49767664107715698 0.01896882353460299 0 -0.47092535287542231 0.015051305479226149 0 -0.49767664107715698 0.01896882353460299 0 -0.48224574890554489 0.031390084234409359 0 -0.46805390535642682 0.02327721775406694 0 -0.49767664107715698 0.01896882353460299 0 -0.47092535287542231 0.015051305479226149 0 -0.46805390535642682 0.02327721775406694 0 -0.48224574890554489 0.031390084234409359 0 -0.46860074246999139 0.033773111851361233 0 -0.46805390535642682 0.02327721775406694 0 -0.46079807335039302 -0.0090893390494895046 0 -0.48625514560716238 0.003665903108154225 0 -0.47092535287542231 0.015051305479226149 0 -0.50000000000000133 0.053546447562608131 0 -0.47219099044239737 0.044832836627533408 0 -0.48413277490562828 0.065667707414807611 0 -0.50000000000000133 0.053546447562608131 0 -0.47219099044239737 0.044832836627533408 0 -0.5 0.036427754468873308 0 -0.48224574890554489 0.031390084234409359 0 -0.47219099044239737 0.044832836627533408 0 -0.50000000000000133 0.053546447562608131 0 -0.5 0.036427754468873308 0 -0.47219099044239737 0.044832836627533408 0 -0.48224574890554489 0.031390084234409359 0 -0.47219099044239737 0.044832836627533408 0 -0.46860074246999139 0.033773111851361233 0 -0.47219099044239737 0.044832836627533408 0 -0.45981878420267103 0.065365643452312258 0 -0.48413277490562828 0.065667707414807611 0 -0.47219099044239737 0.044832836627533408 0 -0.44332143234842308 0.055657316859687979 0 -0.45981878420267103 0.065365643452312258 0 -0.47219099044239737 0.044832836627533408 0 -0.46860074246999139 0.033773111851361233 0 -0.44438198088479319 0.036119225692459067 0 -0.47219099044239737 0.044832836627533408 0 -0.44438198088479319 0.036119225692459067 0 -0.47219099044239737 0.044832836627533408 0 -0.44438198088479319 0.036119225692459067 0 -0.44332143234842308 0.055657316859687979 0 -0.44438198088479319 0.036119225692459067 0 -0.44332143234842308 0.055657316859687979 0 -0.43198409192706549 0.045244084426832518 0 -0.46079807335039302 -0.0090893390494895046 0 -0.47092535287542231 0.015051305479226149 0 -0.44417406467368659 0.01113378742385557 0 -0.47092535287542231 0.015051305479226149 0 -0.44417406467368659 0.01113378742385557 0 -0.46805390535642682 0.02327721775406694 0 -0.43843116963569639 0.027585611973529659 0 -0.47092535287542231 0.015051305479226149 0 -0.45022464252434158 0.0237183662617673 0 -0.44417406467368659 0.01113378742385557 0 -0.47092535287542231 0.015051305479226149 0 -0.46805390535642682 0.02327721775406694 0 -0.45022464252434158 0.0237183662617673 0 -0.46860074246999139 0.033773111851361233 0 -0.44438198088479319 0.036119225692459067 0 -0.46805390535642682 0.02327721775406694 0 -0.44438198088479319 0.036119225692459067 0 -0.46805390535642682 0.02327721775406694 0 -0.43843116963569639 0.027585611973529659 0 -0.46805390535642682 0.02327721775406694 0 -0.45022464252434158 0.0237183662617673 0 -0.43843116963569639 0.027585611973529659 0 -0.45022464252434158 0.0237183662617673 0 -0.44417406467368659 0.01113378742385557 0 -0.45022464252434158 0.0237183662617673 0 -0.43843116963569639 0.027585611973529659 0 -0.44010311062522339 0.020039585110663071 0 -0.45022464252434158 0.0237183662617673 0 -0.44010311062522339 0.020039585110663071 0 -0.44417406467368659 0.01113378742385557 0 -0.44417406467368659 0.01113378742385557 0 -0.41736099193169529 0.0072072215031841746 0 -0.42758256566716829 0.01772057478350484 0 -0.43118137337345502 -0.015889672486933931 0 -0.44417406467368659 0.01113378742385557 0 -0.41736099193169529 0.0072072215031841746 0 -0.44417406467368659 0.01113378742385557 0 -0.41736099193169529 0.0072072215031841746 0 -0.41736099193169529 0.0072072215031841746 0 -0.41657297132718912 0.027405614757384709 0 -0.42758256566716829 0.01772057478350484 0 -0.41736099193169529 0.0072072215031841746 0 -0.41657297132718912 0.027405614757384709 0 -0.40299911976464381 0.01294199770902377 0 -0.44438198088479319 0.036119225692459067 0 -0.43843116963569639 0.027585611973529659 0 -0.41657297132718912 0.027405614757384709 0 -0.43843116963569639 0.027585611973529659 0 -0.41657297132718912 0.027405614757384709 0 -0.42758256566716829 0.01772057478350484 0 -0.44010311062522339 0.020039585110663071 0 -0.44417406467368659 0.01113378742385557 0 -0.42758256566716829 0.01772057478350484 0 -0.43843116963569639 0.027585611973529659 0 -0.44010311062522339 0.020039585110663071 0 -0.42758256566716829 0.01772057478350484 0 -0.44438198088479319 0.036119225692459067 0 -0.41657297132718912 0.027405614757384709 0 -0.43198409192706549 0.045244084426832518 0 -0.44438198088479319 0.036119225692459067 0 -0.41657297132718912 0.027405614757384709 0 -0.41657297132718912 0.027405614757384709 0 -0.43198409192706549 0.045244084426832518 0 -0.41995353562375021 0.054848063423225853 0 -0.44332143234842308 0.055657316859687979 0 -0.41995353562375021 0.054848063423225853 0 -0.42745579775816039 0.06969268603662386 0 -0.44332143234842308 0.055657316859687979 0 -0.41995353562375021 0.054848063423225853 0 -0.44332143234842308 0.055657316859687979 0 -0.43198409192706549 0.045244084426832518 0 -0.41995353562375021 0.054848063423225853 0 -0.41995353562375021 0.054848063423225853 0 -0.39658563889907689 0.054038809986763733 0 -0.41657297132718912 0.027405614757384709 0 -0.41995353562375021 0.054848063423225853 0 -0.40180512215835151 0.038554225333339652 0 -0.40180512215835151 0.038554225333339652 0 -0.38539802928552919 0.039301970268788067 0 -0.388763961769585 0.018692003822310399 0 -0.40180512215835151 0.038554225333339652 0 -0.39658563889907689 0.054038809986763733 0 -0.38539802928552919 0.039301970268788067 0 -0.41995353562375021 0.054848063423225853 0 -0.39658563889907689 0.054038809986763733 0 -0.39807499737798752 0.068406479060106037 0 -0.41995353562375021 0.054848063423225853 0 -0.40180512215835151 0.038554225333339652 0 -0.39658563889907689 0.054038809986763733 0 -0.39658563889907689 0.054038809986763733 0 -0.38426132225062121 0.06418386343050507 0 -0.39807499737798752 0.068406479060106037 0 -0.39658563889907689 0.054038809986763733 0 -0.38539802928552919 0.039301970268788067 0 -0.37321774217440368 0.0532295565503016 0 -0.39658563889907689 0.054038809986763733 0 -0.37321774217440368 0.0532295565503016 0 -0.39658563889907689 0.054038809986763733 0 -0.38426132225062121 0.06418386343050507 0 -0.37321774217440368 0.0532295565503016 0 -0.38539802928552919 0.039301970268788067 0 -0.37322659657493412 0.041105448591380621 0 -0.37321774217440368 0.0532295565503016 0 -0.38539802928552919 0.039301970268788067 0 -0.37083186985997763 0.027893024071709051 0 -0.37322659657493412 0.041105448591380621 0 -0.38539802928552919 0.039301970268788067 0 -0.388763961769585 0.018692003822310399 0 -0.37083186985997763 0.027893024071709051 0 -0.388763961769585 0.018692003822310399 0 -0.37600041990474492 0.0078262854884788742 0 -0.36095495221198082 0.009978392887236235 0 -0.36373484644771098 -0.00064591033814894068 0 -0.390547919189703 0.0032806555825178421 0 -0.36373484644771098 -0.00064591033814894068 0 -0.37600041990474492 0.0078262854884788742 0 -0.390547919189703 0.0032806555825178421 0 -0.388763961769585 0.018692003822310399 0 -0.37600041990474492 0.0078262854884788742 0 -0.390547919189703 0.0032806555825178421 0 -0.388763961769585 0.018692003822310399 0 -0.390547919189703 0.0032806555825178421 0 -0.40299911976464381 0.01294199770902377 0 -0.41736099193169529 0.0072072215031841746 0 -0.390547919189703 0.0032806555825178421 0 -0.40299911976464381 0.01294199770902377 0 -0.40903599793447959 -0.01029619474609228 0 -0.41736099193169529 0.0072072215031841746 0 -0.390547919189703 0.0032806555825178421 0 -0.41736099193169529 0.0072072215031841746 0 -0.390547919189703 0.0032806555825178421 0 -0.41657297132718912 0.027405614757384709 0 -0.388763961769585 0.018692003822310399 0 -0.41657297132718912 0.027405614757384709 0 -0.388763961769585 0.018692003822310399 0 -0.40299911976464381 0.01294199770902377 0 -0.41657297132718912 0.027405614757384709 0 -0.40180512215835151 0.038554225333339652 0 -0.388763961769585 0.018692003822310399 0 -0.40505787840746033 0.094686206592829447 0 -0.40058884391435001 0.11346030243397449 0 -0.38628343025521422 0.097594453867902595 0 -0.40058884391435001 0.11346030243397449 0 -0.40590216570415671 0.13265550096846471 0 -0.38440739263673179 0.12533490720897719 0 -0.40058884391435001 0.11346030243397449 0 -0.38628343025521422 0.097594453867902595 0 -0.38440739263673179 0.12533490720897719 0 -0.38628343025521422 0.097594453867902595 0 -0.38440739263673179 0.12533490720897719 0 -0.36466733534410412 0.12012446695210791 0 -0.38628343025521422 0.097594453867902595 0 -0.38982793565002433 0.079224612522402912 0 -0.37087112025194829 0.082266300008257312 0 -0.38982793565002433 0.079224612522402912 0 -0.38426132225062121 0.06418386343050507 0 -0.3740924733881304 0.070074034467767721 0 -0.38426132225062121 0.06418386343050507 0 -0.36623367028137582 0.061443303131482649 0 -0.38982793565002433 0.079224612522402912 0 -0.3740924733881304 0.070074034467767721 0 -0.37087112025194829 0.082266300008257312 0 -0.38982793565002433 0.079224612522402912 0 -0.39807499737798752 0.068406479060106037 0 -0.41104881530326759 0.076102456095131499 0 -0.38982793565002433 0.079224612522402912 0 -0.38426132225062121 0.06418386343050507 0 -0.39807499737798752 0.068406479060106037 0 -0.40505787840746033 0.094686206592829447 0 -0.38982793565002433 0.079224612522402912 0 -0.41104881530326759 0.076102456095131499 0 -0.40505787840746033 0.094686206592829447 0 -0.38628343025521422 0.097594453867902595 0 -0.38982793565002433 0.079224612522402912 0 -0.40505787840746033 0.094686206592829447 0 -0.41104881530326759 0.076102456095131499 0 -0.42661699103838441 0.090236268225802579 0 -0.41104881530326759 0.076102456095131499 0 -0.42745579775816039 0.06969268603662386 0 -0.42661699103838441 0.090236268225802579 0 -0.41995353562375021 0.054848063423225853 0 -0.39807499737798752 0.068406479060106037 0 -0.41104881530326759 0.076102456095131499 0 -0.41995353562375021 0.054848063423225853 0 -0.41104881530326759 0.076102456095131499 0 -0.42745579775816039 0.06969268603662386 0 -0.42745579775816039 0.06969268603662386 0 -0.42661699103838441 0.090236268225802579 0 -0.44354268055838308 0.073918672245727179 0 -0.42661699103838441 0.090236268225802579 0 -0.43429178417828018 0.1112218644187848 0 -0.44699235253525088 0.099107260322174678 0 -0.42661699103838441 0.090236268225802579 0 -0.41855258429559372 0.1064957129647883 0 -0.43429178417828018 0.1112218644187848 0 -0.40505787840746033 0.094686206592829447 0 -0.40058884391435001 0.11346030243397449 0 -0.41855258429559372 0.1064957129647883 0 -0.40505787840746033 0.094686206592829447 0 -0.42661699103838441 0.090236268225802579 0 -0.41855258429559372 0.1064957129647883 0 -0.40058884391435001 0.11346030243397449 0 -0.41855258429559372 0.1064957129647883 0 -0.41372355470660399 0.11959076585248379 0 -0.40058884391435001 0.11346030243397449 0 -0.41372355470660399 0.11959076585248379 0 -0.40590216570415671 0.13265550096846471 0 -0.41855258429559372 0.1064957129647883 0 -0.41372355470660399 0.11959076585248379 0 -0.42574870126398229 0.1210159018382119 0 -0.41372355470660399 0.11959076585248379 0 -0.42574870126398229 0.1210159018382119 0 -0.42236718280159002 0.13239304021553311 0 -0.43429178417828018 0.1112218644187848 0 -0.42574870126398229 0.1210159018382119 0 -0.43632181525477193 0.13015398283914401 0 -0.41855258429559372 0.1064957129647883 0 -0.43429178417828018 0.1112218644187848 0 -0.42574870126398229 0.1210159018382119 0 -0.43429178417828018 0.1112218644187848 0 -0.45044202451211868 0.12429584839862221 0 -0.43632181525477193 0.13015398283914401 0 -0.45044202451211868 0.12429584839862221 0 -0.44699235253525088 0.099107260322174678 0 -0.43429178417828018 0.1112218644187848 0 -0.45044202451211868 0.12429584839862221 0 -0.44699235253525088 0.099107260322174678 0 -0.44699235253525088 0.099107260322174678 0 -0.45851972760381671 0.084661184537363848 0 -0.47356170044596058 0.1011775971649234 0 -0.44699235253525088 0.099107260322174678 0 -0.46543383039688058 0.1166363668505397 0 -0.47356170044596058 0.1011775971649234 0 -0.45044202451211868 0.12429584839862221 0 -0.44699235253525088 0.099107260322174678 0 -0.46543383039688058 0.1166363668505397 0 -0.45044202451211868 0.12429584839862221 0 -0.46543383039688058 0.1166363668505397 0 -0.46127722110494151 0.1304272076100628 0 -0.44332143234842308 0.055657316859687979 0 -0.42745579775816039 0.06969268603662386 0 -0.44354268055838308 0.073918672245727179 0 -0.44332143234842308 0.055657316859687979 0 -0.44354268055838308 0.073918672245727179 0 -0.45981878420267103 0.065365643452312258 0 -0.42661699103838441 0.090236268225802579 0 -0.44699235253525088 0.099107260322174678 0 -0.44354268055838308 0.073918672245727179 0 -0.44699235253525088 0.099107260322174678 0 -0.44354268055838308 0.073918672245727179 0 -0.45851972760381671 0.084661184537363848 0 -0.44699235253525088 0.099107260322174678 0 -0.44354268055838308 0.073918672245727179 0 -0.45851972760381671 0.084661184537363848 0 -0.45981878420267103 0.065365643452312258 0 -0.47173081069891432 0.076060899192485695 0 -0.44354268055838308 0.073918672245727179 0 -0.45851972760381671 0.084661184537363848 0 -0.45981878420267103 0.065365643452312258 0 -0.47173081069891432 0.076060899192485695 0 -0.48413277490562828 0.065667707414807611 0 -0.4833963934636698 0.087884555503373693 0 -0.45981878420267103 0.065365643452312258 0 -0.47173081069891432 0.076060899192485695 0 -0.48413277490562828 0.065667707414807611 0 -0.45851972760381671 0.084661184537363848 0 -0.4833963934636698 0.087884555503373693 0 -0.47356170044596058 0.1011775971649234 0 -0.45851972760381671 0.084661184537363848 0 -0.47173081069891432 0.076060899192485695 0 -0.4833963934636698 0.087884555503373693 0 -0.4833963934636698 0.087884555503373693 0 -0.5 0.075947968371554153 0 -0.5 0.098349489180500071 0 -0.50000000000000133 0.053546447562608131 0 -0.48413277490562828 0.065667707414807611 0 -0.5 0.075947968371554153 0 -0.48413277490562828 0.065667707414807611 0 -0.4833963934636698 0.087884555503373693 0 -0.5 0.075947968371554153 0 -0.46543383039688058 0.1166363668505397 0 -0.48373727623616358 0.1148580551380682 0 -0.47356170044596058 0.1011775971649234 0 -0.46543383039688058 0.1166363668505397 0 -0.48373727623616358 0.1148580551380682 0 -0.47534133302177828 0.13129217871601989 0 -0.4833963934636698 0.087884555503373693 0 -0.47356170044596058 0.1011775971649234 0 -0.5 0.098349489180500071 0 -0.48373727623616358 0.1148580551380682 0 -0.47356170044596058 0.1011775971649234 0 -0.5 0.098349489180500071 0 -0.48373727623616358 0.1148580551380682 0 -0.5 0.098349489180500071 0 -0.50000000000000311 0.1207510099894461 0 -0.48373727623616358 0.1148580551380682 0 -0.50000000000000311 0.1207510099894461 0 -0.47534133302177828 0.13129217871601989 0 -0.50000000000000311 0.1207510099894461 0 -0.47645349299521977 0.13886229766904731 0 -0.50000000000000311 0.1207510099894461 0 -0.48854003779750671 0.14336981055675249 0 -0.5 0.14671825805113489 0 -0.50000000000000311 0.1207510099894461 0 -0.47645349299521977 0.13886229766904731 0 -0.48854003779750671 0.14336981055675249 0 -0.50000000000000311 0.1207510099894461 0 -0.47645349299521977 0.13886229766904731 0 -0.47534133302177828 0.13129217871601989 0 -0.47645349299521977 0.13886229766904731 0 -0.47871188638461931 0.1531679564463809 0 -0.46574389835984931 0.15722804709452309 0 -0.47645349299521977 0.13886229766904731 0 -0.47871188638461931 0.1531679564463809 0 -0.48854003779750671 0.14336981055675249 0 -0.47871188638461931 0.1531679564463809 0 -0.48854003779750671 0.14336981055675249 0 -0.48753480960769452 0.15734953062775359 0 -0.48854003779750671 0.14336981055675249 0 -0.5 0.14671825805113489 0 -0.48753480960769452 0.15734953062775359 0 -0.5 0.14671825805113489 0 -0.48753480960769452 0.15734953062775359 0 -0.5 0.1726855061128236 0 -0.48753480960769452 0.15734953062775359 0 -0.5 0.1726855061128236 0 -0.47630273941939338 0.1675047747739829 0 -0.5 0.1726855061128236 0 -0.48040602782055508 0.18611483660444281 0 -0.49999999999999922 0.19865275417451239 0 -0.5 0.1726855061128236 0 -0.48040602782055508 0.18611483660444281 0 -0.47630273941939338 0.1675047747739829 0 -0.48040602782055508 0.18611483660444281 0 -0.47630273941939338 0.1675047747739829 0 -0.46518059072735363 0.17833585885552791 0 -0.48040602782055508 0.18611483660444281 0 -0.46518059072735363 0.17833585885552791 0 -0.4622583113334402 0.19311829461500291 0 -0.47871188638461931 0.1531679564463809 0 -0.48753480960769452 0.15734953062775359 0 -0.47630273941939338 0.1675047747739829 0 -0.47871188638461931 0.1531679564463809 0 -0.47630273941939338 0.1675047747739829 0 -0.46574389835984931 0.15722804709452309 0 -0.47630273941939338 0.1675047747739829 0 -0.46574389835984931 0.15722804709452309 0 -0.46283952037841219 0.1672198530664423 0 -0.46574389835984931 0.15722804709452309 0 -0.46283952037841219 0.1672198530664423 0 -0.45933561029807168 0.16177650802909771 0 -0.47630273941939338 0.1675047747739829 0 -0.46283952037841219 0.1672198530664423 0 -0.46518059072735363 0.17833585885552791 0 -0.46283952037841219 0.1672198530664423 0 -0.45585203646359029 0.16568454660677839 0 -0.45933561029807168 0.16177650802909771 0 -0.46283952037841219 0.1672198530664423 0 -0.45585203646359029 0.16568454660677839 0 -0.45662463826870919 0.1733657707696504 0 -0.45585203646359029 0.16568454660677839 0 -0.45662463826870919 0.1733657707696504 0 -0.44891013033218191 0.1714908190645853 0 -0.45585203646359029 0.16568454660677839 0 -0.45933561029807168 0.16177650802909771 0 -0.45290698599043511 0.15697358534864689 0 -0.46574389835984931 0.15722804709452309 0 -0.45933561029807168 0.16177650802909771 0 -0.45290698599043511 0.15697358534864689 0 -0.46283952037841219 0.1672198530664423 0 -0.46518059072735363 0.17833585885552791 0 -0.45662463826870919 0.1733657707696504 0 -0.46518059072735363 0.17833585885552791 0 -0.45662463826870919 0.1733657707696504 0 -0.45265230714361149 0.18269162330364641 0 -0.46518059072735363 0.17833585885552791 0 -0.45265230714361149 0.18269162330364641 0 -0.4622583113334402 0.19311829461500291 0 -0.45662463826870919 0.1733657707696504 0 -0.45265230714361149 0.18269162330364641 0 -0.44891013033218191 0.1714908190645853 0 -0.45265230714361149 0.18269162330364641 0 -0.4408084470171415 0.18139720593886929 0 -0.44891013033218191 0.1714908190645853 0 -0.4408084470171415 0.18139720593886929 0 -0.44891013033218191 0.1714908190645853 0 -0.44299651058135231 0.17123662084508701 0 -0.4408084470171415 0.18139720593886929 0 -0.44299651058135231 0.17123662084508701 0 -0.42936047898565061 0.17508487302824649 0 -0.45265230714361149 0.18269162330364641 0 -0.4408084470171415 0.18139720593886929 0 -0.44145445748243878 0.19572522684643121 0 -0.45290698599043511 0.15697358534864689 0 -0.45389169648898831 0.14948443647506951 0 -0.43428319144300748 0.16611516014821129 0 -0.45290698599043511 0.15697358534864689 0 -0.43428319144300748 0.16611516014821129 0 -0.42936047898565061 0.17508487302824649 0 -0.45290698599043511 0.15697358534864689 0 -0.44299651058135231 0.17123662084508701 0 -0.42936047898565061 0.17508487302824649 0 -0.45290698599043511 0.15697358534864689 0 -0.42936047898565061 0.17508487302824649 0 -0.45389169648898831 0.14948443647506951 0 -0.43428319144300748 0.16611516014821129 0 -0.45585203646359029 0.16568454660677839 0 -0.45290698599043511 0.15697358534864689 0 -0.44891013033218191 0.1714908190645853 0 -0.45290698599043511 0.15697358534864689 0 -0.44891013033218191 0.1714908190645853 0 -0.44299651058135231 0.17123662084508701 0 -0.4436084957238825 0.15091133303995291 0 -0.43666232816394912 0.15450533097657659 0 -0.43428319144300748 0.16611516014821129 0 -0.4436084957238825 0.15091133303995291 0 -0.45389169648898831 0.14948443647506951 0 -0.43428319144300748 0.16611516014821129 0 -0.4436084957238825 0.15091133303995291 0 -0.43733176146314412 0.1475730355112059 0 -0.43666232816394912 0.15450533097657659 0 -0.4436084957238825 0.15091133303995291 0 -0.4431978569885982 0.1406558125952907 0 -0.45389169648898831 0.14948443647506951 0 -0.4436084957238825 0.15091133303995291 0 -0.4431978569885982 0.1406558125952907 0 -0.43733176146314412 0.1475730355112059 0 -0.4431978569885982 0.1406558125952907 0 -0.43206618965774629 0.14152179737276199 0 -0.43733176146314412 0.1475730355112059 0 -0.45044202451211868 0.12429584839862221 0 -0.4431978569885982 0.1406558125952907 0 -0.45389169648898831 0.14948443647506951 0 -0.45044202451211868 0.12429584839862221 0 -0.4431978569885982 0.1406558125952907 0 -0.43632181525477193 0.13015398283914401 0 -0.45044202451211868 0.12429584839862221 0 -0.45389169648898831 0.14948443647506951 0 -0.47534133302177828 0.13129217871601989 0 -0.45389169648898831 0.14948443647506951 0 -0.47534133302177828 0.13129217871601989 0 -0.46127722110494151 0.1304272076100628 0 -0.45389169648898831 0.14948443647506951 0 -0.45044202451211868 0.12429584839862221 0 -0.46127722110494151 0.1304272076100628 0 -0.45389169648898831 0.14948443647506951 0 -0.47645349299521977 0.13886229766904731 0 -0.47534133302177828 0.13129217871601989 0 -0.45389169648898831 0.14948443647506951 0 -0.46543383039688058 0.1166363668505397 0 -0.47534133302177828 0.13129217871601989 0 -0.46127722110494151 0.1304272076100628 0 -0.47645349299521977 0.13886229766904731 0 -0.45290698599043511 0.15697358534864689 0 -0.47645349299521977 0.13886229766904731 0 -0.46574389835984931 0.15722804709452309 0 -0.45290698599043511 0.15697358534864689 0 -0.47645349299521977 0.13886229766904731 0 -0.45430537870128362 0.15250503405941429 0 -0.45389169648898831 0.14948443647506951 0 -0.47645349299521977 0.13886229766904731 0 -0.45290698599043511 0.15697358534864689 0 -0.45430537870128362 0.15250503405941429 0 -0.45290698599043511 0.15697358534864689 0 -0.45430537870128362 0.15250503405941429 0 -0.45389169648898831 0.14948443647506951 0 -0.45430537870128362 0.15250503405941429 0 -0.45389169648898831 0.14948443647506951 0 -0.5 0.22707426608826259 0 -0.50000000000000111 0.25549577800201262 0 -0.47165578298512661 0.25029209389457358 0 -0.5 0.22707426608826259 0 -0.47999109483962549 0.22368988815248059 0 -0.47165578298512661 0.25029209389457358 0 -0.47999109483962549 0.22368988815248059 0 -0.45930457686831588 0.22705304874041621 0 -0.47165578298512661 0.25029209389457358 0 -0.47999109483962549 0.22368988815248059 0 -0.47562346800981548 0.2038723672276877 0 -0.45930457686831588 0.22705304874041621 0 -0.47999109483962549 0.22368988815248059 0 -0.47562346800981548 0.2038723672276877 0 -0.49999999999999922 0.19865275417451239 0 -0.5 0.22707426608826259 0 -0.47999109483962549 0.22368988815248059 0 -0.49999999999999922 0.19865275417451239 0 -0.47562346800981548 0.2038723672276877 0 -0.49999999999999922 0.19865275417451239 0 -0.48040602782055508 0.18611483660444281 0 -0.47562346800981548 0.2038723672276877 0 -0.49999999999999922 0.19865275417451239 0 -0.48040602782055508 0.18611483660444281 0 -0.47562346800981548 0.2038723672276877 0 -0.4622583113334402 0.19311829461500291 0 -0.47562346800981548 0.2038723672276877 0 -0.4622583113334402 0.19311829461500291 0 -0.45124693601963201 0.20909198028086309 0 -0.4622583113334402 0.19311829461500291 0 -0.44145445748243878 0.19572522684643121 0 -0.45124693601963201 0.20909198028086309 0 -0.45265230714361149 0.18269162330364641 0 -0.4622583113334402 0.19311829461500291 0 -0.44145445748243878 0.19572522684643121 0 -0.44145445748243878 0.19572522684643121 0 -0.45124693601963201 0.20909198028086309 0 -0.42687040402944842 0.21431159333403851 0 -0.45124693601963201 0.20909198028086309 0 -0.43786778915493801 0.22889694804950239 0 -0.42687040402944842 0.21431159333403851 0 -0.45124693601963201 0.20909198028086309 0 -0.42687040402944842 0.21431159333403851 0 -0.47562346800981548 0.2038723672276877 0 -0.45124693601963201 0.20909198028086309 0 -0.47562346800981548 0.2038723672276877 0 -0.45124693601963201 0.20909198028086309 0 -0.45930457686831588 0.22705304874041621 0 -0.45930457686831588 0.22705304874041621 0 -0.43786778915493801 0.22889694804950239 0 -0.44331156597025201 0.24508840978713481 0 -0.45124693601963201 0.20909198028086309 0 -0.45930457686831588 0.22705304874041621 0 -0.43786778915493801 0.22889694804950239 0 -0.45930457686831588 0.22705304874041621 0 -0.44331156597025201 0.24508840978713481 0 -0.47165578298512661 0.25029209389457358 0 -0.44331156597025201 0.24508840978713481 0 -0.47165578298512661 0.25029209389457358 0 -0.40770799354114862 0.2474913254542897 0 -0.42688256286909892 0.24626093374958469 0 -0.40770799354114862 0.2474913254542897 0 -0.42688256286909892 0.24626093374958469 0 -0.41959068917288111 0.23157572240497709 0 -0.40770799354114862 0.2474913254542897 0 -0.42688256286909892 0.24626093374958469 0 -0.41946165209625769 0.2557915731152311 0 -0.43786778915493801 0.22889694804950239 0 -0.44331156597025201 0.24508840978713481 0 -0.42688256286909892 0.24626093374958469 0 -0.43786778915493801 0.22889694804950239 0 -0.42688256286909892 0.24626093374958469 0 -0.41959068917288111 0.23157572240497709 0 -0.44331156597025201 0.24508840978713481 0 -0.42688256286909892 0.24626093374958469 0 -0.43496045959765711 0.25517361776031672 0 -0.43786778915493801 0.22889694804950239 0 -0.41959068917288111 0.23157572240497709 0 -0.42687040402944842 0.21431159333403851 0 -0.40770799354114862 0.2474913254542897 0 -0.41959068917288111 0.23157572240497709 0 -0.40249387203926512 0.21953120638721529 0 -0.41959068917288111 0.23157572240497709 0 -0.42687040402944842 0.21431159333403851 0 -0.40249387203926512 0.21953120638721529 0 -0.42687040402944842 0.21431159333403851 0 -0.40249387203926512 0.21953120638721529 0 -0.40950728499067479 0.20814600107824349 0 -0.42687040402944842 0.21431159333403851 0 -0.42371152590882999 0.19933191038962481 0 -0.40950728499067479 0.20814600107824349 0 -0.42687040402944842 0.21431159333403851 0 -0.40249387203926512 0.21953120638721529 0 -0.44145445748243878 0.19572522684643121 0 -0.42371152590882999 0.19933191038962481 0 -0.42822977627498537 0.18894707538220359 0 -0.44145445748243878 0.19572522684643121 0 -0.42687040402944842 0.21431159333403851 0 -0.42371152590882999 0.19933191038962481 0 -0.4408084470171415 0.18139720593886929 0 -0.44145445748243878 0.19572522684643121 0 -0.42822977627498537 0.18894707538220359 0 -0.40950728499067479 0.20814600107824349 0 -0.42371152590882999 0.19933191038962481 0 -0.405813971980866 0.1931961607078462 0 -0.42371152590882999 0.19933191038962481 0 -0.42822977627498537 0.18894707538220359 0 -0.405813971980866 0.1931961607078462 0 -0.405813971980866 0.1931961607078462 0 -0.39506618135104482 0.1993766074944934 0 -0.4146746863970262 0.18274588382135229 0 -0.405813971980866 0.1931961607078462 0 -0.38173679989003578 0.21068176611276149 0 -0.39506618135104482 0.1993766074944934 0 -0.38609313488103808 0.1937992247088221 0 -0.39565618949383308 0.1800344911742538 0 -0.405813971980866 0.1931961607078462 0 -0.39506618135104482 0.1993766074944934 0 -0.38173679989003578 0.21068176611276149 0 -0.405813971980866 0.1931961607078462 0 -0.38173679989003578 0.21068176611276149 0 -0.40219324548005958 0.2043434967733069 0 -0.39506618135104482 0.1993766074944934 0 -0.4146746863970262 0.18274588382135229 0 -0.40950728499067479 0.20814600107824349 0 -0.405813971980866 0.1931961607078462 0 -0.40219324548005958 0.2043434967733069 0 -0.38609313488103808 0.1937992247088221 0 -0.38050020824098041 0.20276259088954479 0 -0.37825693711300612 0.18592993286567799 0 -0.38050020824098041 0.20276259088954479 0 -0.37825693711300612 0.18592993286567799 0 -0.36758920666420292 0.19669339218798079 0 -0.39506618135104482 0.1993766074944934 0 -0.38609313488103808 0.1937992247088221 0 -0.38050020824098041 0.20276259088954479 0 -0.39506618135104482 0.1993766074944934 0 -0.38173679989003578 0.21068176611276149 0 -0.39506618135104482 0.1993766074944934 0 -0.38050020824098041 0.20276259088954479 0 -0.38173679989003578 0.21068176611276149 0 -0.38050020824098041 0.20276259088954479 0 -0.37545767630506333 0.21600733116763449 0 -0.37340744350434107 0.2065774899474466 0 -0.38050020824098041 0.20276259088954479 0 -0.38173679989003578 0.21068176611276149 0 -0.37545767630506333 0.21600733116763449 0 -0.38173679989003578 0.21068176611276149 0 -0.37545767630506333 0.21600733116763449 0 -0.38337563789767892 0.21639958731649159 0 -0.37545767630506333 0.21600733116763449 0 -0.38337563789767892 0.21639958731649159 0 -0.38607786555151552 0.2230462757899892 0 -0.38173679989003578 0.21068176611276149 0 -0.37545767630506333 0.21600733116763449 0 -0.38337563789767892 0.21639958731649159 0 -0.38969954475805529 0.21523729392089719 0 -0.38607786555151552 0.2230462757899892 0 -0.38173679989003578 0.21068176611276149 0 -0.38337563789767892 0.21639958731649159 0 -0.38969954475805529 0.21523729392089719 0 -0.38173679989003578 0.21068176611276149 0 -0.38969954475805529 0.21523729392089719 0 -0.39608254209680632 0.21204842425993839 0 -0.38969954475805529 0.21523729392089719 0 -0.39686702187038608 0.2150946665223071 0 -0.38607786555151552 0.2230462757899892 0 -0.38173679989003578 0.21068176611276149 0 -0.39608254209680632 0.21204842425993839 0 -0.40219324548005958 0.2043434967733069 0 -0.39686702187038608 0.2150946665223071 0 -0.39608254209680632 0.21204842425993839 0 -0.40184635560717957 0.21605897496098919 0 -0.38969954475805529 0.21523729392089719 0 -0.39686702187038608 0.2150946665223071 0 -0.39608254209680632 0.21204842425993839 0 -0.39608254209680632 0.21204842425993839 0 -0.40219324548005958 0.2043434967733069 0 -0.40240735704368008 0.21014922426811949 0 -0.40950728499067479 0.20814600107824349 0 -0.40219324548005958 0.2043434967733069 0 -0.40240735704368008 0.21014922426811949 0 -0.40950728499067479 0.20814600107824349 0 -0.40240735704368008 0.21014922426811949 0 -0.40184635560717957 0.21605897496098919 0 -0.40950728499067479 0.20814600107824349 0 -0.40184635560717957 0.21605897496098919 0 -0.40249387203926512 0.21953120638721529 0 -0.39686702187038608 0.2150946665223071 0 -0.40184635560717957 0.21605897496098919 0 -0.40249387203926512 0.21953120638721529 0 -0.40184635560717957 0.21605897496098919 0 -0.40249387203926512 0.21953120638721529 0 -0.39608254209680632 0.21204842425993839 0 -0.40240735704368008 0.21014922426811949 0 -0.40184635560717957 0.21605897496098919 0 -0.40770799354114862 0.2474913254542897 0 -0.40249387203926512 0.21953120638721529 0 -0.39686702187038608 0.2150946665223071 0 -0.40249387203926512 0.21953120638721529 0 -0.38607786555151552 0.2230462757899892 0 -0.40770799354114862 0.2474913254542897 0 -0.40249387203926512 0.21953120638721529 0 -0.39138686501675252 0.23483691959436639 0 -0.40249387203926512 0.21953120638721529 0 -0.38607786555151552 0.2230462757899892 0 -0.39138686501675252 0.23483691959436639 0 -0.40249387203926512 0.21953120638721529 0 -0.38607786555151552 0.2230462757899892 0 -0.37545767630506333 0.21600733116763449 0 -0.38607786555151552 0.2230462757899892 0 -0.36966185906376597 0.22656134519276461 0 -0.38607786555151552 0.2230462757899892 0 -0.37802526777497703 0.23501521965282979 0 -0.36966185906376597 0.22656134519276461 0 -0.38607786555151552 0.2230462757899892 0 -0.36966185906376597 0.22656134519276461 0 -0.38607786555151552 0.2230462757899892 0 -0.37802526777497703 0.23501521965282979 0 -0.39138686501675252 0.23483691959436639 0 -0.37802526777497703 0.23501521965282979 0 -0.38262932617685658 0.24910057068750771 0 -0.39138686501675252 0.23483691959436639 0 -0.37802526777497703 0.23501521965282979 0 -0.38262932617685658 0.24910057068750771 0 -0.36884835756302731 0.24170121431994701 0 -0.38262932617685658 0.24910057068750771 0 -0.36884835756302731 0.24170121431994701 0 -0.40770799354114862 0.2474913254542897 0 -0.38262932617685658 0.24910057068750771 0 -0.39138686501675252 0.23483691959436639 0 -0.40770799354114862 0.2474913254542897 0 -0.38262932617685658 0.24910057068750771 0 -0.40770799354114862 0.2474913254542897 0 -0.38262932617685658 0.24910057068750771 0 -0.38801897292272802 0.25023951331412447 0 -0.4188131679962247 0.14578753471265199 0 -0.40479608135484579 0.1486837317571349 0 -0.40590216570415671 0.13265550096846471 0 -0.4188131679962247 0.14578753471265199 0 -0.42306668551026272 0.15735790226693319 0 -0.41145363367606191 0.15819754087203389 0 -0.4188131679962247 0.14578753471265199 0 -0.41145363367606191 0.15819754087203389 0 -0.40479608135484579 0.1486837317571349 0 -0.41372355470660399 0.11959076585248379 0 -0.42236718280159002 0.13239304021553311 0 -0.40590216570415671 0.13265550096846471 0 -0.4188131679962247 0.14578753471265199 0 -0.42236718280159002 0.13239304021553311 0 -0.40590216570415671 0.13265550096846471 0 -0.4188131679962247 0.14578753471265199 0 -0.42236718280159002 0.13239304021553311 0 -0.43206618965774629 0.14152179737276199 0 -0.42574870126398229 0.1210159018382119 0 -0.42236718280159002 0.13239304021553311 0 -0.43632181525477193 0.13015398283914401 0 -0.42236718280159002 0.13239304021553311 0 -0.43632181525477193 0.13015398283914401 0 -0.43206618965774629 0.14152179737276199 0 -0.4431978569885982 0.1406558125952907 0 -0.43632181525477193 0.13015398283914401 0 -0.43206618965774629 0.14152179737276199 0 -0.43206618965774629 0.14152179737276199 0 -0.43733176146314412 0.1475730355112059 0 -0.42970810046122893 0.1508724863646731 0 -0.4188131679962247 0.14578753471265199 0 -0.43206618965774629 0.14152179737276199 0 -0.42970810046122893 0.1508724863646731 0 -0.4188131679962247 0.14578753471265199 0 -0.42970810046122893 0.1508724863646731 0 -0.42306668551026272 0.15735790226693319 0 -0.42970810046122893 0.1508724863646731 0 -0.4303084699760471 0.15848931734790919 0 -0.42306668551026272 0.15735790226693319 0 -0.42970810046122893 0.1508724863646731 0 -0.43666232816394912 0.15450533097657659 0 -0.4303084699760471 0.15848931734790919 0 -0.43733176146314412 0.1475730355112059 0 -0.42970810046122893 0.1508724863646731 0 -0.43666232816394912 0.15450533097657659 0 -0.43666232816394912 0.15450533097657659 0 -0.4303084699760471 0.15848931734790919 0 -0.43428319144300748 0.16611516014821129 0 -0.4303084699760471 0.15848931734790919 0 -0.43428319144300748 0.16611516014821129 0 -0.42688613277157761 0.16274445008845809 0 -0.43428319144300748 0.16611516014821129 0 -0.42688613277157761 0.16274445008845809 0 -0.41988618415699308 0.16901542059077879 0 -0.42306668551026272 0.15735790226693319 0 -0.42688613277157761 0.16274445008845809 0 -0.41988618415699308 0.16901542059077879 0 -0.4303084699760471 0.15848931734790919 0 -0.42306668551026272 0.15735790226693319 0 -0.42688613277157761 0.16274445008845809 0 -0.43428319144300748 0.16611516014821129 0 -0.4146746863970262 0.18274588382135229 0 -0.43428319144300748 0.16611516014821129 0 -0.4146746863970262 0.18274588382135229 0 -0.41988618415699308 0.16901542059077879 0 -0.43428319144300748 0.16611516014821129 0 -0.42936047898565061 0.17508487302824649 0 -0.4146746863970262 0.18274588382135229 0 -0.4408084470171415 0.18139720593886929 0 -0.42822977627498537 0.18894707538220359 0 -0.42936047898565061 0.17508487302824649 0 -0.42822977627498537 0.18894707538220359 0 -0.405813971980866 0.1931961607078462 0 -0.42936047898565061 0.17508487302824649 0 -0.405813971980866 0.1931961607078462 0 -0.42936047898565061 0.17508487302824649 0 -0.4146746863970262 0.18274588382135229 0 -0.405813971980866 0.1931961607078462 0 -0.42936047898565061 0.17508487302824649 0 -0.4146746863970262 0.18274588382135229 0 -0.41988618415699308 0.16901542059077879 0 -0.40772137839603823 0.17025455796807079 0 -0.42306668551026272 0.15735790226693319 0 -0.41988618415699308 0.16901542059077879 0 -0.41145363367606191 0.15819754087203389 0 -0.41988618415699308 0.16901542059077879 0 -0.40772137839603823 0.17025455796807079 0 -0.41145363367606191 0.15819754087203389 0 -0.40772137839603823 0.17025455796807079 0 -0.3969361982562763 0.16127945338193531 0 -0.39565618949383308 0.1800344911742538 0 -0.40772137839603823 0.17025455796807079 0 -0.41145363367606191 0.15819754087203389 0 -0.3969361982562763 0.16127945338193531 0 -0.39506618135104482 0.1993766074944934 0 -0.4146746863970262 0.18274588382135229 0 -0.39565618949383308 0.1800344911742538 0 -0.4146746863970262 0.18274588382135229 0 -0.40772137839603823 0.17025455796807079 0 -0.39565618949383308 0.1800344911742538 0 -0.38609313488103808 0.1937992247088221 0 -0.39565618949383308 0.1800344911742538 0 -0.37825693711300612 0.18592993286567799 0 -0.39565618949383308 0.1800344911742538 0 -0.37825693711300612 0.18592993286567799 0 -0.37681790395456582 0.1619083413495567 0 -0.39565618949383308 0.1800344911742538 0 -0.37681790395456582 0.1619083413495567 0 -0.3969361982562763 0.16127945338193531 0 -0.39565618949383308 0.1800344911742538 0 -0.37681790395456582 0.1619083413495567 0 -0.37681790395456582 0.1619083413495567 0 -0.3751564947144197 0.1416367972888771 0 -0.39087524114150918 0.14549862885058859 0 -0.3969361982562763 0.16127945338193531 0 -0.37681790395456582 0.1619083413495567 0 -0.39087524114150918 0.14549862885058859 0 -0.3969361982562763 0.16127945338193531 0 -0.39087524114150918 0.14549862885058859 0 -0.40479608135484579 0.1486837317571349 0 -0.39087524114150918 0.14549862885058859 0 -0.40479608135484579 0.1486837317571349 0 -0.40590216570415671 0.13265550096846471 0 -0.41145363367606191 0.15819754087203389 0 -0.3969361982562763 0.16127945338193531 0 -0.40479608135484579 0.1486837317571349 0 -0.39087524114150918 0.14549862885058859 0 -0.40590216570415671 0.13265550096846471 0 -0.38440739263673179 0.12533490720897719 0 -0.3751564947144197 0.1416367972888771 0 -0.39087524114150918 0.14549862885058859 0 -0.38440739263673179 0.12533490720897719 0 -0.3751564947144197 0.1416367972888771 0 -0.35797961841529841 0.14378219152485969 0 -0.36466733534410412 0.12012446695210791 0 -0.3751564947144197 0.1416367972888771 0 -0.38440739263673179 0.12533490720897719 0 -0.36466733534410412 0.12012446695210791 0 -0.35797961841529841 0.14378219152485969 0 -0.33914133287603099 0.12565604170016259 0 -0.35797961841529841 0.14378219152485969 0 -0.33914133287603099 0.12565604170016259 0 -0.36466733534410412 0.12012446695210791 0 -0.35797961841529841 0.14378219152485969 0 -0.33914133287603099 0.12565604170016259 0 -0.33684980075020671 0.1508292280790629 0 -0.35797961841529841 0.14378219152485969 0 -0.35428169457312242 0.16676785163324701 0 -0.33684980075020671 0.1508292280790629 0 -0.37681790395456582 0.1619083413495567 0 -0.3751564947144197 0.1416367972888771 0 -0.35797961841529841 0.14378219152485969 0 -0.37681790395456582 0.1619083413495567 0 -0.35797961841529841 0.14378219152485969 0 -0.37681790395456582 0.1619083413495567 0 -0.35797961841529841 0.14378219152485969 0 -0.35428169457312242 0.16676785163324701 0 -0.37681790395456582 0.1619083413495567 0 -0.36568241664294199 0.17959477124262069 0 -0.35428169457312242 0.16676785163324701 0 -0.37825693711300612 0.18592993286567799 0 -0.36568241664294199 0.17959477124262069 0 -0.36758920666420292 0.19669339218798079 0 -0.37825693711300612 0.18592993286567799 0 -0.37681790395456582 0.1619083413495567 0 -0.36568241664294199 0.17959477124262069 0 -0.35146634090981282 0.18667433817664081 0 -0.35428169457312242 0.16676785163324701 0 -0.33284440788268449 0.17450037848239691 0 -0.36568241664294199 0.17959477124262069 0 -0.35146634090981282 0.18667433817664081 0 -0.35428169457312242 0.16676785163324701 0 -0.33284440788268449 0.17450037848239691 0 -0.3194291827190312 0.15706105454230609 0 -0.33684980075020671 0.1508292280790629 0 -0.35428169457312242 0.16676785163324701 0 -0.33284440788268449 0.17450037848239691 0 -0.33684980075020671 0.1508292280790629 0 -0.35146634090981282 0.18667433817664081 0 -0.33284440788268449 0.17450037848239691 0 -0.33854888797891508 0.198472326937673 0 -0.33284440788268449 0.17450037848239691 0 -0.31336755213237161 0.17317622378632369 0 -0.31969679873234808 0.19325312865870781 0 -0.33284440788268449 0.17450037848239691 0 -0.31336755213237161 0.17317622378632369 0 -0.3194291827190312 0.15706105454230609 0 -0.31336755213237161 0.17317622378632369 0 -0.3194291827190312 0.15706105454230609 0 -0.30796670396304521 0.1612100219742876 0 -0.3194291827190312 0.15706105454230609 0 -0.31742256803507268 0.13720785059140519 0 -0.30831883537031118 0.15182978396413599 0 -0.3194291827190312 0.15706105454230609 0 -0.31742256803507268 0.13720785059140519 0 -0.33684980075020671 0.1508292280790629 0 -0.31742256803507268 0.13720785059140519 0 -0.33914133287603099 0.12565604170016259 0 -0.32284262133770081 0.1143035070858858 0 -0.31742256803507268 0.13720785059140519 0 -0.33914133287603099 0.12565604170016259 0 -0.33684980075020671 0.1508292280790629 0 -0.35867575245407318 0.24429616695695841 0 -0.35434486376622049 0.2339139156049963 0 -0.35014097212956308 0.25118527989977613 0 -0.35434486376622049 0.2339139156049963 0 -0.33698489466040682 0.23503186956709771 0 -0.34053134287490211 0.2456296914052418 0 -0.35434486376622049 0.2339139156049963 0 -0.34462058268492302 0.25653493811952821 0 -0.35014097212956308 0.25118527989977613 0 -0.35434486376622049 0.2339139156049963 0 -0.34462058268492302 0.25653493811952821 0 -0.35434486376622049 0.2339139156049963 0 -0.34053134287490211 0.2456296914052418 0 -0.34462058268492302 0.25653493811952821 0 -0.35867575245407318 0.24429616695695841 0 -0.35014097212956308 0.25118527989977613 0 -0.36638514915320991 0.25014292529364179 0 -0.35434486376622049 0.2339139156049963 0 -0.34053134287490211 0.2456296914052418 0 -0.35867575245407318 0.24429616695695841 0 -0.36884835756302731 0.24170121431994701 0 -0.36638514915320991 0.25014292529364179 0 -0.38262932617685658 0.24910057068750771 0 -0.36884835756302731 0.24170121431994701 0 -0.36638514915320991 0.25014292529364179 0 -0.38262932617685658 0.24910057068750771 0 -0.36638514915320991 0.25014292529364179 0 -0.37802526777497703 0.23501521965282979 0 -0.36884835756302731 0.24170121431994701 0 -0.3646400286206623 0.2338833004492345 0 -0.36884835756302731 0.24170121431994701 0 -0.35434486376622049 0.2339139156049963 0 -0.36884835756302731 0.24170121431994701 0 -0.3646400286206623 0.2338833004492345 0 -0.35434486376622049 0.2339139156049963 0 -0.35867575245407318 0.24429616695695841 0 -0.36884835756302731 0.24170121431994701 0 -0.35434486376622049 0.2339139156049963 0 -0.37545767630506333 0.21600733116763449 0 -0.35584917125908189 0.23263805484077529 0 -0.3646400286206623 0.2338833004492345 0 -0.36966185906376597 0.22656134519276461 0 -0.35584917125908189 0.23263805484077529 0 -0.37545767630506333 0.21600733116763449 0 -0.36966185906376597 0.22656134519276461 0 -0.35584917125908189 0.23263805484077529 0 -0.35584917125908189 0.23263805484077529 0 -0.36737500845922549 0.20810856171323991 0 -0.37545767630506333 0.21600733116763449 0 -0.35584917125908189 0.23263805484077529 0 -0.36737500845922549 0.20810856171323991 0 -0.37802526777497703 0.23501521965282979 0 -0.3646400286206623 0.2338833004492345 0 -0.36966185906376597 0.22656134519276461 0 -0.35584917125908189 0.23263805484077529 0 -0.35434486376622049 0.2339139156049963 0 -0.34961122510196191 0.21610259858462441 0 -0.35434486376622049 0.2339139156049963 0 -0.34961122510196191 0.21610259858462441 0 -0.32890055023179232 0.22025220947642349 0 -0.35584917125908189 0.23263805484077529 0 -0.34961122510196191 0.21610259858462441 0 -0.36737500845922549 0.20810856171323991 0 -0.3646400286206623 0.2338833004492345 0 -0.35584917125908189 0.23263805484077529 0 -0.35434486376622049 0.2339139156049963 0 -0.35584917125908189 0.23263805484077529 0 -0.35434486376622049 0.2339139156049963 0 -0.34961122510196191 0.21610259858462441 0 -0.36737500845922549 0.20810856171323991 0 -0.35505505266899229 0.20184929178302921 0 -0.34961122510196191 0.21610259858462441 0 -0.35505505266899229 0.20184929178302921 0 -0.33854888797891508 0.198472326937673 0 -0.37545767630506333 0.21600733116763449 0 -0.37340744350434107 0.2065774899474466 0 -0.36737500845922549 0.20810856171323991 0 -0.37340744350434107 0.2065774899474466 0 -0.36737500845922549 0.20810856171323991 0 -0.36758920666420292 0.19669339218798079 0 -0.36568241664294199 0.17959477124262069 0 -0.35146634090981282 0.18667433817664081 0 -0.36758920666420292 0.19669339218798079 0 -0.36737500845922549 0.20810856171323991 0 -0.36758920666420292 0.19669339218798079 0 -0.35505505266899229 0.20184929178302921 0 -0.38050020824098041 0.20276259088954479 0 -0.37340744350434107 0.2065774899474466 0 -0.36758920666420292 0.19669339218798079 0 -0.35146634090981282 0.18667433817664081 0 -0.36758920666420292 0.19669339218798079 0 -0.35505505266899229 0.20184929178302921 0 -0.35146634090981282 0.18667433817664081 0 -0.35505505266899229 0.20184929178302921 0 -0.33854888797891508 0.198472326937673 0 -0.33284440788268449 0.17450037848239691 0 -0.33854888797891508 0.198472326937673 0 -0.31969679873234808 0.19325312865870781 0 -0.32890055023179232 0.22025220947642349 0 -0.30345623669736299 0.20659050334785259 0 -0.31969679873234808 0.19325312865870781 0 -0.32890055023179232 0.22025220947642349 0 -0.30345623669736299 0.20659050334785259 0 -0.33854888797891508 0.198472326937673 0 -0.31969679873234808 0.19325312865870781 0 -0.32890055023179232 0.22025220947642349 0 -0.34961122510196191 0.21610259858462441 0 -0.33854888797891508 0.198472326937673 0 -0.32890055023179232 0.22025220947642349 0 -0.35434486376622049 0.2339139156049963 0 -0.32890055023179232 0.22025220947642349 0 -0.33698489466040682 0.23503186956709771 0 -0.35434486376622049 0.2339139156049963 0 -0.32890055023179232 0.22025220947642349 0 -0.32890055023179232 0.22025220947642349 0 -0.32416282176871142 0.2403316617817311 0 -0.33698489466040682 0.23503186956709771 0 -0.32890055023179232 0.22025220947642349 0 -0.30968147410946523 0.2310425191373609 0 -0.30345623669736299 0.20659050334785259 0 -0.32890055023179232 0.22025220947642349 0 -0.32416282176871142 0.2403316617817311 0 -0.30968147410946523 0.2310425191373609 0 -0.32416282176871142 0.2403316617817311 0 -0.30968147410946523 0.2310425191373609 0 -0.31332832454887088 0.25244391761365692 0 -0.32416282176871142 0.2403316617817311 0 -0.33698489466040682 0.23503186956709771 0 -0.34053134287490211 0.2456296914052418 0 -0.32416282176871142 0.2403316617817311 0 -0.34053134287490211 0.2456296914052418 0 -0.32671782198358301 0.25734546720548668 0 -0.29589392737197351 0.249512538125438 0 -0.28753453506461829 0.22413396938238159 0 -0.27316976485792488 0.24444195486591161 0 -0.29589392737197351 0.249512538125438 0 -0.30968147410946523 0.2310425191373609 0 -0.29589392737197351 0.249512538125438 0 -0.30968147410946523 0.2310425191373609 0 -0.28753453506461829 0.22413396938238159 0 -0.29589392737197351 0.249512538125438 0 -0.30968147410946523 0.2310425191373609 0 -0.31332832454887088 0.25244391761365692 0 -0.30968147410946523 0.2310425191373609 0 -0.28753453506461829 0.22413396938238159 0 -0.30345623669736299 0.20659050334785259 0 -0.28753453506461829 0.22413396938238159 0 -0.30345623669736299 0.20659050334785259 0 -0.27801192316293372 0.19292879721928169 0 -0.31969679873234808 0.19325312865870781 0 -0.30345623669736299 0.20659050334785259 0 -0.30106315747096268 0.1865271299215773 0 -0.30345623669736299 0.20659050334785259 0 -0.27801192316293372 0.19292879721928169 0 -0.30106315747096268 0.1865271299215773 0 -0.30345623669736299 0.20659050334785259 0 -0.27801192316293372 0.19292879721928169 0 -0.27801192316293372 0.19292879721928169 0 -0.25452127516851919 0.20182214795708131 0 -0.25256760962850472 0.17926709109071021 0 -0.27801192316293372 0.19292879721928169 0 -0.25452127516851919 0.20182214795708131 0 -0.26427740569439878 0.22020682222584681 0 -0.25452127516851919 0.20182214795708131 0 -0.26427740569439878 0.22020682222584681 0 -0.24337552138156279 0.21795896149778779 0 -0.28753453506461829 0.22413396938238159 0 -0.27801192316293372 0.19292879721928169 0 -0.26427740569439878 0.22020682222584681 0 -0.28753453506461829 0.22413396938238159 0 -0.26427740569439878 0.22020682222584681 0 -0.27316976485792488 0.24444195486591161 0 -0.26427740569439878 0.22020682222584681 0 -0.25124147401774211 0.23762226217384569 0 -0.27316976485792488 0.24444195486591161 0 -0.26427740569439878 0.22020682222584681 0 -0.25124147401774211 0.23762226217384569 0 -0.24337552138156279 0.21795896149778779 0 -0.25124147401774211 0.23762226217384569 0 -0.27316976485792488 0.24444195486591161 0 -0.25758647592664707 0.2638813985755446 0 -0.29740833750732631 0.1475397782310475 0 -0.27739410697957961 0.15787170587068949 0 -0.28338020308430018 0.14453433823850531 0 -0.29740833750732631 0.1475397782310475 0 -0.27739410697957961 0.15787170587068949 0 -0.29740833750732631 0.1475397782310475 0 -0.29897872492802507 0.15591133965438231 0 -0.27739410697957961 0.15787170587068949 0 -0.28338020308430018 0.14453433823850531 0 -0.29239480055653322 0.13701889084080471 0 -0.29740833750732631 0.1475397782310475 0 -0.29239480055653322 0.13701889084080471 0 -0.27429261487182011 0.1171596263047522 0 -0.29239480055653322 0.13701889084080471 0 -0.30168824458910071 0.13188911639101639 0 -0.28963007663840612 0.1213590857689255 0 -0.28338020308430018 0.14453433823850531 0 -0.29239480055653322 0.13701889084080471 0 -0.27701488604061542 0.13641720567024249 0 -0.29239480055653322 0.13701889084080471 0 -0.27429261487182011 0.1171596263047522 0 -0.28963007663840612 0.1213590857689255 0 -0.31742256803507268 0.13720785059140519 0 -0.30168824458910071 0.13188911639101639 0 -0.29740833750732631 0.1475397782310475 0 -0.31742256803507268 0.13720785059140519 0 -0.30168824458910071 0.13188911639101639 0 -0.30505676335876991 0.1175002608098905 0 -0.29239480055653322 0.13701889084080471 0 -0.30168824458910071 0.13188911639101639 0 -0.29740833750732631 0.1475397782310475 0 -0.31742256803507268 0.13720785059140519 0 -0.29740833750732631 0.1475397782310475 0 -0.31742256803507268 0.13720785059140519 0 -0.29740833750732631 0.1475397782310475 0 -0.30831883537031118 0.15182978396413599 0 -0.29740833750732631 0.1475397782310475 0 -0.29897872492802507 0.15591133965438231 0 -0.30831883537031118 0.15182978396413599 0 -0.29897872492802507 0.15591133965438231 0 -0.30831883537031118 0.15182978396413599 0 -0.30796670396304521 0.1612100219742876 0 -0.3194291827190312 0.15706105454230609 0 -0.30831883537031118 0.15182978396413599 0 -0.30796670396304521 0.1612100219742876 0 -0.31336755213237161 0.17317622378632369 0 -0.30796670396304521 0.1612100219742876 0 -0.29973922466548691 0.16807170792428969 0 -0.29897872492802507 0.15591133965438231 0 -0.30796670396304521 0.1612100219742876 0 -0.29973922466548691 0.16807170792428969 0 -0.31336755213237161 0.17317622378632369 0 -0.31969679873234808 0.19325312865870781 0 -0.30106315747096268 0.1865271299215773 0 -0.31336755213237161 0.17317622378632369 0 -0.29973922466548691 0.16807170792428969 0 -0.30106315747096268 0.1865271299215773 0 -0.27801192316293372 0.19292879721928169 0 -0.30106315747096268 0.1865271299215773 0 -0.28788837090188057 0.17574757415513151 0 -0.29973922466548691 0.16807170792428969 0 -0.30106315747096268 0.1865271299215773 0 -0.28788837090188057 0.17574757415513151 0 -0.29897872492802507 0.15591133965438231 0 -0.2887841928562363 0.16502159924682341 0 -0.27739410697957961 0.15787170587068949 0 -0.29897872492802507 0.15591133965438231 0 -0.27739410697957961 0.15787170587068949 0 -0.29897872492802507 0.15591133965438231 0 -0.29973922466548691 0.16807170792428969 0 -0.2887841928562363 0.16502159924682341 0 -0.29973922466548691 0.16807170792428969 0 -0.28788837090188057 0.17574757415513151 0 -0.2887841928562363 0.16502159924682341 0 -0.28788837090188057 0.17574757415513151 0 -0.2887841928562363 0.16502159924682341 0 -0.2790395704537727 0.16773550997355821 0 -0.2887841928562363 0.16502159924682341 0 -0.27739410697957961 0.15787170587068949 0 -0.2790395704537727 0.16773550997355821 0 -0.27739410697957961 0.15787170587068949 0 -0.2790395704537727 0.16773550997355821 0 -0.26324491037830727 0.16517593249288001 0 -0.2790395704537727 0.16773550997355821 0 -0.27365763266116488 0.1759639765531508 0 -0.26324491037830727 0.16517593249288001 0 -0.27739410697957961 0.15787170587068949 0 -0.26324491037830727 0.16517593249288001 0 -0.27801192316293372 0.19292879721928169 0 -0.27365763266116488 0.1759639765531508 0 -0.25922242205649387 0.1784619102688369 0 -0.27801192316293372 0.19292879721928169 0 -0.28788837090188057 0.17574757415513151 0 -0.27365763266116488 0.1759639765531508 0 -0.28788837090188057 0.17574757415513151 0 -0.2790395704537727 0.16773550997355821 0 -0.27365763266116488 0.1759639765531508 0 -0.27801192316293372 0.19292879721928169 0 -0.25256760962850472 0.17926709109071021 0 -0.27801192316293372 0.19292879721928169 0 -0.25922242205649387 0.1784619102688369 0 -0.25256760962850472 0.17926709109071021 0 -0.27365763266116488 0.1759639765531508 0 -0.25922242205649387 0.1784619102688369 0 -0.26324491037830727 0.16517593249288001 0 -0.25922242205649387 0.1784619102688369 0 -0.25256760962850472 0.17926709109071021 0 -0.24909571377703479 0.17248015911507039 0 -0.25922242205649387 0.1784619102688369 0 -0.26324491037830727 0.16517593249288001 0 -0.24909571377703479 0.17248015911507039 0 -0.25922242205649387 0.1784619102688369 0 -0.25256760962850472 0.17926709109071021 0 -0.27739410697957961 0.15787170587068949 0 -0.26324491037830727 0.16517593249288001 0 -0.24973542440397539 0.160383733048482 0 -0.27739410697957961 0.15787170587068949 0 -0.24973542440397539 0.160383733048482 0 -0.26324491037830727 0.16517593249288001 0 -0.24973542440397539 0.160383733048482 0 -0.24909571377703479 0.17248015911507039 0 -0.26324491037830727 0.16517593249288001 0 -0.24909571377703479 0.17248015911507039 0 -0.2621556406359567 0.14950235590482261 0 -0.2486418601058053 0.14588316763779119 0 -0.24973542440397539 0.160383733048482 0 -0.27739410697957961 0.15787170587068949 0 -0.2621556406359567 0.14950235590482261 0 -0.24973542440397539 0.160383733048482 0 -0.2621556406359567 0.14950235590482261 0 -0.26205562709162572 0.1362290776150222 0 -0.2486418601058053 0.14588316763779119 0 -0.2621556406359567 0.14950235590482261 0 -0.27255754757566752 0.14554898200050551 0 -0.26205562709162572 0.1362290776150222 0 -0.27739410697957961 0.15787170587068949 0 -0.2621556406359567 0.14950235590482261 0 -0.27255754757566752 0.14554898200050551 0 -0.28338020308430018 0.14453433823850531 0 -0.27255754757566752 0.14554898200050551 0 -0.27701488604061542 0.13641720567024249 0 -0.28338020308430018 0.14453433823850531 0 -0.27739410697957961 0.15787170587068949 0 -0.27255754757566752 0.14554898200050551 0 -0.27701488604061542 0.13641720567024249 0 -0.26205562709162572 0.1362290776150222 0 -0.27429261487182011 0.1171596263047522 0 -0.29239480055653322 0.13701889084080471 0 -0.27701488604061542 0.13641720567024249 0 -0.27429261487182011 0.1171596263047522 0 -0.27255754757566752 0.14554898200050551 0 -0.27701488604061542 0.13641720567024249 0 -0.26205562709162572 0.1362290776150222 0 -0.26205562709162572 0.1362290776150222 0 -0.25243723761715509 0.1184612761912272 0 -0.24822770506743089 0.13226351280279799 0 -0.26205562709162572 0.1362290776150222 0 -0.24822770506743089 0.13226351280279799 0 -0.2486418601058053 0.14588316763779119 0 -0.25243723761715509 0.1184612761912272 0 -0.2561904291871071 0.097300361768699717 0 -0.27429261487182011 0.1171596263047522 0 -0.26205562709162572 0.1362290776150222 0 -0.25243723761715509 0.1184612761912272 0 -0.27429261487182011 0.1171596263047522 0 -0.2561904291871071 0.097300361768699717 0 -0.27429261487182011 0.1171596263047522 0 -0.2561904291871071 0.097300361768699717 0 -0.27429261487182011 0.1171596263047522 0 -0.28661085884774262 0.094338815545201141 0 -0.27429261487182011 0.1171596263047522 0 -0.28963007663840612 0.1213590857689255 0 -0.28661085884774262 0.094338815545201141 0 -0.28963007663840612 0.1213590857689255 0 -0.28661085884774262 0.094338815545201141 0 -0.30505676335876991 0.1175002608098905 0 -0.28661085884774262 0.094338815545201141 0 -0.31152900169961062 0.095152725125876497 0 -0.28661085884774262 0.094338815545201141 0 -0.31152900169961062 0.095152725125876497 0 -0.30505676335876991 0.1175002608098905 0 -0.30168824458910071 0.13188911639101639 0 -0.28963007663840612 0.1213590857689255 0 -0.30505676335876991 0.1175002608098905 0 -0.30135897825031632 0.062833176481056796 0 -0.30499504547633438 0.07317979846742681 0 -0.29080888791622111 0.064835996049510847 0 -0.30135897825031632 0.062833176481056796 0 -0.30499504547633438 0.07317979846742681 0 -0.31175093366558371 0.062264561513365048 0 -0.30499504547633438 0.07317979846742681 0 -0.31175093366558371 0.062264561513365048 0 -0.31563483571933121 0.07512205883592607 0 -0.31152900169961062 0.095152725125876497 0 -0.30499504547633438 0.07317979846742681 0 -0.31563483571933121 0.07512205883592607 0 -0.31152900169961062 0.095152725125876497 0 -0.30499504547633438 0.07317979846742681 0 -0.29368437491129712 0.081031803111784734 0 -0.28661085884774262 0.094338815545201141 0 -0.31152900169961062 0.095152725125876497 0 -0.29368437491129712 0.081031803111784734 0 -0.28661085884774262 0.094338815545201141 0 -0.29368437491129712 0.081031803111784734 0 -0.27447808061657669 0.077651680370908305 0 -0.29368437491129712 0.081031803111784734 0 -0.29080888791622111 0.064835996049510847 0 -0.27447808061657669 0.077651680370908305 0 -0.30499504547633438 0.07317979846742681 0 -0.29368437491129712 0.081031803111784734 0 -0.29080888791622111 0.064835996049510847 0 -0.29080888791622111 0.064835996049510847 0 -0.27372697185359429 0.0626183161432496 0 -0.27447808061657669 0.077651680370908305 0 -0.27372697185359429 0.0626183161432496 0 -0.27447808061657669 0.077651680370908305 0 -0.25622419186420398 0.071140944602872444 0 -0.2561904291871071 0.097300361768699717 0 -0.28661085884774262 0.094338815545201141 0 -0.27447808061657669 0.077651680370908305 0 -0.2561904291871071 0.097300361768699717 0 -0.25622419186420398 0.071140944602872444 0 -0.23808824350239399 0.077441097232647221 0 -0.2561904291871071 0.097300361768699717 0 -0.27447808061657669 0.077651680370908305 0 -0.25622419186420398 0.071140944602872444 0 -0.25622419186420398 0.071140944602872444 0 -0.25991768517992653 0.049305863222038747 0 -0.24139748063478941 0.062976940995822323 0 -0.27372697185359429 0.0626183161432496 0 -0.25622419186420398 0.071140944602872444 0 -0.25991768517992653 0.049305863222038747 0 -0.25991768517992653 0.049305863222038747 0 -0.2514308507817738 0.031339817910523912 0 -0.27353422832994612 0.033659242006370237 0 -0.25991768517992653 0.049305863222038747 0 -0.27353422832994612 0.033659242006370237 0 -0.2898950719365278 0.050344009852638982 0 -0.27372697185359429 0.0626183161432496 0 -0.25991768517992653 0.049305863222038747 0 -0.2898950719365278 0.050344009852638982 0 -0.25991768517992653 0.049305863222038747 0 -0.2898950719365278 0.050344009852638982 0 -0.25080528299249649 -0.001461169191011345 0 -0.26724344056698479 -0.00084071798374889609 0 -0.26445932091645658 0.014231891854857121 0 -0.25080528299249649 -0.001461169191011345 0 -0.26445932091645658 0.014231891854857121 0 -0.2432637047602107 0.013675888509439909 0 -0.2514308507817738 0.031339817910523912 0 -0.27353422832994612 0.033659242006370237 0 -0.26445932091645658 0.014231891854857121 0 -0.2514308507817738 0.031339817910523912 0 -0.26445932091645658 0.014231891854857121 0 -0.2432637047602107 0.013675888509439909 0 -0.27353422832994612 0.033659242006370237 0 -0.26445932091645658 0.014231891854857121 0 -0.28072954888937068 0.020000341118287211 0 -0.26445932091645658 0.014231891854857121 0 -0.28072954888937068 0.020000341118287211 0 -0.27832368885397618 0.0063642707838428769 0 -0.26724344056698479 -0.00084071798374889609 0 -0.26445932091645658 0.014231891854857121 0 -0.27832368885397618 0.0063642707838428769 0 -0.28094722485089763 -0.01276951350527328 0 -0.27832368885397618 0.0063642707838428769 0 -0.29604372759886599 0.010369656744125339 0 -0.28072954888937068 0.020000341118287211 0 -0.27832368885397618 0.0063642707838428769 0 -0.29604372759886599 0.010369656744125339 0 -0.27353422832994612 0.033659242006370237 0 -0.28072954888937068 0.020000341118287211 0 -0.29128677874760889 0.03537664420224048 0 -0.28072954888937068 0.020000341118287211 0 -0.29604372759886599 0.010369656744125339 0 -0.29128677874760889 0.03537664420224048 0 -0.29604372759886599 0.010369656744125339 0 -0.29128677874760889 0.03537664420224048 0 -0.31114023034683091 0.033508826993526267 0 -0.29604372759886599 0.010369656744125339 0 -0.31114023034683091 0.033508826993526267 0 -0.29604372759886599 0.010369656744125339 0 -0.31114023034683091 0.033508826993526267 0 -0.32261607383840002 0.015629560667828689 0 -0.31688985811285197 -0.003828862096149611 0 -0.29604372759886599 0.010369656744125339 0 -0.32261607383840002 0.015629560667828689 0 -0.29080888791622111 0.064835996049510847 0 -0.27372697185359429 0.0626183161432496 0 -0.2898950719365278 0.050344009852638982 0 -0.2898950719365278 0.050344009852638982 0 -0.29789598092636399 0.05062108926509673 0 -0.30135897825031632 0.062833176481056796 0 -0.29080888791622111 0.064835996049510847 0 -0.29789598092636399 0.05062108926509673 0 -0.29080888791622111 0.064835996049510847 0 -0.2898950719365278 0.050344009852638982 0 -0.29789598092636399 0.05062108926509673 0 -0.2898950719365278 0.050344009852638982 0 -0.29128677874760889 0.03537664420224048 0 -0.30593189909811902 0.042762937956894571 0 -0.27353422832994612 0.033659242006370237 0 -0.2898950719365278 0.050344009852638982 0 -0.29128677874760889 0.03537664420224048 0 -0.29128677874760889 0.03537664420224048 0 -0.31114023034683091 0.033508826993526267 0 -0.30593189909811902 0.042762937956894571 0 -0.29128677874760889 0.03537664420224048 0 -0.31114023034683091 0.033508826993526267 0 -0.31114023034683091 0.033508826993526267 0 -0.30593189909811902 0.042762937956894571 0 -0.3174649557664983 0.043203052252828493 0 -0.29789598092636399 0.05062108926509673 0 -0.31987245869312919 0.051382156483239232 0 -0.29789598092636399 0.05062108926509673 0 -0.31175093366558371 0.062264561513365048 0 -0.32304353212762837 0.054877546363192378 0 -0.30593189909811902 0.042762937956894571 0 -0.29789598092636399 0.05062108926509673 0 -0.31987245869312919 0.051382156483239232 0 -0.2898950719365278 0.050344009852638982 0 -0.30593189909811902 0.042762937956894571 0 -0.29789598092636399 0.05062108926509673 0 -0.29789598092636399 0.05062108926509673 0 -0.32304353212762837 0.054877546363192378 0 -0.30135897825031632 0.062833176481056796 0 -0.29789598092636399 0.05062108926509673 0 -0.31175093366558371 0.062264561513365048 0 -0.29789598092636399 0.05062108926509673 0 -0.32304353212762837 0.054877546363192378 0 -0.31987245869312919 0.051382156483239232 0 -0.31175093366558371 0.062264561513365048 0 -0.32304353212762837 0.054877546363192378 0 -0.32291083828810352 0.067137431593264477 0 -0.32304353212762837 0.054877546363192378 0 -0.32291083828810352 0.067137431593264477 0 -0.33405811880393033 0.064865040449579803 0 -0.3174649557664983 0.043203052252828493 0 -0.33031482795368378 0.043864592089823337 0 -0.33352008560847068 0.031403325157871302 0 -0.30593189909811902 0.042762937956894571 0 -0.31987245869312919 0.051382156483239232 0 -0.3174649557664983 0.043203052252828493 0 -0.31114023034683091 0.033508826993526267 0 -0.33352008560847068 0.031403325157871302 0 -0.31114023034683091 0.033508826993526267 0 -0.3174649557664983 0.043203052252828493 0 -0.33352008560847068 0.031403325157871302 0 -0.31114023034683091 0.033508826993526267 0 -0.3174649557664983 0.043203052252828493 0 -0.31987245869312919 0.051382156483239232 0 -0.3174649557664983 0.043203052252828493 0 -0.33031482795368378 0.043864592089823337 0 -0.33031482795368378 0.043864592089823337 0 -0.33352008560847068 0.031403325157871302 0 -0.34984984544973041 0.052420303113841521 0 -0.32304353212762837 0.054877546363192378 0 -0.34820601831213061 0.05870274283245995 0 -0.33405811880393033 0.064865040449579803 0 -0.32304353212762837 0.054877546363192378 0 -0.34820601831213061 0.05870274283245995 0 -0.31987245869312919 0.051382156483239232 0 -0.34984984544973041 0.052420303113841521 0 -0.31987245869312919 0.051382156483239232 0 -0.33031482795368378 0.043864592089823337 0 -0.34984984544973041 0.052420303113841521 0 -0.32304353212762837 0.054877546363192378 0 -0.34820601831213061 0.05870274283245995 0 -0.34984984544973041 0.052420303113841521 0 -0.32304353212762837 0.054877546363192378 0 -0.31987245869312919 0.051382156483239232 0 -0.34984984544973041 0.052420303113841521 0 -0.31688985811285197 -0.003828862096149611 0 -0.32261607383840002 0.015629560667828689 0 -0.3389224051624164 0.0030747653955432021 0 -0.31114023034683091 0.033508826993526267 0 -0.33352008560847068 0.031403325157871302 0 -0.32261607383840002 0.015629560667828689 0 -0.33352008560847068 0.031403325157871302 0 -0.32261607383840002 0.015629560667828689 0 -0.34360902405394123 0.018647911152554559 0 -0.32261607383840002 0.015629560667828689 0 -0.34360902405394123 0.018647911152554559 0 -0.3389224051624164 0.0030747653955432021 0 -0.34360902405394123 0.018647911152554559 0 -0.3389224051624164 0.0030747653955432021 0 -0.36095495221198082 0.009978392887236235 0 -0.34077566798623649 -0.004008103421380433 0 -0.3389224051624164 0.0030747653955432021 0 -0.36095495221198082 0.009978392887236235 0 -0.36373484644771098 -0.00064591033814894068 0 -0.34077566798623649 -0.004008103421380433 0 -0.36095495221198082 0.009978392887236235 0 -0.3389224051624164 0.0030747653955432021 0 -0.36095495221198082 0.009978392887236235 0 -0.33352008560847068 0.031403325157871302 0 -0.35589994087011068 0.02929782332221675 0 -0.35589994087011068 0.02929782332221675 0 -0.36095495221198082 0.009978392887236235 0 -0.34360902405394123 0.018647911152554559 0 -0.35589994087011068 0.02929782332221675 0 -0.36095495221198082 0.009978392887236235 0 -0.33352008560847068 0.031403325157871302 0 -0.34360902405394123 0.018647911152554559 0 -0.35589994087011068 0.02929782332221675 0 -0.388763961769585 0.018692003822310399 0 -0.37083186985997763 0.027893024071709051 0 -0.36095495221198082 0.009978392887236235 0 -0.35589994087011068 0.02929782332221675 0 -0.37083186985997763 0.027893024071709051 0 -0.36095495221198082 0.009978392887236235 0 -0.35589994087011068 0.02929782332221675 0 -0.37083186985997763 0.027893024071709051 0 -0.388763961769585 0.018692003822310399 0 -0.36095495221198082 0.009978392887236235 0 -0.36373484644771098 -0.00064591033814894068 0 -0.36095495221198082 0.009978392887236235 0 -0.36373484644771098 -0.00064591033814894068 0 -0.37600041990474492 0.0078262854884788742 0 -0.36095495221198082 0.009978392887236235 0 -0.34820601831213061 0.05870274283245995 0 -0.34984984544973041 0.052420303113841521 0 -0.36623367028137582 0.061443303131482649 0 -0.34820601831213061 0.05870274283245995 0 -0.36623367028137582 0.061443303131482649 0 -0.34820601831213061 0.05870274283245995 0 -0.34984984544973041 0.052420303113841521 0 -0.35589994087011068 0.02929782332221675 0 -0.34984984544973041 0.052420303113841521 0 -0.3618667057087091 0.04321180930809293 0 -0.33352008560847068 0.031403325157871302 0 -0.35589994087011068 0.02929782332221675 0 -0.34984984544973041 0.052420303113841521 0 -0.35589994087011068 0.02929782332221675 0 -0.34984984544973041 0.052420303113841521 0 -0.35589994087011068 0.02929782332221675 0 -0.37083186985997763 0.027893024071709051 0 -0.3618667057087091 0.04321180930809293 0 -0.37083186985997763 0.027893024071709051 0 -0.3618667057087091 0.04321180930809293 0 -0.37322659657493412 0.041105448591380621 0 -0.3618667057087091 0.04321180930809293 0 -0.37322659657493412 0.041105448591380621 0 -0.37321774217440368 0.0532295565503016 0 -0.34984984544973041 0.052420303113841521 0 -0.36623367028137582 0.061443303131482649 0 -0.37321774217440368 0.0532295565503016 0 -0.34984984544973041 0.052420303113841521 0 -0.3618667057087091 0.04321180930809293 0 -0.37321774217440368 0.0532295565503016 0 -0.38426132225062121 0.06418386343050507 0 -0.36623367028137582 0.061443303131482649 0 -0.37321774217440368 0.0532295565503016 0 -0.34984984544973041 0.052420303113841521 0 -0.37321774217440368 0.0532295565503016 0 -0.36623367028137582 0.061443303131482649 0 -0.3740924733881304 0.070074034467767721 0 -0.35772575207130303 0.070457165918920373 0 -0.3740924733881304 0.070074034467767721 0 -0.35772575207130303 0.070457165918920373 0 -0.37087112025194829 0.082266300008257312 0 -0.38426132225062121 0.06418386343050507 0 -0.36623367028137582 0.061443303131482649 0 -0.3740924733881304 0.070074034467767721 0 -0.34820601831213061 0.05870274283245995 0 -0.36623367028137582 0.061443303131482649 0 -0.35772575207130303 0.070457165918920373 0 -0.35772575207130303 0.070457165918920373 0 -0.34412952826020538 0.074282424192356228 0 -0.3548289452390172 0.082729707991802875 0 -0.34820601831213061 0.05870274283245995 0 -0.35772575207130303 0.070457165918920373 0 -0.34412952826020538 0.074282424192356228 0 -0.34820601831213061 0.05870274283245995 0 -0.34412952826020538 0.074282424192356228 0 -0.3548289452390172 0.082729707991802875 0 -0.36136528740334639 0.096780544287227238 0 -0.34005303820828292 0.089862105552253227 0 -0.34412952826020538 0.074282424192356228 0 -0.3548289452390172 0.082729707991802875 0 -0.34005303820828292 0.089862105552253227 0 -0.3548289452390172 0.082729707991802875 0 -0.37087112025194829 0.082266300008257312 0 -0.36136528740334639 0.096780544287227238 0 -0.35772575207130303 0.070457165918920373 0 -0.3548289452390172 0.082729707991802875 0 -0.37087112025194829 0.082266300008257312 0 -0.38628343025521422 0.097594453867902595 0 -0.37087112025194829 0.082266300008257312 0 -0.36136528740334639 0.096780544287227238 0 -0.38628343025521422 0.097594453867902595 0 -0.36136528740334639 0.096780544287227238 0 -0.36466733534410412 0.12012446695210791 0 -0.38628343025521422 0.097594453867902595 0 -0.36136528740334639 0.096780544287227238 0 -0.33914133287603099 0.12565604170016259 0 -0.36466733534410412 0.12012446695210791 0 -0.34826494608517272 0.1092744345211029 0 -0.36136528740334639 0.096780544287227238 0 -0.33644714455147862 0.095966634706551868 0 -0.34005303820828292 0.089862105552253227 0 -0.36136528740334639 0.096780544287227238 0 -0.33644714455147862 0.095966634706551868 0 -0.36136528740334639 0.096780544287227238 0 -0.34826494608517272 0.1092744345211029 0 -0.33644714455147862 0.095966634706551868 0 -0.36136528740334639 0.096780544287227238 0 -0.36466733534410412 0.12012446695210791 0 -0.34826494608517272 0.1092744345211029 0 -0.34826494608517272 0.1092744345211029 0 -0.33644714455147862 0.095966634706551868 0 -0.33525588490348412 0.10911976172577401 0 -0.33525588490348412 0.10911976172577401 0 -0.32284262133770081 0.1143035070858858 0 -0.32651866312306838 0.10363565716102199 0 -0.33644714455147862 0.095966634706551868 0 -0.33525588490348412 0.10911976172577401 0 -0.32651866312306838 0.10363565716102199 0 -0.33914133287603099 0.12565604170016259 0 -0.34826494608517272 0.1092744345211029 0 -0.33525588490348412 0.10911976172577401 0 -0.33914133287603099 0.12565604170016259 0 -0.33525588490348412 0.10911976172577401 0 -0.32284262133770081 0.1143035070858858 0 -0.31742256803507268 0.13720785059140519 0 -0.30505676335876991 0.1175002608098905 0 -0.32284262133770081 0.1143035070858858 0 -0.31152900169961062 0.095152725125876497 0 -0.30505676335876991 0.1175002608098905 0 -0.32284262133770081 0.1143035070858858 0 -0.31152900169961062 0.095152725125876497 0 -0.32284262133770081 0.1143035070858858 0 -0.32651866312306838 0.10363565716102199 0 -0.31152900169961062 0.095152725125876497 0 -0.33644714455147862 0.095966634706551868 0 -0.31152900169961062 0.095152725125876497 0 -0.33644714455147862 0.095966634706551868 0 -0.32651866312306838 0.10363565716102199 0 -0.31152900169961062 0.095152725125876497 0 -0.32476875462079358 0.079557745269726532 0 -0.31563483571933121 0.07512205883592607 0 -0.31152900169961062 0.095152725125876497 0 -0.32476875462079358 0.079557745269726532 0 -0.32999528348829632 0.088038325038612475 0 -0.31152900169961062 0.095152725125876497 0 -0.33644714455147862 0.095966634706551868 0 -0.32999528348829632 0.088038325038612475 0 -0.31175093366558371 0.062264561513365048 0 -0.31563483571933121 0.07512205883592607 0 -0.32291083828810352 0.067137431593264477 0 -0.32476875462079358 0.079557745269726532 0 -0.31563483571933121 0.07512205883592607 0 -0.32291083828810352 0.067137431593264477 0 -0.32476875462079358 0.079557745269726532 0 -0.32291083828810352 0.067137431593264477 0 -0.33248044192740772 0.073292214648437604 0 -0.32476875462079358 0.079557745269726532 0 -0.33248044192740772 0.073292214648437604 0 -0.33492814083328543 0.080895668310844021 0 -0.32291083828810352 0.067137431593264477 0 -0.33248044192740772 0.073292214648437604 0 -0.33405811880393033 0.064865040449579803 0 -0.34820601831213061 0.05870274283245995 0 -0.34412952826020538 0.074282424192356228 0 -0.33405811880393033 0.064865040449579803 0 -0.34412952826020538 0.074282424192356228 0 -0.33248044192740772 0.073292214648437604 0 -0.33492814083328543 0.080895668310844021 0 -0.34412952826020538 0.074282424192356228 0 -0.33248044192740772 0.073292214648437604 0 -0.33405811880393033 0.064865040449579803 0 -0.34412952826020538 0.074282424192356228 0 -0.34005303820828292 0.089862105552253227 0 -0.33492814083328543 0.080895668310844021 0 -0.34412952826020538 0.074282424192356228 0 -0.34005303820828292 0.089862105552253227 0 -0.34005303820828292 0.089862105552253227 0 -0.32999528348829632 0.088038325038612475 0 -0.33492814083328543 0.080895668310844021 0 -0.33644714455147862 0.095966634706551868 0 -0.34005303820828292 0.089862105552253227 0 -0.32999528348829632 0.088038325038612475 0 -0.32476875462079358 0.079557745269726532 0 -0.32999528348829632 0.088038325038612475 0 -0.33492814083328543 0.080895668310844021 0 -0.40059210066135942 0.47861187748698258 0 -0.40369667178166768 0.5 0 -0.37620787980309761 0.5 0 -0.40059210066135942 0.47861187748698258 0 -0.37620787980309761 0.5 0 -0.37838733059780499 0.47089647310786659 0 -0.37838733059780499 0.47089647310786659 0 -0.39408073640414099 0.45574207902324487 0 -0.36730380585777139 0.44730229719289588 0 -0.39408073640414099 0.45574207902324487 0 -0.38678339568476883 0.43586044725082213 0 -0.36730380585777139 0.44730229719289588 0 -0.39408073640414099 0.45574207902324487 0 -0.36730380585777139 0.44730229719289588 0 -0.39408073640414099 0.45574207902324487 0 -0.40675183167516232 0.43895685801158651 0 -0.38678339568476883 0.43586044725082213 0 -0.40059210066135942 0.47861187748698258 0 -0.39408073640414099 0.45574207902324487 0 -0.42085766695051069 0.46418186085359392 0 -0.40059210066135942 0.47861187748698258 0 -0.37838733059780499 0.47089647310786659 0 -0.39408073640414099 0.45574207902324487 0 -0.39408073640414099 0.45574207902324487 0 -0.42085766695051069 0.46418186085359392 0 -0.42085766695051069 0.46418186085359392 0 -0.40675183167516232 0.43895685801158651 0 -0.42580297252172911 0.43753824447335349 0 -0.39408073640414099 0.45574207902324487 0 -0.42085766695051069 0.46418186085359392 0 -0.40675183167516232 0.43895685801158651 0 -0.42580297252172911 0.43753824447335349 0 -0.43734779961059972 0.45205926066396662 0 -0.43626202375548251 0.4363496853435529 0 -0.42085766695051069 0.46418186085359392 0 -0.42580297252172911 0.43753824447335349 0 -0.43734779961059972 0.45205926066396662 0 -0.42085766695051069 0.46418186085359392 0 -0.44763459749688028 0.47262164268394291 0 -0.42085766695051069 0.46418186085359392 0 -0.43734779961059972 0.45205926066396662 0 -0.44763459749688028 0.47262164268394291 0 -0.42085766695051069 0.46418186085359392 0 -0.42484069866279123 0.4841638249813297 0 -0.44763459749688028 0.47262164268394291 0 -0.40059210066135942 0.47861187748698258 0 -0.42085766695051069 0.46418186085359392 0 -0.42484069866279123 0.4841638249813297 0 -0.40059210066135942 0.47861187748698258 0 -0.40369667178166768 0.5 0 -0.42484069866279123 0.4841638249813297 0 -0.40369667178166768 0.5 0 -0.42484069866279123 0.4841638249813297 0 -0.43118546376023781 0.5 0 -0.42484069866279123 0.4841638249813297 0 -0.43118546376023781 0.5 0 -0.44507769132609137 0.48956756886345909 0 -0.43118546376023781 0.5 0 -0.44507769132609137 0.48956756886345909 0 -0.45867425573880799 0.5 0 -0.42484069866279123 0.4841638249813297 0 -0.44507769132609137 0.48956756886345909 0 -0.44763459749688028 0.47262164268394291 0 -0.47441152804324799 0.48106142451429779 0 -0.46176368927388289 0.46067835441727317 0 -0.44763459749688028 0.47262164268394291 0 -0.47441152804324799 0.48106142451429779 0 -0.46176368927388289 0.46067835441727317 0 -0.44763459749688028 0.47262164268394291 0 -0.47441152804324799 0.48106142451429779 0 -0.44507769132609137 0.48956756886345909 0 -0.44763459749688028 0.47262164268394291 0 -0.47441152804324799 0.48106142451429779 0 -0.44507769132609137 0.48956756886345909 0 -0.45867425573880799 0.5 0 -0.47441152804324799 0.48106142451429779 0 -0.45867425573880799 0.5 0 -0.47441152804324799 0.48106142451429779 0 -0.48616304771737823 0.49999999999999839 0 -0.47441152804324799 0.48106142451429779 0 -0.48616304771737823 0.49999999999999839 0 -0.47441152804324799 0.48106142451429779 0 -0.50000000000000622 0.48912661780868749 0 -0.5 0.46174832628781959 0 -0.47441152804324799 0.48106142451429779 0 -0.50000000000000622 0.48912661780868749 0 -0.47441152804324799 0.48106142451429779 0 -0.50000000000000622 0.48912661780868749 0 -0.48616304771737823 0.49999999999999839 0 -0.50000000000000622 0.48912661780868749 0 -0.5 0.5 0 -0.48616304771737823 0.49999999999999839 0 -0.48055842316006298 0.45509191619051742 0 -0.47590089885450548 0.43717627580100737 0 -0.5 0.43437003476695191 0 -0.5 0.46174832628781959 0 -0.48055842316006298 0.45509191619051742 0 -0.5 0.43437003476695191 0 -0.47441152804324799 0.48106142451429779 0 -0.5 0.46174832628781959 0 -0.48055842316006298 0.45509191619051742 0 -0.48055842316006298 0.45509191619051742 0 -0.46498678918587688 0.4484586187046109 0 -0.46176368927388289 0.46067835441727317 0 -0.47441152804324799 0.48106142451429779 0 -0.48055842316006298 0.45509191619051742 0 -0.46176368927388289 0.46067835441727317 0 -0.48055842316006298 0.45509191619051742 0 -0.46498678918587688 0.4484586187046109 0 -0.47590089885450548 0.43717627580100737 0 -0.45180179770901102 0.43998251683506268 0 -0.47590089885450548 0.43717627580100737 0 -0.46498678918587688 0.4484586187046109 0 -0.45180179770901102 0.43998251683506268 0 -0.47590089885450548 0.43717627580100737 0 -0.46498678918587688 0.4484586187046109 0 -0.4547892364879022 0.44943842935043798 0 -0.46176368927388289 0.46067835441727317 0 -0.46498678918587688 0.4484586187046109 0 -0.4547892364879022 0.44943842935043798 0 -0.45180179770901102 0.43998251683506268 0 -0.4547892364879022 0.44943842935043798 0 -0.45180179770901102 0.43998251683506268 0 -0.4547892364879022 0.44943842935043798 0 -0.46176368927388289 0.46067835441727317 0 -0.4547892364879022 0.44943842935043798 0 -0.46176368927388289 0.46067835441727317 0 -0.44902754198349137 0.45389745998528602 0 -0.44763459749688028 0.47262164268394291 0 -0.46176368927388289 0.46067835441727317 0 -0.44902754198349137 0.45389745998528602 0 -0.43734779961059972 0.45205926066396662 0 -0.44763459749688028 0.47262164268394291 0 -0.44902754198349137 0.45389745998528602 0 -0.43734779961059972 0.45205926066396662 0 -0.44424497826522841 0.446150940442815 0 -0.43626202375548251 0.4363496853435529 0 -0.4547892364879022 0.44943842935043798 0 -0.44911585050452052 0.44029528432024678 0 -0.45180179770901102 0.43998251683506268 0 -0.4547892364879022 0.44943842935043798 0 -0.44911585050452052 0.44029528432024678 0 -0.44911585050452052 0.44029528432024678 0 -0.45180179770901102 0.43998251683506268 0 -0.4547892364879022 0.44943842935043798 0 -0.44902754198349137 0.45389745998528602 0 -0.44911585050452052 0.44029528432024678 0 -0.44902754198349137 0.45389745998528602 0 -0.44911585050452052 0.44029528432024678 0 -0.44424497826522841 0.446150940442815 0 -0.43734779961059972 0.45205926066396662 0 -0.44902754198349137 0.45389745998528602 0 -0.44424497826522841 0.446150940442815 0 -0.44911585050452052 0.44029528432024678 0 -0.44424497826522841 0.446150940442815 0 -0.43626202375548251 0.4363496853435529 0 -0.45180179770901102 0.43998251683506268 0 -0.44350880132326548 0.41494474287354149 0 -0.46271664341028101 0.42250244734599868 0 -0.44911585050452052 0.44029528432024678 0 -0.45180179770901102 0.43998251683506268 0 -0.44350880132326548 0.41494474287354149 0 -0.44911585050452052 0.44029528432024678 0 -0.43648615662318391 0.4199414562566785 0 -0.43626202375548251 0.4363496853435529 0 -0.44911585050452052 0.44029528432024678 0 -0.44350880132326548 0.41494474287354149 0 -0.43648615662318391 0.4199414562566785 0 -0.44911585050452052 0.44029528432024678 0 -0.43648615662318391 0.4199414562566785 0 -0.45180179770901102 0.43998251683506268 0 -0.44350880132326548 0.41494474287354149 0 -0.46271664341028101 0.42250244734599868 0 -0.47445764364039789 0.40667239698316271 0 -0.45489335250244539 0.39738163447189562 0 -0.44350880132326548 0.41494474287354149 0 -0.46271664341028101 0.42250244734599868 0 -0.45489335250244539 0.39738163447189562 0 -0.45180179770901102 0.43998251683506268 0 -0.46271664341028101 0.42250244734599868 0 -0.47590089885450548 0.43717627580100737 0 -0.46271664341028101 0.42250244734599868 0 -0.47590089885450548 0.43717627580100737 0 -0.48610252160667178 0.4199037417456154 0 -0.46271664341028101 0.42250244734599868 0 -0.47445764364039789 0.40667239698316271 0 -0.48610252160667178 0.4199037417456154 0 -0.47445764364039789 0.40667239698316271 0 -0.48610252160667178 0.4199037417456154 0 -0.5 0.40455765863946203 0 -0.48610252160667178 0.4199037417456154 0 -0.5 0.43437003476695191 0 -0.5 0.40455765863946203 0 -0.47590089885450548 0.43717627580100737 0 -0.5 0.43437003476695191 0 -0.47590089885450548 0.43717627580100737 0 -0.48610252160667178 0.4199037417456154 0 -0.5 0.43437003476695191 0 -0.5 0.40455765863946203 0 -0.47814093137070962 0.38752827971014941 0 -0.5 0.37474528251197198 0 -0.47445764364039789 0.40667239698316271 0 -0.47814093137070962 0.38752827971014941 0 -0.45489335250244539 0.39738163447189562 0 -0.47445764364039789 0.40667239698316271 0 -0.5 0.40455765863946203 0 -0.47814093137070962 0.38752827971014941 0 -0.47814093137070962 0.38752827971014941 0 -0.47209811493985421 0.36821819869505229 0 -0.5 0.37474528251197198 0 -0.47814093137070962 0.38752827971014941 0 -0.46097952127509167 0.37861786806774772 0 -0.47209811493985421 0.36821819869505229 0 -0.47814093137070962 0.38752827971014941 0 -0.46097952127509167 0.37861786806774772 0 -0.45489335250244539 0.39738163447189562 0 -0.46097952127509167 0.37861786806774772 0 -0.45489335250244539 0.39738163447189562 0 -0.44571703740566582 0.37580073083122328 0 -0.44350880132326548 0.41494474287354149 0 -0.43521580493751982 0.38990696891202042 0 -0.44350880132326548 0.41494474287354149 0 -0.45489335250244539 0.39738163447189562 0 -0.43521580493751982 0.38990696891202042 0 -0.45489335250244539 0.39738163447189562 0 -0.44571703740566582 0.37580073083122328 0 -0.43521580493751982 0.38990696891202042 0 -0.43521580493751982 0.38990696891202042 0 -0.42692280855177411 0.36486919495049908 0 -0.43521580493751982 0.38990696891202042 0 -0.41122676886050852 0.37923380012954361 0 -0.42385646274184618 0.399587628193111 0 -0.43521580493751982 0.38990696891202042 0 -0.41122676886050852 0.37923380012954361 0 -0.42692280855177411 0.36486919495049908 0 -0.44571703740566582 0.37580073083122328 0 -0.43521580493751982 0.38990696891202042 0 -0.43056881235120198 0.3700798028553326 0 -0.41122676886050852 0.37923380012954361 0 -0.42385646274184618 0.399587628193111 0 -0.41122676886050852 0.37923380012954361 0 -0.42385646274184618 0.399587628193111 0 -0.40322766422218181 0.40076342572519291 0 -0.42385646274184618 0.399587628193111 0 -0.41994099544582247 0.41611252436937352 0 -0.40322766422218181 0.40076342572519291 0 -0.44350880132326548 0.41494474287354149 0 -0.43521580493751982 0.38990696891202042 0 -0.42385646274184618 0.399587628193111 0 -0.44350880132326548 0.41494474287354149 0 -0.42385646274184618 0.399587628193111 0 -0.43648615662318391 0.4199414562566785 0 -0.42385646274184618 0.399587628193111 0 -0.43648615662318391 0.4199414562566785 0 -0.42385646274184618 0.399587628193111 0 -0.43648615662318391 0.4199414562566785 0 -0.41994099544582247 0.41611252436937352 0 -0.42580297252172911 0.43753824447335349 0 -0.43648615662318391 0.4199414562566785 0 -0.43626202375548251 0.4363496853435529 0 -0.42580297252172911 0.43753824447335349 0 -0.43648615662318391 0.4199414562566785 0 -0.41994099544582247 0.41611252436937352 0 -0.40675183167516232 0.43895685801158651 0 -0.41994099544582247 0.41611252436937352 0 -0.40348211507145981 0.42029682055928319 0 -0.40675183167516232 0.43895685801158651 0 -0.42580297252172911 0.43753824447335349 0 -0.41994099544582247 0.41611252436937352 0 -0.41994099544582247 0.41611252436937352 0 -0.40348211507145981 0.42029682055928319 0 -0.40322766422218181 0.40076342572519291 0 -0.40348211507145981 0.42029682055928319 0 -0.38918160712203859 0.41411432709478829 0 -0.40322766422218181 0.40076342572519291 0 -0.40348211507145981 0.42029682055928319 0 -0.38678339568476883 0.43586044725082213 0 -0.38918160712203859 0.41411432709478829 0 -0.40675183167516232 0.43895685801158651 0 -0.40348211507145981 0.42029682055928319 0 -0.38678339568476883 0.43586044725082213 0 -0.38678339568476883 0.43586044725082213 0 -0.37450339908755731 0.42235077074787691 0 -0.36730380585777139 0.44730229719289588 0 -0.38678339568476883 0.43586044725082213 0 -0.38918160712203859 0.41411432709478829 0 -0.37450339908755731 0.42235077074787691 0 -0.38170299231734423 0.39739924430285811 0 -0.37450339908755731 0.42235077074787691 0 -0.38918160712203859 0.41411432709478829 0 -0.38170299231734423 0.39739924430285811 0 -0.37450339908755731 0.42235077074787691 0 -0.38170299231734423 0.39739924430285811 0 -0.39468013889139569 0.38349231248636578 0 -0.37478873927532252 0.38168920586728883 0 -0.39468013889139569 0.38349231248636578 0 -0.38714191213991078 0.36977235548835979 0 -0.37478873927532252 0.38168920586728883 0 -0.41122676886050852 0.37923380012954361 0 -0.39468013889139569 0.38349231248636578 0 -0.40322766422218181 0.40076342572519291 0 -0.38170299231734423 0.39739924430285811 0 -0.39468013889139569 0.38349231248636578 0 -0.40322766422218181 0.40076342572519291 0 -0.38918160712203859 0.41411432709478829 0 -0.38170299231734423 0.39739924430285811 0 -0.40322766422218181 0.40076342572519291 0 -0.3985970749791713 0.35887997206597572 0 -0.38516793102062069 0.33723776206933348 0 -0.3985970749791713 0.35887997206597572 0 -0.38516793102062069 0.33723776206933348 0 -0.40356983124600321 0.33651413058534863 0 -0.41122676886050852 0.37923380012954361 0 -0.3985970749791713 0.35887997206597572 0 -0.41122676886050852 0.37923380012954361 0 -0.39468013889139569 0.38349231248636578 0 -0.3985970749791713 0.35887997206597572 0 -0.39468013889139569 0.38349231248636578 0 -0.3985970749791713 0.35887997206597572 0 -0.38714191213991078 0.36977235548835979 0 -0.3985970749791713 0.35887997206597572 0 -0.38714191213991078 0.36977235548835979 0 -0.38714191213991078 0.36977235548835979 0 -0.36751896561308139 0.35463576371022038 0 -0.37478873927532252 0.38168920586728883 0 -0.38714191213991078 0.36977235548835979 0 -0.38338642517398308 0.35435313139665309 0 -0.36751896561308139 0.35463576371022038 0 -0.3985970749791713 0.35887997206597572 0 -0.38714191213991078 0.36977235548835979 0 -0.38338642517398308 0.35435313139665309 0 -0.3985970749791713 0.35887997206597572 0 -0.38338642517398308 0.35435313139665309 0 -0.38516793102062069 0.33723776206933348 0 -0.38338642517398308 0.35435313139665309 0 -0.38516793102062069 0.33723776206933348 0 -0.36751896561308139 0.35463576371022038 0 -0.39161447677982608 0.31972739957169632 0 -0.39333452525534951 0.30820328092677618 0 -0.37173878706207081 0.31559555207269091 0 -0.38516793102062069 0.33723776206933348 0 -0.39161447677982608 0.31972739957169632 0 -0.37173878706207081 0.31559555207269091 0 -0.38516793102062069 0.33723776206933348 0 -0.37173878706207081 0.31559555207269091 0 -0.38516793102062069 0.33723776206933348 0 -0.39161447677982608 0.31972739957169632 0 -0.40141304517947352 0.32535046790887101 0 -0.39161447677982608 0.31972739957169632 0 -0.40141304517947352 0.32535046790887101 0 -0.40170313858752832 0.31522420451553251 0 -0.39161447677982608 0.31972739957169632 0 -0.40170313858752832 0.31522420451553251 0 -0.39333452525534951 0.30820328092677618 0 -0.40141304517947352 0.32535046790887101 0 -0.40356983124600321 0.33651413058534863 0 -0.41262049555587799 0.32168841164114148 0 -0.40141304517947352 0.32535046790887101 0 -0.40170313858752832 0.31522420451553251 0 -0.41262049555587799 0.32168841164114148 0 -0.38516793102062069 0.33723776206933348 0 -0.40141304517947352 0.32535046790887101 0 -0.40356983124600321 0.33651413058534863 0 -0.41862981216602912 0.33983142098897762 0 -0.41262049555587799 0.32168841164114148 0 -0.42397936921043022 0.33474468173567079 0 -0.41862981216602912 0.33983142098897762 0 -0.41262049555587799 0.32168841164114148 0 -0.40356983124600321 0.33651413058534863 0 -0.41862981216602912 0.33983142098897762 0 -0.41262049555587799 0.32168841164114148 0 -0.41862981216602912 0.33983142098897762 0 -0.42397936921043022 0.33474468173567079 0 -0.40170313858752832 0.31522420451553251 0 -0.41262049555587799 0.32168841164114148 0 -0.40661117894572768 0.30354540229330518 0 -0.41262049555587799 0.32168841164114148 0 -0.40661117894572768 0.30354540229330518 0 -0.42063427327084241 0.31680699449000588 0 -0.41262049555587799 0.32168841164114148 0 -0.40661117894572768 0.30354540229330518 0 -0.42063427327084241 0.31680699449000588 0 -0.41262049555587799 0.32168841164114148 0 -0.42397936921043022 0.33474468173567079 0 -0.42063427327084241 0.31680699449000588 0 -0.43702840182094399 0.3223367335921723 0 -0.42397936921043022 0.33474468173567079 0 -0.42063427327084241 0.31680699449000588 0 -0.42397936921043022 0.33474468173567079 0 -0.42063427327084241 0.31680699449000588 0 -0.43702840182094399 0.3223367335921723 0 -0.43020259817132911 0.31044363795200908 0 -0.43702840182094399 0.3223367335921723 0 -0.44113312081994971 0.30780665837841731 0 -0.43020259817132911 0.31044363795200908 0 -0.41862981216602912 0.33983142098897762 0 -0.42397936921043022 0.33474468173567079 0 -0.42727409078081641 0.35241224229550172 0 -0.42397936921043022 0.33474468173567079 0 -0.43312119793181381 0.34267593062133211 0 -0.42727409078081641 0.35241224229550172 0 -0.42397936921043022 0.33474468173567079 0 -0.42727409078081641 0.35241224229550172 0 -0.43702840182094399 0.3223367335921723 0 -0.42397936921043022 0.33474468173567079 0 -0.43702840182094399 0.3223367335921723 0 -0.42397936921043022 0.33474468173567079 0 -0.43594161031020778 0.33427958947234498 0 -0.42397936921043022 0.33474468173567079 0 -0.43594161031020778 0.33427958947234498 0 -0.43312119793181381 0.34267593062133211 0 -0.43594161031020778 0.33427958947234498 0 -0.43312119793181381 0.34267593062133211 0 -0.44206911936803078 0.34216716589663299 0 -0.41862981216602912 0.33983142098897762 0 -0.42692280855177411 0.36486919495049908 0 -0.41862981216602912 0.33983142098897762 0 -0.42727409078081641 0.35241224229550172 0 -0.42692280855177411 0.36486919495049908 0 -0.43312119793181381 0.34267593062133211 0 -0.42727409078081641 0.35241224229550172 0 -0.43807146048692769 0.35126216057383058 0 -0.42727409078081641 0.35241224229550172 0 -0.43610505075956552 0.3602535630291393 0 -0.43807146048692769 0.35126216057383058 0 -0.3985970749791713 0.35887997206597572 0 -0.41862981216602912 0.33983142098897762 0 -0.3985970749791713 0.35887997206597572 0 -0.41862981216602912 0.33983142098897762 0 -0.42692280855177411 0.36486919495049908 0 -0.3985970749791713 0.35887997206597572 0 -0.40356983124600321 0.33651413058534863 0 -0.41862981216602912 0.33983142098897762 0 -0.41122676886050852 0.37923380012954361 0 -0.3985970749791713 0.35887997206597572 0 -0.42692280855177411 0.36486919495049908 0 -0.42727409078081641 0.35241224229550172 0 -0.43056881235120198 0.3700798028553326 0 -0.42727409078081641 0.35241224229550172 0 -0.43610505075956552 0.3602535630291393 0 -0.43056881235120198 0.3700798028553326 0 -0.43521580493751982 0.38990696891202042 0 -0.42692280855177411 0.36486919495049908 0 -0.43056881235120198 0.3700798028553326 0 -0.42727409078081641 0.35241224229550172 0 -0.42692280855177411 0.36486919495049908 0 -0.43056881235120198 0.3700798028553326 0 -0.43610505075956552 0.3602535630291393 0 -0.43056881235120198 0.3700798028553326 0 -0.43926126653380088 0.36695497369141139 0 -0.44571703740566582 0.37580073083122328 0 -0.4451597946567783 0.36034170056478998 0 -0.43926126653380088 0.36695497369141139 0 -0.44571703740566582 0.37580073083122328 0 -0.43056881235120198 0.3700798028553326 0 -0.43926126653380088 0.36695497369141139 0 -0.43610505075956552 0.3602535630291393 0 -0.4451597946567783 0.36034170056478998 0 -0.43926126653380088 0.36695497369141139 0 -0.44571703740566582 0.37580073083122328 0 -0.4451597946567783 0.36034170056478998 0 -0.45690015831196318 0.3653118659471537 0 -0.4451597946567783 0.36034170056478998 0 -0.45323704062492998 0.3549276388847864 0 -0.45690015831196318 0.3653118659471537 0 -0.43807146048692769 0.35126216057383058 0 -0.44669122388910598 0.35047550289927543 0 -0.44206911936803078 0.34216716589663299 0 -0.43312119793181381 0.34267593062133211 0 -0.43807146048692769 0.35126216057383058 0 -0.44206911936803078 0.34216716589663299 0 -0.4451597946567783 0.36034170056478998 0 -0.43807146048692769 0.35126216057383058 0 -0.44669122388910598 0.35047550289927543 0 -0.43610505075956552 0.3602535630291393 0 -0.4451597946567783 0.36034170056478998 0 -0.43807146048692769 0.35126216057383058 0 -0.4451597946567783 0.36034170056478998 0 -0.44669122388910598 0.35047550289927543 0 -0.45323704062492998 0.3549276388847864 0 -0.44669122388910598 0.35047550289927543 0 -0.45417749124377871 0.34507606606853358 0 -0.45323704062492998 0.3549276388847864 0 -0.44669122388910598 0.35047550289927543 0 -0.45417749124377871 0.34507606606853358 0 -0.44206911936803078 0.34216716589663299 0 -0.45417749124377871 0.34507606606853358 0 -0.45323704062492998 0.3549276388847864 0 -0.46288592849048149 0.35413166769027771 0 -0.45323704062492998 0.3549276388847864 0 -0.46288592849048149 0.35413166769027771 0 -0.45690015831196318 0.3653118659471537 0 -0.45417749124377871 0.34507606606853358 0 -0.46288592849048149 0.35413166769027771 0 -0.46650548091883082 0.34128582657487871 0 -0.46288592849048149 0.35413166769027771 0 -0.47462896999281923 0.35132800861196589 0 -0.46650548091883082 0.34128582657487871 0 -0.46097952127509167 0.37861786806774772 0 -0.44571703740566582 0.37580073083122328 0 -0.45690015831196318 0.3653118659471537 0 -0.46288592849048149 0.35413166769027771 0 -0.45690015831196318 0.3653118659471537 0 -0.47209811493985421 0.36821819869505229 0 -0.46097952127509167 0.37861786806774772 0 -0.45690015831196318 0.3653118659471537 0 -0.47209811493985421 0.36821819869505229 0 -0.46288592849048149 0.35413166769027771 0 -0.47209811493985421 0.36821819869505229 0 -0.47462896999281923 0.35132800861196589 0 -0.47209811493985421 0.36821819869505229 0 -0.47462896999281923 0.35132800861196589 0 -0.48489371608664772 0.35823412977265179 0 -0.47462896999281923 0.35132800861196589 0 -0.47805484908228912 0.33893517041070859 0 -0.46650548091883082 0.34128582657487871 0 -0.47462896999281923 0.35132800861196589 0 -0.4852339154482101 0.34627672031809259 0 -0.47805484908228912 0.33893517041070859 0 -0.47462896999281923 0.35132800861196589 0 -0.48489371608664772 0.35823412977265179 0 -0.4852339154482101 0.34627672031809259 0 -0.48489371608664772 0.35823412977265179 0 -0.5 0.34493290638448199 0 -0.5 0.37474528251197198 0 -0.48489371608664772 0.35823412977265179 0 -0.4852339154482101 0.34627672031809259 0 -0.5 0.34493290638448199 0 -0.47209811493985421 0.36821819869505229 0 -0.48489371608664772 0.35823412977265179 0 -0.5 0.37474528251197198 0 -0.49708826062087269 0.3308878360468655 0 -0.47970540079611002 0.31435502050394509 0 -0.5 0.31512053025699199 0 -0.49708826062087269 0.3308878360468655 0 -0.47970540079611002 0.31435502050394509 0 -0.49708826062087269 0.3308878360468655 0 -0.4828996699853525 0.3300060864301424 0 -0.47970540079611002 0.31435502050394509 0 -0.5 0.34493290638448199 0 -0.5 0.31512053025699199 0 -0.49708826062087269 0.3308878360468655 0 -0.5 0.34493290638448199 0 -0.49708826062087269 0.3308878360468655 0 -0.48859204207929441 0.33795338641065492 0 -0.4852339154482101 0.34627672031809259 0 -0.5 0.34493290638448199 0 -0.48859204207929441 0.33795338641065492 0 -0.49708826062087269 0.3308878360468655 0 -0.48859204207929441 0.33795338641065492 0 -0.4828996699853525 0.3300060864301424 0 -0.4828996699853525 0.3300060864301424 0 -0.47805484908228912 0.33893517041070859 0 -0.47105779734819608 0.32789901877853772 0 -0.48859204207929441 0.33795338641065492 0 -0.4828996699853525 0.3300060864301424 0 -0.47805484908228912 0.33893517041070859 0 -0.4852339154482101 0.34627672031809259 0 -0.48859204207929441 0.33795338641065492 0 -0.47805484908228912 0.33893517041070859 0 -0.47805484908228912 0.33893517041070859 0 -0.47105779734819608 0.32789901877853772 0 -0.46650548091883082 0.34128582657487871 0 -0.47105779734819608 0.32789901877853772 0 -0.47970540079611002 0.31435502050394509 0 -0.46310984631332691 0.31686387791373383 0 -0.4828996699853525 0.3300060864301424 0 -0.47105779734819608 0.32789901877853772 0 -0.47970540079611002 0.31435502050394509 0 -0.47105779734819608 0.32789901877853772 0 -0.46310984631332691 0.31686387791373383 0 -0.46283648456139448 0.32535892642037462 0 -0.46310984631332691 0.31686387791373383 0 -0.46283648456139448 0.32535892642037462 0 -0.45156788730620512 0.32194608134523761 0 -0.46283648456139448 0.32535892642037462 0 -0.45897091422479558 0.33236915390299221 0 -0.45156788730620512 0.32194608134523761 0 -0.46310984631332691 0.31686387791373383 0 -0.45540659050425347 0.31493578427177382 0 -0.45156788730620512 0.32194608134523761 0 -0.46310984631332691 0.31686387791373383 0 -0.45540659050425347 0.31493578427177382 0 -0.45867883018975319 0.31008720025806102 0 -0.47105779734819608 0.32789901877853772 0 -0.46283648456139448 0.32535892642037462 0 -0.45897091422479558 0.33236915390299221 0 -0.47105779734819608 0.32789901877853772 0 -0.46650548091883082 0.34128582657487871 0 -0.45897091422479558 0.33236915390299221 0 -0.45417749124377871 0.34507606606853358 0 -0.45897091422479558 0.33236915390299221 0 -0.44696928421450938 0.33244580925055872 0 -0.45417749124377871 0.34507606606853358 0 -0.46650548091883082 0.34128582657487871 0 -0.45897091422479558 0.33236915390299221 0 -0.45417749124377871 0.34507606606853358 0 -0.44696928421450938 0.33244580925055872 0 -0.44206911936803078 0.34216716589663299 0 -0.45897091422479558 0.33236915390299221 0 -0.44696928421450938 0.33244580925055872 0 -0.45156788730620512 0.32194608134523761 0 -0.43702840182094399 0.3223367335921723 0 -0.43594161031020778 0.33427958947234498 0 -0.44696928421450938 0.33244580925055872 0 -0.43594161031020778 0.33427958947234498 0 -0.44696928421450938 0.33244580925055872 0 -0.44206911936803078 0.34216716589663299 0 -0.45540659050425347 0.31493578427177382 0 -0.45156788730620512 0.32194608134523761 0 -0.4500774344314587 0.30992878544867453 0 -0.43702840182094399 0.3223367335921723 0 -0.45156788730620512 0.32194608134523761 0 -0.4500774344314587 0.30992878544867453 0 -0.43702840182094399 0.3223367335921723 0 -0.44696928421450938 0.33244580925055872 0 -0.45156788730620512 0.32194608134523761 0 -0.43702840182094399 0.3223367335921723 0 -0.44113312081994971 0.30780665837841731 0 -0.4500774344314587 0.30992878544867453 0 -0.43702840182094399 0.3223367335921723 0 -0.4500774344314587 0.30992878544867453 0 -0.44113312081994971 0.30780665837841731 0 -0.4500774344314587 0.30992878544867453 0 -0.43418656004200612 0.30027771010694021 0 -0.44456994706623132 0.29683102194278488 0 -0.44933856593774962 0.29428856939455139 0 -0.46306157279976368 0.30268445269671462 0 -0.4500774344314587 0.30992878544867453 0 -0.46306157279976368 0.30268445269671462 0 -0.43418656004200612 0.30027771010694021 0 -0.44456994706623132 0.29683102194278488 0 -0.46306157279976368 0.30268445269671462 0 -0.43418656004200612 0.30027771010694021 0 -0.46306157279976368 0.30268445269671462 0 -0.43418656004200612 0.30027771010694021 0 -0.44113312081994971 0.30780665837841731 0 -0.43418656004200612 0.30027771010694021 0 -0.44493968114658422 0.28128938941810422 0 -0.44933856593774962 0.29428856939455139 0 -0.46232254097134717 0.29782220496102468 0 -0.44493968114658422 0.28128938941810422 0 -0.43777095125517862 0.28972750297105998 0 -0.43362737617250319 0.27648273492738568 0 -0.44493968114658422 0.28128938941810422 0 -0.43777095125517862 0.28972750297105998 0 -0.44933856593774962 0.29428856939455139 0 -0.43777095125517862 0.28972750297105998 0 -0.44456994706623132 0.29683102194278488 0 -0.44933856593774962 0.29428856939455139 0 -0.43777095125517862 0.28972750297105998 0 -0.44456994706623132 0.29683102194278488 0 -0.43418656004200612 0.30027771010694021 0 -0.44493968114658422 0.28128938941810422 0 -0.45854011303415398 0.28439439603604311 0 -0.46232254097134717 0.29782220496102468 0 -0.44493968114658422 0.28128938941810422 0 -0.46232254097134717 0.29782220496102468 0 -0.45854011303415398 0.28439439603604311 0 -0.46541855227198109 0.28901742932561569 0 -0.46232254097134717 0.29782220496102468 0 -0.46541855227198109 0.28901742932561569 0 -0.46232254097134717 0.29782220496102468 0 -0.46949124543712101 0.29404455280943231 0 -0.45854011303415398 0.28439439603604311 0 -0.46541855227198109 0.28901742932561569 0 -0.46656243275697862 0.27435838371703769 0 -0.47970540079611002 0.31435502050394509 0 -0.46310984631332691 0.31686387791373383 0 -0.46306157279976368 0.30268445269671462 0 -0.47970540079611002 0.31435502050394509 0 -0.46232254097134717 0.29782220496102468 0 -0.46306157279976368 0.30268445269671462 0 -0.45540659050425347 0.31493578427177382 0 -0.4500774344314587 0.30992878544867453 0 -0.45867883018975319 0.31008720025806102 0 -0.4500774344314587 0.30992878544867453 0 -0.45867883018975319 0.31008720025806102 0 -0.46306157279976368 0.30268445269671462 0 -0.44933856593774962 0.29428856939455139 0 -0.46232254097134717 0.29782220496102468 0 -0.46306157279976368 0.30268445269671462 0 -0.46310984631332691 0.31686387791373383 0 -0.45867883018975319 0.31008720025806102 0 -0.46306157279976368 0.30268445269671462 0 -0.47970540079611002 0.31435502050394509 0 -0.46232254097134717 0.29782220496102468 0 -0.47970540079611002 0.31435502050394509 0 -0.46232254097134717 0.29782220496102468 0 -0.47572129958386972 0.30113925400219432 0 -0.47970540079611002 0.31435502050394509 0 -0.47572129958386972 0.30113925400219432 0 -0.48872497868782577 0.30219945370042722 0 -0.47572129958386972 0.30113925400219432 0 -0.48460445520898232 0.29043472860597341 0 -0.48872497868782577 0.30219945370042722 0 -0.46232254097134717 0.29782220496102468 0 -0.47572129958386972 0.30113925400219432 0 -0.46949124543712101 0.29404455280943231 0 -0.46541855227198109 0.28901742932561569 0 -0.46949124543712101 0.29404455280943231 0 -0.47450258892128611 0.28819932294889478 0 -0.47572129958386972 0.30113925400219432 0 -0.46949124543712101 0.29404455280943231 0 -0.47450258892128611 0.28819932294889478 0 -0.46541855227198109 0.28901742932561569 0 -0.47450258892128611 0.28819932294889478 0 -0.46656243275697862 0.27435838371703769 0 -0.47450258892128611 0.28819932294889478 0 -0.48460445520898232 0.29043472860597341 0 -0.48407340885192979 0.27532745824884841 0 -0.47572129958386972 0.30113925400219432 0 -0.47450258892128611 0.28819932294889478 0 -0.48460445520898232 0.29043472860597341 0 -0.5 0.28530815412950228 0 -0.48460445520898232 0.29043472860597341 0 -0.48872497868782577 0.30219945370042722 0 -0.5 0.28530815412950228 0 -0.48460445520898232 0.29043472860597341 0 -0.48407340885192979 0.27532745824884841 0 -0.5 0.31512053025699199 0 -0.5 0.28530815412950228 0 -0.48872497868782577 0.30219945370042722 0 -0.5 0.31512053025699199 0 -0.47970540079611002 0.31435502050394509 0 -0.48872497868782577 0.30219945370042722 0 -0.50000000000000111 0.25549577800201262 0 -0.47165578298512661 0.25029209389457358 0 -0.50000000000000111 0.25549577800201262 0 -0.48407340885192979 0.27532745824884841 0 -0.47165578298512661 0.25029209389457358 0 -0.5 0.28530815412950228 0 -0.50000000000000111 0.25549577800201262 0 -0.48407340885192979 0.27532745824884841 0 -0.47450258892128611 0.28819932294889478 0 -0.48407340885192979 0.27532745824884841 0 -0.46656243275697862 0.27435838371703769 0 -0.48407340885192979 0.27532745824884841 0 -0.47165578298512661 0.25029209389457358 0 -0.46656243275697862 0.27435838371703769 0 -0.44331156597025201 0.24508840978713481 0 -0.47165578298512661 0.25029209389457358 0 -0.45726276466134502 0.2604738710997283 0 -0.47165578298512661 0.25029209389457358 0 -0.45726276466134502 0.2604738710997283 0 -0.46656243275697862 0.27435838371703769 0 -0.45726276466134502 0.2604738710997283 0 -0.46656243275697862 0.27435838371703769 0 -0.45443002037528363 0.27250806291257612 0 -0.45854011303415398 0.28439439603604311 0 -0.46656243275697862 0.27435838371703769 0 -0.45443002037528363 0.27250806291257612 0 -0.44493968114658422 0.28128938941810422 0 -0.45443002037528363 0.27250806291257612 0 -0.44529894736042258 0.26308493340715688 0 -0.44493968114658422 0.28128938941810422 0 -0.44529894736042258 0.26308493340715688 0 -0.42755682132182138 0.26475657387518381 0 -0.44493968114658422 0.28128938941810422 0 -0.45854011303415398 0.28439439603604311 0 -0.45443002037528363 0.27250806291257612 0 -0.44331156597025201 0.24508840978713481 0 -0.44529894736042258 0.26308493340715688 0 -0.43496045959765711 0.25517361776031672 0 -0.44331156597025201 0.24508840978713481 0 -0.45726276466134502 0.2604738710997283 0 -0.44529894736042258 0.26308493340715688 0 -0.45726276466134502 0.2604738710997283 0 -0.45443002037528363 0.27250806291257612 0 -0.44529894736042258 0.26308493340715688 0 -0.44529894736042258 0.26308493340715688 0 -0.43496045959765711 0.25517361776031672 0 -0.42755682132182138 0.26475657387518381 0 -0.43496045959765711 0.25517361776031672 0 -0.42755682132182138 0.26475657387518381 0 -0.41946165209625769 0.2557915731152311 0 -0.42688256286909892 0.24626093374958469 0 -0.43496045959765711 0.25517361776031672 0 -0.41946165209625769 0.2557915731152311 0 -0.42755682132182138 0.26475657387518381 0 -0.41946165209625769 0.2557915731152311 0 -0.41083197207650779 0.26424329638171351 0 -0.40770799354114862 0.2474913254542897 0 -0.41083197207650779 0.26424329638171351 0 -0.40770799354114862 0.2474913254542897 0 -0.41946165209625769 0.2557915731152311 0 -0.41083197207650779 0.26424329638171351 0 -0.41083197207650779 0.26424329638171351 0 -0.4203898776308298 0.27684665592085689 0 -0.43362737617250319 0.27648273492738568 0 -0.41083197207650779 0.26424329638171351 0 -0.41333792150220389 0.27768115821390571 0 -0.4022828146017623 0.26569921050629242 0 -0.41333792150220389 0.27768115821390571 0 -0.4022828146017623 0.26569921050629242 0 -0.41083197207650779 0.26424329638171351 0 -0.41333792150220389 0.27768115821390571 0 -0.41083197207650779 0.26424329638171351 0 -0.41333792150220389 0.27768115821390571 0 -0.4203898776308298 0.27684665592085689 0 -0.41333792150220389 0.27768115821390571 0 -0.4203898776308298 0.27684665592085689 0 -0.423762240772105 0.28897943416042288 0 -0.41083197207650779 0.26424329638171351 0 -0.43362737617250319 0.27648273492738568 0 -0.42755682132182138 0.26475657387518381 0 -0.41083197207650779 0.26424329638171351 0 -0.43362737617250319 0.27648273492738568 0 -0.4203898776308298 0.27684665592085689 0 -0.43362737617250319 0.27648273492738568 0 -0.423762240772105 0.28897943416042288 0 -0.44493968114658422 0.28128938941810422 0 -0.42755682132182138 0.26475657387518381 0 -0.43362737617250319 0.27648273492738568 0 -0.44493968114658422 0.28128938941810422 0 -0.42755682132182138 0.26475657387518381 0 -0.423762240772105 0.28897943416042288 0 -0.43418656004200612 0.30027771010694021 0 -0.41728917733125442 0.29886930724434091 0 -0.43777095125517862 0.28972750297105998 0 -0.43362737617250319 0.27648273492738568 0 -0.423762240772105 0.28897943416042288 0 -0.43777095125517862 0.28972750297105998 0 -0.423762240772105 0.28897943416042288 0 -0.43418656004200612 0.30027771010694021 0 -0.423762240772105 0.28897943416042288 0 -0.43418656004200612 0.30027771010694021 0 -0.43418656004200612 0.30027771010694021 0 -0.41728917733125442 0.29886930724434091 0 -0.42063427327084241 0.31680699449000588 0 -0.43020259817132911 0.31044363795200908 0 -0.41728917733125442 0.29886930724434091 0 -0.43020259817132911 0.31044363795200908 0 -0.43418656004200612 0.30027771010694021 0 -0.41728917733125442 0.29886930724434091 0 -0.44113312081994971 0.30780665837841731 0 -0.43020259817132911 0.31044363795200908 0 -0.43418656004200612 0.30027771010694021 0 -0.42063427327084241 0.31680699449000588 0 -0.41728917733125442 0.29886930724434091 0 -0.40661117894572768 0.30354540229330518 0 -0.42063427327084241 0.31680699449000588 0 -0.41728917733125442 0.29886930724434091 0 -0.41333792150220389 0.27768115821390571 0 -0.423762240772105 0.28897943416042288 0 -0.41728917733125442 0.29886930724434091 0 -0.41333792150220389 0.27768115821390571 0 -0.41728917733125442 0.29886930724434091 0 -0.39953661119633033 0.28034093584277581 0 -0.41333792150220389 0.27768115821390571 0 -0.41728917733125442 0.29886930724434091 0 -0.41333792150220389 0.27768115821390571 0 -0.423762240772105 0.28897943416042288 0 -0.38779941021738629 0.29641132466019687 0 -0.3854783917962582 0.27661438594014459 0 -0.39953661119633033 0.28034093584277581 0 -0.41728917733125442 0.29886930724434091 0 -0.38779941021738629 0.29641132466019687 0 -0.39953661119633033 0.28034093584277581 0 -0.41728917733125442 0.29886930724434091 0 -0.38779941021738629 0.29641132466019687 0 -0.40661117894572768 0.30354540229330518 0 -0.39333452525534951 0.30820328092677618 0 -0.38779941021738629 0.29641132466019687 0 -0.41728917733125442 0.29886930724434091 0 -0.40661117894572768 0.30354540229330518 0 -0.38779941021738629 0.29641132466019687 0 -0.40170313858752832 0.31522420451553251 0 -0.40661117894572768 0.30354540229330518 0 -0.39333452525534951 0.30820328092677618 0 -0.39333452525534951 0.30820328092677618 0 -0.38779941021738629 0.29641132466019687 0 -0.37173878706207081 0.31559555207269091 0 -0.38779941021738629 0.29641132466019687 0 -0.3854783917962582 0.27661438594014459 0 -0.37256470499111433 0.28366262806163689 0 -0.3854783917962582 0.27661438594014459 0 -0.37197363093053393 0.27158599871266259 0 -0.37256470499111433 0.28366262806163689 0 -0.3854783917962582 0.27661438594014459 0 -0.38142091919676319 0.26739766899051071 0 -0.39103195172911681 0.26677022849177429 0 -0.38142091919676319 0.26739766899051071 0 -0.37558133138564898 0.26301992020649151 0 -0.37197363093053393 0.27158599871266259 0 -0.3854783917962582 0.27661438594014459 0 -0.38142091919676319 0.26739766899051071 0 -0.37197363093053393 0.27158599871266259 0 -0.37558133138564898 0.26301992020649151 0 -0.38303929014225818 0.25899781160148039 0 -0.37329283887254922 0.25674915234024109 0 -0.38142091919676319 0.26739766899051071 0 -0.37558133138564898 0.26301992020649151 0 -0.38303929014225818 0.25899781160148039 0 -0.38262932617685658 0.24910057068750771 0 -0.38303929014225818 0.25899781160148039 0 -0.37329283887254922 0.25674915234024109 0 -0.38262932617685658 0.24910057068750771 0 -0.38303929014225818 0.25899781160148039 0 -0.39122770770132098 0.2537172627986789 0 -0.38262932617685658 0.24910057068750771 0 -0.39122770770132098 0.2537172627986789 0 -0.38262932617685658 0.24910057068750771 0 -0.38801897292272802 0.25023951331412447 0 -0.39122770770132098 0.2537172627986789 0 -0.38801897292272802 0.25023951331412447 0 -0.39122770770132098 0.2537172627986789 0 -0.38303929014225818 0.25899781160148039 0 -0.39122770770132098 0.2537172627986789 0 -0.39103195172911681 0.26677022849177429 0 -0.38142091919676319 0.26739766899051071 0 -0.38303929014225818 0.25899781160148039 0 -0.39103195172911681 0.26677022849177429 0 -0.40770799354114862 0.2474913254542897 0 -0.38801897292272802 0.25023951331412447 0 -0.39122770770132098 0.2537172627986789 0 -0.40770799354114862 0.2474913254542897 0 -0.41083197207650779 0.26424329638171351 0 -0.39122770770132098 0.2537172627986789 0 -0.39122770770132098 0.2537172627986789 0 -0.4022828146017623 0.26569921050629242 0 -0.39103195172911681 0.26677022849177429 0 -0.39122770770132098 0.2537172627986789 0 -0.4022828146017623 0.26569921050629242 0 -0.41083197207650779 0.26424329638171351 0 -0.39122770770132098 0.2537172627986789 0 -0.4022828146017623 0.26569921050629242 0 -0.41083197207650779 0.26424329638171351 0 -0.39122770770132098 0.2537172627986789 0 -0.41333792150220389 0.27768115821390571 0 -0.4022828146017623 0.26569921050629242 0 -0.39953661119633033 0.28034093584277581 0 -0.3854783917962582 0.27661438594014459 0 -0.39953661119633033 0.28034093584277581 0 -0.39103195172911681 0.26677022849177429 0 -0.4022828146017623 0.26569921050629242 0 -0.39953661119633033 0.28034093584277581 0 -0.39103195172911681 0.26677022849177429 0 -0.34456672490757417 0.27346023756626048 0 -0.34920772654121401 0.26746753535819662 0 -0.34462058268492302 0.25653493811952821 0 -0.35536308613643658 0.27129230959689721 0 -0.35566433196416181 0.26583896784865868 0 -0.34920772654121401 0.26746753535819662 0 -0.35566433196416181 0.26583896784865868 0 -0.36181234999874368 0.26439411751967978 0 -0.3604035772751194 0.27067861997142578 0 -0.35536308613643658 0.27129230959689721 0 -0.35566433196416181 0.26583896784865868 0 -0.3604035772751194 0.27067861997142578 0 -0.35536308613643658 0.27129230959689721 0 -0.35883416355539322 0.27613699172565132 0 -0.3604035772751194 0.27067861997142578 0 -0.35536308613643658 0.27129230959689721 0 -0.35883416355539322 0.27613699172565132 0 -0.35452389741547308 0.27580406117724549 0 -0.35883416355539322 0.27613699172565132 0 -0.35521932075676249 0.28037371315613352 0 -0.35452389741547308 0.27580406117724549 0 -0.35883416355539322 0.27613699172565132 0 -0.35521932075676249 0.28037371315613352 0 -0.3596907757832174 0.28148011466751299 0 -0.35521932075676249 0.28037371315613352 0 -0.35452389741547308 0.27580406117724549 0 -0.34887919910236898 0.27969577580776939 0 -0.35536308613643658 0.27129230959689721 0 -0.35452389741547308 0.27580406117724549 0 -0.34998660183341729 0.27355866704934129 0 -0.34998660183341729 0.27355866704934129 0 -0.34887919910236898 0.27969577580776939 0 -0.34456672490757417 0.27346023756626048 0 -0.34887919910236898 0.27969577580776939 0 -0.34456672490757417 0.27346023756626048 0 -0.34213127052979192 0.28189283635936369 0 -0.35452389741547308 0.27580406117724549 0 -0.34998660183341729 0.27355866704934129 0 -0.34887919910236898 0.27969577580776939 0 -0.35536308613643658 0.27129230959689721 0 -0.34998660183341729 0.27355866704934129 0 -0.34920772654121401 0.26746753535819662 0 -0.34998660183341729 0.27355866704934129 0 -0.34456672490757417 0.27346023756626048 0 -0.34920772654121401 0.26746753535819662 0 -0.34920772654121401 0.26746753535819662 0 -0.34462058268492302 0.25653493811952821 0 -0.35198110991118592 0.26112934915200547 0 -0.35014097212956308 0.25118527989977613 0 -0.35816631442152902 0.2551378164824526 0 -0.36638514915320991 0.25014292529364179 0 -0.35014097212956308 0.25118527989977613 0 -0.36638514915320991 0.25014292529364179 0 -0.34462058268492302 0.25653493811952821 0 -0.35311812518028141 0.25609432187477232 0 -0.35198110991118592 0.26112934915200547 0 -0.34462058268492302 0.25653493811952821 0 -0.35014097212956308 0.25118527989977613 0 -0.35311812518028141 0.25609432187477232 0 -0.35014097212956308 0.25118527989977613 0 -0.35311812518028141 0.25609432187477232 0 -0.35816631442152902 0.2551378164824526 0 -0.35311812518028141 0.25609432187477232 0 -0.35816631442152902 0.2551378164824526 0 -0.35706855079177141 0.25992322358224562 0 -0.35566433196416181 0.26583896784865868 0 -0.34920772654121401 0.26746753535819662 0 -0.35198110991118592 0.26112934915200547 0 -0.35566433196416181 0.26583896784865868 0 -0.35198110991118592 0.26112934915200547 0 -0.35706855079177141 0.25992322358224562 0 -0.35311812518028141 0.25609432187477232 0 -0.35198110991118592 0.26112934915200547 0 -0.35706855079177141 0.25992322358224562 0 -0.35566433196416181 0.26583896784865868 0 -0.35706855079177141 0.25992322358224562 0 -0.36181234999874368 0.26439411751967978 0 -0.38262932617685658 0.24910057068750771 0 -0.36638514915320991 0.25014292529364179 0 -0.37329283887254922 0.25674915234024109 0 -0.35706855079177141 0.25992322358224562 0 -0.36181234999874368 0.26439411751967978 0 -0.36411877485281952 0.25834333176182711 0 -0.36181234999874368 0.26439411751967978 0 -0.36411877485281952 0.25834333176182711 0 -0.36840011766549058 0.26325659300695348 0 -0.35816631442152902 0.2551378164824526 0 -0.36411877485281952 0.25834333176182711 0 -0.36638514915320991 0.25014292529364179 0 -0.35816631442152902 0.2551378164824526 0 -0.35706855079177141 0.25992322358224562 0 -0.36411877485281952 0.25834333176182711 0 -0.36411877485281952 0.25834333176182711 0 -0.36638514915320991 0.25014292529364179 0 -0.37329283887254922 0.25674915234024109 0 -0.36411877485281952 0.25834333176182711 0 -0.37329283887254922 0.25674915234024109 0 -0.36840011766549058 0.26325659300695348 0 -0.37558133138564898 0.26301992020649151 0 -0.37329283887254922 0.25674915234024109 0 -0.36840011766549058 0.26325659300695348 0 -0.36840011766549058 0.26325659300695348 0 -0.37197363093053393 0.27158599871266259 0 -0.36547254652203331 0.26930676100652851 0 -0.37558133138564898 0.26301992020649151 0 -0.36840011766549058 0.26325659300695348 0 -0.37197363093053393 0.27158599871266259 0 -0.37197363093053393 0.27158599871266259 0 -0.36547254652203331 0.26930676100652851 0 -0.36477305674027888 0.27661847582192101 0 -0.36181234999874368 0.26439411751967978 0 -0.36840011766549058 0.26325659300695348 0 -0.36547254652203331 0.26930676100652851 0 -0.36547254652203331 0.26930676100652851 0 -0.3604035772751194 0.27067861997142578 0 -0.36477305674027888 0.27661847582192101 0 -0.36181234999874368 0.26439411751967978 0 -0.36547254652203331 0.26930676100652851 0 -0.3604035772751194 0.27067861997142578 0 -0.36477305674027888 0.27661847582192101 0 -0.3596907757832174 0.28148011466751299 0 -0.36355741997877411 0.28469836641732038 0 -0.35883416355539322 0.27613699172565132 0 -0.36477305674027888 0.27661847582192101 0 -0.3596907757832174 0.28148011466751299 0 -0.35883416355539322 0.27613699172565132 0 -0.3604035772751194 0.27067861997142578 0 -0.36477305674027888 0.27661847582192101 0 -0.37197363093053393 0.27158599871266259 0 -0.36477305674027888 0.27661847582192101 0 -0.37256470499111433 0.28366262806163689 0 -0.38779941021738629 0.29641132466019687 0 -0.37256470499111433 0.28366262806163689 0 -0.35830964310351843 0.29395334207604978 0 -0.38779941021738629 0.29641132466019687 0 -0.35830964310351843 0.29395334207604978 0 -0.36477305674027888 0.27661847582192101 0 -0.37256470499111433 0.28366262806163689 0 -0.36355741997877411 0.28469836641732038 0 -0.37256470499111433 0.28366262806163689 0 -0.36355741997877411 0.28469836641732038 0 -0.35830964310351843 0.29395334207604978 0 -0.36355741997877411 0.28469836641732038 0 -0.3584685673627076 0.28679759294366042 0 -0.35830964310351843 0.29395334207604978 0 -0.3596907757832174 0.28148011466751299 0 -0.36355741997877411 0.28469836641732038 0 -0.3584685673627076 0.28679759294366042 0 -0.35830964310351843 0.29395334207604978 0 -0.37173878706207081 0.31559555207269091 0 -0.35141732351942989 0.31171054102606571 0 -0.35830964310351843 0.29395334207604978 0 -0.37173878706207081 0.31559555207269091 0 -0.38779941021738629 0.29641132466019687 0 -0.35830964310351843 0.29395334207604978 0 -0.37173878706207081 0.31559555207269091 0 -0.35141732351942989 0.31171054102606571 0 -0.35830964310351843 0.29395334207604978 0 -0.33581194080188592 0.29207815058243869 0 -0.35701458234187738 0.29186624128627298 0 -0.34730156501416948 0.2856119604202485 0 -0.33581194080188592 0.29207815058243869 0 -0.35701458234187738 0.29186624128627298 0 -0.35830964310351843 0.29395334207604978 0 -0.33581194080188592 0.29207815058243869 0 -0.35830964310351843 0.29395334207604978 0 -0.33581194080188592 0.29207815058243869 0 -0.35376276821086161 0.28465744205760041 0 -0.35701458234187738 0.29186624128627298 0 -0.34730156501416948 0.2856119604202485 0 -0.35521932075676249 0.28037371315613352 0 -0.35376276821086161 0.28465744205760041 0 -0.35678535802838729 0.28332721570622682 0 -0.35521932075676249 0.28037371315613352 0 -0.34887919910236898 0.27969577580776939 0 -0.35376276821086161 0.28465744205760041 0 -0.3596907757832174 0.28148011466751299 0 -0.35678535802838729 0.28332721570622682 0 -0.3584685673627076 0.28679759294366042 0 -0.35376276821086161 0.28465744205760041 0 -0.35678535802838729 0.28332721570622682 0 -0.3584685673627076 0.28679759294366042 0 -0.35521932075676249 0.28037371315613352 0 -0.3596907757832174 0.28148011466751299 0 -0.35678535802838729 0.28332721570622682 0 -0.35376276821086161 0.28465744205760041 0 -0.3584685673627076 0.28679759294366042 0 -0.35701458234187738 0.29186624128627298 0 -0.3584685673627076 0.28679759294366042 0 -0.35701458234187738 0.29186624128627298 0 -0.35830964310351843 0.29395334207604978 0 -0.35701458234187738 0.29186624128627298 0 -0.35830964310351843 0.29395334207604978 0 -0.34887919910236898 0.27969577580776939 0 -0.35376276821086161 0.28465744205760041 0 -0.34730156501416948 0.2856119604202485 0 -0.34887919910236898 0.27969577580776939 0 -0.34730156501416948 0.2856119604202485 0 -0.34213127052979192 0.28189283635936369 0 -0.34213127052979192 0.28189283635936369 0 -0.33581194080188592 0.29207815058243869 0 -0.33417377642064833 0.27876801828666958 0 -0.34730156501416948 0.2856119604202485 0 -0.34213127052979192 0.28189283635936369 0 -0.33581194080188592 0.29207815058243869 0 -0.35141732351942989 0.31171054102606571 0 -0.33581194080188592 0.29207815058243869 0 -0.33243180499776348 0.31315212131940362 0 -0.33581194080188592 0.29207815058243869 0 -0.31331423850025392 0.29020295908882299 0 -0.31151508458518418 0.30845115823521951 0 -0.33581194080188592 0.29207815058243869 0 -0.31151508458518418 0.30845115823521951 0 -0.33243180499776348 0.31315212131940362 0 -0.33581194080188592 0.29207815058243869 0 -0.31331423850025392 0.29020295908882299 0 -0.33417377642064833 0.27876801828666958 0 -0.33581194080188592 0.29207815058243869 0 -0.31331423850025392 0.29020295908882299 0 -0.31331423850025392 0.29020295908882299 0 -0.32088285188706461 0.26919512359144199 0 -0.30499556613982948 0.26916164627915562 0 -0.31331423850025392 0.29020295908882299 0 -0.32088285188706461 0.26919512359144199 0 -0.33417377642064833 0.27876801828666958 0 -0.34462058268492302 0.25653493811952821 0 -0.33417377642064833 0.27876801828666958 0 -0.33159875824405471 0.26546088680078161 0 -0.34456672490757417 0.27346023756626048 0 -0.34462058268492302 0.25653493811952821 0 -0.33417377642064833 0.27876801828666958 0 -0.34462058268492302 0.25653493811952821 0 -0.33417377642064833 0.27876801828666958 0 -0.32088285188706461 0.26919512359144199 0 -0.33417377642064833 0.27876801828666958 0 -0.33159875824405471 0.26546088680078161 0 -0.34456672490757417 0.27346023756626048 0 -0.34213127052979192 0.28189283635936369 0 -0.33417377642064833 0.27876801828666958 0 -0.34462058268492302 0.25653493811952821 0 -0.33159875824405471 0.26546088680078161 0 -0.32671782198358301 0.25734546720548668 0 -0.34053134287490211 0.2456296914052418 0 -0.34462058268492302 0.25653493811952821 0 -0.32671782198358301 0.25734546720548668 0 -0.34053134287490211 0.2456296914052418 0 -0.32671782198358301 0.25734546720548668 0 -0.32088285188706461 0.26919512359144199 0 -0.31332832454887088 0.25244391761365692 0 -0.30499556613982948 0.26916164627915562 0 -0.32088285188706461 0.26919512359144199 0 -0.31332832454887088 0.25244391761365692 0 -0.32671782198358301 0.25734546720548668 0 -0.32416282176871142 0.2403316617817311 0 -0.31332832454887088 0.25244391761365692 0 -0.32671782198358301 0.25734546720548668 0 -0.32088285188706461 0.26919512359144199 0 -0.33159875824405471 0.26546088680078161 0 -0.32671782198358301 0.25734546720548668 0 -0.29589392737197351 0.249512538125438 0 -0.31332832454887088 0.25244391761365692 0 -0.30499556613982948 0.26916164627915562 0 -0.30499556613982948 0.26916164627915562 0 -0.28210638063448179 0.26798255711351499 0 -0.29081653619862191 0.28832776759520728 0 -0.29589392737197351 0.249512538125438 0 -0.28210638063448179 0.26798255711351499 0 -0.29589392737197351 0.249512538125438 0 -0.30499556613982948 0.26916164627915562 0 -0.28210638063448179 0.26798255711351499 0 -0.29589392737197351 0.249512538125438 0 -0.27316976485792488 0.24444195486591161 0 -0.28210638063448179 0.26798255711351499 0 -0.27316976485792488 0.24444195486591161 0 -0.28210638063448179 0.26798255711351499 0 -0.25758647592664707 0.2638813985755446 0 -0.28210638063448179 0.26798255711351499 0 -0.26831883389698991 0.2864525761015918 0 -0.28210638063448179 0.26798255711351499 0 -0.26831883389698991 0.2864525761015918 0 -0.29081653619862191 0.28832776759520728 0 -0.28210638063448179 0.26798255711351499 0 -0.25758647592664707 0.2638813985755446 0 -0.26831883389698991 0.2864525761015918 0 -0.25758647592664707 0.2638813985755446 0 -0.26831883389698991 0.2864525761015918 0 -0.24127526784236469 0.28419848524632291 0 -0.25338091248938688 0.30646365546864041 0 -0.26699717125876909 0.29785791909853349 0 -0.25956205549439493 0.32363160875278918 0 -0.25338091248938688 0.30646365546864041 0 -0.26831883389698991 0.2864525761015918 0 -0.26699717125876909 0.29785791909853349 0 -0.26831883389698991 0.2864525761015918 0 -0.24127526784236469 0.28419848524632291 0 -0.25338091248938688 0.30646365546864041 0 -0.26831883389698991 0.2864525761015918 0 -0.25338091248938688 0.30646365546864041 0 -0.26831883389698991 0.2864525761015918 0 -0.24127526784236469 0.28419848524632291 0 -0.26831883389698991 0.2864525761015918 0 -0.29081653619862191 0.28832776759520728 0 -0.26831883389698991 0.2864525761015918 0 -0.27889834588953688 0.29487761965777859 0 -0.26699717125876909 0.29785791909853349 0 -0.26831883389698991 0.2864525761015918 0 -0.27889834588953688 0.29487761965777859 0 -0.29081653619862191 0.28832776759520728 0 -0.26699717125876909 0.29785791909853349 0 -0.2768994994275838 0.32506088323382809 0 -0.26699717125876909 0.29785791909853349 0 -0.28443651164913952 0.30691349876390489 0 -0.2768994994275838 0.32506088323382809 0 -0.27889834588953688 0.29487761965777859 0 -0.26699717125876909 0.29785791909853349 0 -0.28443651164913952 0.30691349876390489 0 -0.28443651164913952 0.30691349876390489 0 -0.29081653619862191 0.28832776759520728 0 -0.31151508458518418 0.30845115823521951 0 -0.27889834588953688 0.29487761965777859 0 -0.28443651164913952 0.30691349876390489 0 -0.29081653619862191 0.28832776759520728 0 -0.31331423850025392 0.29020295908882299 0 -0.29081653619862191 0.28832776759520728 0 -0.31151508458518418 0.30845115823521951 0 -0.31331423850025392 0.29020295908882299 0 -0.30499556613982948 0.26916164627915562 0 -0.29081653619862191 0.28832776759520728 0 -0.31331423850025392 0.29020295908882299 0 -0.29081653619862191 0.28832776759520728 0 -0.28443651164913952 0.30691349876390489 0 -0.31151508458518418 0.30845115823521951 0 -0.29814725568391037 0.32100244810371159 0 -0.29814725568391037 0.32100244810371159 0 -0.30073908498630042 0.33505942590343879 0 -0.31855243813660472 0.32633772411498763 0 -0.31151508458518418 0.30845115823521951 0 -0.29814725568391037 0.32100244810371159 0 -0.31855243813660472 0.32633772411498763 0 -0.30073908498630042 0.33505942590343879 0 -0.30964010743850851 0.34611000497996308 0 -0.31855243813660472 0.32633772411498763 0 -0.30073908498630042 0.33505942590343879 0 -0.29693787143884992 0.34687745219566157 0 -0.30964010743850851 0.34611000497996308 0 -0.2768994994275838 0.32506088323382809 0 -0.28680182759639927 0.35226384736912247 0 -0.29814725568391037 0.32100244810371159 0 -0.28728222349579607 0.33970777133494362 0 -0.2768994994275838 0.32506088323382809 0 -0.28728222349579607 0.33970777133494362 0 -0.2768994994275838 0.32506088323382809 0 -0.28680182759639927 0.35226384736912247 0 -0.29814725568391037 0.32100244810371159 0 -0.30073908498630042 0.33505942590343879 0 -0.28728222349579607 0.33970777133494362 0 -0.30073908498630042 0.33505942590343879 0 -0.28728222349579607 0.33970777133494362 0 -0.29693787143884992 0.34687745219566157 0 -0.28443651164913952 0.30691349876390489 0 -0.29814725568391037 0.32100244810371159 0 -0.2768994994275838 0.32506088323382809 0 -0.26699717125876909 0.29785791909853349 0 -0.2768994994275838 0.32506088323382809 0 -0.25956205549439493 0.32363160875278918 0 -0.2768994994275838 0.32506088323382809 0 -0.26960421982280469 0.34264163011881987 0 -0.28680182759639927 0.35226384736912247 0 -0.2768994994275838 0.32506088323382809 0 -0.26960421982280469 0.34264163011881987 0 -0.25956205549439493 0.32363160875278918 0 -0.25474707007556158 0.33891952561205912 0 -0.25956205549439493 0.32363160875278918 0 -0.23844299108178371 0.32647473483568867 0 -0.26960421982280469 0.34264163011881987 0 -0.25474707007556158 0.33891952561205912 0 -0.25956205549439493 0.32363160875278918 0 -0.25338091248938688 0.30646365546864041 0 -0.25956205549439493 0.32363160875278918 0 -0.23844299108178371 0.32647473483568867 0 -0.25312128223145541 0.37178480457244328 0 -0.25646036989131921 0.35522813450423879 0 -0.241039142730791 0.35789964845884059 0 -0.25312128223145541 0.37178480457244328 0 -0.25646036989131921 0.35522813450423879 0 -0.26593737287792829 0.36909786340005751 0 -0.25646036989131921 0.35522813450423879 0 -0.26888482431336153 0.35625341071649302 0 -0.26593737287792829 0.36909786340005751 0 -0.25312128223145541 0.37178480457244328 0 -0.26593737287792829 0.36909786340005751 0 -0.26772816376317332 0.38276642968986718 0 -0.26960421982280469 0.34264163011881987 0 -0.25474707007556158 0.33891952561205912 0 -0.25646036989131921 0.35522813450423879 0 -0.25474707007556158 0.33891952561205912 0 -0.25646036989131921 0.35522813450423879 0 -0.24061465764034129 0.34408284438474962 0 -0.26960421982280469 0.34264163011881987 0 -0.25646036989131921 0.35522813450423879 0 -0.26888482431336153 0.35625341071649302 0 -0.26888482431336153 0.35625341071649302 0 -0.27598317331024791 0.36671359822994309 0 -0.28680182759639927 0.35226384736912247 0 -0.26960421982280469 0.34264163011881987 0 -0.26888482431336153 0.35625341071649302 0 -0.28680182759639927 0.35226384736912247 0 -0.26888482431336153 0.35625341071649302 0 -0.27598317331024791 0.36671359822994309 0 -0.26593737287792829 0.36909786340005751 0 -0.27598317331024791 0.36671359822994309 0 -0.26593737287792829 0.36909786340005751 0 -0.27645750376548073 0.3771064621371254 0 -0.28680182759639927 0.35226384736912247 0 -0.2957169443318981 0.37675481521863491 0 -0.28680182759639927 0.35226384736912247 0 -0.28566612080577319 0.38194774107757051 0 -0.28680182759639927 0.35226384736912247 0 -0.2957169443318981 0.37675481521863491 0 -0.28566612080577319 0.38194774107757051 0 -0.28680182759639927 0.35226384736912247 0 -0.300226113677246 0.36124621139083968 0 -0.2957169443318981 0.37675481521863491 0 -0.27598317331024791 0.36671359822994309 0 -0.28680182759639927 0.35226384736912247 0 -0.28566612080577319 0.38194774107757051 0 -0.28728222349579607 0.33970777133494362 0 -0.28680182759639927 0.35226384736912247 0 -0.28680182759639927 0.35226384736912247 0 -0.29693787143884992 0.34687745219566157 0 -0.300226113677246 0.36124621139083968 0 -0.28728222349579607 0.33970777133494362 0 -0.28680182759639927 0.35226384736912247 0 -0.29693787143884992 0.34687745219566157 0 -0.30964010743850851 0.34611000497996308 0 -0.300226113677246 0.36124621139083968 0 -0.31735104197155228 0.36558400171365202 0 -0.29693787143884992 0.34687745219566157 0 -0.30964010743850851 0.34611000497996308 0 -0.300226113677246 0.36124621139083968 0 -0.300226113677246 0.36124621139083968 0 -0.31735104197155228 0.36558400171365202 0 -0.2957169443318981 0.37675481521863491 0 -0.31735104197155228 0.36558400171365202 0 -0.31057368862527451 0.37899142455712281 0 -0.2957169443318981 0.37675481521863491 0 -0.31735104197155228 0.36558400171365202 0 -0.2957169443318981 0.37675481521863491 0 -0.31735104197155228 0.36558400171365202 0 -0.33898425960112899 0.35441148425523239 0 -0.31735104197155228 0.36558400171365202 0 -0.3388009782161836 0.37233303031711817 0 -0.33898425960112899 0.35441148425523239 0 -0.30964010743850851 0.34611000497996308 0 -0.31735104197155228 0.36558400171365202 0 -0.32475244719092239 0.34452256960447558 0 -0.31735104197155228 0.36558400171365202 0 -0.33898425960112899 0.35441148425523239 0 -0.32475244719092239 0.34452256960447558 0 -0.30964010743850851 0.34611000497996308 0 -0.32475244719092239 0.34452256960447558 0 -0.31855243813660472 0.32633772411498763 0 -0.32475244719092239 0.34452256960447558 0 -0.31855243813660472 0.32633772411498763 0 -0.33923438880681772 0.33016963295854279 0 -0.31151508458518418 0.30845115823521951 0 -0.31855243813660472 0.32633772411498763 0 -0.33243180499776348 0.31315212131940362 0 -0.31855243813660472 0.32633772411498763 0 -0.33243180499776348 0.31315212131940362 0 -0.33923438880681772 0.33016963295854279 0 -0.35141732351942989 0.31171054102606571 0 -0.33243180499776348 0.31315212131940362 0 -0.33923438880681772 0.33016963295854279 0 -0.33898425960112899 0.35441148425523239 0 -0.32475244719092239 0.34452256960447558 0 -0.33923438880681772 0.33016963295854279 0 -0.33898425960112899 0.35441148425523239 0 -0.33923438880681772 0.33016963295854279 0 -0.35919789509571598 0.33382457653353281 0 -0.35141732351942989 0.31171054102606571 0 -0.33923438880681772 0.33016963295854279 0 -0.35919789509571598 0.33382457653353281 0 -0.35141732351942989 0.31171054102606571 0 -0.35919789509571598 0.33382457653353281 0 -0.37173878706207081 0.31559555207269091 0 -0.38516793102062069 0.33723776206933348 0 -0.35919789509571598 0.33382457653353281 0 -0.37173878706207081 0.31559555207269091 0 -0.38516793102062069 0.33723776206933348 0 -0.35919789509571598 0.33382457653353281 0 -0.36751896561308139 0.35463576371022038 0 -0.36751896561308139 0.35463576371022038 0 -0.35671859859363769 0.3767467351495925 0 -0.37478873927532252 0.38168920586728883 0 -0.33898425960112899 0.35441148425523239 0 -0.36751896561308139 0.35463576371022038 0 -0.35671859859363769 0.3767467351495925 0 -0.3388009782161836 0.37233303031711817 0 -0.33898425960112899 0.35441148425523239 0 -0.35671859859363769 0.3767467351495925 0 -0.33898425960112899 0.35441148425523239 0 -0.35919789509571598 0.33382457653353281 0 -0.36751896561308139 0.35463576371022038 0 -0.36297548253082268 0.39371230007235952 0 -0.35278055475445458 0.40713508952947658 0 -0.33175347930235283 0.38918387241225011 0 -0.35671859859363769 0.3767467351495925 0 -0.36297548253082268 0.39371230007235952 0 -0.33175347930235283 0.38918387241225011 0 -0.35671859859363769 0.3767467351495925 0 -0.37478873927532252 0.38168920586728883 0 -0.36297548253082268 0.39371230007235952 0 -0.38170299231734423 0.39739924430285811 0 -0.37478873927532252 0.38168920586728883 0 -0.36297548253082268 0.39371230007235952 0 -0.38170299231734423 0.39739924430285811 0 -0.36297548253082268 0.39371230007235952 0 -0.37450339908755731 0.42235077074787691 0 -0.36297548253082268 0.39371230007235952 0 -0.37450339908755731 0.42235077074787691 0 -0.35278055475445458 0.40713508952947658 0 -0.37450339908755731 0.42235077074787691 0 -0.35278055475445458 0.40713508952947658 0 -0.35575871175463841 0.42028783493115007 0 -0.37450339908755731 0.42235077074787691 0 -0.36730380585777139 0.44730229719289588 0 -0.37450339908755731 0.42235077074787691 0 -0.36521315780775399 0.42990436135952942 0 -0.35575871175463841 0.42028783493115007 0 -0.37450339908755731 0.42235077074787691 0 -0.36521315780775399 0.42990436135952942 0 -0.3660165678866692 0.44185090254978582 0 -0.37450339908755731 0.42235077074787691 0 -0.3660165678866692 0.44185090254978582 0 -0.36730380585777139 0.44730229719289588 0 -0.36521315780775399 0.42990436135952942 0 -0.35810378017606459 0.42743810306490659 0 -0.35575871175463841 0.42028783493115007 0 -0.36521315780775399 0.42990436135952942 0 -0.35911638325946538 0.43135709440084169 0 -0.35810378017606459 0.42743810306490659 0 -0.36521315780775399 0.42990436135952942 0 -0.35931269657059378 0.43445016006391679 0 -0.3660165678866692 0.44185090254978582 0 -0.35312044665707509 0.43466493077961449 0 -0.35931269657059378 0.43445016006391679 0 -0.3660165678866692 0.44185090254978582 0 -0.36521315780775399 0.42990436135952942 0 -0.35931269657059378 0.43445016006391679 0 -0.35911638325946538 0.43135709440084169 0 -0.35312044665707509 0.43466493077961449 0 -0.35575871175463841 0.42028783493115007 0 -0.3310811759536455 0.422384216734637 0 -0.35312044665707509 0.43466493077961449 0 -0.35931269657059378 0.43445016006391679 0 -0.35911638325946538 0.43135709440084169 0 -0.35312044665707509 0.43466493077961449 0 -0.35911638325946538 0.43135709440084169 0 -0.35810378017606459 0.42743810306490659 0 -0.35312044665707509 0.43466493077961449 0 -0.35810378017606459 0.42743810306490659 0 -0.35575871175463841 0.42028783493115007 0 -0.35278055475445458 0.40713508952947658 0 -0.35575871175463841 0.42028783493115007 0 -0.3310811759536455 0.422384216734637 0 -0.35278055475445458 0.40713508952947658 0 -0.3310811759536455 0.422384216734637 0 -0.32595162778821218 0.40567336474826959 0 -0.35312044665707509 0.43466493077961449 0 -0.3310811759536455 0.422384216734637 0 -0.32922404838729369 0.43975842702051021 0 -0.35312044665707509 0.43466493077961449 0 -0.3310811759536455 0.422384216734637 0 -0.3310811759536455 0.422384216734637 0 -0.3119532156062072 0.43081776769941632 0 -0.32922404838729369 0.43975842702051021 0 -0.3310811759536455 0.422384216734637 0 -0.30904190525021591 0.41010350268965939 0 -0.3119532156062072 0.43081776769941632 0 -0.3310811759536455 0.422384216734637 0 -0.32595162778821218 0.40567336474826959 0 -0.30904190525021591 0.41010350268965939 0 -0.3310811759536455 0.422384216734637 0 -0.30904190525021591 0.41010350268965939 0 -0.32595162778821218 0.40567336474826959 0 -0.30432449577470411 0.39265301649951079 0 -0.30904190525021591 0.41010350268965939 0 -0.32595162778821218 0.40567336474826959 0 -0.33175347930235283 0.38918387241225011 0 -0.30432449577470411 0.39265301649951079 0 -0.35278055475445458 0.40713508952947658 0 -0.32595162778821218 0.40567336474826959 0 -0.33175347930235283 0.38918387241225011 0 -0.31735104197155228 0.36558400171365202 0 -0.3388009782161836 0.37233303031711817 0 -0.33175347930235283 0.38918387241225011 0 -0.3388009782161836 0.37233303031711817 0 -0.35671859859363769 0.3767467351495925 0 -0.33175347930235283 0.38918387241225011 0 -0.31735104197155228 0.36558400171365202 0 -0.33175347930235283 0.38918387241225011 0 -0.31057368862527451 0.37899142455712281 0 -0.33175347930235283 0.38918387241225011 0 -0.31057368862527451 0.37899142455712281 0 -0.30432449577470411 0.39265301649951079 0 -0.30432449577470411 0.39265301649951079 0 -0.2957169443318981 0.37675481521863491 0 -0.29352002484042589 0.38825270296236258 0 -0.31057368862527451 0.37899142455712281 0 -0.30432449577470411 0.39265301649951079 0 -0.2957169443318981 0.37675481521863491 0 -0.30432449577470411 0.39265301649951079 0 -0.28700263454678637 0.39782278864468201 0 -0.30904190525021591 0.41010350268965939 0 -0.28700263454678637 0.39782278864468201 0 -0.30904190525021591 0.41010350268965939 0 -0.28700263454678637 0.39782278864468201 0 -0.28566612080577319 0.38194774107757051 0 -0.28470750916138882 0.40700291059353988 0 -0.28566612080577319 0.38194774107757051 0 -0.27823530561430992 0.39480732208844438 0 -0.28470750916138882 0.40700291059353988 0 -0.30432449577470411 0.39265301649951079 0 -0.28700263454678637 0.39782278864468201 0 -0.29352002484042589 0.38825270296236258 0 -0.28700263454678637 0.39782278864468201 0 -0.28470750916138882 0.40700291059353988 0 -0.30904190525021591 0.41010350268965939 0 -0.28566612080577319 0.38194774107757051 0 -0.28470750916138882 0.40700291059353988 0 -0.28700263454678637 0.39782278864468201 0 -0.29352002484042589 0.38825270296236258 0 -0.28566612080577319 0.38194774107757051 0 -0.2957169443318981 0.37675481521863491 0 -0.28566612080577319 0.38194774107757051 0 -0.2957169443318981 0.37675481521863491 0 -0.29352002484042589 0.38825270296236258 0 -0.28566612080577319 0.38194774107757051 0 -0.27598317331024791 0.36671359822994309 0 -0.28566612080577319 0.38194774107757051 0 -0.27645750376548073 0.3771064621371254 0 -0.28566612080577319 0.38194774107757051 0 -0.2643803918037439 0.39294079735622689 0 -0.28566612080577319 0.38194774107757051 0 -0.27645750376548073 0.3771064621371254 0 -0.26772816376317332 0.38276642968986718 0 -0.28566612080577319 0.38194774107757051 0 -0.26772816376317332 0.38276642968986718 0 -0.2643803918037439 0.39294079735622689 0 -0.28566612080577319 0.38194774107757051 0 -0.27823530561430992 0.39480732208844438 0 -0.2643803918037439 0.39294079735622689 0 -0.26593737287792829 0.36909786340005751 0 -0.27645750376548073 0.3771064621371254 0 -0.26772816376317332 0.38276642968986718 0 -0.27823530561430992 0.39480732208844438 0 -0.27736185737332258 0.40283513881721761 0 -0.28470750916138882 0.40700291059353988 0 -0.27823530561430992 0.39480732208844438 0 -0.27736185737332258 0.40283513881721761 0 -0.27076593980297609 0.39944983778766741 0 -0.27736185737332258 0.40283513881721761 0 -0.27055725992908192 0.4057347094846987 0 -0.27076593980297609 0.39944983778766741 0 -0.27055725992908192 0.4057347094846987 0 -0.27076593980297609 0.39944983778766741 0 -0.26329488429442238 0.40093122119174962 0 -0.27823530561430992 0.39480732208844438 0 -0.27076593980297609 0.39944983778766741 0 -0.2643803918037439 0.39294079735622689 0 -0.27076593980297609 0.39944983778766741 0 -0.2643803918037439 0.39294079735622689 0 -0.26329488429442238 0.40093122119174962 0 -0.2643803918037439 0.39294079735622689 0 -0.26329488429442238 0.40093122119174962 0 -0.25539120860364062 0.39491143968511128 0 -0.27055725992908192 0.4057347094846987 0 -0.26329488429442238 0.40093122119174962 0 -0.26274258787665228 0.41010996782981413 0 -0.26329488429442238 0.40093122119174962 0 -0.25451008460704327 0.40456677896455162 0 -0.26274258787665228 0.41010996782981413 0 -0.25451008460704327 0.40456677896455162 0 -0.25539120860364062 0.39491143968511128 0 -0.2454187063172775 0.40112155437524821 0 -0.26329488429442238 0.40093122119174962 0 -0.25451008460704327 0.40456677896455162 0 -0.25539120860364062 0.39491143968511128 0 -0.26772816376317332 0.38276642968986718 0 -0.24688149284123401 0.38896101214766021 0 -0.26772816376317332 0.38276642968986718 0 -0.25539120860364062 0.39491143968511128 0 -0.24688149284123401 0.38896101214766021 0 -0.25312128223145541 0.37178480457244328 0 -0.26772816376317332 0.38276642968986718 0 -0.24688149284123401 0.38896101214766021 0 -0.26772816376317332 0.38276642968986718 0 -0.2643803918037439 0.39294079735622689 0 -0.25539120860364062 0.39491143968511128 0 -0.25403631530162057 0.43243169108781832 0 -0.26079948647657392 0.42091303525218021 0 -0.26796829898215191 0.42976502981460862 0 -0.25403631530162057 0.43243169108781832 0 -0.26796829898215191 0.42976502981460862 0 -0.26526083744267431 0.44417407470095688 0 -0.25403631530162057 0.43243169108781832 0 -0.26079948647657392 0.42091303525218021 0 -0.2486543677354095 0.42074152845041968 0 -0.25447032304768408 0.41314830927361529 0 -0.26079948647657392 0.42091303525218021 0 -0.2486543677354095 0.42074152845041968 0 -0.25451008460704327 0.40456677896455162 0 -0.25447032304768408 0.41314830927361529 0 -0.26274258787665228 0.41010996782981413 0 -0.25451008460704327 0.40456677896455162 0 -0.25447032304768408 0.41314830927361529 0 -0.2449945204330097 0.41010395808071443 0 -0.25447032304768408 0.41314830927361529 0 -0.26274258787665228 0.41010996782981413 0 -0.26079948647657392 0.42091303525218021 0 -0.26274258787665228 0.41010996782981413 0 -0.26079948647657392 0.42091303525218021 0 -0.27282348890510799 0.41536575281208932 0 -0.27282348890510799 0.41536575281208932 0 -0.28374889751700427 0.43205808010950919 0 -0.28470750916138882 0.40700291059353988 0 -0.27055725992908192 0.4057347094846987 0 -0.26274258787665228 0.41010996782981413 0 -0.27282348890510799 0.41536575281208932 0 -0.27736185737332258 0.40283513881721761 0 -0.27282348890510799 0.41536575281208932 0 -0.28470750916138882 0.40700291059353988 0 -0.27736185737332258 0.40283513881721761 0 -0.27055725992908192 0.4057347094846987 0 -0.27282348890510799 0.41536575281208932 0 -0.27282348890510799 0.41536575281208932 0 -0.26796829898215191 0.42976502981460862 0 -0.28374889751700427 0.43205808010950919 0 -0.26796829898215191 0.42976502981460862 0 -0.28374889751700427 0.43205808010950919 0 -0.26526083744267431 0.44417407470095688 0 -0.26079948647657392 0.42091303525218021 0 -0.27282348890510799 0.41536575281208932 0 -0.26796829898215191 0.42976502981460862 0 -0.28374889751700427 0.43205808010950919 0 -0.28470750916138882 0.40700291059353988 0 -0.28374889751700427 0.43205808010950919 0 -0.28470750916138882 0.40700291059353988 0 -0.29751827356996269 0.42007063248932353 0 -0.29751827356996269 0.42007063248932353 0 -0.30904190525021591 0.41010350268965939 0 -0.3119532156062072 0.43081776769941632 0 -0.28470750916138882 0.40700291059353988 0 -0.29751827356996269 0.42007063248932353 0 -0.30904190525021591 0.41010350268965939 0 -0.28374889751700427 0.43205808010950919 0 -0.29751827356996269 0.42007063248932353 0 -0.3119532156062072 0.43081776769941632 0 -0.28374889751700427 0.43205808010950919 0 -0.3119532156062072 0.43081776769941632 0 -0.31050752858297742 0.45541228310926729 0 -0.31050752858297742 0.45541228310926729 0 -0.28279028587261967 0.4571132496254785 0 -0.29405696711547569 0.4738505062638334 0 -0.28374889751700427 0.43205808010950919 0 -0.28279028587261967 0.4571132496254785 0 -0.28374889751700427 0.43205808010950919 0 -0.31050752858297742 0.45541228310926729 0 -0.28279028587261967 0.4571132496254785 0 -0.28374889751700427 0.43205808010950919 0 -0.28279028587261967 0.4571132496254785 0 -0.26526083744267431 0.44417407470095688 0 -0.28279028587261967 0.4571132496254785 0 -0.26342496349609951 0.4607983715385302 0 -0.26526083744267431 0.44417407470095688 0 -0.28279028587261967 0.4571132496254785 0 -0.26342496349609951 0.4607983715385302 0 -0.27430104449147469 0.47614557846821209 0 -0.26342496349609951 0.4607983715385302 0 -0.25381995339722718 0.47609427898681239 0 -0.24095269627650159 0.45046467591119088 0 -0.26342496349609951 0.4607983715385302 0 -0.26526083744267431 0.44417407470095688 0 -0.24095269627650159 0.45046467591119088 0 -0.25403631530162057 0.43243169108781832 0 -0.26526083744267431 0.44417407470095688 0 -0.24095269627650159 0.45046467591119088 0 -0.25381995339722718 0.47609427898681239 0 -0.26625271188881727 0.5 0 -0.24505829213240191 0.48999556900025693 0 -0.26342496349609951 0.4607983715385302 0 -0.25381995339722718 0.47609427898681239 0 -0.27430104449147469 0.47614557846821209 0 -0.25381995339722718 0.47609427898681239 0 -0.27430104449147469 0.47614557846821209 0 -0.26625271188881727 0.5 0 -0.27430104449147469 0.47614557846821209 0 -0.26625271188881727 0.5 0 -0.28544441188576009 0.48752006702315093 0 -0.26625271188881727 0.5 0 -0.28544441188576009 0.48752006702315093 0 -0.29374150386738729 0.5 0 -0.28544441188576009 0.48752006702315093 0 -0.29374150386738729 0.5 0 -0.29886983206564588 0.48760425038370908 0 -0.28279028587261967 0.4571132496254785 0 -0.27430104449147469 0.47614557846821209 0 -0.29405696711547569 0.4738505062638334 0 -0.27430104449147469 0.47614557846821209 0 -0.28544441188576009 0.48752006702315093 0 -0.29405696711547569 0.4738505062638334 0 -0.28544441188576009 0.48752006702315093 0 -0.29405696711547569 0.4738505062638334 0 -0.29886983206564588 0.48760425038370908 0 -0.31050752858297742 0.45541228310926729 0 -0.29405696711547569 0.4738505062638334 0 -0.30924718109674892 0.4787595169291925 0 -0.29405696711547569 0.4738505062638334 0 -0.30924718109674892 0.4787595169291925 0 -0.29886983206564588 0.48760425038370908 0 -0.30924718109674892 0.4787595169291925 0 -0.31026803186043428 0.49630814218410979 0 -0.29886983206564588 0.48760425038370908 0 -0.29374150386738729 0.5 0 -0.31026803186043428 0.49630814218410979 0 -0.3212302958459573 0.5 0 -0.29374150386738729 0.5 0 -0.31026803186043428 0.49630814218410979 0 -0.29886983206564588 0.48760425038370908 0 -0.3212302958459573 0.5 0 -0.33476650862485391 0.48894110201344487 0 -0.32455217012598131 0.47576040504927802 0 -0.31026803186043428 0.49630814218410979 0 -0.3212302958459573 0.5 0 -0.32455217012598131 0.47576040504927802 0 -0.31026803186043428 0.49630814218410979 0 -0.32455217012598131 0.47576040504927802 0 -0.3212302958459573 0.5 0 -0.33476650862485391 0.48894110201344487 0 -0.34871908782452737 0.5 0 -0.33476650862485391 0.48894110201344487 0 -0.34219818706038979 0.47324033932605902 0 -0.34871908782452737 0.5 0 -0.33476650862485391 0.48894110201344487 0 -0.34219818706038979 0.47324033932605902 0 -0.32455217012598131 0.47576040504927802 0 -0.31050752858297742 0.45541228310926729 0 -0.30924718109674892 0.4787595169291925 0 -0.32455217012598131 0.47576040504927802 0 -0.30924718109674892 0.4787595169291925 0 -0.31026803186043428 0.49630814218410979 0 -0.32455217012598131 0.47576040504927802 0 -0.31050752858297742 0.45541228310926729 0 -0.32455217012598131 0.47576040504927802 0 -0.33883630839152817 0.45521266791444631 0 -0.3119532156062072 0.43081776769941632 0 -0.31050752858297742 0.45541228310926729 0 -0.32922404838729369 0.43975842702051021 0 -0.31050752858297742 0.45541228310926729 0 -0.32922404838729369 0.43975842702051021 0 -0.33883630839152817 0.45521266791444631 0 -0.35312044665707509 0.43466493077961449 0 -0.32922404838729369 0.43975842702051021 0 -0.33883630839152817 0.45521266791444631 0 -0.32455217012598131 0.47576040504927802 0 -0.33883630839152817 0.45521266791444631 0 -0.34219818706038979 0.47324033932605902 0 -0.32455217012598131 0.47576040504927802 0 -0.33883630839152817 0.45521266791444631 0 -0.34219818706038979 0.47324033932605902 0 -0.3565840079797099 0.45323189669297193 0 -0.3600109042242764 0.47257720122722169 0 -0.34219818706038979 0.47324033932605902 0 -0.33883630839152817 0.45521266791444631 0 -0.3565840079797099 0.45323189669297193 0 -0.35312044665707509 0.43466493077961449 0 -0.33883630839152817 0.45521266791444631 0 -0.3564133880876092 0.44369554265044692 0 -0.33883630839152817 0.45521266791444631 0 -0.3565840079797099 0.45323189669297193 0 -0.3564133880876092 0.44369554265044692 0 -0.35312044665707509 0.43466493077961449 0 -0.33883630839152817 0.45521266791444631 0 -0.3565840079797099 0.45323189669297193 0 -0.3564133880876092 0.44369554265044692 0 -0.36087859392843757 0.44792754440029281 0 -0.35312044665707509 0.43466493077961449 0 -0.3564133880876092 0.44369554265044692 0 -0.36015735016681072 0.44243092115708049 0 -0.3564133880876092 0.44369554265044692 0 -0.36015735016681072 0.44243092115708049 0 -0.36087859392843757 0.44792754440029281 0 -0.35312044665707509 0.43466493077961449 0 -0.3660165678866692 0.44185090254978582 0 -0.35312044665707509 0.43466493077961449 0 -0.36015735016681072 0.44243092115708049 0 -0.3660165678866692 0.44185090254978582 0 -0.36015735016681072 0.44243092115708049 0 -0.36435775427426198 0.44401568540526209 0 -0.36087859392843757 0.44792754440029281 0 -0.3660165678866692 0.44185090254978582 0 -0.36435775427426198 0.44401568540526209 0 -0.36730380585777139 0.44730229719289588 0 -0.36015735016681072 0.44243092115708049 0 -0.3660165678866692 0.44185090254978582 0 -0.36435775427426198 0.44401568540526209 0 -0.3565840079797099 0.45323189669297193 0 -0.36087859392843757 0.44792754440029281 0 -0.36730380585777139 0.44730229719289588 0 -0.36515306286189858 0.44662440763319139 0 -0.36087859392843757 0.44792754440029281 0 -0.36730380585777139 0.44730229719289588 0 -0.36435775427426198 0.44401568540526209 0 -0.36515306286189858 0.44662440763319139 0 -0.36087859392843757 0.44792754440029281 0 -0.36435775427426198 0.44401568540526209 0 -0.36515306286189858 0.44662440763319139 0 -0.36730380585777139 0.44730229719289588 0 -0.36515306286189858 0.44662440763319139 0 -0.36730380585777139 0.44730229719289588 0 -0.3565840079797099 0.45323189669297193 0 -0.36730380585777139 0.44730229719289588 0 -0.3600109042242764 0.47257720122722169 0 -0.36730380585777139 0.44730229719289588 0 -0.3600109042242764 0.47257720122722169 0 -0.37838733059780499 0.47089647310786659 0 -0.36730380585777139 0.44730229719289588 0 -0.3600109042242764 0.47257720122722169 0 -0.37620787980309761 0.5 0 -0.37838733059780499 0.47089647310786659 0 -0.3600109042242764 0.47257720122722169 0 -0.37620787980309761 0.5 0 -0.3600109042242764 0.47257720122722169 0 -0.34871908782452737 0.5 0 -0.34219818706038979 0.47324033932605902 0 -0.3600109042242764 0.47257720122722169 0 -0.34871908782452737 0.5 0 -0.15036482881209171 0.48238111653585092 0 -0.13167946935475039 0.48572897040798302 0 -0.14893430645646949 0.46338634674793833 0 -0.15036482881209171 0.48238111653585092 0 -0.14893430645646949 0.46338634674793833 0 -0.1691189861823007 0.47772492145069068 0 -0.15036482881209171 0.48238111653585092 0 -0.13681340504149711 0.49999999999999861 0 -0.15743064292484019 0.5 0 -0.15036482881209171 0.48238111653585092 0 -0.13681340504149711 0.49999999999999861 0 -0.13167946935475039 0.48572897040798302 0 -0.13681340504149711 0.49999999999999861 0 -0.13167946935475039 0.48572897040798302 0 -0.13681340504149711 0.49999999999999861 0 -0.13167946935475039 0.48572897040798302 0 -0.1243666693260226 0.49519803337158957 0 -0.13167946935475039 0.48572897040798302 0 -0.1243666693260226 0.49519803337158957 0 -0.13167946935475039 0.48572897040798302 0 -0.14893430645646949 0.46338634674793833 0 -0.13167946935475039 0.48572897040798302 0 -0.12773902584999411 0.47477554416868678 0 -0.13167946935475039 0.48572897040798302 0 -0.12773902584999411 0.47477554416868678 0 -0.14893430645646949 0.46338634674793833 0 -0.13167946935475039 0.48572897040798302 0 -0.12773902584999411 0.47477554416868678 0 -0.1183242178867096 0.48738777208434098 0 -0.12773902584999411 0.47477554416868678 0 -0.13964126427685339 0.45883111446482139 0 -0.12773902584999411 0.47477554416868678 0 -0.13964126427685339 0.45883111446482139 0 -0.14893430645646949 0.46338634674793833 0 -0.12773902584999411 0.47477554416868678 0 -0.13964126427685339 0.45883111446482139 0 -0.1177949305002824 0.44713349961249971 0 -0.1346692166019966 0.44501009218672621 0 -0.1177949305002824 0.44713349961249971 0 -0.13964126427685339 0.45883111446482139 0 -0.1346692166019966 0.44501009218672621 0 -0.1177949305002824 0.44713349961249971 0 -0.1346692166019966 0.44501009218672621 0 -0.12653184718620369 0.4336263234919227 0 -0.1177949305002824 0.44713349961249971 0 -0.13964126427685339 0.45883111446482139 0 -0.1346692166019966 0.44501009218672621 0 -0.15154350270371111 0.44288668476095472 0 -0.1346692166019966 0.44501009218672621 0 -0.15154350270371111 0.44288668476095472 0 -0.14283905501164501 0.42568926773920662 0 -0.1346692166019966 0.44501009218672621 0 -0.15154350270371111 0.44288668476095472 0 -0.13964126427685339 0.45883111446482139 0 -0.15154350270371111 0.44288668476095472 0 -0.15154350270371111 0.44288668476095472 0 -0.14893430645646949 0.46338634674793833 0 -0.1661891435581932 0.44104372308789719 0 -0.13964126427685339 0.45883111446482139 0 -0.15154350270371111 0.44288668476095472 0 -0.14893430645646949 0.46338634674793833 0 -0.14893430645646949 0.46338634674793833 0 -0.16888229526069351 0.45919091945000101 0 -0.1661891435581932 0.44104372308789719 0 -0.14893430645646949 0.46338634674793833 0 -0.16888229526069351 0.45919091945000101 0 -0.1691189861823007 0.47772492145069068 0 -0.14893430645646949 0.46338634674793833 0 -0.1661891435581932 0.44104372308789719 0 -0.15154350270371111 0.44288668476095472 0 -0.1661891435581932 0.44104372308789719 0 -0.16888229526069351 0.45919091945000101 0 -0.18150783032229731 0.43911606742106468 0 -0.1872269264453742 0.45941071161403663 0 -0.18150783032229731 0.43911606742106468 0 -0.1872269264453742 0.45941071161403663 0 -0.18150783032229731 0.43911606742106468 0 -0.1872269264453742 0.45941071161403663 0 -0.18846705501909641 0.43824034033490289 0 -0.16888229526069351 0.45919091945000101 0 -0.1661891435581932 0.44104372308789719 0 -0.18150783032229731 0.43911606742106468 0 -0.1661891435581932 0.44104372308789719 0 -0.18150783032229731 0.43911606742106468 0 -0.1661891435581932 0.44104372308789719 0 -0.18150783032229731 0.43911606742106468 0 -0.17234642623033669 0.43307089502227603 0 -0.18150783032229731 0.43911606742106468 0 -0.18846705501909641 0.43824034033490289 0 -0.16888229526069351 0.45919091945000101 0 -0.1872269264453742 0.45941071161403663 0 -0.1691189861823007 0.47772492145069068 0 -0.1872269264453742 0.45941071161403663 0 -0.1691189861823007 0.47772492145069068 0 -0.19294602256845289 0.47970535580700813 0 -0.15036482881209171 0.48238111653585092 0 -0.1691189861823007 0.47772492145069068 0 -0.15743064292484019 0.5 0 -0.1691189861823007 0.47772492145069068 0 -0.15743064292484019 0.5 0 -0.17804788080818351 0.5 0 -0.1691189861823007 0.47772492145069068 0 -0.17804788080818351 0.5 0 -0.19294602256845289 0.47970535580700813 0 -0.19866511869152659 0.49999999999998102 0 -0.19294602256845289 0.47970535580700813 0 -0.20367243696081661 0.47941344677830089 0 -0.17804788080818351 0.5 0 -0.19866511869152659 0.49999999999998102 0 -0.19294602256845289 0.47970535580700813 0 -0.19866511869152659 0.49999999999998102 0 -0.19294602256845289 0.47970535580700813 0 -0.1872269264453742 0.45941071161403663 0 -0.19294602256845289 0.47970535580700813 0 -0.19294602256845289 0.47970535580700813 0 -0.20367243696081661 0.47941344677830089 0 -0.19606974598995591 0.45882689355660211 0 -0.20367243696081661 0.47941344677830089 0 -0.19606974598995591 0.45882689355660211 0 -0.20367243696081661 0.47941344677830089 0 -0.22849203162999429 0.47493126872778968 0 -0.21103871332828519 0.46499592571950149 0 -0.20367243696081661 0.47941344677830089 0 -0.21127512793167719 0.49999999999999961 0 -0.22426562675462269 0.49047517162088511 0 -0.20367243696081661 0.47941344677830089 0 -0.21127512793167719 0.49999999999999961 0 -0.19866511869152659 0.49999999999998102 0 -0.20367243696081661 0.47941344677830089 0 -0.21127512793167719 0.49999999999999961 0 -0.21127512793167719 0.49999999999999961 0 -0.22426562675462269 0.49047517162088511 0 -0.23796284383572361 0.498952297286682 0 -0.22849203162999429 0.47493126872778968 0 -0.23796284383572361 0.498952297286682 0 -0.22426562675462269 0.49047517162088511 0 -0.22849203162999429 0.47493126872778968 0 -0.23796284383572361 0.498952297286682 0 -0.20367243696081661 0.47941344677830089 0 -0.22426562675462269 0.49047517162088511 0 -0.22849203162999429 0.47493126872778968 0 -0.25381995339722718 0.47609427898681239 0 -0.22849203162999429 0.47493126872778968 0 -0.24505829213240191 0.48999556900025693 0 -0.22849203162999429 0.47493126872778968 0 -0.24505829213240191 0.48999556900025693 0 -0.23796284383572361 0.498952297286682 0 -0.26625271188881727 0.5 0 -0.24505829213240191 0.48999556900025693 0 -0.23796284383572361 0.498952297286682 0 -0.24095269627650159 0.45046467591119088 0 -0.22891678948807959 0.43425818627468532 0 -0.24058220489641291 0.42853180239755362 0 -0.25381995339722718 0.47609427898681239 0 -0.22849203162999429 0.47493126872778968 0 -0.24095269627650159 0.45046467591119088 0 -0.22849203162999429 0.47493126872778968 0 -0.21902121942426489 0.45091024016889719 0 -0.21103871332828519 0.46499592571950149 0 -0.22849203162999429 0.47493126872778968 0 -0.24095269627650159 0.45046467591119088 0 -0.21902121942426489 0.45091024016889719 0 -0.22849203162999429 0.47493126872778968 0 -0.21902121942426489 0.45091024016889719 0 -0.21902121942426489 0.45091024016889719 0 -0.2194446737638337 0.43133112945029711 0 -0.22891678948807959 0.43425818627468532 0 -0.24095269627650159 0.45046467591119088 0 -0.21902121942426489 0.45091024016889719 0 -0.22891678948807959 0.43425818627468532 0 -0.21902121942426489 0.45091024016889719 0 -0.20740844751581539 0.43585681470071252 0 -0.20955040721853549 0.42688921161000482 0 -0.21902121942426489 0.45091024016889719 0 -0.20955040721853549 0.42688921161000482 0 -0.21902121942426489 0.45091024016889719 0 -0.20440103625548331 0.44976604289612332 0 -0.20740844751581539 0.43585681470071252 0 -0.20367243696081661 0.47941344677830089 0 -0.21103871332828519 0.46499592571950149 0 -0.19606974598995591 0.45882689355660211 0 -0.21902121942426489 0.45091024016889719 0 -0.20440103625548331 0.44976604289612332 0 -0.21103871332828519 0.46499592571950149 0 -0.20440103625548331 0.44976604289612332 0 -0.21103871332828519 0.46499592571950149 0 -0.19606974598995591 0.45882689355660211 0 -0.1872269264453742 0.45941071161403663 0 -0.19294602256845289 0.47970535580700813 0 -0.19606974598995591 0.45882689355660211 0 -0.1872269264453742 0.45941071161403663 0 -0.19606974598995591 0.45882689355660211 0 -0.18846705501909641 0.43824034033490289 0 -0.19606974598995591 0.45882689355660211 0 -0.18846705501909641 0.43824034033490289 0 -0.20440103625548331 0.44976604289612332 0 -0.18846705501909641 0.43824034033490289 0 -0.20740844751581539 0.43585681470071252 0 -0.20440103625548331 0.44976604289612332 0 -0.19606974598995591 0.45882689355660211 0 -0.18846705501909641 0.43824034033490289 0 -0.18846705501909641 0.43824034033490289 0 -0.19740425155133379 0.428825100955191 0 -0.20740844751581539 0.43585681470071252 0 -0.18846705501909641 0.43824034033490289 0 -0.19740425155133379 0.428825100955191 0 -0.18315556632104071 0.42385790059244322 0 -0.18846705501909641 0.43824034033490289 0 -0.20740844751581539 0.43585681470071252 0 -0.19740425155133379 0.428825100955191 0 -0.19615505321339299 0.41893042290816379 0 -0.18315556632104071 0.42385790059244322 0 -0.19740425155133379 0.428825100955191 0 -0.19615505321339299 0.41893042290816379 0 -0.20955040721853549 0.42688921161000482 0 -0.19615505321339299 0.41893042290816379 0 -0.20955040721853549 0.42688921161000482 0 -0.1996395821943043 0.40175216889626558 0 -0.1893085730425566 0.41378299185042511 0 -0.1996395821943043 0.40175216889626558 0 -0.1778440776229869 0.40947546084998271 0 -0.1893085730425566 0.41378299185042511 0 -0.19615505321339299 0.41893042290816379 0 -0.1996395821943043 0.40175216889626558 0 -0.1893085730425566 0.41378299185042511 0 -0.19615505321339299 0.41893042290816379 0 -0.18315556632104071 0.42385790059244322 0 -0.2156848940836962 0.41947779048219308 0 -0.20955040721853549 0.42688921161000482 0 -0.1996395821943043 0.40175216889626558 0 -0.2156848940836962 0.41947779048219308 0 -0.21432444382948049 0.40938095571072508 0 -0.1996395821943043 0.40175216889626558 0 -0.20955040721853549 0.42688921161000482 0 -0.1996395821943043 0.40175216889626558 0 -0.2156848940836962 0.41947779048219308 0 -0.21432444382948049 0.40938095571072508 0 -0.2238045676602218 0.41545182534364761 0 -0.21902121942426489 0.45091024016889719 0 -0.20955040721853549 0.42688921161000482 0 -0.2194446737638337 0.43133112945029711 0 -0.19740425155133379 0.428825100955191 0 -0.20740844751581539 0.43585681470071252 0 -0.20955040721853549 0.42688921161000482 0 -0.2156848940836962 0.41947779048219308 0 -0.20955040721853549 0.42688921161000482 0 -0.2194446737638337 0.43133112945029711 0 -0.2194446737638337 0.43133112945029711 0 -0.22891678948807959 0.43425818627468532 0 -0.22405005860459209 0.42512021871570499 0 -0.22891678948807959 0.43425818627468532 0 -0.2318080969444585 0.42163851568810068 0 -0.24058220489641291 0.42853180239755362 0 -0.22891678948807959 0.43425818627468532 0 -0.22405005860459209 0.42512021871570499 0 -0.2318080969444585 0.42163851568810068 0 -0.2156848940836962 0.41947779048219308 0 -0.2194446737638337 0.43133112945029711 0 -0.22405005860459209 0.42512021871570499 0 -0.2156848940836962 0.41947779048219308 0 -0.22405005860459209 0.42512021871570499 0 -0.2238045676602218 0.41545182534364761 0 -0.22405005860459209 0.42512021871570499 0 -0.2238045676602218 0.41545182534364761 0 -0.2318080969444585 0.42163851568810068 0 -0.2238045676602218 0.41545182534364761 0 -0.22271754823615411 0.40713281538379192 0 -0.23190175443684369 0.41276157033918198 0 -0.21432444382948049 0.40938095571072508 0 -0.2238045676602218 0.41545182534364761 0 -0.22271754823615411 0.40713281538379192 0 -0.22271754823615411 0.40713281538379192 0 -0.23190175443684369 0.41276157033918198 0 -0.23104185854944151 0.40555855623608211 0 -0.23190175443684369 0.41276157033918198 0 -0.23764163437822799 0.40684142109944132 0 -0.23104185854944151 0.40555855623608211 0 -0.2238045676602218 0.41545182534364761 0 -0.23190175443684369 0.41276157033918198 0 -0.2318080969444585 0.42163851568810068 0 -0.23190175443684369 0.41276157033918198 0 -0.23975247372937131 0.41835443099879099 0 -0.23857259574436321 0.41201534512953208 0 -0.23190175443684369 0.41276157033918198 0 -0.2318080969444585 0.42163851568810068 0 -0.23975247372937131 0.41835443099879099 0 -0.23975247372937131 0.41835443099879099 0 -0.23857259574436321 0.41201534512953208 0 -0.2449945204330097 0.41010395808071443 0 -0.23190175443684369 0.41276157033918198 0 -0.23764163437822799 0.40684142109944132 0 -0.23857259574436321 0.41201534512953208 0 -0.23764163437822799 0.40684142109944132 0 -0.23857259574436321 0.41201534512953208 0 -0.2449945204330097 0.41010395808071443 0 -0.25447032304768408 0.41314830927361529 0 -0.2449945204330097 0.41010395808071443 0 -0.2486543677354095 0.42074152845041968 0 -0.23975247372937131 0.41835443099879099 0 -0.2449945204330097 0.41010395808071443 0 -0.2486543677354095 0.42074152845041968 0 -0.23975247372937131 0.41835443099879099 0 -0.2486543677354095 0.42074152845041968 0 -0.24058220489641291 0.42853180239755362 0 -0.25403631530162057 0.43243169108781832 0 -0.2486543677354095 0.42074152845041968 0 -0.24058220489641291 0.42853180239755362 0 -0.25403631530162057 0.43243169108781832 0 -0.24095269627650159 0.45046467591119088 0 -0.24058220489641291 0.42853180239755362 0 -0.2318080969444585 0.42163851568810068 0 -0.23975247372937131 0.41835443099879099 0 -0.24058220489641291 0.42853180239755362 0 -0.25312128223145541 0.37178480457244328 0 -0.24688149284123401 0.38896101214766021 0 -0.23149433421665849 0.37191664463003449 0 -0.24688149284123401 0.38896101214766021 0 -0.22874963888165631 0.38430831885413341 0 -0.23149433421665849 0.37191664463003449 0 -0.24688149284123401 0.38896101214766021 0 -0.2360393306837735 0.39954123331985691 0 -0.22603482191929469 0.39515559460545308 0 -0.25539120860364062 0.39491143968511128 0 -0.24688149284123401 0.38896101214766021 0 -0.2454187063172775 0.40112155437524821 0 -0.24688149284123401 0.38896101214766021 0 -0.22603482191929469 0.39515559460545308 0 -0.24688149284123401 0.38896101214766021 0 -0.2454187063172775 0.40112155437524821 0 -0.2360393306837735 0.39954123331985691 0 -0.25451008460704327 0.40456677896455162 0 -0.2449945204330097 0.41010395808071443 0 -0.2454187063172775 0.40112155437524821 0 -0.23764163437822799 0.40684142109944132 0 -0.2449945204330097 0.41010395808071443 0 -0.2454187063172775 0.40112155437524821 0 -0.23764163437822799 0.40684142109944132 0 -0.2454187063172775 0.40112155437524821 0 -0.2360393306837735 0.39954123331985691 0 -0.23764163437822799 0.40684142109944132 0 -0.2360393306837735 0.39954123331985691 0 -0.23104185854944151 0.40555855623608211 0 -0.22921747009716531 0.39960926145525688 0 -0.22603482191929469 0.39515559460545308 0 -0.2051881509973553 0.40135017706324561 0 -0.22271754823615411 0.40713281538379192 0 -0.22921747009716531 0.39960926145525688 0 -0.2051881509973553 0.40135017706324561 0 -0.2360393306837735 0.39954123331985691 0 -0.22921747009716531 0.39960926145525688 0 -0.22603482191929469 0.39515559460545308 0 -0.22271754823615411 0.40713281538379192 0 -0.23104185854944151 0.40555855623608211 0 -0.22921747009716531 0.39960926145525688 0 -0.2360393306837735 0.39954123331985691 0 -0.23104185854944151 0.40555855623608211 0 -0.22921747009716531 0.39960926145525688 0 -0.22603482191929469 0.39515559460545308 0 -0.21922714222905521 0.38740102366770229 0 -0.21227383731155261 0.39269052632196438 0 -0.24688149284123401 0.38896101214766021 0 -0.22603482191929469 0.39515559460545308 0 -0.22874963888165631 0.38430831885413341 0 -0.22603482191929469 0.39515559460545308 0 -0.21922714222905521 0.38740102366770229 0 -0.22874963888165631 0.38430831885413341 0 -0.21922714222905521 0.38740102366770229 0 -0.22874963888165631 0.38430831885413341 0 -0.220089509878094 0.38006137360080289 0 -0.22874963888165631 0.38430831885413341 0 -0.220089509878094 0.38006137360080289 0 -0.23149433421665849 0.37191664463003449 0 -0.20898790315467819 0.38478930495615798 0 -0.1936292268589728 0.38650797293683281 0 -0.2085671482665771 0.36649689356978532 0 -0.220089509878094 0.38006137360080289 0 -0.20898790315467819 0.38478930495615798 0 -0.2085671482665771 0.36649689356978532 0 -0.21922714222905521 0.38740102366770229 0 -0.20898790315467819 0.38478930495615798 0 -0.21227383731155261 0.39269052632196438 0 -0.21922714222905521 0.38740102366770229 0 -0.220089509878094 0.38006137360080289 0 -0.20898790315467819 0.38478930495615798 0 -0.20898790315467819 0.38478930495615798 0 -0.21227383731155261 0.39269052632196438 0 -0.20224002328731919 0.39252212185962521 0 -0.22921747009716531 0.39960926145525688 0 -0.2051881509973553 0.40135017706324561 0 -0.21432444382948049 0.40938095571072508 0 -0.22271754823615411 0.40713281538379192 0 -0.2051881509973553 0.40135017706324561 0 -0.22603482191929469 0.39515559460545308 0 -0.21227383731155261 0.39269052632196438 0 -0.2051881509973553 0.40135017706324561 0 -0.22603482191929469 0.39515559460545308 0 -0.2051881509973553 0.40135017706324561 0 -0.21227383731155261 0.39269052632196438 0 -0.2051881509973553 0.40135017706324561 0 -0.20224002328731919 0.39252212185962521 0 -0.21432444382948049 0.40938095571072508 0 -0.2051881509973553 0.40135017706324561 0 -0.1996395821943043 0.40175216889626558 0 -0.1996395821943043 0.40175216889626558 0 -0.1778440776229869 0.40947546084998271 0 -0.1996395821943043 0.40175216889626558 0 -0.1936292268589728 0.38650797293683281 0 -0.1812554424015034 0.40308409327464179 0 -0.1996395821943043 0.40175216889626558 0 -0.1812554424015034 0.40308409327464179 0 -0.2051881509973553 0.40135017706324561 0 -0.1996395821943043 0.40175216889626558 0 -0.20224002328731919 0.39252212185962521 0 -0.2051881509973553 0.40135017706324561 0 -0.1996395821943043 0.40175216889626558 0 -0.1996395821943043 0.40175216889626558 0 -0.20224002328731919 0.39252212185962521 0 -0.1936292268589728 0.38650797293683281 0 -0.1996395821943043 0.40175216889626558 0 -0.1936292268589728 0.38650797293683281 0 -0.1936292268589728 0.38650797293683281 0 -0.2085671482665771 0.36649689356978532 0 -0.1936292268589728 0.38650797293683281 0 -0.18659645502928149 0.36867059961556958 0 -0.20898790315467819 0.38478930495615798 0 -0.20224002328731919 0.39252212185962521 0 -0.1936292268589728 0.38650797293683281 0 -0.1936292268589728 0.38650797293683281 0 -0.17719838527153081 0.38991777350957679 0 -0.1759237473396438 0.37529474555321551 0 -0.1936292268589728 0.38650797293683281 0 -0.1759237473396438 0.37529474555321551 0 -0.18659645502928149 0.36867059961556958 0 -0.17719838527153081 0.38991777350957679 0 -0.1759237473396438 0.37529474555321551 0 -0.16586294129855181 0.38359899805513081 0 -0.16586294129855181 0.38359899805513081 0 -0.16008282057455309 0.3959096780185285 0 -0.14871841794981511 0.39120820888732061 0 -0.16008282057455309 0.3959096780185285 0 -0.1715520143685812 0.40378710317862943 0 -0.1541979086812624 0.40504440195303398 0 -0.16586294129855181 0.38359899805513081 0 -0.1715520143685812 0.40378710317862943 0 -0.16586294129855181 0.38359899805513081 0 -0.16008282057455309 0.3959096780185285 0 -0.1715520143685812 0.40378710317862943 0 -0.1715520143685812 0.40378710317862943 0 -0.1541979086812624 0.40504440195303398 0 -0.17719838527153081 0.38991777350957679 0 -0.16586294129855181 0.38359899805513081 0 -0.1715520143685812 0.40378710317862943 0 -0.1996395821943043 0.40175216889626558 0 -0.1812554424015034 0.40308409327464179 0 -0.1778440776229869 0.40947546084998271 0 -0.1715520143685812 0.40378710317862943 0 -0.17639889704624309 0.40556220342940441 0 -0.1812554424015034 0.40308409327464179 0 -0.1715520143685812 0.40378710317862943 0 -0.17639889704624309 0.40556220342940441 0 -0.1749918228297819 0.40767239861559812 0 -0.1936292268589728 0.38650797293683281 0 -0.17719838527153081 0.38991777350957679 0 -0.1812554424015034 0.40308409327464179 0 -0.1715520143685812 0.40378710317862943 0 -0.1812554424015034 0.40308409327464179 0 -0.17719838527153081 0.38991777350957679 0 -0.1715520143685812 0.40378710317862943 0 -0.1812554424015034 0.40308409327464179 0 -0.1936292268589728 0.38650797293683281 0 -0.1812554424015034 0.40308409327464179 0 -0.17639889704624309 0.40556220342940441 0 -0.1812554424015034 0.40308409327464179 0 -0.1778440776229869 0.40947546084998271 0 -0.1778440776229869 0.40947546084998271 0 -0.18315556632104071 0.42385790059244322 0 -0.1893085730425566 0.41378299185042511 0 -0.1778440776229869 0.40947546084998271 0 -0.18315556632104071 0.42385790059244322 0 -0.17406743505811639 0.41271326332543939 0 -0.1778440776229869 0.40947546084998271 0 -0.18315556632104071 0.42385790059244322 0 -0.17351732445845741 0.41076115434764171 0 -0.1760968283520204 0.40999465548416769 0 -0.17406743505811639 0.41271326332543939 0 -0.17351732445845741 0.41076115434764171 0 -0.1760968283520204 0.40999465548416769 0 -0.17406743505811639 0.41271326332543939 0 -0.1760968283520204 0.40999465548416769 0 -0.17406743505811639 0.41271326332543939 0 -0.17351732445845741 0.41076115434764171 0 -0.1715520143685812 0.40378710317862943 0 -0.17351732445845741 0.41076115434764171 0 -0.1749918228297819 0.40767239861559812 0 -0.1715520143685812 0.40378710317862943 0 -0.17351732445845741 0.41076115434764171 0 -0.17351732445845741 0.41076115434764171 0 -0.1749918228297819 0.40767239861559812 0 -0.1760968283520204 0.40999465548416769 0 -0.17639889704624309 0.40556220342940441 0 -0.1749918228297819 0.40767239861559812 0 -0.1778440776229869 0.40947546084998271 0 -0.1749918228297819 0.40767239861559812 0 -0.1760968283520204 0.40999465548416769 0 -0.1778440776229869 0.40947546084998271 0 -0.1812554424015034 0.40308409327464179 0 -0.1778440776229869 0.40947546084998271 0 -0.17639889704624309 0.40556220342940441 0 -0.1778440776229869 0.40947546084998271 0 -0.1760968283520204 0.40999465548416769 0 -0.1778440776229869 0.40947546084998271 0 -0.17406743505811639 0.41271326332543939 0 -0.1760968283520204 0.40999465548416769 0 -0.1778440776229869 0.40947546084998271 0 -0.18150783032229731 0.43911606742106468 0 -0.17406743505811639 0.41271326332543939 0 -0.17234642623033669 0.43307089502227603 0 -0.18150783032229731 0.43911606742106468 0 -0.17406743505811639 0.41271326332543939 0 -0.18315556632104071 0.42385790059244322 0 -0.18150783032229731 0.43911606742106468 0 -0.17406743505811639 0.41271326332543939 0 -0.18846705501909641 0.43824034033490289 0 -0.18315556632104071 0.42385790059244322 0 -0.18150783032229731 0.43911606742106468 0 -0.18846705501909641 0.43824034033490289 0 -0.18315556632104071 0.42385790059244322 0 -0.17406743505811639 0.41271326332543939 0 -0.17234642623033669 0.43307089502227603 0 -0.16280546888091779 0.42779997404320008 0 -0.1661891435581932 0.44104372308789719 0 -0.17234642623033669 0.43307089502227603 0 -0.1661891435581932 0.44104372308789719 0 -0.17234642623033669 0.43307089502227603 0 -0.16280546888091779 0.42779997404320008 0 -0.15154350270371111 0.44288668476095472 0 -0.16280546888091779 0.42779997404320008 0 -0.15154350270371111 0.44288668476095472 0 -0.1661891435581932 0.44104372308789719 0 -0.16280546888091779 0.42779997404320008 0 -0.1715520143685812 0.40378710317862943 0 -0.1666265752185016 0.41280873856493627 0 -0.1541979086812624 0.40504440195303398 0 -0.1715520143685812 0.40378710317862943 0 -0.17351732445845741 0.41076115434764171 0 -0.1666265752185016 0.41280873856493627 0 -0.17406743505811639 0.41271326332543939 0 -0.17351732445845741 0.41076115434764171 0 -0.1666265752185016 0.41280873856493627 0 -0.17351732445845741 0.41076115434764171 0 -0.1666265752185016 0.41280873856493627 0 -0.17406743505811639 0.41271326332543939 0 -0.16280546888091779 0.42779997404320008 0 -0.1666265752185016 0.41280873856493627 0 -0.17406743505811639 0.41271326332543939 0 -0.16280546888091779 0.42779997404320008 0 -0.16280546888091779 0.42779997404320008 0 -0.1666265752185016 0.41280873856493627 0 -0.15487190552364849 0.41779519579490337 0 -0.1666265752185016 0.41280873856493627 0 -0.15487190552364849 0.41779519579490337 0 -0.1541979086812624 0.40504440195303398 0 -0.15487190552364849 0.41779519579490337 0 -0.14283905501164501 0.42568926773920662 0 -0.13684380299394289 0.40630170072742888 0 -0.15487190552364849 0.41779519579490337 0 -0.13684380299394289 0.40630170072742888 0 -0.1541979086812624 0.40504440195303398 0 -0.15154350270371111 0.44288668476095472 0 -0.16280546888091779 0.42779997404320008 0 -0.14283905501164501 0.42568926773920662 0 -0.16280546888091779 0.42779997404320008 0 -0.15487190552364849 0.41779519579490337 0 -0.14283905501164501 0.42568926773920662 0 -0.1346692166019966 0.44501009218672621 0 -0.14283905501164501 0.42568926773920662 0 -0.12653184718620369 0.4336263234919227 0 -0.14283905501164501 0.42568926773920662 0 -0.12653184718620369 0.4336263234919227 0 -0.12583354385699089 0.42060104052817121 0 -0.14283905501164501 0.42568926773920662 0 -0.13684380299394289 0.40630170072742888 0 -0.12583354385699089 0.42060104052817121 0 -0.13684380299394289 0.40630170072742888 0 -0.12583354385699089 0.42060104052817121 0 -0.1236455351503008 0.40951412160870387 0 -0.13684380299394289 0.40630170072742888 0 -0.13328731423163501 0.39403750187845038 0 -0.1227247137401461 0.39959294009767438 0 -0.13684380299394289 0.40630170072742888 0 -0.1227247137401461 0.39959294009767438 0 -0.1236455351503008 0.40951412160870387 0 -0.13684380299394289 0.40630170072742888 0 -0.13328731423163501 0.39403750187845038 0 -0.14871841794981511 0.39120820888732061 0 -0.13328731423163501 0.39403750187845038 0 -0.12182170936468199 0.38797141707274679 0 -0.1227247137401461 0.39959294009767438 0 -0.13328731423163501 0.39403750187845038 0 -0.12984696498931361 0.38387547124717541 0 -0.12182170936468199 0.38797141707274679 0 -0.12984696498931361 0.38387547124717541 0 -0.12409617984858549 0.37797054131832492 0 -0.12182170936468199 0.38797141707274679 0 -0.12984696498931361 0.38387547124717541 0 -0.13466586913775 0.36927846796720781 0 -0.12409617984858549 0.37797054131832492 0 -0.12984696498931361 0.38387547124717541 0 -0.13952670270025991 0.38024243266649771 0 -0.13466586913775 0.36927846796720781 0 -0.13328731423163501 0.39403750187845038 0 -0.13952670270025991 0.38024243266649771 0 -0.14871841794981511 0.39120820888732061 0 -0.13328731423163501 0.39403750187845038 0 -0.12984696498931361 0.38387547124717541 0 -0.13952670270025991 0.38024243266649771 0 -0.16586294129855181 0.38359899805513081 0 -0.14871841794981511 0.39120820888732061 0 -0.14943532021980999 0.37410274272518063 0 -0.13952670270025991 0.38024243266649771 0 -0.14871841794981511 0.39120820888732061 0 -0.14943532021980999 0.37410274272518063 0 -0.13684380299394289 0.40630170072742888 0 -0.1541979086812624 0.40504440195303398 0 -0.13684380299394289 0.40630170072742888 0 -0.14871841794981511 0.39120820888732061 0 -0.1541979086812624 0.40504440195303398 0 -0.16008282057455309 0.3959096780185285 0 -0.14871841794981511 0.39120820888732061 0 -0.1541979086812624 0.40504440195303398 0 -0.14754590501543721 0.35767209473496431 0 -0.13945508869491549 0.33945215125243428 0 -0.1544847951584849 0.34322278780813548 0 -0.14754590501543721 0.35767209473496431 0 -0.1544847951584849 0.34322278780813548 0 -0.16017386822852039 0.36341089293163248 0 -0.14754590501543721 0.35767209473496431 0 -0.14943532021980999 0.37410274272518063 0 -0.13466586913775 0.36927846796720781 0 -0.14754590501543721 0.35767209473496431 0 -0.14943532021980999 0.37410274272518063 0 -0.16017386822852039 0.36341089293163248 0 -0.13952670270025991 0.38024243266649771 0 -0.14943532021980999 0.37410274272518063 0 -0.13466586913775 0.36927846796720781 0 -0.13466586913775 0.36927846796720781 0 -0.12064946039485799 0.36175199786925438 0 -0.12409617984858549 0.37797054131832492 0 -0.13466586913775 0.36927846796720781 0 -0.13039255960540619 0.35088903951061062 0 -0.12064946039485799 0.36175199786925438 0 -0.14754590501543721 0.35767209473496431 0 -0.13466586913775 0.36927846796720781 0 -0.13945508869491549 0.33945215125243428 0 -0.13466586913775 0.36927846796720781 0 -0.13945508869491549 0.33945215125243428 0 -0.13466586913775 0.36927846796720781 0 -0.13039255960540619 0.35088903951061062 0 -0.13945508869491549 0.33945215125243428 0 -0.13039255960540619 0.35088903951061062 0 -0.127802025433392 0.33652864330326893 0 -0.12064946039485799 0.36175199786925438 0 -0.13039255960540619 0.35088903951061062 0 -0.127802025433392 0.33652864330326893 0 -0.13945508869491549 0.33945215125243428 0 -0.1358168826942393 0.32856144984775087 0 -0.13945508869491549 0.33945215125243428 0 -0.14198994403037579 0.3236655711720845 0 -0.127802025433392 0.33652864330326893 0 -0.1358168826942393 0.32856144984775087 0 -0.13945508869491549 0.33945215125243428 0 -0.127802025433392 0.33652864330326893 0 -0.13945508869491549 0.33945215125243428 0 -0.127802025433392 0.33652864330326893 0 -0.13402047261827379 0.31459943366321591 0 -0.1208179330180239 0.3233426548663958 0 -0.13402047261827379 0.31459943366321591 0 -0.14198994403037579 0.3236655711720845 0 -0.1445247993658294 0.30787899109173372 0 -0.127802025433392 0.33652864330326893 0 -0.1358168826942393 0.32856144984775087 0 -0.13402047261827379 0.31459943366321591 0 -0.127802025433392 0.33652864330326893 0 -0.13402047261827379 0.31459943366321591 0 -0.1358168826942393 0.32856144984775087 0 -0.13402047261827379 0.31459943366321591 0 -0.14198994403037579 0.3236655711720845 0 -0.14198994403037579 0.3236655711720845 0 -0.1445247993658294 0.30787899109173372 0 -0.14950479726215621 0.32555088944993482 0 -0.14198994403037579 0.3236655711720845 0 -0.1445247993658294 0.30787899109173372 0 -0.14950479726215621 0.32555088944993482 0 -0.1564488278204739 0.31332749071601312 0 -0.1445247993658294 0.30787899109173372 0 -0.14950479726215621 0.32555088944993482 0 -0.1445247993658294 0.30787899109173372 0 -0.13945508869491549 0.33945215125243428 0 -0.14950479726215621 0.32555088944993482 0 -0.14198994403037579 0.3236655711720845 0 -0.13945508869491549 0.33945215125243428 0 -0.14950479726215621 0.32555088944993482 0 -0.1544847951584849 0.34322278780813548 0 -0.13945508869491549 0.33945215125243428 0 -0.14198994403037579 0.3236655711720845 0 -0.14950479726215621 0.32555088944993482 0 -0.1544847951584849 0.34322278780813548 0 -0.13945508869491549 0.33945215125243428 0 -0.1544847951584849 0.34322278780813548 0 -0.1544847951584849 0.34322278780813548 0 -0.16852227471057871 0.33340804636566329 0 -0.17145578382331189 0.3474804511498224 0 -0.14950479726215621 0.32555088944993482 0 -0.1544847951584849 0.34322278780813548 0 -0.16852227471057871 0.33340804636566329 0 -0.14950479726215621 0.32555088944993482 0 -0.16852227471057871 0.33340804636566329 0 -0.1680293359152541 0.31947244271011371 0 -0.14950479726215621 0.32555088944993482 0 -0.1564488278204739 0.31332749071601312 0 -0.1680293359152541 0.31947244271011371 0 -0.1564488278204739 0.31332749071601312 0 -0.1680293359152541 0.31947244271011371 0 -0.165936004880745 0.30943290709769972 0 -0.16852227471057871 0.33340804636566329 0 -0.1680293359152541 0.31947244271011371 0 -0.17763365994053279 0.32228494820697873 0 -0.1680293359152541 0.31947244271011371 0 -0.177471899209203 0.31071030275085437 0 -0.165936004880745 0.30943290709769972 0 -0.1680293359152541 0.31947244271011371 0 -0.17763365994053279 0.32228494820697873 0 -0.177471899209203 0.31071030275085437 0 -0.17763365994053279 0.32228494820697873 0 -0.18344069721493189 0.3314759202778193 0 -0.1907040926526965 0.31635802893044263 0 -0.17763365994053279 0.32228494820697873 0 -0.1907040926526965 0.31635802893044263 0 -0.177471899209203 0.31071030275085437 0 -0.16852227471057871 0.33340804636566329 0 -0.1786900937103183 0.34146588440466791 0 -0.17145578382331189 0.3474804511498224 0 -0.16852227471057871 0.33340804636566329 0 -0.17763365994053279 0.32228494820697873 0 -0.18344069721493189 0.3314759202778193 0 -0.16852227471057871 0.33340804636566329 0 -0.1786900937103183 0.34146588440466791 0 -0.18344069721493189 0.3314759202778193 0 -0.1786900937103183 0.34146588440466791 0 -0.18344069721493189 0.3314759202778193 0 -0.18902570567821761 0.34302328958551598 0 -0.1795636831995909 0.35083322629430641 0 -0.19311149161603541 0.35508256978836761 0 -0.18902570567821761 0.34302328958551598 0 -0.1786900937103183 0.34146588440466791 0 -0.1795636831995909 0.35083322629430641 0 -0.18902570567821761 0.34302328958551598 0 -0.1795636831995909 0.35083322629430641 0 -0.18659645502928149 0.36867059961556958 0 -0.19311149161603541 0.35508256978836761 0 -0.1795636831995909 0.35083322629430641 0 -0.17145578382331189 0.3474804511498224 0 -0.1720816073510047 0.35966223627054961 0 -0.1786900937103183 0.34146588440466791 0 -0.1795636831995909 0.35083322629430641 0 -0.17145578382331189 0.3474804511498224 0 -0.1544847951584849 0.34322278780813548 0 -0.17145578382331189 0.3474804511498224 0 -0.1544847951584849 0.34322278780813548 0 -0.16017386822852039 0.36341089293163248 0 -0.17145578382331189 0.3474804511498224 0 -0.16017386822852039 0.36341089293163248 0 -0.1720816073510047 0.35966223627054961 0 -0.1544847951584849 0.34322278780813548 0 -0.17145578382331189 0.3474804511498224 0 -0.16017386822852039 0.36341089293163248 0 -0.16586294129855181 0.38359899805513081 0 -0.14943532021980999 0.37410274272518063 0 -0.16017386822852039 0.36341089293163248 0 -0.1759237473396438 0.37529474555321551 0 -0.16017386822852039 0.36341089293163248 0 -0.1720816073510047 0.35966223627054961 0 -0.16586294129855181 0.38359899805513081 0 -0.16017386822852039 0.36341089293163248 0 -0.1759237473396438 0.37529474555321551 0 -0.16586294129855181 0.38359899805513081 0 -0.16017386822852039 0.36341089293163248 0 -0.1795636831995909 0.35083322629430641 0 -0.18659645502928149 0.36867059961556958 0 -0.1720816073510047 0.35966223627054961 0 -0.1795636831995909 0.35083322629430641 0 -0.18659645502928149 0.36867059961556958 0 -0.1759237473396438 0.37529474555321551 0 -0.18659645502928149 0.36867059961556958 0 -0.1720816073510047 0.35966223627054961 0 -0.18659645502928149 0.36867059961556958 0 -0.19311149161603541 0.35508256978836761 0 -0.2085671482665771 0.36649689356978532 0 -0.1936292268589728 0.38650797293683281 0 -0.18659645502928149 0.36867059961556958 0 -0.2085671482665771 0.36649689356978532 0 -0.19311149161603541 0.35508256978836761 0 -0.2040629197515236 0.34406992143909998 0 -0.2085671482665771 0.36649689356978532 0 -0.19311149161603541 0.35508256978836761 0 -0.2040629197515236 0.34406992143909998 0 -0.18902570567821761 0.34302328958551598 0 -0.2085671482665771 0.36649689356978532 0 -0.22350506967418041 0.34648581420273689 0 -0.2040629197515236 0.34406992143909998 0 -0.2085671482665771 0.36649689356978532 0 -0.22350506967418041 0.34648581420273689 0 -0.220089509878094 0.38006137360080289 0 -0.2085671482665771 0.36649689356978532 0 -0.23149433421665849 0.37191664463003449 0 -0.2085671482665771 0.36649689356978532 0 -0.23149433421665849 0.37191664463003449 0 -0.22350506967418041 0.34648581420273689 0 -0.23149433421665849 0.37191664463003449 0 -0.22350506967418041 0.34648581420273689 0 -0.241039142730791 0.35789964845884059 0 -0.22350506967418041 0.34648581420273689 0 -0.24061465764034129 0.34408284438474962 0 -0.241039142730791 0.35789964845884059 0 -0.25646036989131921 0.35522813450423879 0 -0.24061465764034129 0.34408284438474962 0 -0.241039142730791 0.35789964845884059 0 -0.25312128223145541 0.37178480457244328 0 -0.23149433421665849 0.37191664463003449 0 -0.241039142730791 0.35789964845884059 0 -0.25338091248938688 0.30646365546864041 0 -0.23844299108178371 0.32647473483568867 0 -0.25474707007556158 0.33891952561205912 0 -0.24061465764034129 0.34408284438474962 0 -0.23844299108178371 0.32647473483568867 0 -0.22350506967418041 0.34648581420273689 0 -0.23844299108178371 0.32647473483568867 0 -0.2131459736728101 0.32355783052722098 0 -0.22350506967418041 0.34648581420273689 0 -0.23844299108178371 0.32647473483568867 0 -0.22350506967418041 0.34648581420273689 0 -0.24061465764034129 0.34408284438474962 0 -0.23844299108178371 0.32647473483568867 0 -0.23844299108178371 0.32647473483568867 0 -0.2131459736728101 0.32355783052722098 0 -0.2281036998432813 0.30427954540199309 0 -0.2131459736728101 0.32355783052722098 0 -0.1907040926526965 0.31635802893044263 0 -0.2068690764578961 0.30478704572466248 0 -0.2040629197515236 0.34406992143909998 0 -0.2131459736728101 0.32355783052722098 0 -0.19656990340199171 0.33101413633189009 0 -0.2040629197515236 0.34406992143909998 0 -0.22350506967418041 0.34648581420273689 0 -0.2131459736728101 0.32355783052722098 0 -0.2040629197515236 0.34406992143909998 0 -0.19656990340199171 0.33101413633189009 0 -0.18902570567821761 0.34302328958551598 0 -0.18344069721493189 0.3314759202778193 0 -0.19656990340199171 0.33101413633189009 0 -0.18902570567821761 0.34302328958551598 0 -0.2131459736728101 0.32355783052722098 0 -0.19656990340199171 0.33101413633189009 0 -0.1907040926526965 0.31635802893044263 0 -0.18344069721493189 0.3314759202778193 0 -0.19656990340199171 0.33101413633189009 0 -0.1907040926526965 0.31635802893044263 0 -0.1907040926526965 0.31635802893044263 0 -0.18815991433295329 0.29779542937260178 0 -0.2068690764578961 0.30478704572466248 0 -0.18815991433295329 0.29779542937260178 0 -0.21423170178773959 0.28194439439105418 0 -0.2068690764578961 0.30478704572466248 0 -0.18815991433295329 0.29779542937260178 0 -0.21423170178773959 0.28194439439105418 0 -0.18718813573311449 0.27969030353578539 0 -0.21423170178773959 0.28194439439105418 0 -0.2068690764578961 0.30478704572466248 0 -0.2281036998432813 0.30427954540199309 0 -0.2131459736728101 0.32355783052722098 0 -0.2068690764578961 0.30478704572466248 0 -0.2281036998432813 0.30427954540199309 0 -0.21423170178773959 0.28194439439105418 0 -0.2281036998432813 0.30427954540199309 0 -0.24127526784236469 0.28419848524632291 0 -0.21423170178773959 0.28194439439105418 0 -0.24127526784236469 0.28419848524632291 0 -0.25338091248938688 0.30646365546864041 0 -0.23844299108178371 0.32647473483568867 0 -0.2281036998432813 0.30427954540199309 0 -0.25338091248938688 0.30646365546864041 0 -0.2281036998432813 0.30427954540199309 0 -0.24127526784236469 0.28419848524632291 0 -0.25124147401774211 0.23762226217384569 0 -0.25758647592664707 0.2638813985755446 0 -0.22983146302123131 0.25737430153518798 0 -0.25758647592664707 0.2638813985755446 0 -0.24127526784236469 0.28419848524632291 0 -0.22983146302123131 0.25737430153518798 0 -0.21423170178773959 0.28194439439105418 0 -0.24127526784236469 0.28419848524632291 0 -0.22983146302123131 0.25737430153518798 0 -0.22983146302123131 0.25737430153518798 0 -0.205553597989131 0.26150580031344489 0 -0.20938706557945219 0.23843414291351139 0 -0.21423170178773959 0.28194439439105418 0 -0.22983146302123131 0.25737430153518798 0 -0.205553597989131 0.26150580031344489 0 -0.21423170178773959 0.28194439439105418 0 -0.205553597989131 0.26150580031344489 0 -0.18718813573311449 0.27969030353578539 0 -0.21423170178773959 0.28194439439105418 0 -0.18718813573311449 0.27969030353578539 0 -0.205553597989131 0.26150580031344489 0 -0.18712962382411741 0.25008585919168602 0 -0.18718813573311449 0.27969030353578539 0 -0.205553597989131 0.26150580031344489 0 -0.18712962382411741 0.25008585919168602 0 -0.20938706557945219 0.23843414291351139 0 -0.18712962382411741 0.25008585919168602 0 -0.1708395831024879 0.26285197240963121 0 -0.17201299137271389 0.24603671229643051 0 -0.18712962382411741 0.25008585919168602 0 -0.1708395831024879 0.26285197240963121 0 -0.18718813573311449 0.27969030353578539 0 -0.1708395831024879 0.26285197240963121 0 -0.16076302832828671 0.25712584943817529 0 -0.17201299137271389 0.24603671229643051 0 -0.16076302832828671 0.25712584943817529 0 -0.15819105805983069 0.26646841397481391 0 -0.1503930546116993 0.26110708162770679 0 -0.1708395831024879 0.26285197240963121 0 -0.16076302832828671 0.25712584943817529 0 -0.15819105805983069 0.26646841397481391 0 -0.16076302832828671 0.25712584943817529 0 -0.1503930546116993 0.26110708162770679 0 -0.15849465336154589 0.24630261166939491 0 -0.1708395831024879 0.26285197240963121 0 -0.16014456967848939 0.27743621268051671 0 -0.15819105805983069 0.26646841397481391 0 -0.16014456967848939 0.27743621268051671 0 -0.18718813573311449 0.27969030353578539 0 -0.1708395831024879 0.26285197240963121 0 -0.16014456967848939 0.27743621268051671 0 -0.18718813573311449 0.27969030353578539 0 -0.18815991433295329 0.29779542937260178 0 -0.18718813573311449 0.27969030353578539 0 -0.17324007775025671 0.2889865175530883 0 -0.18815991433295329 0.29779542937260178 0 -0.17324007775025671 0.2889865175530883 0 -0.17006451210513929 0.29924582841910602 0 -0.16014456967848939 0.27743621268051671 0 -0.18718813573311449 0.27969030353578539 0 -0.17324007775025671 0.2889865175530883 0 -0.18815991433295329 0.29779542937260178 0 -0.177471899209203 0.31071030275085437 0 -0.17006451210513929 0.29924582841910602 0 -0.1907040926526965 0.31635802893044263 0 -0.18815991433295329 0.29779542937260178 0 -0.177471899209203 0.31071030275085437 0 -0.165936004880745 0.30943290709769972 0 -0.17006451210513929 0.29924582841910602 0 -0.1538181981446822 0.3004842672011816 0 -0.177471899209203 0.31071030275085437 0 -0.165936004880745 0.30943290709769972 0 -0.17006451210513929 0.29924582841910602 0 -0.1564488278204739 0.31332749071601312 0 -0.165936004880745 0.30943290709769972 0 -0.1538181981446822 0.3004842672011816 0 -0.17006451210513929 0.29924582841910602 0 -0.1606432569015869 0.29076481375743157 0 -0.1538181981446822 0.3004842672011816 0 -0.16014456967848939 0.27743621268051671 0 -0.17324007775025671 0.2889865175530883 0 -0.1606432569015869 0.29076481375743157 0 -0.17324007775025671 0.2889865175530883 0 -0.17006451210513929 0.29924582841910602 0 -0.1606432569015869 0.29076481375743157 0 -0.16014456967848939 0.27743621268051671 0 -0.1606432569015869 0.29076481375743157 0 -0.1544307149425366 0.28459838963774148 0 -0.1606432569015869 0.29076481375743157 0 -0.1544307149425366 0.28459838963774148 0 -0.15396945443651441 0.29101451288186392 0 -0.1544307149425366 0.28459838963774148 0 -0.14730703102064269 0.29055179998687658 0 -0.15008926267544931 0.2732246088820186 0 -0.1407332125698762 0.29092711205602562 0 -0.14447915668427089 0.28148058290361672 0 -0.14116617675910401 0.27228677453103017 0 -0.14730703102064269 0.29055179998687658 0 -0.15008926267544931 0.2732246088820186 0 -0.14730703102064269 0.29055179998687658 0 -0.14447915668427089 0.28148058290361672 0 -0.15008926267544931 0.2732246088820186 0 -0.1544307149425366 0.28459838963774148 0 -0.15396945443651441 0.29101451288186392 0 -0.14730703102064269 0.29055179998687658 0 -0.1606432569015869 0.29076481375743157 0 -0.15396945443651441 0.29101451288186392 0 -0.1538181981446822 0.3004842672011816 0 -0.15396945443651441 0.29101451288186392 0 -0.14730703102064269 0.29055179998687658 0 -0.1538181981446822 0.3004842672011816 0 -0.14730703102064269 0.29055179998687658 0 -0.1407332125698762 0.29092711205602562 0 -0.14023891980314471 0.29267022402315968 0 -0.14730703102064269 0.29055179998687658 0 -0.1407332125698762 0.29092711205602562 0 -0.14447915668427089 0.28148058290361672 0 -0.14730703102064269 0.29055179998687658 0 -0.1445247993658294 0.30787899109173372 0 -0.14730703102064269 0.29055179998687658 0 -0.1445247993658294 0.30787899109173372 0 -0.14023891980314471 0.29267022402315968 0 -0.14730703102064269 0.29055179998687658 0 -0.1538181981446822 0.3004842672011816 0 -0.1445247993658294 0.30787899109173372 0 -0.1564488278204739 0.31332749071601312 0 -0.1538181981446822 0.3004842672011816 0 -0.1445247993658294 0.30787899109173372 0 -0.1445247993658294 0.30787899109173372 0 -0.14023891980314471 0.29267022402315968 0 -0.13402047261827379 0.31459943366321591 0 -0.14023891980314471 0.29267022402315968 0 -0.13402047261827379 0.31459943366321591 0 -0.14023891980314471 0.29267022402315968 0 -0.11951352674528889 0.29573834667700499 0 -0.13402047261827379 0.31459943366321591 0 -0.1445247993658294 0.30787899109173372 0 -0.14023891980314471 0.29267022402315968 0 -0.14023891980314471 0.29267022402315968 0 -0.1193064873638774 0.27478810971615419 0 -0.11951352674528889 0.29573834667700499 0 -0.1407332125698762 0.29092711205602562 0 -0.14023891980314471 0.29267022402315968 0 -0.13216156808548279 0.26400713188352481 0 -0.1407332125698762 0.29092711205602562 0 -0.14023891980314471 0.29267022402315968 0 -0.14023891980314471 0.29267022402315968 0 -0.13216156808548279 0.26400713188352481 0 -0.1193064873638774 0.27478810971615419 0 -0.1407332125698762 0.29092711205602562 0 -0.13216156808548279 0.26400713188352481 0 -0.14116617675910401 0.27228677453103017 0 -0.14023891980314471 0.29267022402315968 0 -0.13216156808548279 0.26400713188352481 0 -0.13216156808548279 0.26400713188352481 0 -0.1216953518658548 0.25506607473002069 0 -0.1240842163678311 0.23534403974388701 0 -0.13216156808548279 0.26400713188352481 0 -0.1503930546116993 0.26110708162770679 0 -0.1417636236240036 0.24415226059194911 0 -0.1503930546116993 0.26110708162770679 0 -0.15849465336154589 0.24630261166939491 0 -0.1417636236240036 0.24415226059194911 0 -0.1503930546116993 0.26110708162770679 0 -0.15849465336154589 0.24630261166939491 0 -0.13216156808548279 0.26400713188352481 0 -0.1503930546116993 0.26110708162770679 0 -0.14116617675910401 0.27228677453103017 0 -0.16014456967848939 0.27743621268051671 0 -0.15819105805983069 0.26646841397481391 0 -0.15008926267544931 0.2732246088820186 0 -0.15819105805983069 0.26646841397481391 0 -0.1503930546116993 0.26110708162770679 0 -0.15008926267544931 0.2732246088820186 0 -0.16014456967848939 0.27743621268051671 0 -0.1544307149425366 0.28459838963774148 0 -0.15008926267544931 0.2732246088820186 0 -0.14447915668427089 0.28148058290361672 0 -0.15008926267544931 0.2732246088820186 0 -0.14116617675910401 0.27228677453103017 0 -0.1503930546116993 0.26110708162770679 0 -0.15008926267544931 0.2732246088820186 0 -0.14116617675910401 0.27228677453103017 0 -0.10701037718875719 0.27282773420177597 0 -0.1024215871121078 0.26215264693147228 0 -0.112207414283161 0.26317011359104842 0 -0.10701037718875719 0.27282773420177597 0 -0.095634817441002468 0.26940241790795422 0 -0.1024215871121078 0.26215264693147228 0 -0.10701037718875719 0.27282773420177597 0 -0.0967505402678695 0.2807376927231236 0 -0.1083662038588707 0.28430583755538957 0 -0.10701037718875719 0.27282773420177597 0 -0.0967505402678695 0.2807376927231236 0 -0.095634817441002468 0.26940241790795422 0 -0.095634817441002468 0.26940241790795422 0 -0.1024215871121078 0.26215264693147228 0 -0.089943107215429585 0.25816419963501308 0 -0.1024215871121078 0.26215264693147228 0 -0.089943107215429585 0.25816419963501308 0 -0.10625519902310331 0.24894121247517381 0 -0.089943107215429585 0.25816419963501308 0 -0.10625519902310331 0.24894121247517381 0 -0.088923442773677641 0.2428954043945287 0 -0.1024215871121078 0.26215264693147228 0 -0.112207414283161 0.26317011359104842 0 -0.10625519902310331 0.24894121247517381 0 -0.112207414283161 0.26317011359104842 0 -0.1216953518658548 0.25506607473002069 0 -0.1193064873638774 0.27478810971615419 0 -0.1216953518658548 0.25506607473002069 0 -0.1193064873638774 0.27478810971615419 0 -0.13216156808548279 0.26400713188352481 0 -0.1216953518658548 0.25506607473002069 0 -0.1193064873638774 0.27478810971615419 0 -0.112207414283161 0.26317011359104842 0 -0.1216953518658548 0.25506607473002069 0 -0.10625519902310331 0.24894121247517381 0 -0.10701037718875719 0.27282773420177597 0 -0.112207414283161 0.26317011359104842 0 -0.1193064873638774 0.27478810971615419 0 -0.10701037718875719 0.27282773420177597 0 -0.1193064873638774 0.27478810971615419 0 -0.1083662038588707 0.28430583755538957 0 -0.1193064873638774 0.27478810971615419 0 -0.11951352674528889 0.29573834667700499 0 -0.1083662038588707 0.28430583755538957 0 -0.13402047261827379 0.31459943366321591 0 -0.11951352674528889 0.29573834667700499 0 -0.1123571474708088 0.31272256710581819 0 -0.11951352674528889 0.29573834667700499 0 -0.099250087728560699 0.29743730445888927 0 -0.1123571474708088 0.31272256710581819 0 -0.099250087728560699 0.29743730445888927 0 -0.094922504102749175 0.31409556473017403 0 -0.1123571474708088 0.31272256710581819 0 -0.0967505402678695 0.2807376927231236 0 -0.099250087728560699 0.29743730445888927 0 -0.1083662038588707 0.28430583755538957 0 -0.11951352674528889 0.29573834667700499 0 -0.099250087728560699 0.29743730445888927 0 -0.1083662038588707 0.28430583755538957 0 -0.099250087728560699 0.29743730445888927 0 -0.083399928076496488 0.28682609001186887 0 -0.076912640643010927 0.30469961213334251 0 -0.0967505402678695 0.2807376927231236 0 -0.099250087728560699 0.29743730445888927 0 -0.083399928076496488 0.28682609001186887 0 -0.099250087728560699 0.29743730445888927 0 -0.076912640643010927 0.30469961213334251 0 -0.094922504102749175 0.31409556473017403 0 -0.076912640643010927 0.30469961213334251 0 -0.067842447492994465 0.28745264814399762 0 -0.060449691190533762 0.29999331893973502 0 -0.076912640643010927 0.30469961213334251 0 -0.060449691190533762 0.29999331893973502 0 -0.058290619237973067 0.31908969664955178 0 -0.083399928076496488 0.28682609001186887 0 -0.076912640643010927 0.30469961213334251 0 -0.067842447492994465 0.28745264814399762 0 -0.083399928076496488 0.28682609001186887 0 -0.067842447492994465 0.28745264814399762 0 -0.073185374046240759 0.27665291396354302 0 -0.068682187409612766 0.26969178320318687 0 -0.073185374046240759 0.27665291396354302 0 -0.060987869501014848 0.274113340431833 0 -0.067842447492994465 0.28745264814399762 0 -0.073185374046240759 0.27665291396354302 0 -0.060987869501014848 0.274113340431833 0 -0.068682187409612766 0.26969178320318687 0 -0.065024613879518536 0.2622704101821165 0 -0.060987869501014848 0.274113340431833 0 -0.068682187409612766 0.26969178320318687 0 -0.074792949453744748 0.26849526520345968 0 -0.073185374046240759 0.27665291396354302 0 -0.074792949453744748 0.26849526520345968 0 -0.083689977974341148 0.2709991903350214 0 -0.075379520658553634 0.26099478626167077 0 -0.074792949453744748 0.26849526520345968 0 -0.073185374046240759 0.27665291396354302 0 -0.083689977974341148 0.2709991903350214 0 -0.068682187409612766 0.26969178320318687 0 -0.074792949453744748 0.26849526520345968 0 -0.073027687179975612 0.2641376522538767 0 -0.0967505402678695 0.2807376927231236 0 -0.083399928076496488 0.28682609001186887 0 -0.083689977974341148 0.2709991903350214 0 -0.083399928076496488 0.28682609001186887 0 -0.073185374046240759 0.27665291396354302 0 -0.083689977974341148 0.2709991903350214 0 -0.083689977974341148 0.2709991903350214 0 -0.075379520658553634 0.26099478626167077 0 -0.095634817441002468 0.26940241790795422 0 -0.083689977974341148 0.2709991903350214 0 -0.089943107215429585 0.25816419963501308 0 -0.0967505402678695 0.2807376927231236 0 -0.095634817441002468 0.26940241790795422 0 -0.083689977974341148 0.2709991903350214 0 -0.089943107215429585 0.25816419963501308 0 -0.075379520658553634 0.26099478626167077 0 -0.088923442773677641 0.2428954043945287 0 -0.075379520658553634 0.26099478626167077 0 -0.088923442773677641 0.2428954043945287 0 -0.083689977974341148 0.2709991903350214 0 -0.089943107215429585 0.25816419963501308 0 -0.075379520658553634 0.26099478626167077 0 -0.075379520658553634 0.26099478626167077 0 -0.058684454871330401 0.24089671249510741 0 -0.075379520658553634 0.26099478626167077 0 -0.065024613879518536 0.2622704101821165 0 -0.059283572062676322 0.25669736346003491 0 -0.075379520658553634 0.26099478626167077 0 -0.059283572062676322 0.25669736346003491 0 -0.058684454871330401 0.24089671249510741 0 -0.075379520658553634 0.26099478626167077 0 -0.073027687179975612 0.2641376522538767 0 -0.065024613879518536 0.2622704101821165 0 -0.074792949453744748 0.26849526520345968 0 -0.075379520658553634 0.26099478626167077 0 -0.073027687179975612 0.2641376522538767 0 -0.075379520658553634 0.26099478626167077 0 -0.073027687179975612 0.2641376522538767 0 -0.068682187409612766 0.26969178320318687 0 -0.073027687179975612 0.2641376522538767 0 -0.065024613879518536 0.2622704101821165 0 -0.059283572062676322 0.25669736346003491 0 -0.044684585048828732 0.25364523157778279 0 -0.058684454871330401 0.24089671249510741 0 -0.065024613879518536 0.2622704101821165 0 -0.059283572062676322 0.25669736346003491 0 -0.052978198735318879 0.26471820334385499 0 -0.059283572062676322 0.25669736346003491 0 -0.052978198735318879 0.26471820334385499 0 -0.044684585048828732 0.25364523157778279 0 -0.065024613879518536 0.2622704101821165 0 -0.052978198735318879 0.26471820334385499 0 -0.060987869501014848 0.274113340431833 0 -0.052978198735318879 0.26471820334385499 0 -0.046231940097944381 0.27438534818238602 0 -0.042457042734334781 0.26488998997383661 0 -0.052978198735318879 0.26471820334385499 0 -0.060987869501014848 0.274113340431833 0 -0.046231940097944381 0.27438534818238602 0 -0.060987869501014848 0.274113340431833 0 -0.046231940097944381 0.27438534818238602 0 -0.053166782542409648 0.28729009856405258 0 -0.046231940097944381 0.27438534818238602 0 -0.034060992438127498 0.27277577762256427 0 -0.037670751057185169 0.28601095440611302 0 -0.046231940097944381 0.27438534818238602 0 -0.034060992438127498 0.27277577762256427 0 -0.042457042734334781 0.26488998997383661 0 -0.034060992438127498 0.27277577762256427 0 -0.042457042734334781 0.26488998997383661 0 -0.032855902840705081 0.2609624233304893 0 -0.044684585048828732 0.25364523157778279 0 -0.032855902840705081 0.2609624233304893 0 -0.028224460930672039 0.24786102306797789 0 -0.052978198735318879 0.26471820334385499 0 -0.044684585048828732 0.25364523157778279 0 -0.042457042734334781 0.26488998997383661 0 -0.044684585048828732 0.25364523157778279 0 -0.042457042734334781 0.26488998997383661 0 -0.032855902840705081 0.2609624233304893 0 -0.032855902840705081 0.2609624233304893 0 -0.02118178781633704 0.26040260152103012 0 -0.028224460930672039 0.24786102306797789 0 -0.02118178781633704 0.26040260152103012 0 -0.01292667695621828 0.26021059831846272 0 -0.028224460930672039 0.24786102306797789 0 -0.032855902840705081 0.2609624233304893 0 -0.02118178781633704 0.26040260152103012 0 -0.026787187870216202 0.26942518628239742 0 -0.02118178781633704 0.26040260152103012 0 -0.01292667695621828 0.26021059831846272 0 -0.019050068385695181 0.28355994265550588 0 -0.034060992438127498 0.27277577762256427 0 -0.019050068385695181 0.28355994265550588 0 -0.037670751057185169 0.28601095440611302 0 -0.02118178781633704 0.26040260152103012 0 -0.019050068385695181 0.28355994265550588 0 -0.034060992438127498 0.27277577762256427 0 -0.032855902840705081 0.2609624233304893 0 -0.026787187870216202 0.26942518628239742 0 -0.02118178781633704 0.26040260152103012 0 -0.026787187870216202 0.26942518628239742 0 -0.019050068385695181 0.28355994265550588 0 -0.034060992438127498 0.27277577762256427 0 -0.026787187870216202 0.26942518628239742 0 -0.019050068385695181 0.28355994265550588 0 -0.003274538635535746 0.26908299884594111 0 -0.002156139922442863 0.28621280957184281 0 0.0031113325240992242 0.27793868923660842 0 -0.01292667695621828 0.26021059831846272 0 -0.002156139922442863 0.28621280957184281 0 -0.003274538635535746 0.26908299884594111 0 -0.01292667695621828 0.26021059831846272 0 -0.002156139922442863 0.28621280957184281 0 -0.01292667695621828 0.26021059831846272 0 -0.002156139922442863 0.28621280957184281 0 -0.019050068385695181 0.28355994265550588 0 -0.003274538635535746 0.26908299884594111 0 -0.0021990067430706149 0.26168932046446503 0 0.0011902785683393809 0.26692144956961572 0 -0.0021990067430706149 0.26168932046446503 0 -0.00011193775520391721 0.25517212070728618 0 0.0011902785683393809 0.26692144956961572 0 -0.003274538635535746 0.26908299884594111 0 -0.0066670192839213254 0.26152512591465221 0 -0.01292667695621828 0.26021059831846272 0 -0.003274538635535746 0.26908299884594111 0 -0.0066670192839213254 0.26152512591465221 0 -0.0021990067430706149 0.26168932046446503 0 -0.0066670192839213254 0.26152512591465221 0 -0.0021990067430706149 0.26168932046446503 0 -0.0069593859884252499 0.25657207441499907 0 -0.0021990067430706149 0.26168932046446503 0 -0.00011193775520391721 0.25517212070728618 0 -0.0021990067430706149 0.26168932046446503 0 -0.00011193775520391721 0.25517212070728618 0 -0.0069593859884252499 0.25657207441499907 0 -0.00011193775520391721 0.25517212070728618 0 -0.0069593859884252499 0.25657207441499907 0 -0.0096905366651163487 0.249625733408574 0 -0.0069593859884252499 0.25657207441499907 0 -0.01292667695621828 0.26021059831846272 0 -0.0096905366651163487 0.249625733408574 0 -0.0066670192839213254 0.26152512591465221 0 -0.0069593859884252499 0.25657207441499907 0 -0.01292667695621828 0.26021059831846272 0 -0.002156139922442863 0.28621280957184281 0 -0.016918348955053321 0.30671728378998181 0 0.0086143971113345399 0.31221502082522212 0 -0.002156139922442863 0.28621280957184281 0 -0.019050068385695181 0.28355994265550588 0 -0.016918348955053321 0.30671728378998181 0 -0.019050068385695181 0.28355994265550588 0 -0.016918348955053321 0.30671728378998181 0 -0.03102417527610565 0.29940206575135397 0 -0.019050068385695181 0.28355994265550588 0 -0.03102417527610565 0.29940206575135397 0 -0.037670751057185169 0.28601095440611302 0 -0.019050068385695181 0.28355994265550588 0 -0.016918348955053321 0.30671728378998181 0 -0.016918348955053321 0.30671728378998181 0 -0.03102417527610565 0.29940206575135397 0 -0.035445741946313863 0.31928760869743911 0 -0.03102417527610565 0.29940206575135397 0 -0.046035966036280698 0.30143453920773061 0 -0.035445741946313863 0.31928760869743911 0 -0.03102417527610565 0.29940206575135397 0 -0.046035966036280698 0.30143453920773061 0 -0.037670751057185169 0.28601095440611302 0 -0.046035966036280698 0.30143453920773061 0 -0.037670751057185169 0.28601095440611302 0 -0.053166782542409648 0.28729009856405258 0 -0.046231940097944381 0.27438534818238602 0 -0.037670751057185169 0.28601095440611302 0 -0.053166782542409648 0.28729009856405258 0 -0.046035966036280698 0.30143453920773061 0 -0.053166782542409648 0.28729009856405258 0 -0.060449691190533762 0.29999331893973502 0 -0.067842447492994465 0.28745264814399762 0 -0.053166782542409648 0.28729009856405258 0 -0.060449691190533762 0.29999331893973502 0 -0.067842447492994465 0.28745264814399762 0 -0.060987869501014848 0.274113340431833 0 -0.053166782542409648 0.28729009856405258 0 -0.046035966036280698 0.30143453920773061 0 -0.060449691190533762 0.29999331893973502 0 -0.058290619237973067 0.31908969664955178 0 -0.058290619237973067 0.31908969664955178 0 -0.049474953708455227 0.33748992700664898 0 -0.035445741946313863 0.31928760869743911 0 -0.058290619237973067 0.31908969664955178 0 -0.049474953708455227 0.33748992700664898 0 -0.064023584101980183 0.33590151203636959 0 -0.049474953708455227 0.33748992700664898 0 -0.061861516436751432 0.35343473464786512 0 -0.064023584101980183 0.33590151203636959 0 -0.049474953708455227 0.33748992700664898 0 -0.03262843748424326 0.34319381666539672 0 -0.035445741946313863 0.31928760869743911 0 -0.046035966036280698 0.30143453920773061 0 -0.058290619237973067 0.31908969664955178 0 -0.035445741946313863 0.31928760869743911 0 -0.016918348955053321 0.30671728378998181 0 -0.014786629524411451 0.32987462492445768 0 -0.016918348955053321 0.30671728378998181 0 -0.035445741946313863 0.31928760869743911 0 -0.014786629524411451 0.32987462492445768 0 -0.03262843748424326 0.34319381666539672 0 -0.035445741946313863 0.31928760869743911 0 -0.014786629524411451 0.32987462492445768 0 -0.03262843748424326 0.34319381666539672 0 -0.014786629524411451 0.32987462492445768 0 -0.01265491009377208 0.35303196605893378 0 -0.0067863524078850606 0.34948112208733911 0 0.00091402235172630131 0.33084807145628131 0 0.00352664657360207 0.34324111351580311 0 -0.014786629524411451 0.32987462492445768 0 -0.0067863524078850606 0.34948112208733911 0 0.00091402235172630131 0.33084807145628131 0 -0.0067863524078850606 0.34948112208733911 0 0.00091402235172630131 0.33084807145628131 0 -0.014786629524411451 0.32987462492445768 0 -0.01265491009377208 0.35303196605893378 0 -0.016918348955053321 0.30671728378998181 0 -0.014786629524411451 0.32987462492445768 0 0.00091402235172630131 0.33084807145628131 0 -0.016918348955053321 0.30671728378998181 0 0.00091402235172630131 0.33084807145628131 0 0.0086143971113345399 0.31221502082522212 0 -0.01185315850765473 0.36174157142157132 0 -0.01859800525147505 0.37806247459832981 0 -0.01185315850765473 0.36174157142157132 0 -0.01107788045841877 0.37016358887950601 0 -0.01859800525147505 0.37806247459832981 0 -0.01185315850765473 0.36174157142157132 0 -0.01265491009377208 0.35303196605893378 0 -0.021900420160448769 0.36714355059229342 0 -0.01185315850765473 0.36174157142157132 0 -0.01107788045841877 0.37016358887950601 0 -0.0025736289457283651 0.36123100961101179 0 -0.01185315850765473 0.36174157142157132 0 -0.01107788045841877 0.37016358887950601 0 -0.01107788045841877 0.37016358887950601 0 -0.0022610491863152291 0.37261641259158551 0 -0.010404342119991141 0.37748038528613848 0 -0.01107788045841877 0.37016358887950601 0 -0.01859800525147505 0.37806247459832981 0 -0.01107788045841877 0.37016358887950601 0 -0.01859800525147505 0.37806247459832981 0 -0.011540410179137321 0.37526469641744048 0 -0.01107788045841877 0.37016358887950601 0 -0.010404342119991141 0.37748038528613848 0 -0.011540410179137321 0.37526469641744048 0 -0.01107788045841877 0.37016358887950601 0 -0.010404342119991141 0.37748038528613848 0 -0.01107788045841877 0.37016358887950601 0 -0.0022610491863152291 0.37261641259158551 0 -0.0025736289457283651 0.36123100961101179 0 -0.01107788045841877 0.37016358887950601 0 -0.0025736289457283651 0.36123100961101179 0 -0.01185315850765473 0.36174157142157132 0 -0.0025736289457283651 0.36123100961101179 0 -0.0067863524078850606 0.34948112208733911 0 -0.0025736289457283651 0.36123100961101179 0 -0.0067863524078850606 0.34948112208733911 0 0.0038867047330880238 0.35524624533010579 0 -0.014786629524411451 0.32987462492445768 0 -0.0067863524078850606 0.34948112208733911 0 -0.01265491009377208 0.35303196605893378 0 -0.0067863524078850606 0.34948112208733911 0 0.00352664657360207 0.34324111351580311 0 -0.0067863524078850606 0.34948112208733911 0 -0.01265491009377208 0.35303196605893378 0 -0.01185315850765473 0.36174157142157132 0 -0.0067863524078850606 0.34948112208733911 0 -0.01265491009377208 0.35303196605893378 0 -0.01185315850765473 0.36174157142157132 0 -0.01265491009377208 0.35303196605893378 0 -0.01185315850765473 0.36174157142157132 0 -0.0067863524078850606 0.34948112208733911 0 -0.01265491009377208 0.35303196605893378 0 -0.033181703852697503 0.36545195846189371 0 -0.03262843748424326 0.34319381666539672 0 -0.01265491009377208 0.35303196605893378 0 -0.033181703852697503 0.36545195846189371 0 -0.01265491009377208 0.35303196605893378 0 -0.021900420160448769 0.36714355059229342 0 -0.033181703852697503 0.36545195846189371 0 -0.01185315850765473 0.36174157142157132 0 -0.021900420160448769 0.36714355059229342 0 -0.01859800525147505 0.37806247459832981 0 -0.021900420160448769 0.36714355059229342 0 -0.033181703852697503 0.36545195846189371 0 -0.035239545781749197 0.38016752181997299 0 -0.033181703852697503 0.36545195846189371 0 -0.053708497611622469 0.37787195086485448 0 -0.035239545781749197 0.38016752181997299 0 -0.033181703852697503 0.36545195846189371 0 -0.045172417349331258 0.35456290915451821 0 -0.053708497611622469 0.37787195086485448 0 -0.033181703852697503 0.36545195846189371 0 -0.053708497611622469 0.37787195086485448 0 -0.049474953708455227 0.33748992700664898 0 -0.03262843748424326 0.34319381666539672 0 -0.045172417349331258 0.35456290915451821 0 -0.03262843748424326 0.34319381666539672 0 -0.033181703852697503 0.36545195846189371 0 -0.045172417349331258 0.35456290915451821 0 -0.049474953708455227 0.33748992700664898 0 -0.045172417349331258 0.35456290915451821 0 -0.061861516436751432 0.35343473464786512 0 -0.061861516436751432 0.35343473464786512 0 -0.071119897719893146 0.37135249078060723 0 -0.053708497611622469 0.37787195086485448 0 -0.045172417349331258 0.35456290915451821 0 -0.061861516436751432 0.35343473464786512 0 -0.053708497611622469 0.37787195086485448 0 -0.071119897719893146 0.37135249078060723 0 -0.087537876712825355 0.35822434741815151 0 -0.074314185768825342 0.35710435420561498 0 -0.061861516436751432 0.35343473464786512 0 -0.071119897719893146 0.37135249078060723 0 -0.074314185768825342 0.35710435420561498 0 -0.087537876712825355 0.35822434741815151 0 -0.1010170173262686 0.36715648701043341 0 -0.088942563050748852 0.3752687555785052 0 -0.071119897719893146 0.37135249078060723 0 -0.087537876712825355 0.35822434741815151 0 -0.088942563050748852 0.3752687555785052 0 -0.087537876712825355 0.35822434741815151 0 -0.076737452205831433 0.34540584397583629 0 -0.074314185768825342 0.35710435420561498 0 -0.087537876712825355 0.35822434741815151 0 -0.076737452205831433 0.34540584397583629 0 -0.092345894717351343 0.3430617879442226 0 -0.061861516436751432 0.35343473464786512 0 -0.076737452205831433 0.34540584397583629 0 -0.064023584101980183 0.33590151203636959 0 -0.061861516436751432 0.35343473464786512 0 -0.076737452205831433 0.34540584397583629 0 -0.074314185768825342 0.35710435420561498 0 -0.076737452205831433 0.34540584397583629 0 -0.064023584101980183 0.33590151203636959 0 -0.081461087969779536 0.32490267886745722 0 -0.058290619237973067 0.31908969664955178 0 -0.081461087969779536 0.32490267886745722 0 -0.076912640643010927 0.30469961213334251 0 -0.058290619237973067 0.31908969664955178 0 -0.081461087969779536 0.32490267886745722 0 -0.058290619237973067 0.31908969664955178 0 -0.064023584101980183 0.33590151203636959 0 -0.081461087969779536 0.32490267886745722 0 -0.081461087969779536 0.32490267886745722 0 -0.1046315567015859 0.33071566108536249 0 -0.094922504102749175 0.31409556473017403 0 -0.081461087969779536 0.32490267886745722 0 -0.1046315567015859 0.33071566108536249 0 -0.076912640643010927 0.30469961213334251 0 -0.081461087969779536 0.32490267886745722 0 -0.094922504102749175 0.31409556473017403 0 -0.081461087969779536 0.32490267886745722 0 -0.092345894717351343 0.3430617879442226 0 -0.1046315567015859 0.33071566108536249 0 -0.076737452205831433 0.34540584397583629 0 -0.081461087969779536 0.32490267886745722 0 -0.092345894717351343 0.3430617879442226 0 -0.092345894717351343 0.3430617879442226 0 -0.1046315567015859 0.33071566108536249 0 -0.1056639718810469 0.34957315410511552 0 -0.1046315567015859 0.33071566108536249 0 -0.094922504102749175 0.31409556473017403 0 -0.1123571474708088 0.31272256710581819 0 -0.1046315567015859 0.33071566108536249 0 -0.1123571474708088 0.31272256710581819 0 -0.1208179330180239 0.3233426548663958 0 -0.13402047261827379 0.31459943366321591 0 -0.1123571474708088 0.31272256710581819 0 -0.1208179330180239 0.3233426548663958 0 -0.127802025433392 0.33652864330326893 0 -0.1046315567015859 0.33071566108536249 0 -0.1208179330180239 0.3233426548663958 0 -0.127802025433392 0.33652864330326893 0 -0.1046315567015859 0.33071566108536249 0 -0.127802025433392 0.33652864330326893 0 -0.1046315567015859 0.33071566108536249 0 -0.1056639718810469 0.34957315410511552 0 -0.127802025433392 0.33652864330326893 0 -0.12064946039485799 0.36175199786925438 0 -0.1056639718810469 0.34957315410511552 0 -0.127802025433392 0.33652864330326893 0 -0.12064946039485799 0.36175199786925438 0 -0.12064946039485799 0.36175199786925438 0 -0.1010170173262686 0.36715648701043341 0 -0.1073265901474993 0.37799449046736211 0 -0.12064946039485799 0.36175199786925438 0 -0.1134968953563239 0.38697535243523989 0 -0.12064946039485799 0.36175199786925438 0 -0.1010170173262686 0.36715648701043341 0 -0.1056639718810469 0.34957315410511552 0 -0.1010170173262686 0.36715648701043341 0 -0.097922465712378837 0.37968505039470007 0 -0.1073265901474993 0.37799449046736211 0 -0.1010170173262686 0.36715648701043341 0 -0.097922465712378837 0.37968505039470007 0 -0.088942563050748852 0.3752687555785052 0 -0.087537876712825355 0.35822434741815151 0 -0.092345894717351343 0.3430617879442226 0 -0.1056639718810469 0.34957315410511552 0 -0.087537876712825355 0.35822434741815151 0 -0.1010170173262686 0.36715648701043341 0 -0.1056639718810469 0.34957315410511552 0 -0.1071323807826971 0.39848149802177252 0 -0.1095660833553561 0.385559597085601 0 -0.099387962445081843 0.40910799399308889 0 -0.099852770390436343 0.39770962187327952 0 -0.1095660833553561 0.385559597085601 0 -0.099387962445081843 0.40910799399308889 0 -0.1095660833553561 0.385559597085601 0 -0.099387962445081843 0.40910799399308889 0 -0.099852770390436343 0.39770962187327952 0 -0.1012904898863705 0.38639273643342759 0 -0.092236131645059005 0.40620230976523353 0 -0.1012904898863705 0.38639273643342759 0 -0.092236131645059005 0.40620230976523353 0 -0.1012904898863705 0.38639273643342759 0 -0.090652595520233845 0.3935044995436745 0 -0.092236131645059005 0.40620230976523353 0 -0.1071323807826971 0.39848149802177252 0 -0.1095660833553561 0.385559597085601 0 -0.1098869863941008 0.39220188579097548 0 -0.1071323807826971 0.39848149802177252 0 -0.110215867919171 0.40298479214337818 0 -0.1062829114791239 0.4063173546176107 0 -0.1071323807826971 0.39848149802177252 0 -0.1062829114791239 0.4063173546176107 0 -0.099387962445081843 0.40910799399308889 0 -0.110215867919171 0.40298479214337818 0 -0.11053070609709779 0.40838516378315481 0 -0.1062829114791239 0.4063173546176107 0 -0.099852770390436343 0.39770962187327952 0 -0.099387962445081843 0.40910799399308889 0 -0.092236131645059005 0.40620230976523353 0 -0.1012904898863705 0.38639273643342759 0 -0.097922465712378837 0.37968505039470007 0 -0.090792301401334943 0.38527997033883032 0 -0.1012904898863705 0.38639273643342759 0 -0.090652595520233845 0.3935044995436745 0 -0.090792301401334943 0.38527997033883032 0 -0.1012904898863705 0.38639273643342759 0 -0.097922465712378837 0.37968505039470007 0 -0.1073265901474993 0.37799449046736211 0 -0.099852770390436343 0.39770962187327952 0 -0.1012904898863705 0.38639273643342759 0 -0.1095660833553561 0.385559597085601 0 -0.1012904898863705 0.38639273643342759 0 -0.1073265901474993 0.37799449046736211 0 -0.1095660833553561 0.385559597085601 0 -0.1134968953563239 0.38697535243523989 0 -0.12182170936468199 0.38797141707274679 0 -0.1145906530040092 0.39120460698619619 0 -0.111770356605617 0.38895807136107857 0 -0.1095660833553561 0.385559597085601 0 -0.1134968953563239 0.38697535243523989 0 -0.12064946039485799 0.36175199786925438 0 -0.1073265901474993 0.37799449046736211 0 -0.1134968953563239 0.38697535243523989 0 -0.111770356605617 0.38895807136107857 0 -0.1095660833553561 0.385559597085601 0 -0.1098869863941008 0.39220188579097548 0 -0.12064946039485799 0.36175199786925438 0 -0.1134968953563239 0.38697535243523989 0 -0.12409617984858549 0.37797054131832492 0 -0.1073265901474993 0.37799449046736211 0 -0.1095660833553561 0.385559597085601 0 -0.1134968953563239 0.38697535243523989 0 -0.111770356605617 0.38895807136107857 0 -0.1134968953563239 0.38697535243523989 0 -0.1145906530040092 0.39120460698619619 0 -0.1134968953563239 0.38697535243523989 0 -0.12409617984858549 0.37797054131832492 0 -0.12182170936468199 0.38797141707274679 0 -0.1177472055668977 0.39367980817949938 0 -0.113922824786007 0.39770308352651218 0 -0.1227247137401461 0.39959294009767438 0 -0.12182170936468199 0.38797141707274679 0 -0.1177472055668977 0.39367980817949938 0 -0.1227247137401461 0.39959294009767438 0 -0.12182170936468199 0.38797141707274679 0 -0.1177472055668977 0.39367980817949938 0 -0.1145906530040092 0.39120460698619619 0 -0.1177472055668977 0.39367980817949938 0 -0.1145906530040092 0.39120460698619619 0 -0.113922824786007 0.39770308352651218 0 -0.1071323807826971 0.39848149802177252 0 -0.113922824786007 0.39770308352651218 0 -0.1098869863941008 0.39220188579097548 0 -0.111770356605617 0.38895807136107857 0 -0.1145906530040092 0.39120460698619619 0 -0.1098869863941008 0.39220188579097548 0 -0.1145906530040092 0.39120460698619619 0 -0.113922824786007 0.39770308352651218 0 -0.1098869863941008 0.39220188579097548 0 -0.113922824786007 0.39770308352651218 0 -0.110215867919171 0.40298479214337818 0 -0.1156211577823493 0.40588521031978753 0 -0.110215867919171 0.40298479214337818 0 -0.1156211577823493 0.40588521031978753 0 -0.11053070609709779 0.40838516378315481 0 -0.1071323807826971 0.39848149802177252 0 -0.113922824786007 0.39770308352651218 0 -0.110215867919171 0.40298479214337818 0 -0.113922824786007 0.39770308352651218 0 -0.1156211577823493 0.40588521031978753 0 -0.1227247137401461 0.39959294009767438 0 -0.1156211577823493 0.40588521031978753 0 -0.1227247137401461 0.39959294009767438 0 -0.1236455351503008 0.40951412160870387 0 -0.1152835438849148 0.41447652666147639 0 -0.1115224899601036 0.42969771739301132 0 -0.10525004941993001 0.41226193517352111 0 -0.1156211577823493 0.40588521031978753 0 -0.1236455351503008 0.40951412160870387 0 -0.1152835438849148 0.41447652666147639 0 -0.12583354385699089 0.42060104052817121 0 -0.1236455351503008 0.40951412160870387 0 -0.1152835438849148 0.41447652666147639 0 -0.12583354385699089 0.42060104052817121 0 -0.1152835438849148 0.41447652666147639 0 -0.1115224899601036 0.42969771739301132 0 -0.1156211577823493 0.40588521031978753 0 -0.1152835438849148 0.41447652666147639 0 -0.11053070609709779 0.40838516378315481 0 -0.1152835438849148 0.41447652666147639 0 -0.11053070609709779 0.40838516378315481 0 -0.10525004941993001 0.41226193517352111 0 -0.12653184718620369 0.4336263234919227 0 -0.1115224899601036 0.42969771739301132 0 -0.1177949305002824 0.44713349961249971 0 -0.12653184718620369 0.4336263234919227 0 -0.12583354385699089 0.42060104052817121 0 -0.1115224899601036 0.42969771739301132 0 -0.10011511243938651 0.42414974138102107 0 -0.099387962445081843 0.40910799399308889 0 -0.089209841534809292 0.43265639090057739 0 -0.1115224899601036 0.42969771739301132 0 -0.10011511243938651 0.42414974138102107 0 -0.10525004941993001 0.41226193517352111 0 -0.1115224899601036 0.42969771739301132 0 -0.10353443919384681 0.43653209462802589 0 -0.10011511243938651 0.42414974138102107 0 -0.10353443919384681 0.43653209462802589 0 -0.10011511243938651 0.42414974138102107 0 -0.089209841534809292 0.43265639090057739 0 -0.1115224899601036 0.42969771739301132 0 -0.10525004941993001 0.41226193517352111 0 -0.099387962445081843 0.40910799399308889 0 -0.089209841534809292 0.43265639090057739 0 -0.10525004941993001 0.41226193517352111 0 -0.1062829114791239 0.4063173546176107 0 -0.099387962445081843 0.40910799399308889 0 -0.11053070609709779 0.40838516378315481 0 -0.10525004941993001 0.41226193517352111 0 -0.1062829114791239 0.4063173546176107 0 -0.10011511243938651 0.42414974138102107 0 -0.10525004941993001 0.41226193517352111 0 -0.099387962445081843 0.40910799399308889 0 -0.099387962445081843 0.40910799399308889 0 -0.091003927257174946 0.41849464443898471 0 -0.092236131645059005 0.40620230976523353 0 -0.099387962445081843 0.40910799399308889 0 -0.091003927257174946 0.41849464443898471 0 -0.089209841534809292 0.43265639090057739 0 -0.083181773403748688 0.42601188309703991 0 -0.092236131645059005 0.40620230976523353 0 -0.082687394812680753 0.41298560074296392 0 -0.083181773403748688 0.42601188309703991 0 -0.092236131645059005 0.40620230976523353 0 -0.091003927257174946 0.41849464443898471 0 -0.083181773403748688 0.42601188309703991 0 -0.092236131645059005 0.40620230976523353 0 -0.082687394812680753 0.41298560074296392 0 -0.083561060598767514 0.40596050324180499 0 -0.092236131645059005 0.40620230976523353 0 -0.082687394812680753 0.41298560074296392 0 -0.083181773403748688 0.42601188309703991 0 -0.072528074783786117 0.41426872059824033 0 -0.082687394812680753 0.41298560074296392 0 -0.078117185115211984 0.40786305820790569 0 -0.083561060598767514 0.40596050324180499 0 -0.091003927257174946 0.41849464443898471 0 -0.089209841534809292 0.43265639090057739 0 -0.083181773403748688 0.42601188309703991 0 -0.089209841534809292 0.43265639090057739 0 -0.083181773403748688 0.42601188309703991 0 -0.089209841534809292 0.43265639090057739 0 -0.083181773403748688 0.42601188309703991 0 -0.079149693293618234 0.43483346763042741 0 -0.083181773403748688 0.42601188309703991 0 -0.079149693293618234 0.43483346763042741 0 -0.083181773403748688 0.42601188309703991 0 -0.079149693293618234 0.43483346763042741 0 -0.066791245495585266 0.42526780044426132 0 -0.079149693293618234 0.43483346763042741 0 -0.066791245495585266 0.42526780044426132 0 -0.061698169792609281 0.44011466250837472 0 -0.079149693293618234 0.43483346763042741 0 -0.066791245495585266 0.42526780044426132 0 -0.083181773403748688 0.42601188309703991 0 -0.066791245495585266 0.42526780044426132 0 -0.072528074783786117 0.41426872059824033 0 -0.082687394812680753 0.41298560074296392 0 -0.078117185115211984 0.40786305820790569 0 -0.072528074783786117 0.41426872059824033 0 -0.078117185115211984 0.40786305820790569 0 -0.072528074783786117 0.41426872059824033 0 -0.072641434039588226 0.40435679660259488 0 -0.083181773403748688 0.42601188309703991 0 -0.072528074783786117 0.41426872059824033 0 -0.066791245495585266 0.42526780044426132 0 -0.072528074783786117 0.41426872059824033 0 -0.062254787702593913 0.41179277406868198 0 -0.072528074783786117 0.41426872059824033 0 -0.061874376163823117 0.40252555809944113 0 -0.072528074783786117 0.41426872059824033 0 -0.061874376163823117 0.40252555809944113 0 -0.062254787702593913 0.41179277406868198 0 -0.072528074783786117 0.41426872059824033 0 -0.072641434039588226 0.40435679660259488 0 -0.061874376163823117 0.40252555809944113 0 -0.071986596115658302 0.39495829288983392 0 -0.072641434039588226 0.40435679660259488 0 -0.061874376163823117 0.40252555809944113 0 -0.071986596115658302 0.39495829288983392 0 -0.068603448285188551 0.38461821436657051 0 -0.060783872192197129 0.39236200885398209 0 -0.071986596115658302 0.39495829288983392 0 -0.061874376163823117 0.40252555809944113 0 -0.060783872192197129 0.39236200885398209 0 -0.071986596115658302 0.39495829288983392 0 -0.079167961341237381 0.40174366985392479 0 -0.082971165670244235 0.39339195997946219 0 -0.071986596115658302 0.39495829288983392 0 -0.082971165670244235 0.39339195997946219 0 -0.079163886241576914 0.38428213297514141 0 -0.071986596115658302 0.39495829288983392 0 -0.072641434039588226 0.40435679660259488 0 -0.079167961341237381 0.40174366985392479 0 -0.078117185115211984 0.40786305820790569 0 -0.072641434039588226 0.40435679660259488 0 -0.079167961341237381 0.40174366985392479 0 -0.078117185115211984 0.40786305820790569 0 -0.083561060598767514 0.40596050324180499 0 -0.079167961341237381 0.40174366985392479 0 -0.079167961341237381 0.40174366985392479 0 -0.082971165670244235 0.39339195997946219 0 -0.086063653401424134 0.40058319427536843 0 -0.083561060598767514 0.40596050324180499 0 -0.079167961341237381 0.40174366985392479 0 -0.086063653401424134 0.40058319427536843 0 -0.082971165670244235 0.39339195997946219 0 -0.090652595520233845 0.3935044995436745 0 -0.086063653401424134 0.40058319427536843 0 -0.082971165670244235 0.39339195997946219 0 -0.090652595520233845 0.3935044995436745 0 -0.090792301401334943 0.38527997033883032 0 -0.090652595520233845 0.3935044995436745 0 -0.092236131645059005 0.40620230976523353 0 -0.086063653401424134 0.40058319427536843 0 -0.083561060598767514 0.40596050324180499 0 -0.092236131645059005 0.40620230976523353 0 -0.086063653401424134 0.40058319427536843 0 -0.071119897719893146 0.37135249078060723 0 -0.088942563050748852 0.3752687555785052 0 -0.079163886241576914 0.38428213297514141 0 -0.088942563050748852 0.3752687555785052 0 -0.090792301401334943 0.38527997033883032 0 -0.079163886241576914 0.38428213297514141 0 -0.097922465712378837 0.37968505039470007 0 -0.088942563050748852 0.3752687555785052 0 -0.090792301401334943 0.38527997033883032 0 -0.082971165670244235 0.39339195997946219 0 -0.090792301401334943 0.38527997033883032 0 -0.079163886241576914 0.38428213297514141 0 -0.071119897719893146 0.37135249078060723 0 -0.079163886241576914 0.38428213297514141 0 -0.068603448285188551 0.38461821436657051 0 -0.071119897719893146 0.37135249078060723 0 -0.068603448285188551 0.38461821436657051 0 -0.053708497611622469 0.37787195086485448 0 -0.071986596115658302 0.39495829288983392 0 -0.079163886241576914 0.38428213297514141 0 -0.068603448285188551 0.38461821436657051 0 -0.068603448285188551 0.38461821436657051 0 -0.053708497611622469 0.37787195086485448 0 -0.060783872192197129 0.39236200885398209 0 -0.053708497611622469 0.37787195086485448 0 -0.060783872192197129 0.39236200885398209 0 -0.048242705857822907 0.3906678074368094 0 -0.055647444372222611 0.4011996579433722 0 -0.037485280635196593 0.39790103232197221 0 -0.054432797697552229 0.41570213325809541 0 -0.055647444372222611 0.4011996579433722 0 -0.048242705857822907 0.3906678074368094 0 -0.037485280635196593 0.39790103232197221 0 -0.061874376163823117 0.40252555809944113 0 -0.055647444372222611 0.4011996579433722 0 -0.060783872192197129 0.39236200885398209 0 -0.061874376163823117 0.40252555809944113 0 -0.055647444372222611 0.4011996579433722 0 -0.062254787702593913 0.41179277406868198 0 -0.055647444372222611 0.4011996579433722 0 -0.060783872192197129 0.39236200885398209 0 -0.048242705857822907 0.3906678074368094 0 -0.042006112939618007 0.4060836494028065 0 -0.029579428181683531 0.39646516554751809 0 -0.033599638975139678 0.41436281184786511 0 -0.055647444372222611 0.4011996579433722 0 -0.037485280635196593 0.39790103232197221 0 -0.037485280635196593 0.39790103232197221 0 -0.029579428181683531 0.39646516554751809 0 -0.042006112939618007 0.4060836494028065 0 -0.037485280635196593 0.39790103232197221 0 -0.029579428181683531 0.39646516554751809 0 -0.042006112939618007 0.4060836494028065 0 -0.029579428181683531 0.39646516554751809 0 -0.048242705857822907 0.3906678074368094 0 -0.037485280635196593 0.39790103232197221 0 -0.035239545781749197 0.38016752181997299 0 -0.053708497611622469 0.37787195086485448 0 -0.048242705857822907 0.3906678074368094 0 -0.035239545781749197 0.38016752181997299 0 -0.037485280635196593 0.39790103232197221 0 -0.01859800525147505 0.37806247459832981 0 -0.02461527641272131 0.3926228202579205 0 -0.037485280635196593 0.39790103232197221 0 -0.035239545781749197 0.38016752181997299 0 -0.01859800525147505 0.37806247459832981 0 -0.021900420160448769 0.36714355059229342 0 -0.035239545781749197 0.38016752181997299 0 -0.01859800525147505 0.37806247459832981 0 -0.037485280635196593 0.39790103232197221 0 -0.01859800525147505 0.37806247459832981 0 -0.01859800525147505 0.37806247459832981 0 -0.02461527641272131 0.3926228202579205 0 -0.01003897335495451 0.38144946724421358 0 -0.02461527641272131 0.3926228202579205 0 -0.012463636938452861 0.39259788852077743 0 -0.01003897335495451 0.38144946724421358 0 -0.01859800525147505 0.37806247459832981 0 -0.02461527641272131 0.3926228202579205 0 -0.02461527641272131 0.3926228202579205 0 -0.01003897335495451 0.38144946724421358 0 -0.025929204380663481 0.39580220919891418 0 -0.033599638975139678 0.41436281184786511 0 -0.025929204380663481 0.39580220919891418 0 -0.02327427339818821 0.40627712787871978 0 -0.033599638975139678 0.41436281184786511 0 -0.037485280635196593 0.39790103232197221 0 -0.029579428181683531 0.39646516554751809 0 -0.02461527641272131 0.3926228202579205 0 -0.029579428181683531 0.39646516554751809 0 -0.025929204380663481 0.39580220919891418 0 -0.033599638975139678 0.41436281184786511 0 -0.029579428181683531 0.39646516554751809 0 -0.025929204380663481 0.39580220919891418 0 -0.029579428181683531 0.39646516554751809 0 -0.025929204380663481 0.39580220919891418 0 -0.02461527641272131 0.3926228202579205 0 -0.029579428181683531 0.39646516554751809 0 -0.02461527641272131 0.3926228202579205 0 -0.025929204380663481 0.39580220919891418 0 -0.02461527641272131 0.3926228202579205 0 -0.025929204380663481 0.39580220919891418 0 -0.01722739249154371 0.39896018905207242 0 -0.02327427339818821 0.40627712787871978 0 -0.01722739249154371 0.39896018905207242 0 -0.01598469003716177 0.40765469296236212 0 -0.02327427339818821 0.40627712787871978 0 -0.025929204380663481 0.39580220919891418 0 -0.012463636938452861 0.39259788852077743 0 -0.01084312041485583 0.3930622634624481 0 -0.025929204380663481 0.39580220919891418 0 -0.02461527641272131 0.3926228202579205 0 -0.012463636938452861 0.39259788852077743 0 -0.025929204380663481 0.39580220919891418 0 -0.01722739249154371 0.39896018905207242 0 -0.01084312041485583 0.3930622634624481 0 -0.025929204380663481 0.39580220919891418 0 -0.01084312041485583 0.3930622634624481 0 -0.01722739249154371 0.39896018905207242 0 -0.0090007741844264372 0.39272765517639308 0 -0.01084312041485583 0.3930622634624481 0 -0.012463636938452861 0.39259788852077743 0 -0.01084312041485583 0.3930622634624481 0 -0.012463636938452861 0.39259788852077743 0 -0.0090007741844264372 0.39272765517639308 0 -0.01084312041485583 0.3930622634624481 0 -0.0090007741844264372 0.39272765517639308 0 -0.01084312041485583 0.3930622634624481 0 -0.01722739249154371 0.39896018905207242 0 -0.0090007741844264372 0.39272765517639308 0 -0.01598469003716177 0.40765469296236212 0 -0.0090007741844264372 0.39272765517639308 0 -0.00096327236351288715 0.3958934310536153 0 -0.0012936573118222481 0.40743927955417442 0 -0.0090007741844264372 0.39272765517639308 0 -0.00096327236351288715 0.3958934310536153 0 -0.0090007741844264372 0.39272765517639308 0 -0.00096327236351288715 0.3958934310536153 0 -0.0031329232034019191 0.39166193173788189 0 -0.0090007741844264372 0.39272765517639308 0 -0.0031329232034019191 0.39166193173788189 0 -0.00096327236351288715 0.3958934310536153 0 -0.0031329232034019191 0.39166193173788189 0 -0.0090007741844264372 0.39272765517639308 0 -0.0031329232034019191 0.39166193173788189 0 -0.01003897335495451 0.38144946724421358 0 -0.0031329232034019191 0.39166193173788189 0 -0.010404342119991141 0.37748038528613848 0 -0.0031329232034019191 0.39166193173788189 0 -0.0003215519375964703 0.38162524250019381 0 -0.010404342119991141 0.37748038528613848 0 -0.0022610491863152291 0.37261641259158551 0 -0.0003215519375964703 0.38162524250019381 0 -0.010404342119991141 0.37748038528613848 0 -0.01003897335495451 0.38144946724421358 0 -0.010404342119991141 0.37748038528613848 0 -0.01859800525147505 0.37806247459832981 0 -0.010404342119991141 0.37748038528613848 0 -0.011540410179137321 0.37526469641744048 0 -0.01859800525147505 0.37806247459832981 0 -0.01003897335495451 0.38144946724421358 0 -0.010404342119991141 0.37748038528613848 0 -0.010404342119991141 0.37748038528613848 0 -0.011540410179137321 0.37526469641744048 0 -0.0090007741844264372 0.39272765517639308 0 -0.01003897335495451 0.38144946724421358 0 -0.0031329232034019191 0.39166193173788189 0 -0.01003897335495451 0.38144946724421358 0 -0.010404342119991141 0.37748038528613848 0 -0.012463636938452861 0.39259788852077743 0 -0.0090007741844264372 0.39272765517639308 0 -0.01003897335495451 0.38144946724421358 0 -0.0065013633511284028 0.41987930959671688 0 -0.0040835047796066171 0.44614504370355579 0 -0.0065013633511284028 0.41987930959671688 0 -0.02152265054074632 0.42435258902347839 0 -0.018391439556199391 0.44074267982512522 0 -0.0065013633511284028 0.41987930959671688 0 -0.018391439556199391 0.44074267982512522 0 -0.0040835047796066171 0.44614504370355579 0 -0.0065013633511284028 0.41987930959671688 0 -0.0040835047796066171 0.44614504370355579 0 0.0068076146682195778 0.43247067270718242 0 -0.0090007741844264372 0.39272765517639308 0 -0.0065013633511284028 0.41987930959671688 0 -0.0090007741844264372 0.39272765517639308 0 -0.0065013633511284028 0.41987930959671688 0 -0.0012936573118222481 0.40743927955417442 0 -0.0065013633511284028 0.41987930959671688 0 -0.022731357952027791 0.41457959356100088 0 -0.01598469003716177 0.40765469296236212 0 -0.0090007741844264372 0.39272765517639308 0 -0.0065013633511284028 0.41987930959671688 0 -0.01598469003716177 0.40765469296236212 0 -0.0065013633511284028 0.41987930959671688 0 -0.022731357952027791 0.41457959356100088 0 -0.02152265054074632 0.42435258902347839 0 -0.022731357952027791 0.41457959356100088 0 -0.01598469003716177 0.40765469296236212 0 -0.02327427339818821 0.40627712787871978 0 -0.022731357952027791 0.41457959356100088 0 -0.02327427339818821 0.40627712787871978 0 -0.033599638975139678 0.41436281184786511 0 -0.022731357952027791 0.41457959356100088 0 -0.02152265054074632 0.42435258902347839 0 -0.033599638975139678 0.41436281184786511 0 -0.02152265054074632 0.42435258902347839 0 -0.035257659937889048 0.42403256688703461 0 -0.033599638975139678 0.41436281184786511 0 -0.02152265054074632 0.42435258902347839 0 -0.03269937433279238 0.43534031594669498 0 -0.035257659937889048 0.42403256688703461 0 -0.02152265054074632 0.42435258902347839 0 -0.03269937433279238 0.43534031594669498 0 -0.018391439556199391 0.44074267982512522 0 -0.03269937433279238 0.43534031594669498 0 -0.035257659937889048 0.42403256688703461 0 -0.044693250719756029 0.42822586984636268 0 -0.044693250719756029 0.42822586984636268 0 -0.043773385121010887 0.4178812477707714 0 -0.050690394756234797 0.42221086008001862 0 -0.035257659937889048 0.42403256688703461 0 -0.044693250719756029 0.42822586984636268 0 -0.043773385121010887 0.4178812477707714 0 -0.03269937433279238 0.43534031594669498 0 -0.044693250719756029 0.42822586984636268 0 -0.047046964944553432 0.44016493566752918 0 -0.037485280635196593 0.39790103232197221 0 -0.054432797697552229 0.41570213325809541 0 -0.042006112939618007 0.4060836494028065 0 -0.037485280635196593 0.39790103232197221 0 -0.054432797697552229 0.41570213325809541 0 -0.035257659937889048 0.42403256688703461 0 -0.033599638975139678 0.41436281184786511 0 -0.043773385121010887 0.4178812477707714 0 -0.042006112939618007 0.4060836494028065 0 -0.033599638975139678 0.41436281184786511 0 -0.043773385121010887 0.4178812477707714 0 -0.042006112939618007 0.4060836494028065 0 -0.043773385121010887 0.4178812477707714 0 -0.054432797697552229 0.41570213325809541 0 -0.042006112939618007 0.4060836494028065 0 -0.054432797697552229 0.41570213325809541 0 -0.043773385121010887 0.4178812477707714 0 -0.054432797697552229 0.41570213325809541 0 -0.050690394756234797 0.42221086008001862 0 -0.054432797697552229 0.41570213325809541 0 -0.057375021314094179 0.41879254581717479 0 -0.050690394756234797 0.42221086008001862 0 -0.066791245495585266 0.42526780044426132 0 -0.054432797697552229 0.41570213325809541 0 -0.062254787702593913 0.41179277406868198 0 -0.066791245495585266 0.42526780044426132 0 -0.054432797697552229 0.41570213325809541 0 -0.066791245495585266 0.42526780044426132 0 -0.054432797697552229 0.41570213325809541 0 -0.057375021314094179 0.41879254581717479 0 -0.057375021314094179 0.41879254581717479 0 -0.050690394756234797 0.42221086008001862 0 -0.056059771477729767 0.42446569252963767 0 -0.054432797697552229 0.41570213325809541 0 -0.057375021314094179 0.41879254581717479 0 -0.055647444372222611 0.4011996579433722 0 -0.054432797697552229 0.41570213325809541 0 -0.062254787702593913 0.41179277406868198 0 -0.044693250719756029 0.42822586984636268 0 -0.056410859879968488 0.43027871349012009 0 -0.047046964944553432 0.44016493566752918 0 -0.044693250719756029 0.42822586984636268 0 -0.050690394756234797 0.42221086008001862 0 -0.056410859879968488 0.43027871349012009 0 -0.050690394756234797 0.42221086008001862 0 -0.056059771477729767 0.42446569252963767 0 -0.056410859879968488 0.43027871349012009 0 -0.066791245495585266 0.42526780044426132 0 -0.057375021314094179 0.41879254581717479 0 -0.056059771477729767 0.42446569252963767 0 -0.066791245495585266 0.42526780044426132 0 -0.056059771477729767 0.42446569252963767 0 -0.056410859879968488 0.43027871349012009 0 -0.056410859879968488 0.43027871349012009 0 -0.061698169792609281 0.44011466250837472 0 -0.047046964944553432 0.44016493566752918 0 -0.066791245495585266 0.42526780044426132 0 -0.056410859879968488 0.43027871349012009 0 -0.061698169792609281 0.44011466250837472 0 -0.061698169792609281 0.44011466250837472 0 -0.049469425686008602 0.45573136760037952 0 -0.070826258472084999 0.45304389050916249 0 -0.061698169792609281 0.44011466250837472 0 -0.047046964944553432 0.44016493566752918 0 -0.049469425686008602 0.45573136760037952 0 -0.049469425686008602 0.45573136760037952 0 -0.070826258472084999 0.45304389050916249 0 -0.049469425686008602 0.45573136760037952 0 -0.060095148068359118 0.47652194525458169 0 -0.070826258472084999 0.45304389050916249 0 -0.049469425686008602 0.45573136760037952 0 -0.03542389645848687 0.44663286776537542 0 -0.028112592899931722 0.45841884469159272 0 -0.049469425686008602 0.45573136760037952 0 -0.028112592899931722 0.45841884469159272 0 -0.039712700263529979 0.47522822868483922 0 -0.049469425686008602 0.45573136760037952 0 -0.028112592899931722 0.45841884469159272 0 -0.047046964944553432 0.44016493566752918 0 -0.049469425686008602 0.45573136760037952 0 -0.03542389645848687 0.44663286776537542 0 -0.03269937433279238 0.43534031594669498 0 -0.047046964944553432 0.44016493566752918 0 -0.03542389645848687 0.44663286776537542 0 -0.018391439556199391 0.44074267982512522 0 -0.028112592899931722 0.45841884469159272 0 -0.01433582433739812 0.45160322250076979 0 -0.03269937433279238 0.43534031594669498 0 -0.018391439556199391 0.44074267982512522 0 -0.03269937433279238 0.43534031594669498 0 -0.03542389645848687 0.44663286776537542 0 -0.018391439556199391 0.44074267982512522 0 -0.03542389645848687 0.44663286776537542 0 -0.018391439556199391 0.44074267982512522 0 -0.028112592899931722 0.45841884469159272 0 -0.028112592899931722 0.45841884469159272 0 -0.0067557601138549112 0.46110632178280592 0 -0.01433582433739812 0.45160322250076979 0 -0.028112592899931722 0.45841884469159272 0 -0.013587052136240769 0.46869913076403918 0 -0.02145399422221007 0.47672926385951381 0 -0.028112592899931722 0.45841884469159272 0 -0.0067557601138549112 0.46110632178280592 0 -0.028112592899931722 0.45841884469159272 0 -0.013587052136240769 0.46869913076403918 0 -0.0067557601138549112 0.46110632178280592 0 -0.002061053709250524 0.46811537839715339 0 -0.0040835047796066171 0.44614504370355579 0 -0.002061053709250524 0.46811537839715339 0 -0.0067557601138549112 0.46110632178280592 0 -0.0040835047796066171 0.44614504370355579 0 -0.013587052136240769 0.46869913076403918 0 -0.002061053709250524 0.46811537839715339 0 -0.0067557601138549112 0.46110632178280592 0 -0.018391439556199391 0.44074267982512522 0 -0.0040835047796066171 0.44614504370355579 0 -0.018391439556199391 0.44074267982512522 0 -0.0040835047796066171 0.44614504370355579 0 -0.01433582433739812 0.45160322250076979 0 -0.0067557601138549112 0.46110632178280592 0 -0.0040835047796066171 0.44614504370355579 0 -0.01433582433739812 0.45160322250076979 0 -0.01283867411665021 0.49001739572296621 0 -3.8602638893346641e-05 0.490085713090751 0 0.0049407681439812556 0.5 0 -0.01283867411665021 0.49001739572296621 0 -0.022211634760328721 0.5 0 0.0049407681439812556 0.5 0 -0.01283867411665021 0.49001739572296621 0 -3.8602638893346641e-05 0.490085713090751 0 -0.0095518597359566422 0.47912584508913059 0 -0.002061053709250524 0.46811537839715339 0 -3.8602638893346641e-05 0.490085713090751 0 -0.002061053709250524 0.46811537839715339 0 -3.8602638893346641e-05 0.490085713090751 0 -0.0095518597359566422 0.47912584508913059 0 -0.013587052136240769 0.46869913076403918 0 -0.002061053709250524 0.46811537839715339 0 -0.0095518597359566422 0.47912584508913059 0 -0.013587052136240769 0.46869913076403918 0 -0.0095518597359566422 0.47912584508913059 0 -0.02145399422221007 0.47672926385951381 0 -0.01283867411665021 0.49001739572296621 0 -0.0095518597359566422 0.47912584508913059 0 -0.02145399422221007 0.47672926385951381 0 -0.01283867411665021 0.49001739572296621 0 -0.02145399422221007 0.47672926385951381 0 -0.029145994929535089 0.48633100241129412 0 -0.02145399422221007 0.47672926385951381 0 -0.029145994929535089 0.48633100241129412 0 -0.039712700263529979 0.47522822868483922 0 -0.028112592899931722 0.45841884469159272 0 -0.02145399422221007 0.47672926385951381 0 -0.039712700263529979 0.47522822868483922 0 -0.01283867411665021 0.49001739572296621 0 -0.029145994929535089 0.48633100241129412 0 -0.022211634760328721 0.5 0 -0.029145994929535089 0.48633100241129412 0 -0.039712700263529979 0.47522822868483922 0 -0.049364037664638719 0.50000000000000355 0 -0.029145994929535089 0.48633100241129412 0 -0.022211634760328721 0.5 0 -0.049364037664638719 0.50000000000000355 0 -0.039712700263529979 0.47522822868483922 0 -0.060095148068359118 0.47652194525458169 0 -0.049364037664638719 0.50000000000000355 0 -0.049469425686008602 0.45573136760037952 0 -0.039712700263529979 0.47522822868483922 0 -0.060095148068359118 0.47652194525458169 0 -0.060095148068359118 0.47652194525458169 0 -0.049364037664638719 0.50000000000000355 0 -0.060095148068359118 0.47652194525458169 0 -0.049364037664638719 0.50000000000000355 0 -0.067179069110551326 0.48362742747975912 0 -0.049364037664638719 0.50000000000000355 0 -0.074475120360495667 0.49020307857733819 0 -0.067179069110551326 0.48362742747975912 0 -0.049364037664638719 0.50000000000000355 0 -0.074475120360495667 0.49020307857733819 0 -0.079136723794032582 0.5 0 -0.074475120360495667 0.49020307857733819 0 -0.082061805940015248 0.47973778257026178 0 -0.067179069110551326 0.48362742747975912 0 -0.074475120360495667 0.49020307857733819 0 -0.079136723794032582 0.5 0 -0.091310698127382905 0.4887801101240814 0 -0.079136723794032582 0.5 0 -0.091310698127382905 0.4887801101240814 0 -0.1089094099234266 0.49999999999999611 0 -0.074475120360495667 0.49020307857733819 0 -0.091310698127382905 0.4887801101240814 0 -0.082061805940015248 0.47973778257026178 0 -0.082061805940015248 0.47973778257026178 0 -0.085636763122788742 0.46945410066076743 0 -0.096431234070224831 0.47590385298343812 0 -0.085636763122788742 0.46945410066076743 0 -0.093787834947026846 0.46105318685001118 0 -0.096431234070224831 0.47590385298343812 0 -0.091310698127382905 0.4887801101240814 0 -0.082061805940015248 0.47973778257026178 0 -0.096431234070224831 0.47590385298343812 0 -0.082061805940015248 0.47973778257026178 0 -0.085636763122788742 0.46945410066076743 0 -0.074063769005643543 0.46769878533178488 0 -0.060095148068359118 0.47652194525458169 0 -0.067179069110551326 0.48362742747975912 0 -0.074063769005643543 0.46769878533178488 0 -0.082061805940015248 0.47973778257026178 0 -0.067179069110551326 0.48362742747975912 0 -0.074063769005643543 0.46769878533178488 0 -0.067179069110551326 0.48362742747975912 0 -0.074063769005643543 0.46769878533178488 0 -0.060095148068359118 0.47652194525458169 0 -0.070826258472084999 0.45304389050916249 0 -0.060095148068359118 0.47652194525458169 0 -0.074063769005643543 0.46769878533178488 0 -0.070826258472084999 0.45304389050916249 0 -0.074063769005643543 0.46769878533178488 0 -0.070826258472084999 0.45304389050916249 0 -0.080948468900731443 0.45177014318380881 0 -0.074063769005643543 0.46769878533178488 0 -0.080948468900731443 0.45177014318380881 0 -0.079149693293618234 0.43483346763042741 0 -0.070826258472084999 0.45304389050916249 0 -0.080948468900731443 0.45177014318380881 0 -0.079149693293618234 0.43483346763042741 0 -0.061698169792609281 0.44011466250837472 0 -0.070826258472084999 0.45304389050916249 0 -0.079149693293618234 0.43483346763042741 0 -0.070826258472084999 0.45304389050916249 0 -0.070826258472084999 0.45304389050916249 0 -0.080948468900731443 0.45177014318380881 0 -0.089209841534809292 0.43265639090057739 0 -0.079149693293618234 0.43483346763042741 0 -0.080948468900731443 0.45177014318380881 0 -0.089209841534809292 0.43265639090057739 0 -0.080948468900731443 0.45177014318380881 0 -0.080948468900731443 0.45177014318380881 0 -0.103927038794305 0.44887859176340777 0 -0.089209841534809292 0.43265639090057739 0 -0.080948468900731443 0.45177014318380881 0 -0.103927038794305 0.44887859176340777 0 -0.074063769005643543 0.46769878533178488 0 -0.080948468900731443 0.45177014318380881 0 -0.083609208994047557 0.46249405400659238 0 -0.080948468900731443 0.45177014318380881 0 -0.093787834947026846 0.46105318685001118 0 -0.103927038794305 0.44887859176340777 0 -0.085636763122788742 0.46945410066076743 0 -0.074063769005643543 0.46769878533178488 0 -0.083609208994047557 0.46249405400659238 0 -0.080948468900731443 0.45177014318380881 0 -0.083609208994047557 0.46249405400659238 0 -0.093787834947026846 0.46105318685001118 0 -0.085636763122788742 0.46945410066076743 0 -0.083609208994047557 0.46249405400659238 0 -0.093787834947026846 0.46105318685001118 0 -0.093787834947026846 0.46105318685001118 0 -0.10437053234044991 0.46476617513246138 0 -0.103927038794305 0.44887859176340777 0 -0.10437053234044991 0.46476617513246138 0 -0.103927038794305 0.44887859176340777 0 -0.1162510199406788 0.46246284249139952 0 -0.093787834947026846 0.46105318685001118 0 -0.10437053234044991 0.46476617513246138 0 -0.096431234070224831 0.47590385298343812 0 -0.089209841534809292 0.43265639090057739 0 -0.103927038794305 0.44887859176340777 0 -0.10353443919384681 0.43653209462802589 0 -0.089209841534809292 0.43265639090057739 0 -0.103927038794305 0.44887859176340777 0 -0.10353443919384681 0.43653209462802589 0 -0.103927038794305 0.44887859176340777 0 -0.1177949305002824 0.44713349961249971 0 -0.1115224899601036 0.42969771739301132 0 -0.10353443919384681 0.43653209462802589 0 -0.1177949305002824 0.44713349961249971 0 -0.1115224899601036 0.42969771739301132 0 -0.1177949305002824 0.44713349961249971 0 -0.103927038794305 0.44887859176340777 0 -0.1177949305002824 0.44713349961249971 0 -0.1162510199406788 0.46246284249139952 0 -0.103927038794305 0.44887859176340777 0 -0.1177949305002824 0.44713349961249971 0 -0.12773902584999411 0.47477554416868678 0 -0.1177949305002824 0.44713349961249971 0 -0.12773902584999411 0.47477554416868678 0 -0.1177949305002824 0.44713349961249971 0 -0.1162510199406788 0.46246284249139952 0 -0.10437053234044991 0.46476617513246138 0 -0.1162510199406788 0.46246284249139952 0 -0.1114555339500142 0.4755324015740513 0 -0.103927038794305 0.44887859176340777 0 -0.1162510199406788 0.46246284249139952 0 -0.12773902584999411 0.47477554416868678 0 -0.1114555339500142 0.4755324015740513 0 -0.1183242178867096 0.48738777208434098 0 -0.12773902584999411 0.47477554416868678 0 -0.1162510199406788 0.46246284249139952 0 -0.1114555339500142 0.4755324015740513 0 -0.1114555339500142 0.4755324015740513 0 -0.1183242178867096 0.48738777208434098 0 -0.1052862187915513 0.48552082735318131 0 -0.12773902584999411 0.47477554416868678 0 -0.1183242178867096 0.48738777208434098 0 -0.13681340504149711 0.49999999999999861 0 -0.1243666693260226 0.49519803337158957 0 -0.1089094099234266 0.49999999999999611 0 -0.13167946935475039 0.48572897040798302 0 -0.1183242178867096 0.48738777208434098 0 -0.1243666693260226 0.49519803337158957 0 -0.1183242178867096 0.48738777208434098 0 -0.1243666693260226 0.49519803337158957 0 -0.1089094099234266 0.49999999999999611 0 -0.1183242178867096 0.48738777208434098 0 -0.1089094099234266 0.49999999999999611 0 -0.1183242178867096 0.48738777208434098 0 -0.1052862187915513 0.48552082735318131 0 -0.1089094099234266 0.49999999999999611 0 -0.091310698127382905 0.4887801101240814 0 -0.1052862187915513 0.48552082735318131 0 -0.1089094099234266 0.49999999999999611 0 -0.091310698127382905 0.4887801101240814 0 -0.1052862187915513 0.48552082735318131 0 -0.096431234070224831 0.47590385298343812 0 -0.10437053234044991 0.46476617513246138 0 -0.1114555339500142 0.4755324015740513 0 -0.096431234070224831 0.47590385298343812 0 -0.1114555339500142 0.4755324015740513 0 -0.1052862187915513 0.48552082735318131 0 -0.096431234070224831 0.47590385298343812 0 -0.16950353664004791 0.083960283778176326 0 -0.16278934326379399 0.099458365884732031 0 -0.1537907613304674 0.081601868884644546 0 -0.16950353664004791 0.083960283778176326 0 -0.17315421284170851 0.094995473773181502 0 -0.16278934326379399 0.099458365884732031 0 -0.16950353664004791 0.083960283778176326 0 -0.16648094192682 0.066748487497553133 0 -0.1537907613304674 0.081601868884644546 0 -0.16950353664004791 0.083960283778176326 0 -0.16648094192682 0.066748487497553133 0 -0.1814478137091585 0.072275704630827858 0 -0.18175984194239941 0.099352010489785106 0 -0.19273221827490131 0.083225874210055478 0 -0.17971952468164309 0.086761869376405273 0 -0.18175984194239941 0.099352010489785106 0 -0.19273221827490131 0.083225874210055478 0 -0.1814478137091585 0.072275704630827858 0 -0.17971952468164309 0.086761869376405273 0 -0.19273221827490131 0.083225874210055478 0 -0.16950353664004791 0.083960283778176326 0 -0.1814478137091585 0.072275704630827858 0 -0.17971952468164309 0.086761869376405273 0 -0.16950353664004791 0.083960283778176326 0 -0.17971952468164309 0.086761869376405273 0 -0.17315421284170851 0.094995473773181502 0 -0.17971952468164309 0.086761869376405273 0 -0.18175984194239941 0.099352010489785106 0 -0.17315421284170851 0.094995473773181502 0 -0.18175984194239941 0.099352010489785106 0 -0.1707874656098971 0.1154781467695144 0 -0.1922361973838978 0.10624516933518161 0 -0.18175984194239941 0.099352010489785106 0 -0.1707874656098971 0.1154781467695144 0 -0.17089716755150089 0.10369667682959539 0 -0.18175984194239941 0.099352010489785106 0 -0.1707874656098971 0.1154781467695144 0 -0.18175984194239941 0.099352010489785106 0 -0.17315421284170851 0.094995473773181502 0 -0.17089716755150089 0.10369667682959539 0 -0.1707874656098971 0.1154781467695144 0 -0.18821314094435049 0.12350496107035321 0 -0.1922361973838978 0.10624516933518161 0 -0.1690207517294959 0.1162386593052924 0 -0.1707874656098971 0.1154781467695144 0 -0.18821314094435049 0.12350496107035321 0 -0.17513385666475381 0.12352913862046951 0 -0.1690207517294959 0.1162386593052924 0 -0.18821314094435049 0.12350496107035321 0 -0.1707874656098971 0.1154781467695144 0 -0.1922361973838978 0.10624516933518161 0 -0.1690207517294959 0.1162386593052924 0 -0.18821314094435049 0.12350496107035321 0 -0.1690207517294959 0.1162386593052924 0 -0.15041851245920551 0.1091957902528473 0 -0.1690207517294959 0.1162386593052924 0 -0.16699817859568911 0.10910776217917501 0 -0.15041851245920551 0.1091957902528473 0 -0.1690207517294959 0.1162386593052924 0 -0.15842094703900811 0.1336532583166139 0 -0.17513385666475381 0.12352913862046951 0 -0.1690207517294959 0.1162386593052924 0 -0.16901979494774891 0.12916508306652211 0 -0.1707874656098971 0.1154781467695144 0 -0.17089716755150089 0.10369667682959539 0 -0.16699817859568911 0.10910776217917501 0 -0.1690207517294959 0.1162386593052924 0 -0.1707874656098971 0.1154781467695144 0 -0.16699817859568911 0.10910776217917501 0 -0.1690207517294959 0.1162386593052924 0 -0.1707874656098971 0.1154781467695144 0 -0.16699817859568911 0.10910776217917501 0 -0.16278934326379399 0.099458365884732031 0 -0.15041851245920551 0.1091957902528473 0 -0.17315421284170851 0.094995473773181502 0 -0.17089716755150089 0.10369667682959539 0 -0.16278934326379399 0.099458365884732031 0 -0.17089716755150089 0.10369667682959539 0 -0.16699817859568911 0.10910776217917501 0 -0.16278934326379399 0.099458365884732031 0 -0.15041851245920551 0.1091957902528473 0 -0.14486798896103339 0.095767954482096032 0 -0.13181627318891531 0.1021529212004019 0 -0.16278934326379399 0.099458365884732031 0 -0.15041851245920551 0.1091957902528473 0 -0.14486798896103339 0.095767954482096032 0 -0.15041851245920551 0.1091957902528473 0 -0.13181627318891531 0.1021529212004019 0 -0.1690207517294959 0.1162386593052924 0 -0.15041851245920551 0.1091957902528473 0 -0.1419755228739781 0.12788074567013849 0 -0.1690207517294959 0.1162386593052924 0 -0.15325468399262471 0.1286353458688583 0 -0.1419755228739781 0.12788074567013849 0 -0.15041851245920551 0.1091957902528473 0 -0.13787417151929621 0.1145098150413438 0 -0.1419755228739781 0.12788074567013849 0 -0.1690207517294959 0.1162386593052924 0 -0.1419755228739781 0.12788074567013849 0 -0.13787417151929621 0.1145098150413438 0 -0.12689466929456741 0.1202751061046955 0 -0.13181627318891531 0.1021529212004019 0 -0.12689466929456741 0.1202751061046955 0 -0.13181627318891531 0.1021529212004019 0 -0.13787417151929621 0.1145098150413438 0 -0.12689466929456741 0.1202751061046955 0 -0.1419755228739781 0.12788074567013849 0 -0.13181627318891531 0.1021529212004019 0 -0.13034342388337139 0.1015952956026332 0 -0.13683911945646421 0.083657944611388896 0 -0.15041851245920551 0.1091957902528473 0 -0.13787417151929621 0.1145098150413438 0 -0.13181627318891531 0.1021529212004019 0 -0.12689466929456741 0.1202751061046955 0 -0.13034342388337139 0.1015952956026332 0 -0.1228279476963066 0.1016733655911974 0 -0.14486798896103339 0.095767954482096032 0 -0.13181627318891531 0.1021529212004019 0 -0.13683911945646421 0.083657944611388896 0 -0.12689466929456741 0.1202751061046955 0 -0.13181627318891531 0.1021529212004019 0 -0.13034342388337139 0.1015952956026332 0 -0.13181627318891531 0.1021529212004019 0 -0.13034342388337139 0.1015952956026332 0 -0.13034342388337139 0.1015952956026332 0 -0.1233716746509252 0.088925773134263211 0 -0.1228279476963066 0.1016733655911974 0 -0.13181627318891531 0.1021529212004019 0 -0.13683911945646421 0.083657944611388896 0 -0.13034342388337139 0.1015952956026332 0 -0.13683911945646421 0.083657944611388896 0 -0.1233716746509252 0.088925773134263211 0 -0.13683911945646421 0.083657944611388896 0 -0.11947296242619 0.070529167400145018 0 -0.1233716746509252 0.088925773134263211 0 -0.14486798896103339 0.095767954482096032 0 -0.13683911945646421 0.083657944611388896 0 -0.1537907613304674 0.081601868884644546 0 -0.16278934326379399 0.099458365884732031 0 -0.14486798896103339 0.095767954482096032 0 -0.1537907613304674 0.081601868884644546 0 -0.16648094192682 0.066748487497553133 0 -0.1537907613304674 0.081601868884644546 0 -0.14186196572401319 0.065162968022376005 0 -0.13683911945646421 0.083657944611388896 0 -0.1537907613304674 0.081601868884644546 0 -0.14186196572401319 0.065162968022376005 0 -0.13683911945646421 0.083657944611388896 0 -0.14186196572401319 0.065162968022376005 0 -0.11947296242619 0.070529167400145018 0 -0.13683911945646421 0.083657944611388896 0 -0.14186196572401319 0.065162968022376005 0 -0.14186196572401319 0.065162968022376005 0 -0.12900246533646781 0.044772139336155058 0 -0.11947296242619 0.070529167400145018 0 -0.14774542860228229 0.020521376041276271 0 -0.15798081843199849 0.045775688440385577 0 -0.12900246533646781 0.044772139336155058 0 -0.14774542860228229 0.020521376041276271 0 -0.15798081843199849 0.045775688440385577 0 -0.12900246533646781 0.044772139336155058 0 -0.15798081843199849 0.045775688440385577 0 -0.16648094192682 0.066748487497553133 0 -0.14186196572401319 0.065162968022376005 0 -0.15798081843199849 0.045775688440385577 0 -0.14186196572401319 0.065162968022376005 0 -0.12900246533646781 0.044772139336155058 0 -0.15798081843199849 0.045775688440385577 0 -0.1375100387725828 -0.00473293635783981 0 -0.12955085303500799 0.0098063046611244729 0 -0.115421237406118 0.0038974226475877302 0 -0.1375100387725828 -0.00473293635783981 0 -0.12955085303500799 0.0098063046611244729 0 -0.14774542860228229 0.020521376041276271 0 -0.12955085303500799 0.0098063046611244729 0 -0.12544455639611121 0.023474182686157759 0 -0.14774542860228229 0.020521376041276271 0 -0.12900246533646781 0.044772139336155058 0 -0.12544455639611121 0.023474182686157759 0 -0.14774542860228229 0.020521376041276271 0 -0.1375100387725828 -0.00473293635783981 0 -0.14774542860228229 0.020521376041276271 0 -0.1532190245587064 0.0036016463931156698 0 -0.1375100387725828 -0.00473293635783981 0 -0.14774542860228229 0.020521376041276271 0 -0.14774542860228229 0.020521376041276271 0 -0.1532190245587064 0.0036016463931156698 0 -0.15881869600956619 0.01231291718454039 0 -0.1532190245587064 0.0036016463931156698 0 -0.15881869600956619 0.01231291718454039 0 -0.1708180620307255 0.001049905003496544 0 -0.1708180620307255 0.001049905003496544 0 -0.1634922688465508 0.024078741300273081 0 -0.15881869600956619 0.01231291718454039 0 -0.1708180620307255 0.001049905003496544 0 -0.1634922688465508 0.024078741300273081 0 -0.1708180620307255 0.001049905003496544 0 -0.1634922688465508 0.024078741300273081 0 -0.179037753892789 0.01339034060599459 0 -0.14774542860228229 0.020521376041276271 0 -0.1634922688465508 0.024078741300273081 0 -0.15798081843199849 0.045775688440385577 0 -0.14774542860228229 0.020521376041276271 0 -0.15881869600956619 0.01231291718454039 0 -0.1634922688465508 0.024078741300273081 0 -0.1634922688465508 0.024078741300273081 0 -0.17937241905467821 0.029742944281657361 0 -0.179037753892789 0.01339034060599459 0 -0.17937241905467821 0.029742944281657361 0 -0.179037753892789 0.01339034060599459 0 -0.19394960023047031 0.016032532025989411 0 -0.18906504466313809 -0.0053416003071723702 0 -0.179037753892789 0.01339034060599459 0 -0.19394960023047031 0.016032532025989411 0 -0.18906504466313809 -0.0053416003071723702 0 -0.1708180620307255 0.001049905003496544 0 -0.179037753892789 0.01339034060599459 0 -0.16648094192682 0.066748487497553133 0 -0.15798081843199849 0.045775688440385577 0 -0.16648094192682 0.066748487497553133 0 -0.15798081843199849 0.045775688440385577 0 -0.18196731176244091 0.046606364490730121 0 -0.1634922688465508 0.024078741300273081 0 -0.17937241905467821 0.029742944281657361 0 -0.15798081843199849 0.045775688440385577 0 -0.15798081843199849 0.045775688440385577 0 -0.18196731176244091 0.046606364490730121 0 -0.17937241905467821 0.029742944281657361 0 -0.15798081843199849 0.045775688440385577 0 -0.18196731176244091 0.046606364490730121 0 -0.17937241905467821 0.029742944281657361 0 -0.18196731176244091 0.046606364490730121 0 -0.19890577069119059 0.032993350248870817 0 -0.1814478137091585 0.072275704630827858 0 -0.18196731176244091 0.046606364490730121 0 -0.19718169883994061 0.064603185924833564 0 -0.16648094192682 0.066748487497553133 0 -0.1814478137091585 0.072275704630827858 0 -0.18196731176244091 0.046606364490730121 0 -0.18196731176244091 0.046606364490730121 0 -0.20595380509288291 0.047437040541084309 0 -0.19718169883994061 0.064603185924833564 0 -0.18196731176244091 0.046606364490730121 0 -0.20595380509288291 0.047437040541084309 0 -0.18196731176244091 0.046606364490730121 0 -0.19890577069119059 0.032993350248870817 0 -0.20595380509288291 0.047437040541084309 0 -0.20595380509288291 0.047437040541084309 0 -0.22994029842332489 0.048267716591442272 0 -0.21980173442879231 0.035585427752517343 0 -0.19890577069119059 0.032993350248870817 0 -0.20595380509288291 0.047437040541084309 0 -0.21980173442879231 0.035585427752517343 0 -0.20595380509288291 0.047437040541084309 0 -0.22994029842332489 0.048267716591442272 0 -0.21355235708313189 0.061086829713071 0 -0.20595380509288291 0.047437040541084309 0 -0.19718169883994061 0.064603185924833564 0 -0.21355235708313189 0.061086829713071 0 -0.20595380509288291 0.047437040541084309 0 -0.22994029842332489 0.048267716591442272 0 -0.18906504466313809 -0.0053416003071723702 0 -0.19394960023047031 0.016032532025989411 0 -0.20845065687622341 0.00034172042793286981 0 -0.19890577069119059 0.032993350248870817 0 -0.19394960023047031 0.016032532025989411 0 -0.2123897535778792 0.02255579240124643 0 -0.17937241905467821 0.029742944281657361 0 -0.19890577069119059 0.032993350248870817 0 -0.19394960023047031 0.016032532025989411 0 -0.19890577069119059 0.032993350248870817 0 -0.2123897535778792 0.02255579240124643 0 -0.21980173442879231 0.035585427752517343 0 -0.19394960023047031 0.016032532025989411 0 -0.2123897535778792 0.02255579240124643 0 -0.20845065687622341 0.00034172042793286981 0 -0.2123897535778792 0.02255579240124643 0 -0.20845065687622341 0.00034172042793286981 0 -0.22279273163251881 0.0092344643629644792 0 -0.22279273163251881 0.0092344643629644792 0 -0.2432637047602107 0.013675888509439909 0 -0.23556882495632811 0.00032806392891222239 0 -0.2123897535778792 0.02255579240124643 0 -0.2343716300870711 0.027633053631002699 0 -0.21980173442879231 0.035585427752517343 0 -0.2123897535778792 0.02255579240124643 0 -0.22279273163251881 0.0092344643629644792 0 -0.2343716300870711 0.027633053631002699 0 -0.22279273163251881 0.0092344643629644792 0 -0.2343716300870711 0.027633053631002699 0 -0.2432637047602107 0.013675888509439909 0 -0.2514308507817738 0.031339817910523912 0 -0.2343716300870711 0.027633053631002699 0 -0.2432637047602107 0.013675888509439909 0 -0.25080528299249649 -0.001461169191011345 0 -0.2432637047602107 0.013675888509439909 0 -0.23556882495632811 0.00032806392891222239 0 -0.22994029842332489 0.048267716591442272 0 -0.22550604244958211 0.068915996711836014 0 -0.22994029842332489 0.048267716591442272 0 -0.24139748063478941 0.062976940995822323 0 -0.22550604244958211 0.068915996711836014 0 -0.21355235708313189 0.061086829713071 0 -0.22994029842332489 0.048267716591442272 0 -0.22550604244958211 0.068915996711836014 0 -0.2343716300870711 0.027633053631002699 0 -0.22994029842332489 0.048267716591442272 0 -0.2343716300870711 0.027633053631002699 0 -0.22994029842332489 0.048267716591442272 0 -0.21980173442879231 0.035585427752517343 0 -0.2514308507817738 0.031339817910523912 0 -0.2343716300870711 0.027633053631002699 0 -0.22994029842332489 0.048267716591442272 0 -0.25991768517992653 0.049305863222038747 0 -0.2514308507817738 0.031339817910523912 0 -0.22994029842332489 0.048267716591442272 0 -0.25991768517992653 0.049305863222038747 0 -0.22994029842332489 0.048267716591442272 0 -0.24139748063478941 0.062976940995822323 0 -0.25991768517992653 0.049305863222038747 0 -0.22994029842332489 0.048267716591442272 0 -0.24139748063478941 0.062976940995822323 0 -0.23808824350239399 0.077441097232647221 0 -0.22550604244958211 0.068915996711836014 0 -0.25622419186420398 0.071140944602872444 0 -0.24139748063478941 0.062976940995822323 0 -0.23808824350239399 0.077441097232647221 0 -0.2561904291871071 0.097300361768699717 0 -0.23808824350239399 0.077441097232647221 0 -0.23436013426479541 0.092094926277989167 0 -0.2561904291871071 0.097300361768699717 0 -0.23808824350239399 0.077441097232647221 0 -0.22975655167314751 0.082004074263674412 0 -0.2210717864758184 0.089564276832225259 0 -0.22550604244958211 0.068915996711836014 0 -0.2210717864758184 0.089564276832225259 0 -0.22550604244958211 0.068915996711836014 0 -0.23436013426479541 0.092094926277989167 0 -0.22975655167314751 0.082004074263674412 0 -0.2210717864758184 0.089564276832225259 0 -0.23808824350239399 0.077441097232647221 0 -0.23436013426479541 0.092094926277989167 0 -0.22975655167314751 0.082004074263674412 0 -0.23808824350239399 0.077441097232647221 0 -0.22975655167314751 0.082004074263674412 0 -0.22550604244958211 0.068915996711836014 0 -0.21355235708313189 0.061086829713071 0 -0.20917994060992889 0.076210208796162637 0 -0.19718169883994061 0.064603185924833564 0 -0.21355235708313189 0.061086829713071 0 -0.22550604244958211 0.068915996711836014 0 -0.20917994060992889 0.076210208796162637 0 -0.20917994060992889 0.076210208796162637 0 -0.20832909161052329 0.087649466686977831 0 -0.19273221827490131 0.083225874210055478 0 -0.2210717864758184 0.089564276832225259 0 -0.22550604244958211 0.068915996711836014 0 -0.20917994060992889 0.076210208796162637 0 -0.2210717864758184 0.089564276832225259 0 -0.20917994060992889 0.076210208796162637 0 -0.20832909161052329 0.087649466686977831 0 -0.2210717864758184 0.089564276832225259 0 -0.20832909161052329 0.087649466686977831 0 -0.21368492915789861 0.097012191900849268 0 -0.20832909161052329 0.087649466686977831 0 -0.20006065602699041 0.094031780701986659 0 -0.21368492915789861 0.097012191900849268 0 -0.18175984194239941 0.099352010489785106 0 -0.19273221827490131 0.083225874210055478 0 -0.1916972284070472 0.095713708684252205 0 -0.20832909161052329 0.087649466686977831 0 -0.19273221827490131 0.083225874210055478 0 -0.20006065602699041 0.094031780701986659 0 -0.19273221827490131 0.083225874210055478 0 -0.1916972284070472 0.095713708684252205 0 -0.20006065602699041 0.094031780701986659 0 -0.1814478137091585 0.072275704630827858 0 -0.19273221827490131 0.083225874210055478 0 -0.19718169883994061 0.064603185924833564 0 -0.20917994060992889 0.076210208796162637 0 -0.19273221827490131 0.083225874210055478 0 -0.19718169883994061 0.064603185924833564 0 -0.18821314094435049 0.12350496107035321 0 -0.1922361973838978 0.10624516933518161 0 -0.20316244945238979 0.1160671223497196 0 -0.18821314094435049 0.12350496107035321 0 -0.20316244945238979 0.1160671223497196 0 -0.20641217083747879 0.1303951737246733 0 -0.1922361973838978 0.10624516933518161 0 -0.20643027662406019 0.10738426013459131 0 -0.20316244945238979 0.1160671223497196 0 -0.1922361973838978 0.10624516933518161 0 -0.21368492915789861 0.097012191900849268 0 -0.1922361973838978 0.10624516933518161 0 -0.20006065602699041 0.094031780701986659 0 -0.21368492915789861 0.097012191900849268 0 -0.1922361973838978 0.10624516933518161 0 -0.1916972284070472 0.095713708684252205 0 -0.20006065602699041 0.094031780701986659 0 -0.18175984194239941 0.099352010489785106 0 -0.1922361973838978 0.10624516933518161 0 -0.1916972284070472 0.095713708684252205 0 -0.1922361973838978 0.10624516933518161 0 -0.20643027662406019 0.10738426013459131 0 -0.21368492915789861 0.097012191900849268 0 -0.2210717864758184 0.089564276832225259 0 -0.21368492915789861 0.097012191900849268 0 -0.2166375305020547 0.1102125569526145 0 -0.20643027662406019 0.10738426013459131 0 -0.21368492915789861 0.097012191900849268 0 -0.2166375305020547 0.1102125569526145 0 -0.20643027662406019 0.10738426013459131 0 -0.2166375305020547 0.1102125569526145 0 -0.20316244945238979 0.1160671223497196 0 -0.2166375305020547 0.1102125569526145 0 -0.20316244945238979 0.1160671223497196 0 -0.21233576659766751 0.12034124729641001 0 -0.20316244945238979 0.1160671223497196 0 -0.21233576659766751 0.12034124729641001 0 -0.20641217083747879 0.1303951737246733 0 -0.2166375305020547 0.1102125569526145 0 -0.21233576659766751 0.12034124729641001 0 -0.22313091559874659 0.1246901361586325 0 -0.2166375305020547 0.1102125569526145 0 -0.22313091559874659 0.1246901361586325 0 -0.22850810955014669 0.1125633243478921 0 -0.22313091559874659 0.1246901361586325 0 -0.22850810955014669 0.1125633243478921 0 -0.2372880321199225 0.12061112332891059 0 -0.2210717864758184 0.089564276832225259 0 -0.2166375305020547 0.1102125569526145 0 -0.22751803377271429 0.1018172743921988 0 -0.2210717864758184 0.089564276832225259 0 -0.2166375305020547 0.1102125569526145 0 -0.2166375305020547 0.1102125569526145 0 -0.22850810955014669 0.1125633243478921 0 -0.22751803377271429 0.1018172743921988 0 -0.22850810955014669 0.1125633243478921 0 -0.22751803377271429 0.1018172743921988 0 -0.2379660357572955 0.105485530907104 0 -0.23436013426479541 0.092094926277989167 0 -0.2210717864758184 0.089564276832225259 0 -0.22751803377271429 0.1018172743921988 0 -0.23436013426479541 0.092094926277989167 0 -0.22751803377271429 0.1018172743921988 0 -0.2379660357572955 0.105485530907104 0 -0.25243723761715509 0.1184612761912272 0 -0.2561904291871071 0.097300361768699717 0 -0.2379660357572955 0.105485530907104 0 -0.2561904291871071 0.097300361768699717 0 -0.23436013426479541 0.092094926277989167 0 -0.2379660357572955 0.105485530907104 0 -0.22850810955014669 0.1125633243478921 0 -0.2379660357572955 0.105485530907104 0 -0.2372880321199225 0.12061112332891059 0 -0.25243723761715509 0.1184612761912272 0 -0.2379660357572955 0.105485530907104 0 -0.2372880321199225 0.12061112332891059 0 -0.25243723761715509 0.1184612761912272 0 -0.2372880321199225 0.12061112332891059 0 -0.24822770506743089 0.13226351280279799 0 -0.24822770506743089 0.13226351280279799 0 -0.23552240426024529 0.13553039889476029 0 -0.2486418601058053 0.14588316763779119 0 -0.2372880321199225 0.12061112332891059 0 -0.24822770506743089 0.13226351280279799 0 -0.23552240426024529 0.13553039889476029 0 -0.22313091559874659 0.1246901361586325 0 -0.23552240426024529 0.13553039889476029 0 -0.22007986067719479 0.14208134198977701 0 -0.22313091559874659 0.1246901361586325 0 -0.2372880321199225 0.12061112332891059 0 -0.23552240426024529 0.13553039889476029 0 -0.22007986067719479 0.14208134198977701 0 -0.23534890461255201 0.14901467307774799 0 -0.22207674182837131 0.16289576022627589 0 -0.23552240426024529 0.13553039889476029 0 -0.22007986067719479 0.14208134198977701 0 -0.23534890461255201 0.14901467307774799 0 -0.23552240426024529 0.13553039889476029 0 -0.23534890461255201 0.14901467307774799 0 -0.2486418601058053 0.14588316763779119 0 -0.23534890461255201 0.14901467307774799 0 -0.2486418601058053 0.14588316763779119 0 -0.24973542440397539 0.160383733048482 0 -0.23534890461255201 0.14901467307774799 0 -0.24973542440397539 0.160383733048482 0 -0.22207674182837131 0.16289576022627589 0 -0.24973542440397539 0.160383733048482 0 -0.23732217572843761 0.1710814256584938 0 -0.22207674182837131 0.16289576022627589 0 -0.24973542440397539 0.160383733048482 0 -0.22207674182837131 0.16289576022627589 0 -0.24973542440397539 0.160383733048482 0 -0.23732217572843761 0.1710814256584938 0 -0.24909571377703479 0.17248015911507039 0 -0.25256760962850472 0.17926709109071021 0 -0.23208172359585419 0.1817457248209684 0 -0.25256760962850472 0.17926709109071021 0 -0.23208172359585419 0.1817457248209684 0 -0.23620726628271671 0.19941210955632641 0 -0.25256760962850472 0.17926709109071021 0 -0.23732217572843761 0.1710814256584938 0 -0.23208172359585419 0.1817457248209684 0 -0.25256760962850472 0.17926709109071021 0 -0.23732217572843761 0.1710814256584938 0 -0.25256760962850472 0.17926709109071021 0 -0.23732217572843761 0.1710814256584938 0 -0.24909571377703479 0.17248015911507039 0 -0.23208172359585419 0.1817457248209684 0 -0.21159583756320369 0.18422435855122721 0 -0.23732217572843761 0.1710814256584938 0 -0.23208172359585419 0.1817457248209684 0 -0.220180604131053 0.17434750430640841 0 -0.23208172359585419 0.1817457248209684 0 -0.220180604131053 0.17434750430640841 0 -0.21159583756320369 0.18422435855122721 0 -0.23732217572843761 0.1710814256584938 0 -0.220180604131053 0.17434750430640841 0 -0.22207674182837131 0.16289576022627589 0 -0.23732217572843761 0.1710814256584938 0 -0.22207674182837131 0.16289576022627589 0 -0.22207674182837131 0.16289576022627589 0 -0.20636772562444369 0.16432249035099381 0 -0.22207674182837131 0.16289576022627589 0 -0.20636772562444369 0.16432249035099381 0 -0.19798802692577519 0.14996190985657129 0 -0.220180604131053 0.17434750430640841 0 -0.22207674182837131 0.16289576022627589 0 -0.20636772562444369 0.16432249035099381 0 -0.22207674182837131 0.16289576022627589 0 -0.19798802692577519 0.14996190985657129 0 -0.220180604131053 0.17434750430640841 0 -0.20636772562444369 0.16432249035099381 0 -0.20725048044460961 0.17472822779503441 0 -0.20636772562444369 0.16432249035099381 0 -0.20725048044460961 0.17472822779503441 0 -0.1969006946403703 0.17612126822273191 0 -0.220180604131053 0.17434750430640841 0 -0.21159583756320369 0.18422435855122721 0 -0.20725048044460961 0.17472822779503441 0 -0.21159583756320369 0.18422435855122721 0 -0.20725048044460961 0.17472822779503441 0 -0.1969006946403703 0.17612126822273191 0 -0.21159583756320369 0.18422435855122721 0 -0.1911099515305531 0.1867029922814851 0 -0.21159583756320369 0.18422435855122721 0 -0.1969006946403703 0.17612126822273191 0 -0.1911099515305531 0.1867029922814851 0 -0.1969006946403703 0.17612126822273191 0 -0.1906587094205161 0.16574922047571281 0 -0.18171497539751361 0.17634674098194569 0 -0.1969006946403703 0.17612126822273191 0 -0.1911099515305531 0.1867029922814851 0 -0.18171497539751361 0.17634674098194569 0 -0.1969006946403703 0.17612126822273191 0 -0.1911099515305531 0.1867029922814851 0 -0.20636772562444369 0.16432249035099381 0 -0.1969006946403703 0.17612126822273191 0 -0.1906587094205161 0.16574922047571281 0 -0.20636772562444369 0.16432249035099381 0 -0.1906587094205161 0.16574922047571281 0 -0.19798802692577519 0.14996190985657129 0 -0.20636772562444369 0.16432249035099381 0 -0.1906587094205161 0.16574922047571281 0 -0.1906587094205161 0.16574922047571281 0 -0.19798802692577519 0.14996190985657129 0 -0.18351303642030439 0.1539838633221178 0 -0.19798802692577519 0.14996190985657129 0 -0.19303710013026301 0.13500070205148501 0 -0.17389931202318079 0.137028059486864 0 -0.18821314094435049 0.12350496107035321 0 -0.19303710013026301 0.13500070205148501 0 -0.20641217083747879 0.1303951737246733 0 -0.19798802692577519 0.14996190985657129 0 -0.19303710013026301 0.13500070205148501 0 -0.20641217083747879 0.1303951737246733 0 -0.18821314094435049 0.12350496107035321 0 -0.20641217083747879 0.1303951737246733 0 -0.18821314094435049 0.12350496107035321 0 -0.19303710013026301 0.13500070205148501 0 -0.18284927956541019 0.12984089325050241 0 -0.22313091559874659 0.1246901361586325 0 -0.22007986067719479 0.14208134198977701 0 -0.20641217083747879 0.1303951737246733 0 -0.21233576659766751 0.12034124729641001 0 -0.22313091559874659 0.1246901361586325 0 -0.20641217083747879 0.1303951737246733 0 -0.22007986067719479 0.14208134198977701 0 -0.19798802692577519 0.14996190985657129 0 -0.20641217083747879 0.1303951737246733 0 -0.22007986067719479 0.14208134198977701 0 -0.22207674182837131 0.16289576022627589 0 -0.19798802692577519 0.14996190985657129 0 -0.22983146302123131 0.25737430153518798 0 -0.23025779861614681 0.2338158306436075 0 -0.20938706557945219 0.23843414291351139 0 -0.25124147401774211 0.23762226217384569 0 -0.22983146302123131 0.25737430153518798 0 -0.23025779861614681 0.2338158306436075 0 -0.25124147401774211 0.23762226217384569 0 -0.23025779861614681 0.2338158306436075 0 -0.24337552138156279 0.21795896149778779 0 -0.23025779861614681 0.2338158306436075 0 -0.22374790850985349 0.2148745964300191 0 -0.24337552138156279 0.21795896149778779 0 -0.23025779861614681 0.2338158306436075 0 -0.22374790850985349 0.2148745964300191 0 -0.20938706557945219 0.23843414291351139 0 -0.22374790850985349 0.2148745964300191 0 -0.23620726628271671 0.19941210955632641 0 -0.2145826447776536 0.20031533285518929 0 -0.22374790850985349 0.2148745964300191 0 -0.24337552138156279 0.21795896149778779 0 -0.23620726628271671 0.19941210955632641 0 -0.25452127516851919 0.20182214795708131 0 -0.24337552138156279 0.21795896149778779 0 -0.23620726628271671 0.19941210955632641 0 -0.25452127516851919 0.20182214795708131 0 -0.25256760962850472 0.17926709109071021 0 -0.23620726628271671 0.19941210955632641 0 -0.23208172359585419 0.1817457248209684 0 -0.23620726628271671 0.19941210955632641 0 -0.2145826447776536 0.20031533285518929 0 -0.23208172359585419 0.1817457248209684 0 -0.21159583756320369 0.18422435855122721 0 -0.2145826447776536 0.20031533285518929 0 -0.21159583756320369 0.18422435855122721 0 -0.1911099515305531 0.1867029922814851 0 -0.2145826447776536 0.20031533285518929 0 -0.1911099515305531 0.1867029922814851 0 -0.20146880307334419 0.21300918299757379 0 -0.17885310182097211 0.20910056699628371 0 -0.1911099515305531 0.1867029922814851 0 -0.2145826447776536 0.20031533285518929 0 -0.20146880307334419 0.21300918299757379 0 -0.20146880307334419 0.21300918299757379 0 -0.1911321462215809 0.22862746650895341 0 -0.17885310182097211 0.20910056699628371 0 -0.22374790850985349 0.2148745964300191 0 -0.2145826447776536 0.20031533285518929 0 -0.20146880307334419 0.21300918299757379 0 -0.22374790850985349 0.2148745964300191 0 -0.20146880307334419 0.21300918299757379 0 -0.20938706557945219 0.23843414291351139 0 -0.20146880307334419 0.21300918299757379 0 -0.1911321462215809 0.22862746650895341 0 -0.20938706557945219 0.23843414291351139 0 -0.18712962382411741 0.25008585919168602 0 -0.1911321462215809 0.22862746650895341 0 -0.20938706557945219 0.23843414291351139 0 -0.15849465336154589 0.24630261166939491 0 -0.1665962521113924 0.23149814171108299 0 -0.1496048439609072 0.23181875741082089 0 -0.16076302832828671 0.25712584943817529 0 -0.15849465336154589 0.24630261166939491 0 -0.17201299137271389 0.24603671229643051 0 -0.15849465336154589 0.24630261166939491 0 -0.1665962521113924 0.23149814171108299 0 -0.15849465336154589 0.24630261166939491 0 -0.17065738987400381 0.23804144460663909 0 -0.1665962521113924 0.23149814171108299 0 -0.15849465336154589 0.24630261166939491 0 -0.17065738987400381 0.23804144460663909 0 -0.17201299137271389 0.24603671229643051 0 -0.18712962382411741 0.25008585919168602 0 -0.17201299137271389 0.24603671229643051 0 -0.17629250141804129 0.23352981389180841 0 -0.18712962382411741 0.25008585919168602 0 -0.1911321462215809 0.22862746650895341 0 -0.17629250141804129 0.23352981389180841 0 -0.17065738987400381 0.23804144460663909 0 -0.17201299137271389 0.24603671229643051 0 -0.17629250141804129 0.23352981389180841 0 -0.1665962521113924 0.23149814171108299 0 -0.17885310182097211 0.20910056699628371 0 -0.17629250141804129 0.23352981389180841 0 -0.1665962521113924 0.23149814171108299 0 -0.17885310182097211 0.20910056699628371 0 -0.1911321462215809 0.22862746650895341 0 -0.17629250141804129 0.23352981389180841 0 -0.17885310182097211 0.20910056699628371 0 -0.1665962521113924 0.23149814171108299 0 -0.14917948916683119 0.2126908445710968 0 -0.1665962521113924 0.23149814171108299 0 -0.16419889258216841 0.21260936267612041 0 -0.14917948916683119 0.2126908445710968 0 -0.17065738987400381 0.23804144460663909 0 -0.17629250141804129 0.23352981389180841 0 -0.1665962521113924 0.23149814171108299 0 -0.1665962521113924 0.23149814171108299 0 -0.16419889258216841 0.21260936267612041 0 -0.17885310182097211 0.20910056699628371 0 -0.15858511554219981 0.20582412575343259 0 -0.16778050426944599 0.20393313434870569 0 -0.16419889258216841 0.21260936267612041 0 -0.15858511554219981 0.20582412575343259 0 -0.16419889258216841 0.21260936267612041 0 -0.14917948916683119 0.2126908445710968 0 -0.16778050426944599 0.20393313434870569 0 -0.16419889258216841 0.21260936267612041 0 -0.17885310182097211 0.20910056699628371 0 -0.16778050426944599 0.20393313434870569 0 -0.17885310182097211 0.20910056699628371 0 -0.17671411005531931 0.1972752902695635 0 -0.1911099515305531 0.1867029922814851 0 -0.17885310182097211 0.20910056699628371 0 -0.1911099515305531 0.1867029922814851 0 -0.16911288260030569 0.18936446745177879 0 -0.1911099515305531 0.1867029922814851 0 -0.17671411005531931 0.1972752902695635 0 -0.16911288260030569 0.18936446745177879 0 -0.1911099515305531 0.1867029922814851 0 -0.17885310182097211 0.20910056699628371 0 -0.17671411005531931 0.1972752902695635 0 -0.16911288260030569 0.18936446745177879 0 -0.14956059555773449 0.1917301429265986 0 -0.15695242546149549 0.181703584166789 0 -0.16911288260030569 0.18936446745177879 0 -0.14956059555773449 0.1917301429265986 0 -0.16911288260030569 0.18936446745177879 0 -0.16045789696562271 0.19710748512419499 0 -0.14956059555773449 0.1917301429265986 0 -0.16778050426944599 0.20393313434870569 0 -0.16911288260030569 0.18936446745177879 0 -0.16045789696562271 0.19710748512419499 0 -0.16778050426944599 0.20393313434870569 0 -0.17671411005531931 0.1972752902695635 0 -0.16911288260030569 0.18936446745177879 0 -0.16778050426944599 0.20393313434870569 0 -0.16911288260030569 0.18936446745177879 0 -0.15858511554219981 0.20582412575343259 0 -0.16045789696562271 0.19710748512419499 0 -0.15311605888416521 0.19668605011714241 0 -0.15858511554219981 0.20582412575343259 0 -0.16778050426944599 0.20393313434870569 0 -0.16045789696562271 0.19710748512419499 0 -0.14956059555773449 0.1917301429265986 0 -0.13176272622226981 0.19388354743111069 0 -0.15311605888416521 0.19668605011714241 0 -0.13176272622226981 0.19388354743111069 0 -0.14917948916683119 0.2126908445710968 0 -0.14956059555773449 0.1917301429265986 0 -0.13176272622226981 0.19388354743111069 0 -0.14522780589645909 0.1856907321758747 0 -0.14956059555773449 0.1917301429265986 0 -0.15311605888416521 0.19668605011714241 0 -0.13176272622226981 0.19388354743111069 0 -0.16045789696562271 0.19710748512419499 0 -0.14956059555773449 0.1917301429265986 0 -0.15311605888416521 0.19668605011714241 0 -0.14956059555773449 0.1917301429265986 0 -0.15311605888416521 0.19668605011714241 0 -0.14956059555773449 0.1917301429265986 0 -0.14522780589645909 0.1856907321758747 0 -0.12835392497953199 0.19020259144248411 0 -0.14522780589645909 0.1856907321758747 0 -0.13176272622226981 0.19388354743111069 0 -0.12835392497953199 0.19020259144248411 0 -0.14522780589645909 0.1856907321758747 0 -0.12906667623787199 0.19420974862246551 0 -0.12657544630285281 0.21477689418317639 0 -0.1249858597515216 0.19470349584794391 0 -0.13176272622226981 0.19388354743111069 0 -0.12906667623787199 0.19420974862246551 0 -0.12657544630285281 0.21477689418317639 0 -0.13176272622226981 0.19388354743111069 0 -0.12906667623787199 0.19420974862246551 0 -0.12835392497953199 0.19020259144248411 0 -0.13176272622226981 0.19388354743111069 0 -0.12906667623787199 0.19420974862246551 0 -0.13176272622226981 0.19388354743111069 0 -0.12835392497953199 0.19020259144248411 0 -0.12906667623787199 0.19420974862246551 0 -0.1271229678727778 0.19184757747738859 0 -0.1249858597515216 0.19470349584794391 0 -0.12906667623787199 0.19420974862246551 0 -0.12835392497953199 0.19020259144248411 0 -0.12906667623787199 0.19420974862246551 0 -0.1271229678727778 0.19184757747738859 0 -0.12835392497953199 0.19020259144248411 0 -0.12906667623787199 0.19420974862246551 0 -0.1249858597515216 0.19470349584794391 0 -0.1271229678727778 0.19184757747738859 0 -0.1249858597515216 0.19470349584794391 0 -0.1271229678727778 0.19184757747738859 0 -0.12835392497953199 0.19020259144248411 0 -0.12906667623787199 0.19420974862246551 0 -0.12657544630285281 0.21477689418317639 0 -0.13176272622226981 0.19388354743111069 0 -0.12657544630285281 0.21477689418317639 0 -0.14917948916683119 0.2126908445710968 0 -0.13176272622226981 0.19388354743111069 0 -0.14917948916683119 0.2126908445710968 0 -0.12657544630285281 0.21477689418317639 0 -0.14917948916683119 0.2126908445710968 0 -0.13671735525740511 0.22685238803991151 0 -0.15858511554219981 0.20582412575343259 0 -0.15311605888416521 0.19668605011714241 0 -0.14917948916683119 0.2126908445710968 0 -0.1496048439609072 0.23181875741082089 0 -0.13671735525740511 0.22685238803991151 0 -0.1417636236240036 0.24415226059194911 0 -0.1665962521113924 0.23149814171108299 0 -0.14917948916683119 0.2126908445710968 0 -0.1496048439609072 0.23181875741082089 0 -0.14917948916683119 0.2126908445710968 0 -0.1496048439609072 0.23181875741082089 0 -0.13671735525740511 0.22685238803991151 0 -0.12657544630285281 0.21477689418317639 0 -0.1240842163678311 0.23534403974388701 0 -0.12657544630285281 0.21477689418317639 0 -0.13671735525740511 0.22685238803991151 0 -0.1240842163678311 0.23534403974388701 0 -0.13216156808548279 0.26400713188352481 0 -0.1417636236240036 0.24415226059194911 0 -0.1240842163678311 0.23534403974388701 0 -0.13671735525740511 0.22685238803991151 0 -0.1417636236240036 0.24415226059194911 0 -0.1240842163678311 0.23534403974388701 0 -0.13216156808548279 0.26400713188352481 0 -0.1240842163678311 0.23534403974388701 0 -0.15849465336154589 0.24630261166939491 0 -0.1496048439609072 0.23181875741082089 0 -0.1417636236240036 0.24415226059194911 0 -0.1630394102968121 0.14925900901352129 0 -0.17389931202318079 0.137028059486864 0 -0.17150609731174629 0.16319626346932159 0 -0.1630394102968121 0.14925900901352129 0 -0.16737794586855209 0.13839371935929901 0 -0.17389931202318079 0.137028059486864 0 -0.1630394102968121 0.14925900901352129 0 -0.15842094703900811 0.1336532583166139 0 -0.16737794586855209 0.13839371935929901 0 -0.1690207517294959 0.1162386593052924 0 -0.15842094703900811 0.1336532583166139 0 -0.16901979494774891 0.12916508306652211 0 -0.1690207517294959 0.1162386593052924 0 -0.15842094703900811 0.1336532583166139 0 -0.15325468399262471 0.1286353458688583 0 -0.15842094703900811 0.1336532583166139 0 -0.16901979494774891 0.12916508306652211 0 -0.16709793706050041 0.1345162368343755 0 -0.15842094703900811 0.1336532583166139 0 -0.16737794586855209 0.13839371935929901 0 -0.16709793706050041 0.1345162368343755 0 -0.16901979494774891 0.12916508306652211 0 -0.16709793706050041 0.1345162368343755 0 -0.17389931202318079 0.137028059486864 0 -0.16737794586855209 0.13839371935929901 0 -0.16709793706050041 0.1345162368343755 0 -0.17389931202318079 0.137028059486864 0 -0.19303710013026301 0.13500070205148501 0 -0.17389931202318079 0.137028059486864 0 -0.18284927956541019 0.12984089325050241 0 -0.17513385666475381 0.12352913862046951 0 -0.17389931202318079 0.137028059486864 0 -0.17513385666475381 0.12352913862046951 0 -0.17389931202318079 0.137028059486864 0 -0.18284927956541019 0.12984089325050241 0 -0.17513385666475381 0.12352913862046951 0 -0.16901979494774891 0.12916508306652211 0 -0.17389931202318079 0.137028059486864 0 -0.17513385666475381 0.12352913862046951 0 -0.18821314094435049 0.12350496107035321 0 -0.18284927956541019 0.12984089325050241 0 -0.17389931202318079 0.137028059486864 0 -0.18351303642030439 0.1539838633221178 0 -0.17150609731174629 0.16319626346932159 0 -0.17389931202318079 0.137028059486864 0 -0.17150609731174629 0.16319626346932159 0 -0.19798802692577519 0.14996190985657129 0 -0.17389931202318079 0.137028059486864 0 -0.18351303642030439 0.1539838633221178 0 -0.19798802692577519 0.14996190985657129 0 -0.17389931202318079 0.137028059486864 0 -0.1906587094205161 0.16574922047571281 0 -0.18171497539751361 0.17634674098194569 0 -0.17150609731174629 0.16319626346932159 0 -0.1906587094205161 0.16574922047571281 0 -0.18351303642030439 0.1539838633221178 0 -0.17150609731174629 0.16319626346932159 0 -0.16911288260030569 0.18936446745177879 0 -0.18171497539751361 0.17634674098194569 0 -0.17150609731174629 0.16319626346932159 0 -0.1911099515305531 0.1867029922814851 0 -0.16911288260030569 0.18936446745177879 0 -0.18171497539751361 0.17634674098194569 0 -0.16911288260030569 0.18936446745177879 0 -0.17150609731174629 0.16319626346932159 0 -0.16911288260030569 0.18936446745177879 0 -0.17150609731174629 0.16319626346932159 0 -0.15872159440975281 0.16975713207202811 0 -0.16911288260030569 0.18936446745177879 0 -0.15695242546149549 0.181703584166789 0 -0.15872159440975281 0.16975713207202811 0 -0.1630394102968121 0.14925900901352129 0 -0.17150609731174629 0.16319626346932159 0 -0.1578970707717251 0.15899892771701429 0 -0.17150609731174629 0.16319626346932159 0 -0.15872159440975281 0.16975713207202811 0 -0.1578970707717251 0.15899892771701429 0 -0.1578970707717251 0.15899892771701429 0 -0.14939046881352031 0.16209046581300579 0 -0.1468277830267937 0.15069176821719421 0 -0.13523461901457931 0.16773027811777461 0 -0.1468277830267937 0.15069176821719421 0 -0.15872159440975281 0.16975713207202811 0 -0.1578970707717251 0.15899892771701429 0 -0.14939046881352031 0.16209046581300579 0 -0.14939046881352031 0.16209046581300579 0 -0.13523461901457931 0.16773027811777461 0 -0.1468277830267937 0.15069176821719421 0 -0.15872159440975281 0.16975713207202811 0 -0.14939046881352031 0.16209046581300579 0 -0.14978270365271529 0.17514476603953771 0 -0.14939046881352031 0.16209046581300579 0 -0.13862122368235091 0.17648191596998891 0 -0.14939046881352031 0.16209046581300579 0 -0.14978270365271529 0.17514476603953771 0 -0.13862122368235091 0.17648191596998891 0 -0.14939046881352031 0.16209046581300579 0 -0.13862122368235091 0.17648191596998891 0 -0.13523461901457931 0.16773027811777461 0 -0.15695242546149549 0.181703584166789 0 -0.14522780589645909 0.1856907321758747 0 -0.15695242546149549 0.181703584166789 0 -0.14978270365271529 0.17514476603953771 0 -0.14522780589645909 0.1856907321758747 0 -0.14956059555773449 0.1917301429265986 0 -0.15695242546149549 0.181703584166789 0 -0.14522780589645909 0.1856907321758747 0 -0.15695242546149549 0.181703584166789 0 -0.15872159440975281 0.16975713207202811 0 -0.14978270365271529 0.17514476603953771 0 -0.14978270365271529 0.17514476603953771 0 -0.14522780589645909 0.1856907321758747 0 -0.13862122368235091 0.17648191596998891 0 -0.14522780589645909 0.1856907321758747 0 -0.13862122368235091 0.17648191596998891 0 -0.12835392497953199 0.19020259144248411 0 -0.14522780589645909 0.1856907321758747 0 -0.13862122368235091 0.17648191596998891 0 -0.12835392497953199 0.19020259144248411 0 -0.13862122368235091 0.17648191596998891 0 -0.1273225938786946 0.1742532673115508 0 -0.12835392497953199 0.19020259144248411 0 -0.13862122368235091 0.17648191596998891 0 -0.135961071715828 0.1567891266946089 0 -0.13523461901457931 0.16773027811777461 0 -0.1468277830267937 0.15069176821719421 0 -0.135961071715828 0.1567891266946089 0 -0.13523461901457931 0.16773027811777461 0 -0.12883153747101969 0.1628362186772481 0 -0.13862122368235091 0.17648191596998891 0 -0.12883153747101969 0.1628362186772481 0 -0.13862122368235091 0.17648191596998891 0 -0.13523461901457931 0.16773027811777461 0 -0.12883153747101969 0.1628362186772481 0 -0.13862122368235091 0.17648191596998891 0 -0.1273225938786946 0.1742532673115508 0 -0.12883153747101969 0.1628362186772481 0 -0.135961071715828 0.1567891266946089 0 -0.12883153747101969 0.1628362186772481 0 -0.13023517400705761 0.1559927433892537 0 -0.13215742716996509 0.14482887999050409 0 -0.13537222012147451 0.13303794867886701 0 -0.1190418512596908 0.1491905213845055 0 -0.12907535617317961 0.15063118806896711 0 -0.13023517400705761 0.1559927433892537 0 -0.1190418512596908 0.1491905213845055 0 -0.12883153747101969 0.1628362186772481 0 -0.13023517400705761 0.1559927433892537 0 -0.1190418512596908 0.1491905213845055 0 -0.12907535617317961 0.15063118806896711 0 -0.13215742716996509 0.14482887999050409 0 -0.1344266767690149 0.1514758128730902 0 -0.12907535617317961 0.15063118806896711 0 -0.13023517400705761 0.1559927433892537 0 -0.1344266767690149 0.1514758128730902 0 -0.12907535617317961 0.15063118806896711 0 -0.13215742716996509 0.14482887999050409 0 -0.1190418512596908 0.1491905213845055 0 -0.13215742716996509 0.14482887999050409 0 -0.13745915243373341 0.14545827991984969 0 -0.13537222012147451 0.13303794867886701 0 -0.13745915243373341 0.14545827991984969 0 -0.143849770948381 0.14580079125303891 0 -0.13537222012147451 0.13303794867886701 0 -0.13215742716996509 0.14482887999050409 0 -0.13745915243373341 0.14545827991984969 0 -0.1344266767690149 0.1514758128730902 0 -0.13745915243373341 0.14545827991984969 0 -0.13977034451951231 0.15097114425457789 0 -0.143849770948381 0.14580079125303891 0 -0.135961071715828 0.1567891266946089 0 -0.13023517400705761 0.1559927433892537 0 -0.1344266767690149 0.1514758128730902 0 -0.13745915243373341 0.14545827991984969 0 -0.1344266767690149 0.1514758128730902 0 -0.13977034451951231 0.15097114425457789 0 -0.135961071715828 0.1567891266946089 0 -0.1344266767690149 0.1514758128730902 0 -0.13977034451951231 0.15097114425457789 0 -0.15842094703900811 0.1336532583166139 0 -0.1468277830267937 0.15069176821719421 0 -0.1630394102968121 0.14925900901352129 0 -0.1578970707717251 0.15899892771701429 0 -0.1468277830267937 0.15069176821719421 0 -0.135961071715828 0.1567891266946089 0 -0.13977034451951231 0.15097114425457789 0 -0.1468277830267937 0.15069176821719421 0 -0.1630394102968121 0.14925900901352129 0 -0.15842094703900811 0.1336532583166139 0 -0.1468277830267937 0.15069176821719421 0 -0.15842094703900811 0.1336532583166139 0 -0.1468277830267937 0.15069176821719421 0 -0.143849770948381 0.14580079125303891 0 -0.13977034451951231 0.15097114425457789 0 -0.1468277830267937 0.15069176821719421 0 -0.143849770948381 0.14580079125303891 0 -0.15842094703900811 0.1336532583166139 0 -0.15325468399262471 0.1286353458688583 0 -0.14360151432801699 0.13676872018338801 0 -0.15842094703900811 0.1336532583166139 0 -0.143849770948381 0.14580079125303891 0 -0.14360151432801699 0.13676872018338801 0 -0.143849770948381 0.14580079125303891 0 -0.14360151432801699 0.13676872018338801 0 -0.13537222012147451 0.13303794867886701 0 -0.15325468399262471 0.1286353458688583 0 -0.14360151432801699 0.13676872018338801 0 -0.1419755228739781 0.12788074567013849 0 -0.14360151432801699 0.13676872018338801 0 -0.1419755228739781 0.12788074567013849 0 -0.13537222012147451 0.13303794867886701 0 -0.12689466929456741 0.1202751061046955 0 -0.13537222012147451 0.13303794867886701 0 -0.1190418512596908 0.1491905213845055 0 -0.12689466929456741 0.1202751061046955 0 -0.1419755228739781 0.12788074567013849 0 -0.13537222012147451 0.13303794867886701 0 -0.143849770948381 0.14580079125303891 0 -0.13537222012147451 0.13303794867886701 0 -0.12689466929456741 0.1202751061046955 0 -0.13537222012147451 0.13303794867886701 0 -0.12689466929456741 0.1202751061046955 0 -0.1190418512596908 0.1491905213845055 0 -0.1157435997659011 0.1313513530565053 0 -0.1088042455319994 0.13492047577253419 0 -0.1190418512596908 0.1491905213845055 0 -0.12689466929456741 0.1202751061046955 0 -0.1157435997659011 0.1313513530565053 0 -0.1190418512596908 0.1491905213845055 0 -0.1157435997659011 0.1313513530565053 0 -0.1088042455319994 0.13492047577253419 0 -0.1082336329773475 0.1210193089642863 0 -0.1088042455319994 0.13492047577253419 0 -0.093617406066645023 0.1272302641662767 0 -0.1082336329773475 0.1210193089642863 0 -0.1088042455319994 0.13492047577253419 0 -0.098774392974564751 0.14553022138883581 0 -0.093617406066645023 0.1272302641662767 0 -0.098774392974564751 0.14553022138883581 0 -0.093617406066645023 0.1272302641662767 0 -0.098774392974564751 0.14553022138883581 0 -0.1039313798824805 0.1638301786113959 0 -0.098774392974564751 0.14553022138883581 0 -0.1039313798824805 0.1638301786113959 0 -0.098813618493943003 0.15830382107687391 0 -0.098774392974564751 0.14553022138883581 0 -0.10871053515376029 0.15132090565521189 0 -0.1039313798824805 0.1638301786113959 0 -0.1088042455319994 0.13492047577253419 0 -0.098774392974564751 0.14553022138883581 0 -0.10871053515376029 0.15132090565521189 0 -0.098774392974564751 0.14553022138883581 0 -0.098813618493943003 0.15830382107687391 0 -0.090745743737697893 0.1517150561766957 0 -0.1088042455319994 0.13492047577253419 0 -0.10871053515376029 0.15132090565521189 0 -0.1190418512596908 0.1491905213845055 0 -0.10871053515376029 0.15132090565521189 0 -0.1190418512596908 0.1491905213845055 0 -0.1161984957131246 0.15966024143302171 0 -0.1088042455319994 0.13492047577253419 0 -0.1190418512596908 0.1491905213845055 0 -0.12883153747101969 0.1628362186772481 0 -0.1190418512596908 0.1491905213845055 0 -0.1190418512596908 0.1491905213845055 0 -0.1161984957131246 0.15966024143302171 0 -0.1161984957131246 0.15966024143302171 0 -0.11614265243100561 0.17701638502694059 0 -0.1039313798824805 0.1638301786113959 0 -0.12883153747101969 0.1628362186772481 0 -0.1190418512596908 0.1491905213845055 0 -0.1161984957131246 0.15966024143302171 0 -0.1273225938786946 0.1742532673115508 0 -0.1161984957131246 0.15966024143302171 0 -0.11614265243100561 0.17701638502694059 0 -0.1273225938786946 0.1742532673115508 0 -0.12883153747101969 0.1628362186772481 0 -0.1161984957131246 0.15966024143302171 0 -0.11614265243100561 0.17701638502694059 0 -0.1039313798824805 0.1638301786113959 0 -0.10871053515376029 0.15132090565521189 0 -0.1161984957131246 0.15966024143302171 0 -0.1039313798824805 0.1638301786113959 0 -0.11614265243100561 0.17701638502694059 0 -0.1085479116380825 0.180212289939676 0 -0.1039313798824805 0.1638301786113959 0 -0.12835392497953199 0.19020259144248411 0 -0.1273225938786946 0.1742532673115508 0 -0.11614265243100561 0.17701638502694059 0 -0.12835392497953199 0.19020259144248411 0 -0.11866638006301559 0.18717464903088921 0 -0.11614265243100561 0.17701638502694059 0 -0.12835392497953199 0.19020259144248411 0 -0.11614265243100561 0.17701638502694059 0 -0.11866638006301559 0.18717464903088921 0 -0.11614265243100561 0.17701638502694059 0 -0.1085479116380825 0.180212289939676 0 -0.1085479116380825 0.180212289939676 0 -0.1039313798824805 0.1638301786113959 0 -0.1085479116380825 0.180212289939676 0 -0.093988955290101886 0.16996087176906591 0 -0.093629291371033707 0.18585403999198449 0 -0.1085479116380825 0.180212289939676 0 -0.1039313798824805 0.1638301786113959 0 -0.093988955290101886 0.16996087176906591 0 -0.093988955290101886 0.16996087176906591 0 -0.098813618493943003 0.15830382107687391 0 -0.089146463425543582 0.1601306205480903 0 -0.1039313798824805 0.1638301786113959 0 -0.093988955290101886 0.16996087176906591 0 -0.098813618493943003 0.15830382107687391 0 -0.1039313798824805 0.1638301786113959 0 -0.098813618493943003 0.15830382107687391 0 -0.098813618493943003 0.15830382107687391 0 -0.089146463425543582 0.1601306205480903 0 -0.090745743737697893 0.1517150561766957 0 -0.093988955290101886 0.16996087176906591 0 -0.089146463425543582 0.1601306205480903 0 -0.082866078242106719 0.166701814154537 0 -0.082866078242106719 0.166701814154537 0 -0.080262638548480925 0.17686996886511719 0 -0.073103057916342223 0.16544701101308579 0 -0.093988955290101886 0.16996087176906591 0 -0.082866078242106719 0.166701814154537 0 -0.080262638548480925 0.17686996886511719 0 -0.082866078242106719 0.166701814154537 0 -0.073103057916342223 0.16544701101308579 0 -0.080463741902399813 0.15368002890192969 0 -0.089146463425543582 0.1601306205480903 0 -0.082866078242106719 0.166701814154537 0 -0.080463741902399813 0.15368002890192969 0 -0.093988955290101886 0.16996087176906591 0 -0.093629291371033707 0.18585403999198449 0 -0.080262638548480925 0.17686996886511719 0 -0.093629291371033707 0.18585403999198449 0 -0.080262638548480925 0.17686996886511719 0 -0.072591036011259769 0.19370016856559069 0 -0.080262638548480925 0.17686996886511719 0 -0.064958516309289796 0.17626354178758361 0 -0.072591036011259769 0.19370016856559069 0 -0.080262638548480925 0.17686996886511719 0 -0.064958516309289796 0.17626354178758361 0 -0.073103057916342223 0.16544701101308579 0 -0.073103057916342223 0.16544701101308579 0 -0.066743667129655293 0.1513547900672958 0 -0.080463741902399813 0.15368002890192969 0 -0.064958516309289796 0.17626354178758361 0 -0.073103057916342223 0.16544701101308579 0 -0.062127284559112872 0.16292446047554421 0 -0.073103057916342223 0.16544701101308579 0 -0.066743667129655293 0.1513547900672958 0 -0.062127284559112872 0.16292446047554421 0 -0.066743667129655293 0.1513547900672958 0 -0.073000147476216831 0.13954615732032141 0 -0.080463741902399813 0.15368002890192969 0 -0.066743667129655293 0.1513547900672958 0 -0.073000147476216831 0.13954615732032141 0 -0.058083801747256809 0.13850691521610289 0 -0.065269164148754166 0.12739059252094681 0 -0.073000147476216831 0.13954615732032141 0 -0.058083801747256809 0.13850691521610289 0 -0.065269164148754166 0.12739059252094681 0 -0.073000147476216831 0.13954615732032141 0 -0.079734495329115654 0.1263964974910608 0 -0.073000147476216831 0.13954615732032141 0 -0.079734495329115654 0.1263964974910608 0 -0.086530501892038328 0.14093058896774879 0 -0.098774392974564751 0.14553022138883581 0 -0.093617406066645023 0.1272302641662767 0 -0.086530501892038328 0.14093058896774879 0 -0.079734495329115654 0.1263964974910608 0 -0.093617406066645023 0.1272302641662767 0 -0.086530501892038328 0.14093058896774879 0 -0.098774392974564751 0.14553022138883581 0 -0.086530501892038328 0.14093058896774879 0 -0.090745743737697893 0.1517150561766957 0 -0.089146463425543582 0.1601306205480903 0 -0.090745743737697893 0.1517150561766957 0 -0.080463741902399813 0.15368002890192969 0 -0.086530501892038328 0.14093058896774879 0 -0.090745743737697893 0.1517150561766957 0 -0.080463741902399813 0.15368002890192969 0 -0.073000147476216831 0.13954615732032141 0 -0.086530501892038328 0.14093058896774879 0 -0.080463741902399813 0.15368002890192969 0 -0.10625519902310331 0.24894121247517381 0 -0.1024673648888018 0.22479602252738659 0 -0.088923442773677641 0.2428954043945287 0 -0.1216953518658548 0.25506607473002069 0 -0.1240842163678311 0.23534403974388701 0 -0.10625519902310331 0.24894121247517381 0 -0.1240842163678311 0.23534403974388701 0 -0.1024673648888018 0.22479602252738659 0 -0.1216953518658548 0.25506607473002069 0 -0.10625519902310331 0.24894121247517381 0 -0.1240842163678311 0.23534403974388701 0 -0.1240842163678311 0.23534403974388701 0 -0.1024673648888018 0.22479602252738659 0 -0.1160112870039221 0.20669664066024171 0 -0.1240842163678311 0.23534403974388701 0 -0.1160112870039221 0.20669664066024171 0 -0.12657544630285281 0.21477689418317639 0 -0.1240842163678311 0.23534403974388701 0 -0.1160112870039221 0.20669664066024171 0 -0.1024673648888018 0.22479602252738659 0 -0.1023494047448546 0.210590544682556 0 -0.083970171605080635 0.22308712736554079 0 -0.1024673648888018 0.22479602252738659 0 -0.088923442773677641 0.2428954043945287 0 -0.1023494047448546 0.210590544682556 0 -0.1131644433936804 0.1965944012679571 0 -0.089439425290488789 0.20466248042148519 0 -0.1024673648888018 0.22479602252738659 0 -0.1160112870039221 0.20669664066024171 0 -0.1024673648888018 0.22479602252738659 0 -0.1023494047448546 0.210590544682556 0 -0.1160112870039221 0.20669664066024171 0 -0.12657544630285281 0.21477689418317639 0 -0.1160112870039221 0.20669664066024171 0 -0.1249858597515216 0.19470349584794391 0 -0.1023494047448546 0.210590544682556 0 -0.1160112870039221 0.20669664066024171 0 -0.1131644433936804 0.1965944012679571 0 -0.1160112870039221 0.20669664066024171 0 -0.1131644433936804 0.1965944012679571 0 -0.1178312025756536 0.19556915401748801 0 -0.1160112870039221 0.20669664066024171 0 -0.1131644433936804 0.1965944012679571 0 -0.1085479116380825 0.180212289939676 0 -0.1131644433936804 0.1965944012679571 0 -0.11866638006301559 0.18717464903088921 0 -0.1085479116380825 0.180212289939676 0 -0.1131644433936804 0.1965944012679571 0 -0.1160112870039221 0.20669664066024171 0 -0.1249858597515216 0.19470349584794391 0 -0.1160112870039221 0.20669664066024171 0 -0.1178312025756536 0.19556915401748801 0 -0.1249858597515216 0.19470349584794391 0 -0.1271229678727778 0.19184757747738859 0 -0.1131644433936804 0.1965944012679571 0 -0.1271229678727778 0.19184757747738859 0 -0.11866638006301559 0.18717464903088921 0 -0.1131644433936804 0.1965944012679571 0 -0.1271229678727778 0.19184757747738859 0 -0.12835392497953199 0.19020259144248411 0 -0.11866638006301559 0.18717464903088921 0 -0.1271229678727778 0.19184757747738859 0 -0.1178312025756536 0.19556915401748801 0 -0.1249858597515216 0.19470349584794391 0 -0.1271229678727778 0.19184757747738859 0 -0.1131644433936804 0.1965944012679571 0 -0.1178312025756536 0.19556915401748801 0 -0.1178312025756536 0.19556915401748801 0 -0.1249858597515216 0.19470349584794391 0 -0.1085479116380825 0.180212289939676 0 -0.093629291371033707 0.18585403999198449 0 -0.1131644433936804 0.1965944012679571 0 -0.1131644433936804 0.1965944012679571 0 -0.089439425290488789 0.20466248042148519 0 -0.093629291371033707 0.18585403999198449 0 -0.1131644433936804 0.1965944012679571 0 -0.089439425290488789 0.20466248042148519 0 -0.093629291371033707 0.18585403999198449 0 -0.072591036011259769 0.19370016856559069 0 -0.089439425290488789 0.20466248042148519 0 -0.072591036011259769 0.19370016856559069 0 -0.065714407187297721 0.21273055957501491 0 -0.049672979496348149 0.2047569725695331 0 -0.065714407187297721 0.21273055957501491 0 -0.089439425290488789 0.20466248042148519 0 -0.072591036011259769 0.19370016856559069 0 -0.065714407187297721 0.21273055957501491 0 -0.089439425290488789 0.20466248042148519 0 -0.1023494047448546 0.210590544682556 0 -0.089439425290488789 0.20466248042148519 0 -0.083970171605080635 0.22308712736554079 0 -0.065714407187297721 0.21273055957501491 0 -0.089439425290488789 0.20466248042148519 0 -0.083970171605080635 0.22308712736554079 0 -0.1024673648888018 0.22479602252738659 0 -0.083970171605080635 0.22308712736554079 0 -0.088923442773677641 0.2428954043945287 0 -0.065714407187297721 0.21273055957501491 0 -0.083970171605080635 0.22308712736554079 0 -0.058684454871330401 0.24089671249510741 0 -0.075379520658553634 0.26099478626167077 0 -0.088923442773677641 0.2428954043945287 0 -0.058684454871330401 0.24089671249510741 0 -0.083970171605080635 0.22308712736554079 0 -0.088923442773677641 0.2428954043945287 0 -0.058684454871330401 0.24089671249510741 0 -0.044684585048828732 0.25364523157778279 0 -0.039338805953962552 0.23628347772565789 0 -0.028224460930672039 0.24786102306797789 0 -0.039338805953962552 0.23628347772565789 0 -0.032401398754507628 0.23070299876854369 0 -0.030915469907283982 0.23726397165681551 0 -0.039338805953962552 0.23628347772565789 0 -0.030915469907283982 0.23726397165681551 0 -0.028224460930672039 0.24786102306797789 0 -0.044684585048828732 0.25364523157778279 0 -0.039338805953962552 0.23628347772565789 0 -0.058684454871330401 0.24089671249510741 0 -0.065714407187297721 0.21273055957501491 0 -0.058684454871330401 0.24089671249510741 0 -0.041989389084106717 0.22079863872854441 0 -0.058684454871330401 0.24089671249510741 0 -0.041989389084106717 0.22079863872854441 0 -0.039338805953962552 0.23628347772565789 0 -0.041989389084106717 0.22079863872854441 0 -0.03818662820858082 0.22209182955403711 0 -0.039338805953962552 0.23628347772565789 0 -0.058684454871330401 0.24089671249510741 0 -0.041989389084106717 0.22079863872854441 0 -0.041989389084106717 0.22079863872854441 0 -0.03818662820858082 0.22209182955403711 0 -0.039338805953962552 0.23628347772565789 0 -0.032401398754507628 0.23070299876854369 0 -0.03818662820858082 0.22209182955403711 0 -0.032401398754507628 0.23070299876854369 0 -0.03818662820858082 0.22209182955403711 0 -0.02804772465065512 0.22136790668136569 0 -0.041989389084106717 0.22079863872854441 0 -0.03818662820858082 0.22209182955403711 0 -0.026952362819696409 0.20269656791651181 0 -0.041989389084106717 0.22079863872854441 0 -0.026952362819696409 0.20269656791651181 0 -0.041989389084106717 0.22079863872854441 0 -0.049672979496348149 0.2047569725695331 0 -0.026952362819696409 0.20269656791651181 0 -0.065714407187297721 0.21273055957501491 0 -0.041989389084106717 0.22079863872854441 0 -0.065714407187297721 0.21273055957501491 0 -0.041989389084106717 0.22079863872854441 0 -0.049672979496348149 0.2047569725695331 0 -0.072591036011259769 0.19370016856559069 0 -0.049672979496348149 0.2047569725695331 0 -0.048344442502479067 0.18894888273032739 0 -0.049672979496348149 0.2047569725695331 0 -0.048344442502479067 0.18894888273032739 0 -0.034380030881867273 0.1907369768074218 0 -0.049672979496348149 0.2047569725695331 0 -0.034380030881867273 0.1907369768074218 0 -0.026952362819696409 0.20269656791651181 0 -0.026952362819696409 0.20269656791651181 0 -0.01033424703650564 0.20373928242107239 0 -0.011915336555286111 0.18459449710447931 0 -0.026952362819696409 0.20269656791651181 0 -0.011915336555286111 0.18459449710447931 0 -0.034380030881867273 0.1907369768074218 0 -0.026952362819696409 0.20269656791651181 0 -0.011915336555286111 0.18459449710447931 0 -0.01033424703650564 0.20373928242107239 0 -0.011915336555286111 0.18459449710447931 0 0.0009353780770335635 0.1938765135825741 0 -0.01033424703650564 0.20373928242107239 0 0.0025859288715124129 0.20777028317643681 0 0.0009353780770335635 0.1938765135825741 0 -0.01033424703650564 0.20373928242107239 0 -0.0076580703121003086 0.21635808264377959 0 0.0025859288715124129 0.20777028317643681 0 -0.01033424703650564 0.20373928242107239 0 -0.0076580703121003086 0.21635808264377959 0 -0.019001019480497001 0.2171397501026531 0 -0.026952362819696409 0.20269656791651181 0 -0.01033424703650564 0.20373928242107239 0 -0.019001019480497001 0.2171397501026531 0 -0.026952362819696409 0.20269656791651181 0 -0.019001019480497001 0.2171397501026531 0 -0.02804772465065512 0.22136790668136569 0 -0.03818662820858082 0.22209182955403711 0 -0.026952362819696409 0.20269656791651181 0 -0.02804772465065512 0.22136790668136569 0 -0.019001019480497001 0.2171397501026531 0 -0.02369721398999371 0.2342083870650826 0 -0.01056041778630981 0.22766728959268959 0 -0.019001019480497001 0.2171397501026531 0 -0.02804772465065512 0.22136790668136569 0 -0.02369721398999371 0.2342083870650826 0 -0.032401398754507628 0.23070299876854369 0 -0.02369721398999371 0.2342083870650826 0 -0.030915469907283982 0.23726397165681551 0 -0.032401398754507628 0.23070299876854369 0 -0.02804772465065512 0.22136790668136569 0 -0.02369721398999371 0.2342083870650826 0 -0.0076580703121003086 0.21635808264377959 0 -0.01056041778630981 0.22766728959268959 0 0.0072853495044526012 0.23207293279701549 0 -0.0076580703121003086 0.21635808264377959 0 -0.019001019480497001 0.2171397501026531 0 -0.01056041778630981 0.22766728959268959 0 -0.01056041778630981 0.22766728959268959 0 -0.0097311346534106127 0.23855729535491729 0 0.0072853495044526012 0.23207293279701549 0 -0.02369721398999371 0.2342083870650826 0 -0.01056041778630981 0.22766728959268959 0 -0.0097311346534106127 0.23855729535491729 0 -0.00011193775520391721 0.25517212070728618 0 -0.0097311346534106127 0.23855729535491729 0 -0.01292667695621828 0.26021059831846272 0 -0.02369721398999371 0.2342083870650826 0 -0.0096905366651163487 0.249625733408574 0 -0.00011193775520391721 0.25517212070728618 0 -0.0097311346534106127 0.23855729535491729 0 0.0072853495044526012 0.23207293279701549 0 -0.02369721398999371 0.2342083870650826 0 -0.0097311346534106127 0.23855729535491729 0 -0.0096905366651163487 0.249625733408574 0 -0.00011193775520391721 0.25517212070728618 0 -0.0097311346534106127 0.23855729535491729 0 -0.0096905366651163487 0.249625733408574 0 -0.01292667695621828 0.26021059831846272 0 -0.02369721398999371 0.2342083870650826 0 -0.01292667695621828 0.26021059831846272 0 -0.02369721398999371 0.2342083870650826 0 -0.028224460930672039 0.24786102306797789 0 -0.02369721398999371 0.2342083870650826 0 -0.030915469907283982 0.23726397165681551 0 -0.028224460930672039 0.24786102306797789 0 -0.031600747622453379 0.14725225309078069 0 -0.04257548176596207 0.15703886073606541 0 -0.030917339192417539 0.16404046649650841 0 -0.044302141794485161 0.142202599087739 0 -0.031600747622453379 0.14725225309078069 0 -0.04257548176596207 0.15703886073606541 0 -0.044302141794485161 0.142202599087739 0 -0.031600747622453379 0.14725225309078069 0 -0.033569907807307502 0.131267506504221 0 -0.044302141794485161 0.142202599087739 0 -0.033569907807307502 0.131267506504221 0 -0.049104755936030822 0.12822692799608601 0 -0.065269164148754166 0.12739059252094681 0 -0.049104755936030822 0.12822692799608601 0 -0.058083801747256809 0.13850691521610289 0 -0.044302141794485161 0.142202599087739 0 -0.049104755936030822 0.12822692799608601 0 -0.058083801747256809 0.13850691521610289 0 -0.066743667129655293 0.1513547900672958 0 -0.058083801747256809 0.13850691521610289 0 -0.054176954652012048 0.15343199721998779 0 -0.044302141794485161 0.142202599087739 0 -0.058083801747256809 0.13850691521610289 0 -0.054176954652012048 0.15343199721998779 0 -0.044302141794485161 0.142202599087739 0 -0.054176954652012048 0.15343199721998779 0 -0.04257548176596207 0.15703886073606541 0 -0.066743667129655293 0.1513547900672958 0 -0.054176954652012048 0.15343199721998779 0 -0.062127284559112872 0.16292446047554421 0 -0.054176954652012048 0.15343199721998779 0 -0.062127284559112872 0.16292446047554421 0 -0.051654226788265041 0.16812496228976809 0 -0.064958516309289796 0.17626354178758361 0 -0.062127284559112872 0.16292446047554421 0 -0.051654226788265041 0.16812496228976809 0 -0.054176954652012048 0.15343199721998779 0 -0.051654226788265041 0.16812496228976809 0 -0.04257548176596207 0.15703886073606541 0 -0.064958516309289796 0.17626354178758361 0 -0.048344442502479067 0.18894888273032739 0 -0.051654226788265041 0.16812496228976809 0 -0.064958516309289796 0.17626354178758361 0 -0.072591036011259769 0.19370016856559069 0 -0.048344442502479067 0.18894888273032739 0 -0.048344442502479067 0.18894888273032739 0 -0.040494086123531947 0.17088506203736259 0 -0.03075097794745019 0.1771343282734921 0 -0.048344442502479067 0.18894888273032739 0 -0.03075097794745019 0.1771343282734921 0 -0.048344442502479067 0.18894888273032739 0 -0.034380030881867273 0.1907369768074218 0 -0.03075097794745019 0.1771343282734921 0 -0.048344442502479067 0.18894888273032739 0 -0.051654226788265041 0.16812496228976809 0 -0.040494086123531947 0.17088506203736259 0 -0.051654226788265041 0.16812496228976809 0 -0.04257548176596207 0.15703886073606541 0 -0.040494086123531947 0.17088506203736259 0 -0.040494086123531947 0.17088506203736259 0 -0.030917339192417539 0.16404046649650841 0 -0.03075097794745019 0.1771343282734921 0 -0.04257548176596207 0.15703886073606541 0 -0.040494086123531947 0.17088506203736259 0 -0.030917339192417539 0.16404046649650841 0 -0.030917339192417539 0.16404046649650841 0 -0.01315751339242139 0.16531977381665661 0 -0.030917339192417539 0.16404046649650841 0 -0.03075097794745019 0.1771343282734921 0 -0.01315751339242139 0.16531977381665661 0 -0.030917339192417539 0.16404046649650841 0 -0.01315751339242139 0.16531977381665661 0 -0.020454653533868619 0.1527705490642445 0 -0.03075097794745019 0.1771343282734921 0 -0.01315751339242139 0.16531977381665661 0 -0.034380030881867273 0.1907369768074218 0 -0.03075097794745019 0.1771343282734921 0 -0.011915336555286111 0.18459449710447931 0 -0.03075097794745019 0.1771343282734921 0 -0.011915336555286111 0.18459449710447931 0 -0.01315751339242139 0.16531977381665661 0 -0.011915336555286111 0.18459449710447931 0 0.0031216897091246188 0.16649242629244701 0 -0.011915336555286111 0.18459449710447931 0 0.0031216897091246188 0.16649242629244701 0 0.0020710030378915268 0.18162716825173669 0 -0.011915336555286111 0.18459449710447931 0 -0.01315751339242139 0.16531977381665661 0 0.0031216897091246188 0.16649242629244701 0 -0.011915336555286111 0.18459449710447931 0 0.0020710030378915268 0.18162716825173669 0 0.0009353780770335635 0.1938765135825741 0 -0.01315751339242139 0.16531977381665661 0 -0.0093356360451499181 0.14900962086430519 0 0.002721816111255361 0.15465631395220419 0 -0.01315751339242139 0.16531977381665661 0 0.0031216897091246188 0.16649242629244701 0 -0.01315751339242139 0.16531977381665661 0 0.002721816111255361 0.15465631395220419 0 0.0031216897091246188 0.16649242629244701 0 -0.01315751339242139 0.16531977381665661 0 0.002721816111255361 0.15465631395220419 0 -0.01315751339242139 0.16531977381665661 0 -0.0093356360451499181 0.14900962086430519 0 -0.020454653533868619 0.1527705490642445 0 -0.0093356360451499181 0.14900962086430519 0 0.0019971322299643119 0.1361079308325148 0 0.002721816111255361 0.15465631395220419 0 -0.031600747622453379 0.14725225309078069 0 -0.020454653533868619 0.1527705490642445 0 -0.01778496164067938 0.13619353665590581 0 -0.031600747622453379 0.14725225309078069 0 -0.030917339192417539 0.16404046649650841 0 -0.020454653533868619 0.1527705490642445 0 -0.0093356360451499181 0.14900962086430519 0 -0.020454653533868619 0.1527705490642445 0 -0.01778496164067938 0.13619353665590581 0 -0.01778496164067938 0.13619353665590581 0 -0.0092761475422675557 0.1226514395717682 0 -0.02290988666224876 0.119120699823567 0 -0.033569907807307502 0.131267506504221 0 -0.01778496164067938 0.13619353665590581 0 -0.02290988666224876 0.119120699823567 0 -0.031600747622453379 0.14725225309078069 0 -0.033569907807307502 0.131267506504221 0 -0.01778496164067938 0.13619353665590581 0 -0.0093356360451499181 0.14900962086430519 0 -0.01778496164067938 0.13619353665590581 0 0.0019971322299643119 0.1361079308325148 0 -0.0092761475422675557 0.1226514395717682 0 0.0052607550463267053 0.1184896750956882 0 0.0019971322299643119 0.1361079308325148 0 -0.01778496164067938 0.13619353665590581 0 -0.0092761475422675557 0.1226514395717682 0 0.0019971322299643119 0.1361079308325148 0 -0.0092761475422675557 0.1226514395717682 0 -0.0089529622721888219 0.1064137428248286 0 0.0052607550463267053 0.1184896750956882 0 -0.0092761475422675557 0.1226514395717682 0 -0.01470784922070407 0.115448094766507 0 -0.0089529622721888219 0.1064137428248286 0 -0.0089529622721888219 0.1064137428248286 0 0.0052607550463267053 0.1184896750956882 0 -0.0089529622721888219 0.1064137428248286 0 -0.0075509514396256729 0.089676379199685144 0 -0.025010797332858711 0.092771053564595696 0 -0.0089529622721888219 0.1064137428248286 0 -0.0075509514396256729 0.089676379199685144 0 0.0091849122842178627 0.091096182324004127 0 -0.01470784922070407 0.115448094766507 0 -0.0089529622721888219 0.1064137428248286 0 -0.021801618826508891 0.1042773437050617 0 -0.021801618826508891 0.1042773437050617 0 -0.025010797332858711 0.092771053564595696 0 -0.039480846162075318 0.1143892101598 0 -0.0089529622721888219 0.1064137428248286 0 -0.021801618826508891 0.1042773437050617 0 -0.025010797332858711 0.092771053564595696 0 -0.0089529622721888219 0.1064137428248286 0 -0.025010797332858711 0.092771053564595696 0 -0.021801618826508891 0.1042773437050617 0 -0.02290988666224876 0.119120699823567 0 -0.039480846162075318 0.1143892101598 0 -0.0092761475422675557 0.1226514395717682 0 -0.01470784922070407 0.115448094766507 0 -0.02290988666224876 0.119120699823567 0 -0.01470784922070407 0.115448094766507 0 -0.021801618826508891 0.1042773437050617 0 -0.02290988666224876 0.119120699823567 0 -0.0088437095779531124 0.072930222867837638 0 -0.023133977355293728 0.076708811153193057 0 -0.012929805140003549 0.058328542974074603 0 -0.0088437095779531124 0.072930222867837638 0 -0.012929805140003549 0.058328542974074603 0 0.00043187230278597959 0.062219037880863803 0 -0.0088437095779531124 0.072930222867837638 0 -0.0075509514396256729 0.089676379199685144 0 0.0093541588554246474 0.072899074274879822 0 -0.0088437095779531124 0.072930222867837638 0 -0.0075509514396256729 0.089676379199685144 0 -0.023133977355293728 0.076708811153193057 0 -0.025010797332858711 0.092771053564595696 0 -0.023133977355293728 0.076708811153193057 0 -0.041068632393528808 0.079128364304363097 0 -0.0075509514396256729 0.089676379199685144 0 -0.025010797332858711 0.092771053564595696 0 -0.023133977355293728 0.076708811153193057 0 -0.023133977355293728 0.076708811153193057 0 -0.041068632393528808 0.079128364304363097 0 -0.027709162013294542 0.061716144348799587 0 -0.023133977355293728 0.076708811153193057 0 -0.027709162013294542 0.061716144348799587 0 -0.012929805140003549 0.058328542974074603 0 -0.041068632393528808 0.079128364304363097 0 -0.043167758284747088 0.057748372527706371 0 -0.027709162013294542 0.061716144348799587 0 -0.025010797332858711 0.092771053564595696 0 -0.041068632393528808 0.079128364304363097 0 -0.048303656808137467 0.089937442601965456 0 -0.025010797332858711 0.092771053564595696 0 -0.041068632393528808 0.079128364304363097 0 -0.041068632393528808 0.079128364304363097 0 -0.048303656808137467 0.089937442601965456 0 -0.057126467454199227 0.065485675044130831 0 -0.048303656808137467 0.089937442601965456 0 -0.061174618777056218 0.079894635633635844 0 -0.057126467454199227 0.065485675044130831 0 -0.048303656808137467 0.089937442601965456 0 -0.06248667545171635 0.092059002101489235 0 -0.061174618777056218 0.079894635633635844 0 -0.041068632393528808 0.079128364304363097 0 -0.057126467454199227 0.065485675044130831 0 -0.041068632393528808 0.079128364304363097 0 -0.057126467454199227 0.065485675044130831 0 -0.043167758284747088 0.057748372527706371 0 -0.048303656808137467 0.089937442601965456 0 -0.057126467454199227 0.065485675044130831 0 -0.033569907807307502 0.131267506504221 0 -0.02290988666224876 0.119120699823567 0 -0.039480846162075318 0.1143892101598 0 -0.033569907807307502 0.131267506504221 0 -0.049104755936030822 0.12822692799608601 0 -0.039480846162075318 0.1143892101598 0 -0.025010797332858711 0.092771053564595696 0 -0.048303656808137467 0.089937442601965456 0 -0.039480846162075318 0.1143892101598 0 -0.048303656808137467 0.089937442601965456 0 -0.039480846162075318 0.1143892101598 0 -0.048303656808137467 0.089937442601965456 0 -0.039480846162075318 0.1143892101598 0 -0.05466882956498216 0.1031382195719205 0 -0.06248667545171635 0.092059002101489235 0 -0.05466882956498216 0.1031382195719205 0 -0.064527746876527819 0.1036792156611152 0 -0.048303656808137467 0.089937442601965456 0 -0.06248667545171635 0.092059002101489235 0 -0.05466882956498216 0.1031382195719205 0 -0.05466882956498216 0.1031382195719205 0 -0.058545222526453888 0.1156262273352328 0 -0.064527746876527819 0.1036792156611152 0 -0.065269164148754166 0.12739059252094681 0 -0.049104755936030822 0.12822692799608601 0 -0.058545222526453888 0.1156262273352328 0 -0.039480846162075318 0.1143892101598 0 -0.05466882956498216 0.1031382195719205 0 -0.058545222526453888 0.1156262273352328 0 -0.049104755936030822 0.12822692799608601 0 -0.039480846162075318 0.1143892101598 0 -0.058545222526453888 0.1156262273352328 0 -0.065269164148754166 0.12739059252094681 0 -0.058545222526453888 0.1156262273352328 0 -0.073022587113212328 0.11380850847357139 0 -0.058545222526453888 0.1156262273352328 0 -0.073022587113212328 0.11380850847357139 0 -0.064527746876527819 0.1036792156611152 0 -0.065269164148754166 0.12739059252094681 0 -0.079734495329115654 0.1263964974910608 0 -0.073022587113212328 0.11380850847357139 0 -0.079734495329115654 0.1263964974910608 0 -0.093617406066645023 0.1272302641662767 0 -0.086967165277827344 0.1094728734974996 0 -0.093617406066645023 0.1272302641662767 0 -0.086967165277827344 0.1094728734974996 0 -0.098968154986228615 0.1104590557093548 0 -0.079734495329115654 0.1263964974910608 0 -0.073022587113212328 0.11380850847357139 0 -0.086967165277827344 0.1094728734974996 0 -0.086967165277827344 0.1094728734974996 0 -0.090099722057974452 0.09370943365126258 0 -0.086967165277827344 0.1094728734974996 0 -0.090099722057974452 0.09370943365126258 0 -0.097215107754451829 0.099402226327291995 0 -0.086967165277827344 0.1094728734974996 0 -0.076296540022142451 0.096355417178665609 0 -0.090099722057974452 0.09370943365126258 0 -0.073022587113212328 0.11380850847357139 0 -0.086967165277827344 0.1094728734974996 0 -0.076296540022142451 0.096355417178665609 0 -0.073022587113212328 0.11380850847357139 0 -0.076296540022142451 0.096355417178665609 0 -0.064527746876527819 0.1036792156611152 0 -0.06248667545171635 0.092059002101489235 0 -0.076296540022142451 0.096355417178665609 0 -0.064527746876527819 0.1036792156611152 0 -0.06248667545171635 0.092059002101489235 0 -0.076296540022142451 0.096355417178665609 0 -0.071526874802675389 0.082061903919597862 0 -0.06248667545171635 0.092059002101489235 0 -0.061174618777056218 0.079894635633635844 0 -0.071526874802675389 0.082061903919597862 0 -0.071526874802675389 0.082061903919597862 0 -0.080178924573005406 0.07491329326183753 0 -0.08226686805878386 0.084997208363277801 0 -0.076296540022142451 0.096355417178665609 0 -0.071526874802675389 0.082061903919597862 0 -0.08226686805878386 0.084997208363277801 0 -0.069815139840965573 0.069925646729425001 0 -0.08252252282608856 0.060368798584457969 0 -0.065299733133692986 0.058541692652645611 0 -0.057126467454199227 0.065485675044130831 0 -0.069815139840965573 0.069925646729425001 0 -0.065299733133692986 0.058541692652645611 0 -0.061174618777056218 0.079894635633635844 0 -0.071526874802675389 0.082061903919597862 0 -0.069815139840965573 0.069925646729425001 0 -0.061174618777056218 0.079894635633635844 0 -0.057126467454199227 0.065485675044130831 0 -0.069815139840965573 0.069925646729425001 0 -0.071526874802675389 0.082061903919597862 0 -0.069815139840965573 0.069925646729425001 0 -0.080178924573005406 0.07491329326183753 0 -0.069815139840965573 0.069925646729425001 0 -0.080178924573005406 0.07491329326183753 0 -0.08252252282608856 0.060368798584457969 0 -0.080178924573005406 0.07491329326183753 0 -0.093232278838119992 0.077945993805025163 0 -0.08252252282608856 0.060368798584457969 0 -0.093232278838119992 0.077945993805025163 0 -0.094509376618158891 0.071519468941699887 0 -0.08252252282608856 0.060368798584457969 0 -0.093232278838119992 0.077945993805025163 0 -0.08252252282608856 0.060368798584457969 0 -0.094509376618158891 0.071519468941699887 0 -0.085010873948040355 0.057219596638452178 0 -0.094509376618158891 0.071519468941699887 0 -0.08252252282608856 0.060368798584457969 0 -0.085010873948040355 0.057219596638452178 0 -0.093232278838119992 0.077945993805025163 0 -0.08226686805878386 0.084997208363277801 0 -0.090099722057974452 0.09370943365126258 0 -0.093232278838119992 0.077945993805025163 0 -0.090099722057974452 0.09370943365126258 0 -0.093232278838119992 0.077945993805025163 0 -0.090099722057974452 0.09370943365126258 0 -0.097215107754451829 0.099402226327291995 0 -0.076296540022142451 0.096355417178665609 0 -0.08226686805878386 0.084997208363277801 0 -0.090099722057974452 0.09370943365126258 0 -0.080178924573005406 0.07491329326183753 0 -0.093232278838119992 0.077945993805025163 0 -0.08226686805878386 0.084997208363277801 0 -0.093232278838119992 0.077945993805025163 0 -0.1107020229563629 0.095897287523197761 0 -0.1088497752697304 0.1035779300813184 0 -0.093232278838119992 0.077945993805025163 0 -0.1088497752697304 0.1035779300813184 0 -0.093232278838119992 0.077945993805025163 0 -0.094509376618158891 0.071519468941699887 0 -0.1107020229563629 0.095897287523197761 0 -0.094509376618158891 0.071519468941699887 0 -0.11947296242619 0.070529167400145018 0 -0.1107020229563629 0.095897287523197761 0 -0.093232278838119992 0.077945993805025163 0 -0.097215107754451829 0.099402226327291995 0 -0.1088497752697304 0.1035779300813184 0 -0.094509376618158891 0.071519468941699887 0 -0.1107020229563629 0.095897287523197761 0 -0.093232278838119992 0.077945993805025163 0 -0.094509376618158891 0.071519468941699887 0 -0.11947296242619 0.070529167400145018 0 -0.1233716746509252 0.088925773134263211 0 -0.1107020229563629 0.095897287523197761 0 -0.12689466929456741 0.1202751061046955 0 -0.1107020229563629 0.095897287523197761 0 -0.1228279476963066 0.1016733655911974 0 -0.12689466929456741 0.1202751061046955 0 -0.1107020229563629 0.095897287523197761 0 -0.12689466929456741 0.1202751061046955 0 -0.1107020229563629 0.095897287523197761 0 -0.1088497752697304 0.1035779300813184 0 -0.1233716746509252 0.088925773134263211 0 -0.1107020229563629 0.095897287523197761 0 -0.1228279476963066 0.1016733655911974 0 -0.12689466929456741 0.1202751061046955 0 -0.11073655813196839 0.1138328502149137 0 -0.1082336329773475 0.1210193089642863 0 -0.12689466929456741 0.1202751061046955 0 -0.11073655813196839 0.1138328502149137 0 -0.1088497752697304 0.1035779300813184 0 -0.12689466929456741 0.1202751061046955 0 -0.1157435997659011 0.1313513530565053 0 -0.1082336329773475 0.1210193089642863 0 -0.11073655813196839 0.1138328502149137 0 -0.1082336329773475 0.1210193089642863 0 -0.098968154986228615 0.1104590557093548 0 -0.093617406066645023 0.1272302641662767 0 -0.1082336329773475 0.1210193089642863 0 -0.098968154986228615 0.1104590557093548 0 -0.086967165277827344 0.1094728734974996 0 -0.098968154986228615 0.1104590557093548 0 -0.097215107754451829 0.099402226327291995 0 -0.11073655813196839 0.1138328502149137 0 -0.098968154986228615 0.1104590557093548 0 -0.1088497752697304 0.1035779300813184 0 -0.098968154986228615 0.1104590557093548 0 -0.097215107754451829 0.099402226327291995 0 -0.1088497752697304 0.1035779300813184 0 -0.093813051593326119 0.024452414055159001 0 -0.1062052671335294 0.01266420165470904 0 -0.085237329863076139 0.01569063650112669 0 -0.1031146896872272 0.028216395943319261 0 -0.1062052671335294 0.01266420165470904 0 -0.11594732073159909 0.015611701518579759 0 -0.1031146896872272 0.028216395943319261 0 -0.1062052671335294 0.01266420165470904 0 -0.1031146896872272 0.028216395943319261 0 -0.093813051593326119 0.024452414055159001 0 -0.090526252368037824 0.033717616739155618 0 -0.093813051593326119 0.024452414055159001 0 -0.1062052671335294 0.01266420165470904 0 -0.1031146896872272 0.028216395943319261 0 -0.093813051593326119 0.024452414055159001 0 -0.1062052671335294 0.01266420165470904 0 -0.10731828618425041 0.0070633426487658807 0 -0.1062052671335294 0.01266420165470904 0 -0.085237329863076139 0.01569063650112669 0 -0.10731828618425041 0.0070633426487658807 0 -0.085237329863076139 0.01569063650112669 0 -0.10731828618425041 0.0070633426487658807 0 -0.1062052671335294 0.01266420165470904 0 -0.1062052671335294 0.01266420165470904 0 -0.115421237406118 0.0038974226475877302 0 -0.10731828618425041 0.0070633426487658807 0 -0.1062052671335294 0.01266420165470904 0 -0.115421237406118 0.0038974226475877302 0 -0.1062052671335294 0.01266420165470904 0 -0.11594732073159909 0.015611701518579759 0 -0.115421237406118 0.0038974226475877302 0 -0.10731828618425041 0.0070633426487658807 0 -0.115421237406118 0.0038974226475877302 0 -0.12955085303500799 0.0098063046611244729 0 -0.11594732073159909 0.015611701518579759 0 -0.115421237406118 0.0038974226475877302 0 -0.12544455639611121 0.023474182686157759 0 -0.1031146896872272 0.028216395943319261 0 -0.11594732073159909 0.015611701518579759 0 -0.12955085303500799 0.0098063046611244729 0 -0.12544455639611121 0.023474182686157759 0 -0.11594732073159909 0.015611701518579759 0 -0.12900246533646781 0.044772139336155058 0 -0.12544455639611121 0.023474182686157759 0 -0.1031146896872272 0.028216395943319261 0 -0.12900246533646781 0.044772139336155058 0 -0.1031146896872272 0.028216395943319261 0 -0.1000241122409372 0.043768590231931907 0 -0.12900246533646781 0.044772139336155058 0 -0.1000241122409372 0.043768590231931907 0 -0.12900246533646781 0.044772139336155058 0 -0.11947296242619 0.070529167400145018 0 -0.1000241122409372 0.043768590231931907 0 -0.094509376618158891 0.071519468941699887 0 -0.1000241122409372 0.043768590231931907 0 -0.094509376618158891 0.071519468941699887 0 -0.11947296242619 0.070529167400145018 0 -0.1000241122409372 0.043768590231931907 0 -0.1031146896872272 0.028216395943319261 0 -0.1000241122409372 0.043768590231931907 0 -0.1031146896872272 0.028216395943319261 0 -0.1000241122409372 0.043768590231931907 0 -0.090526252368037824 0.033717616739155618 0 -0.1000241122409372 0.043768590231931907 0 -0.075512371277925788 0.0429197243352019 0 -0.1000241122409372 0.043768590231931907 0 -0.090526252368037824 0.033717616739155618 0 -0.075512371277925788 0.0429197243352019 0 -0.090526252368037824 0.033717616739155618 0 -0.075512371277925788 0.0429197243352019 0 -0.080167037040772798 0.029230959130165789 0 -0.094509376618158891 0.071519468941699887 0 -0.1000241122409372 0.043768590231931907 0 -0.085010873948040355 0.057219596638452178 0 -0.1000241122409372 0.043768590231931907 0 -0.085010873948040355 0.057219596638452178 0 -0.075512371277925788 0.0429197243352019 0 -0.08252252282608856 0.060368798584457969 0 -0.085010873948040355 0.057219596638452178 0 -0.075512371277925788 0.0429197243352019 0 -0.085010873948040355 0.057219596638452178 0 -0.075512371277925788 0.0429197243352019 0 -0.057126467454199227 0.065485675044130831 0 -0.065299733133692986 0.058541692652645611 0 -0.065395248938669909 0.042569358355905793 0 -0.08252252282608856 0.060368798584457969 0 -0.071812766814062151 0.042791603363887758 0 -0.08252252282608856 0.060368798584457969 0 -0.065299733133692986 0.058541692652645611 0 -0.071812766814062151 0.042791603363887758 0 -0.08252252282608856 0.060368798584457969 0 -0.075512371277925788 0.0429197243352019 0 -0.071812766814062151 0.042791603363887758 0 -0.065299733133692986 0.058541692652645611 0 -0.071812766814062151 0.042791603363887758 0 -0.065395248938669909 0.042569358355905793 0 -0.075512371277925788 0.0429197243352019 0 -0.063156373541900637 0.024317930353484649 0 -0.080167037040772798 0.029230959130165789 0 -0.075512371277925788 0.0429197243352019 0 -0.063156373541900637 0.024317930353484649 0 -0.075512371277925788 0.0429197243352019 0 -0.066507699368472339 0.034084756443696657 0 -0.063156373541900637 0.024317930353484649 0 -0.075512371277925788 0.0429197243352019 0 -0.071812766814062151 0.042791603363887758 0 -0.066507699368472339 0.034084756443696657 0 -0.075512371277925788 0.0429197243352019 0 -0.071812766814062151 0.042791603363887758 0 -0.065395248938669909 0.042569358355905793 0 -0.067442436762481017 0.036895728622416198 0 -0.071812766814062151 0.042791603363887758 0 -0.065395248938669909 0.042569358355905793 0 -0.071812766814062151 0.042791603363887758 0 -0.065395248938669909 0.042569358355905793 0 -0.067442436762481017 0.036895728622416198 0 -0.071812766814062151 0.042791603363887758 0 -0.067442436762481017 0.036895728622416198 0 -0.066507699368472339 0.034084756443696657 0 -0.071812766814062151 0.042791603363887758 0 -0.066507699368472339 0.034084756443696657 0 -0.062814785884517652 0.036261248234961879 0 -0.067442436762481017 0.036895728622416198 0 -0.066507699368472339 0.034084756443696657 0 -0.062814785884517652 0.036261248234961879 0 -0.066507699368472339 0.034084756443696657 0 -0.058498062740564932 0.032253973093224503 0 -0.065395248938669909 0.042569358355905793 0 -0.062814785884517652 0.036261248234961879 0 -0.067442436762481017 0.036895728622416198 0 -0.063156373541900637 0.024317930353484649 0 -0.085237329863076139 0.01569063650112669 0 -0.067890307440504005 0.0078820811303739208 0 -0.066507699368472339 0.034084756443696657 0 -0.063156373541900637 0.024317930353484649 0 -0.058498062740564932 0.032253973093224503 0 -0.063156373541900637 0.024317930353484649 0 -0.085237329863076139 0.01569063650112669 0 -0.063156373541900637 0.024317930353484649 0 -0.080167037040772798 0.029230959130165789 0 -0.085237329863076139 0.01569063650112669 0 -0.093813051593326119 0.024452414055159001 0 -0.080167037040772798 0.029230959130165789 0 -0.085237329863076139 0.01569063650112669 0 -0.093813051593326119 0.024452414055159001 0 -0.090526252368037824 0.033717616739155618 0 -0.080167037040772798 0.029230959130165789 0 -0.10731828618425041 0.0070633426487658807 0 -0.085237329863076139 0.01569063650112669 0 -0.084050593584032163 0.001111998914709314 0 -0.085237329863076139 0.01569063650112669 0 -0.084050593584032163 0.001111998914709314 0 -0.067890307440504005 0.0078820811303739208 0 -0.070579892718384968 -0.0045875830928024802 0 -0.084050593584032163 0.001111998914709314 0 -0.067890307440504005 0.0078820811303739208 0 -0.070579892718384968 -0.0045875830928024802 0 -0.067890307440504005 0.0078820811303739208 0 -0.055871588299595161 0.001039935613227596 0 -0.049681641572250398 0.0023134901883178609 0 -0.054814495516904753 0.01175934141904107 0 -0.038576907831823763 0.016153573594112909 0 -0.067890307440504005 0.0078820811303739208 0 -0.055871588299595161 0.001039935613227596 0 -0.054814495516904753 0.01175934141904107 0 -0.063156373541900637 0.024317930353484649 0 -0.067890307440504005 0.0078820811303739208 0 -0.054814495516904753 0.01175934141904107 0 -0.055871588299595161 0.001039935613227596 0 -0.049681641572250398 0.0023134901883178609 0 -0.054814495516904753 0.01175934141904107 0 -0.055871588299595161 0.001039935613227596 0 -0.049681641572250398 0.0023134901883178609 0 -0.063156373541900637 0.024317930353484649 0 -0.041792562050445667 0.03266502713961851 0 -0.063156373541900637 0.024317930353484649 0 -0.054814495516904753 0.01175934141904107 0 -0.041792562050445667 0.03266502713961851 0 -0.063156373541900637 0.024317930353484649 0 -0.054814495516904753 0.01175934141904107 0 -0.063156373541900637 0.024317930353484649 0 -0.058498062740564932 0.032253973093224503 0 -0.041792562050445667 0.03266502713961851 0 -0.054814495516904753 0.01175934141904107 0 -0.038576907831823763 0.016153573594112909 0 -0.041792562050445667 0.03266502713961851 0 -0.038576907831823763 0.016153573594112909 0 -0.041792562050445667 0.03266502713961851 0 -0.02042875055899325 0.04101212392575887 0 -0.049681641572250398 0.0023134901883178609 0 -0.024590202787005008 0.0074759444174279993 0 -0.049681641572250398 0.0023134901883178609 0 -0.038576907831823763 0.016153573594112909 0 -0.02247093340625177 0.011299078971399741 0 -0.033170396118065902 -0.0054912752601619817 0 -0.049681641572250398 0.0023134901883178609 0 -0.024590202787005008 0.0074759444174279993 0 -0.049681641572250398 0.0023134901883178609 0 -0.02247093340625177 0.011299078971399741 0 -0.024590202787005008 0.0074759444174279993 0 -0.049681641572250398 0.0023134901883178609 0 -0.02247093340625177 0.011299078971399741 0 -0.057126467454199227 0.065485675044130831 0 -0.065395248938669909 0.042569358355905793 0 -0.065395248938669909 0.042569358355905793 0 -0.042911999748831607 0.041790741140832741 0 -0.043167758284747088 0.057748372527706371 0 -0.057126467454199227 0.065485675044130831 0 -0.065395248938669909 0.042569358355905793 0 -0.043167758284747088 0.057748372527706371 0 -0.057126467454199227 0.065485675044130831 0 -0.065299733133692986 0.058541692652645611 0 -0.058498062740564932 0.032253973093224503 0 -0.054242070367311677 0.037063946024785917 0 -0.041792562050445667 0.03266502713961851 0 -0.065395248938669909 0.042569358355905793 0 -0.042911999748831607 0.041790741140832741 0 -0.065395248938669909 0.042569358355905793 0 -0.054242070367311677 0.037063946024785917 0 -0.042911999748831607 0.041790741140832741 0 -0.065395248938669909 0.042569358355905793 0 -0.062814785884517652 0.036261248234961879 0 -0.054242070367311677 0.037063946024785917 0 -0.062814785884517652 0.036261248234961879 0 -0.058498062740564932 0.032253973093224503 0 -0.054242070367311677 0.037063946024785917 0 -0.042911999748831607 0.041790741140832741 0 -0.02042875055899325 0.04101212392575887 0 -0.041792562050445667 0.03266502713961851 0 -0.042911999748831607 0.041790741140832741 0 -0.02042875055899325 0.04101212392575887 0 -0.054242070367311677 0.037063946024785917 0 -0.041792562050445667 0.03266502713961851 0 -0.042911999748831607 0.041790741140832741 0 -0.042911999748831607 0.041790741140832741 0 -0.043167758284747088 0.057748372527706371 0 -0.027709162013294542 0.061716144348799587 0 -0.027709162013294542 0.061716144348799587 0 -0.02042875055899325 0.04101212392575887 0 -0.012929805140003549 0.058328542974074603 0 -0.042911999748831607 0.041790741140832741 0 -0.027709162013294542 0.061716144348799587 0 -0.02042875055899325 0.04101212392575887 0 -0.041792562050445667 0.03266502713961851 0 -0.02042875055899325 0.04101212392575887 0 -0.02042875055899325 0.04101212392575887 0 -0.001444375107356517 0.048429546579121123 0 -0.02042875055899325 0.04101212392575887 0 -0.0076280052074238066 0.030320507795764149 0 0.0061012299912522883 0.040093364390729642 0 -0.02042875055899325 0.04101212392575887 0 0.0061012299912522883 0.040093364390729642 0 -0.02042875055899325 0.04101212392575887 0 -0.001444375107356517 0.048429546579121123 0 0.0061012299912522883 0.040093364390729642 0 -0.02042875055899325 0.04101212392575887 0 -0.001444375107356517 0.048429546579121123 0 -0.012929805140003549 0.058328542974074603 0 -0.001444375107356517 0.048429546579121123 0 -0.012929805140003549 0.058328542974074603 0 0.00043187230278597959 0.062219037880863803 0 -0.01755367451007064 0.0041220805399305666 0 -0.024590202787005008 0.0074759444174279993 0 -0.010662241326485531 0.0061979400562718039 0 -0.01822927046639845 -0.00031441950359401032 0 -0.01755367451007064 0.0041220805399305666 0 -0.012631440974003309 0.0026776376036983592 0 -0.01822927046639845 -0.00031441950359401032 0 -0.01755367451007064 0.0041220805399305666 0 -0.022079941108490271 0.0026935897922726868 0 -0.01822927046639845 -0.00031441950359401032 0 -0.025697331113898651 -0.001019181671247186 0 -0.022079941108490271 0.0026935897922726868 0 -0.01755367451007064 0.0041220805399305666 0 -0.022079941108490271 0.0026935897922726868 0 -0.024590202787005008 0.0074759444174279993 0 -0.025697331113898651 -0.001019181671247186 0 -0.022079941108490271 0.0026935897922726868 0 -0.024590202787005008 0.0074759444174279993 0 -0.033170396118065902 -0.0054912752601619817 0 -0.025697331113898651 -0.001019181671247186 0 -0.024590202787005008 0.0074759444174279993 0 -0.02042875055899325 0.04101212392575887 0 -0.02247093340625177 0.011299078971399741 0 -0.0076280052074238066 0.030320507795764149 0 -0.038576907831823763 0.016153573594112909 0 -0.02042875055899325 0.04101212392575887 0 -0.02247093340625177 0.011299078971399741 0 -0.02247093340625177 0.011299078971399741 0 0.0047397747597468579 0.02028466775448165 0 -0.02247093340625177 0.011299078971399741 0 -0.0076280052074238066 0.030320507795764149 0 0.0047397747597468579 0.02028466775448165 0 -0.02247093340625177 0.011299078971399741 0 -0.024590202787005008 0.0074759444174279993 0 0.00050123599824037496 0.01263839864653811 0 -0.0034105548651160531 0.0070943989052221611 0 0.00097706910384243086 0.0048010759762974649 0 0.00050123599824037496 0.01263839864653811 0 -0.024590202787005008 0.0074759444174279993 0 0.00050123599824037496 0.01263839864653811 0 -0.02247093340625177 0.011299078971399741 0 0.00050123599824037496 0.01263839864653811 0 0.0047397747597468579 0.02028466775448165 0 -0.010662241326485531 0.0061979400562718039 0 -0.0034105548651160531 0.0070943989052221611 0 0.00050123599824037496 0.01263839864653811 0 -0.024590202787005008 0.0074759444174279993 0 -0.010662241326485531 0.0061979400562718039 0 0.00050123599824037496 0.01263839864653811 0 -0.01822927046639845 -0.00031441950359401032 0 -0.01066505372454833 -0.001757425859714128 0 -0.012631440974003309 0.0026776376036983592 0 -0.01755367451007064 0.0041220805399305666 0 -0.012631440974003309 0.0026776376036983592 0 -0.010662241326485531 0.0061979400562718039 0 -0.012631440974003309 0.0026776376036983592 0 -0.010662241326485531 0.0061979400562718039 0 -0.0062888108209585569 0.0031791802248136341 0 -0.01066505372454833 -0.001757425859714128 0 -0.012631440974003309 0.0026776376036983592 0 -0.0062888108209585569 0.0031791802248136341 0 -0.0034533735751615269 -0.0031200744777948779 0 -0.0062888108209585569 0.0031791802248136341 0 0.00097706910384243086 0.0048010759762974649 0 -0.010662241326485531 0.0061979400562718039 0 -0.0062888108209585569 0.0031791802248136341 0 -0.0034105548651160531 0.0070943989052221611 0 -0.0062888108209585569 0.0031791802248136341 0 -0.0034105548651160531 0.0070943989052221611 0 0.00097706910384243086 0.0048010759762974649 0 0.00050123599824037496 0.01263839864653811 0 0.025592674783485769 0.01780085287564822 0 -0.0034533735751615269 -0.0031200744777948779 0 0.00097706910384243086 0.0048010759762974649 0 0.00571793613220767 -0.0013933726199292439 0 0.00097706910384243086 0.0048010759762974649 0 0.0091585281681367398 0.0083337981008286544 0 0.00571793613220767 -0.0013933726199292439 0 0.0091585281681367398 0.0083337981008286544 0 0.00050123599824037496 0.01263839864653811 0 0.025592674783485769 0.01780085287564822 0 0.0091585281681367398 0.0083337981008286544 0 0.01679191874188429 0.00036989283620795388 0 0.00571793613220767 -0.0013933726199292439 0 0.0091585281681367398 0.0083337981008286544 0 0.01679191874188429 0.00036989283620795388 0 0.017698640036327751 0.0090967917295277992 0 0.00097706910384243086 0.0048010759762974649 0 0.0091585281681367398 0.0083337981008286544 0 0.00050123599824037496 0.01263839864653811 0 0.00050123599824037496 0.01263839864653811 0 0.0047397747597468579 0.02028466775448165 0 0.025592674783485769 0.01780085287564822 0 0.0047397747597468579 0.02028466775448165 0 0.0061012299912522883 0.040093364390729642 0 0.031950482925745399 0.02927025653756353 0 -0.0076280052074238066 0.030320507795764149 0 0.0047397747597468579 0.02028466775448165 0 0.0061012299912522883 0.040093364390729642 0 0.0047397747597468579 0.02028466775448165 0 0.025592674783485769 0.01780085287564822 0 0.031950482925745399 0.02927025653756353 0 0.0047397747597468579 0.02028466775448165 0 0.031950482925745399 0.02927025653756353 0 0.0091585281681367398 0.0083337981008286544 0 0.025592674783485769 0.01780085287564822 0 0.017698640036327751 0.0090967917295277992 0 0.025592674783485769 0.01780085287564822 0 0.025078273924940199 0.0072064635505199662 0 0.035644275458993561 0.010013987806638159 0 0.025078273924940199 0.0072064635505199662 0 0.035644275458993561 0.010013987806638159 0 0.02966386060400961 -0.001249207495422295 0 0.025078273924940199 0.0072064635505199662 0 0.01679191874188429 0.00036989283620795388 0 0.02966386060400961 -0.001249207495422295 0 0.025078273924940199 0.0072064635505199662 0 0.01679191874188429 0.00036989283620795388 0 0.017698640036327751 0.0090967917295277992 0 0.025592674783485769 0.01780085287564822 0 0.025078273924940199 0.0072064635505199662 0 0.017698640036327751 0.0090967917295277992 0 -0.001444375107356517 0.048429546579121123 0 0.00043187230278597959 0.062219037880863803 0 0.017540000344276972 0.055846969232491488 0 -0.001444375107356517 0.048429546579121123 0 0.0061012299912522883 0.040093364390729642 0 0.017540000344276972 0.055846969232491488 0 -0.001444375107356517 0.048429546579121123 0 0.017540000344276972 0.055846969232491488 0 0.0061012299912522883 0.040093364390729642 0 0.017540000344276972 0.055846969232491488 0 0.032631210541497313 0.039174604855692387 0 0.0061012299912522883 0.040093364390729642 0 0.032631210541497313 0.039174604855692387 0 0.0061012299912522883 0.040093364390729642 0 0.032631210541497313 0.039174604855692387 0 0.031950482925745399 0.02927025653756353 0 0.045460661397028521 0.060461061322351961 0 0.032631210541497313 0.039174604855692387 0 0.060219126456884257 0.044233063584133557 0 0.017540000344276972 0.055846969232491488 0 0.045460661397028521 0.060461061322351961 0 0.032631210541497313 0.039174604855692387 0 0.032631210541497313 0.039174604855692387 0 0.059161191091742268 0.038255845320650288 0 0.031950482925745399 0.02927025653756353 0 0.032631210541497313 0.039174604855692387 0 0.059161191091742268 0.038255845320650288 0 0.059161191091742268 0.038255845320650288 0 0.031950482925745399 0.02927025653756353 0 0.032631210541497313 0.039174604855692387 0 0.059161191091742268 0.038255845320650288 0 0.060219126456884257 0.044233063584133557 0 0.061944659138717967 0.038159451061949408 0 0.059161191091742268 0.038255845320650288 0 0.050684113568731162 0.022963307104758329 0 0.061944659138717967 0.038159451061949408 0 0.059161191091742268 0.038255845320650288 0 0.061944659138717967 0.038159451061949408 0 0.059161191091742268 0.038255845320650288 0 0.060219126456884257 0.044233063584133557 0 0.061944659138717967 0.038159451061949408 0 0.060219126456884257 0.044233063584133557 0 0.06359853595343383 0.045143500821525892 0 0.061944659138717967 0.038159451061949408 0 0.060219126456884257 0.044233063584133557 0 0.045460661397028521 0.060461061322351961 0 0.060219126456884257 0.044233063584133557 0 0.06359853595343383 0.045143500821525892 0 0.045460661397028521 0.060461061322351961 0 0.06359853595343383 0.045143500821525892 0 0.045460661397028521 0.060461061322351961 0 0.06359853595343383 0.045143500821525892 0 0.064078299002631331 0.064109116041237729 0 0.035644275458993561 0.010013987806638159 0 0.050684113568731162 0.022963307104758329 0 0.049953576743535941 0.0106210768960423 0 0.035644275458993561 0.010013987806638159 0 0.049953576743535941 0.0106210768960423 0 0.043198558762618321 -0.00023829520029129079 0 0.035644275458993561 0.010013987806638159 0 0.02966386060400961 -0.001249207495422295 0 0.043198558762618321 -0.00023829520029129079 0 0.025592674783485769 0.01780085287564822 0 0.035644275458993561 0.010013987806638159 0 0.050684113568731162 0.022963307104758329 0 0.025592674783485769 0.01780085287564822 0 0.050684113568731162 0.022963307104758329 0 0.025592674783485769 0.01780085287564822 0 0.031950482925745399 0.02927025653756353 0 0.050684113568731162 0.022963307104758329 0 0.050684113568731162 0.022963307104758329 0 0.049953576743535941 0.0106210768960423 0 0.068293701854848454 0.01581178662734219 0 0.059161191091742268 0.038255845320650288 0 0.031950482925745399 0.02927025653756353 0 0.050684113568731162 0.022963307104758329 0 0.061944659138717967 0.038159451061949408 0 0.050684113568731162 0.022963307104758329 0 0.068293701854848454 0.01581178662734219 0 0.049953576743535941 0.0106210768960423 0 0.058658900776209 0.0023639840925378359 0 0.068293701854848454 0.01581178662734219 0 0.049953576743535941 0.0106210768960423 0 0.058658900776209 0.0023639840925378359 0 0.043198558762618321 -0.00023829520029129079 0 0.058658900776209 0.0023639840925378359 0 0.068293701854848454 0.01581178662734219 0 0.074642744570978817 -0.0065358778072650706 0 0.08687224249779596 0.01812653523579285 0 0.068293701854848454 0.01581178662734219 0 0.074642744570978817 -0.0065358778072650706 0 0.068293701854848454 0.01581178662734219 0 0.074642744570978817 -0.0065358778072650706 0 0.08687224249779596 0.01812653523579285 0 0.094732376142176083 0.00044397642212032562 0 0.074642744570978817 -0.0065358778072650706 0 0.08687224249779596 0.01812653523579285 0 0.084042936347180325 0.037394165808357492 0 0.1061412135556427 0.036628880554766013 0 0.08687224249779596 0.01812653523579285 0 0.075288384959635662 0.027372984683360371 0 0.084042936347180325 0.037394165808357492 0 0.061944659138717967 0.038159451061949408 0 0.068293701854848454 0.01581178662734219 0 0.075288384959635662 0.027372984683360371 0 0.061944659138717967 0.038159451061949408 0 0.068293701854848454 0.01581178662734219 0 0.08687224249779596 0.01812653523579285 0 0.068293701854848454 0.01581178662734219 0 0.075288384959635662 0.027372984683360371 0 0.061944659138717967 0.038159451061949408 0 0.080229434857976803 0.045213053994165052 0 0.061944659138717967 0.038159451061949408 0 0.084042936347180325 0.037394165808357492 0 0.061944659138717967 0.038159451061949408 0 0.084042936347180325 0.037394165808357492 0 0.080229434857976803 0.045213053994165052 0 0.061944659138717967 0.038159451061949408 0 0.06359853595343383 0.045143500821525892 0 0.080229434857976803 0.045213053994165052 0 0.061944659138717967 0.038159451061949408 0 0.075288384959635662 0.027372984683360371 0 0.084042936347180325 0.037394165808357492 0 0.06359853595343383 0.045143500821525892 0 0.077522728354274567 0.055725763507259753 0 0.064078299002631331 0.064109116041237729 0 0.06359853595343383 0.045143500821525892 0 0.077522728354274567 0.055725763507259753 0 0.080229434857976803 0.045213053994165052 0 0.099194835758529831 0.062268641479350142 0 0.098777987081433108 0.051338203761849069 0 0.080929384875897931 0.072824942917520646 0 0.098777987081433108 0.051338203761849069 0 0.080929384875897931 0.072824942917520646 0 0.077522728354274567 0.055725763507259753 0 0.080229434857976803 0.045213053994165052 0 0.098777987081433108 0.051338203761849069 0 0.080229434857976803 0.045213053994165052 0 0.098777987081433108 0.051338203761849069 0 0.077522728354274567 0.055725763507259753 0 0.098777987081433108 0.051338203761849069 0 0.080929384875897931 0.072824942917520646 0 0.080229434857976803 0.045213053994165052 0 0.095852469058047174 0.042051949121570668 0 0.098777987081433108 0.051338203761849069 0 0.084042936347180325 0.037394165808357492 0 0.080229434857976803 0.045213053994165052 0 0.095852469058047174 0.042051949121570668 0 0.084042936347180325 0.037394165808357492 0 0.095852469058047174 0.042051949121570668 0 0.1061412135556427 0.036628880554766013 0 0.084042936347180325 0.037394165808357492 0 0.1061412135556427 0.036628880554766013 0 0.095852469058047174 0.042051949121570668 0 0.1073170387480753 0.041058610229247533 0 0.098777987081433108 0.051338203761849069 0 0.1073170387480753 0.041058610229247533 0 0.098777987081433108 0.051338203761849069 0 0.095852469058047174 0.042051949121570668 0 0.1073170387480753 0.041058610229247533 0 0.1061412135556427 0.036628880554766013 0 0.098777987081433108 0.051338203761849069 0 0.10871366276868109 0.054619187684174161 0 0.1073170387480753 0.041058610229247533 0 0.098777987081433108 0.051338203761849069 0 0.10871366276868109 0.054619187684174161 0 0.099194835758529831 0.062268641479350142 0 0.098777987081433108 0.051338203761849069 0 0.10871366276868109 0.054619187684174161 0 0.099194835758529831 0.062268641479350142 0 0.10871366276868109 0.054619187684174161 0 0.1117894903281469 0.063165623032043844 0 0.099194835758529831 0.062268641479350142 0 0.10871366276868109 0.054619187684174161 0 0.11808142358376431 0.060417170726520607 0 0.12465995933422511 0.041804535348110183 0 0.1117894903281469 0.063165623032043844 0 0.11808142358376431 0.060417170726520607 0 0.12465995933422511 0.041804535348110183 0 0.12849850991573211 0.039529689355893148 0 0.1104538144873209 0.055193824980213982 0 0.12465995933422511 0.041804535348110183 0 0.1117894903281469 0.063165623032043844 0 0.10871366276868109 0.054619187684174161 0 0.1104538144873209 0.055193824980213982 0 0.12465995933422511 0.041804535348110183 0 0.11808142358376431 0.060417170726520607 0 0.12849850991573211 0.039529689355893148 0 0.12601268130434359 0.05520451676938741 0 0.12465995933422511 0.041804535348110183 0 0.1117894903281469 0.063165623032043844 0 0.10871366276868109 0.054619187684174161 0 0.12465995933422511 0.041804535348110183 0 0.11808142358376431 0.060417170726520607 0 0.12849850991573211 0.039529689355893148 0 0.10871366276868109 0.054619187684174161 0 0.1104538144873209 0.055193824980213982 0 0.1117894903281469 0.063165623032043844 0 0.10871366276868109 0.054619187684174161 0 0.1104538144873209 0.055193824980213982 0 0.11808142358376431 0.060417170726520607 0 0.1223337053199457 0.065203318772059468 0 0.12601268130434359 0.05520451676938741 0 0.1061412135556427 0.036628880554766013 0 0.1183733251405233 0.025567995666182161 0 0.1282394907641051 0.035863595301175187 0 0.1073170387480753 0.041058610229247533 0 0.1061412135556427 0.036628880554766013 0 0.12465995933422511 0.041804535348110183 0 0.1073170387480753 0.041058610229247533 0 0.10871366276868109 0.054619187684174161 0 0.12465995933422511 0.041804535348110183 0 0.1061412135556427 0.036628880554766013 0 0.12465995933422511 0.041804535348110183 0 0.1282394907641051 0.035863595301175187 0 0.1061412135556427 0.036628880554766013 0 0.1282394907641051 0.035863595301175187 0 0.1183733251405233 0.025567995666182161 0 0.12558367300033579 0.022767244629745529 0 0.1282394907641051 0.035863595301175187 0 0.1061412135556427 0.036628880554766013 0 0.1183733251405233 0.025567995666182161 0 0.1067902787631192 0.01528207395691712 0 0.1183733251405233 0.025567995666182161 0 0.12208056491605811 0.014528897861411091 0 0.1067902787631192 0.01528207395691712 0 0.1183733251405233 0.025567995666182161 0 0.12208056491605811 0.014528897861411091 0 0.12558367300033579 0.022767244629745529 0 0.12208056491605811 0.014528897861411091 0 0.12949372161206399 0.002034182974538255 0 0.1104806879240797 -0.0035401757462522961 0 0.12208056491605811 0.014528897861411091 0 0.1067902787631192 0.01528207395691712 0 0.1104806879240797 -0.0035401757462522961 0 0.1067902787631192 0.01528207395691712 0 0.094732376142176083 0.00044397642212032562 0 0.1104806879240797 -0.0035401757462522961 0 0.08687224249779596 0.01812653523579285 0 0.1067902787631192 0.01528207395691712 0 0.094732376142176083 0.00044397642212032562 0 0.08687224249779596 0.01812653523579285 0 0.1061412135556427 0.036628880554766013 0 0.1067902787631192 0.01528207395691712 0 0.097247250919828554 0.1021921334677756 0 0.1127206095942747 0.11042342952170831 0 0.1164167327840096 0.099056389045264717 0 0.097247250919828554 0.1021921334677756 0 0.1164167327840096 0.099056389045264717 0 0.1134251637166387 0.090507951778894466 0 0.097247250919828554 0.1021921334677756 0 0.1031758009652389 0.1181902088003204 0 0.1127206095942747 0.11042342952170831 0 0.097247250919828554 0.1021921334677756 0 0.1031758009652389 0.1181902088003204 0 0.086830164587860595 0.1230796148384033 0 0.1031758009652389 0.1181902088003204 0 0.1127206095942747 0.11042342952170831 0 0.1203304346491972 0.1247311024736667 0 0.1127206095942747 0.11042342952170831 0 0.1203304346491972 0.1247311024736667 0 0.1264328286530991 0.107947313821514 0 0.1127206095942747 0.11042342952170831 0 0.1164167327840096 0.099056389045264717 0 0.1264328286530991 0.107947313821514 0 0.1164167327840096 0.099056389045264717 0 0.12853839693713259 0.089957381944641202 0 0.1264328286530991 0.107947313821514 0 0.1164167327840096 0.099056389045264717 0 0.1134251637166387 0.090507951778894466 0 0.12853839693713259 0.089957381944641202 0 0.11725910069042619 0.080029202339642724 0 0.1134251637166387 0.090507951778894466 0 0.12853839693713259 0.089957381944641202 0 0.11725910069042619 0.080029202339642724 0 0.1134251637166387 0.090507951778894466 0 0.1076643372517964 0.081304652097148072 0 0.11808142358376431 0.060417170726520607 0 0.1117894903281469 0.063165623032043844 0 0.1076643372517964 0.081304652097148072 0 0.11808142358376431 0.060417170726520607 0 0.1076643372517964 0.081304652097148072 0 0.11808142358376431 0.060417170726520607 0 0.1178505321952434 0.071950227737262645 0 0.1076643372517964 0.081304652097148072 0 0.11808142358376431 0.060417170726520607 0 0.1223337053199457 0.065203318772059468 0 0.1178505321952434 0.071950227737262645 0 0.1223337053199457 0.065203318772059468 0 0.1178505321952434 0.071950227737262645 0 0.1263994410961542 0.069272168535292278 0 0.11725910069042619 0.080029202339642724 0 0.1178505321952434 0.071950227737262645 0 0.1263994410961542 0.069272168535292278 0 0.11725910069042619 0.080029202339642724 0 0.1178505321952434 0.071950227737262645 0 0.1076643372517964 0.081304652097148072 0 0.1117894903281469 0.063165623032043844 0 0.098919021322067882 0.084526710715977199 0 0.093403068749050314 0.073327615386845499 0 0.099194835758529831 0.062268641479350142 0 0.1117894903281469 0.063165623032043844 0 0.093403068749050314 0.073327615386845499 0 0.1117894903281469 0.063165623032043844 0 0.098919021322067882 0.084526710715977199 0 0.1117894903281469 0.063165623032043844 0 0.1076643372517964 0.081304652097148072 0 0.098919021322067882 0.084526710715977199 0 0.097247250919828554 0.1021921334677756 0 0.1134251637166387 0.090507951778894466 0 0.1076643372517964 0.081304652097148072 0 0.097247250919828554 0.1021921334677756 0 0.1076643372517964 0.081304652097148072 0 0.097247250919828554 0.1021921334677756 0 0.1076643372517964 0.081304652097148072 0 0.098919021322067882 0.084526710715977199 0 0.098919021322067882 0.084526710715977199 0 0.081651131499346871 0.091804376432238474 0 0.088725651611590753 0.080620911363145462 0 0.097247250919828554 0.1021921334677756 0 0.098919021322067882 0.084526710715977199 0 0.081651131499346871 0.091804376432238474 0 0.081651131499346871 0.091804376432238474 0 0.088725651611590753 0.080620911363145462 0 0.080929384875897931 0.072824942917520646 0 0.098919021322067882 0.084526710715977199 0 0.088725651611590753 0.080620911363145462 0 0.093403068749050314 0.073327615386845499 0 0.099194835758529831 0.062268641479350142 0 0.093403068749050314 0.073327615386845499 0 0.080929384875897931 0.072824942917520646 0 0.088725651611590753 0.080620911363145462 0 0.093403068749050314 0.073327615386845499 0 0.080929384875897931 0.072824942917520646 0 0.080929384875897931 0.072824942917520646 0 0.064078299002631331 0.064109116041237729 0 0.051849273738451072 0.077188194534356436 0 0.077522728354274567 0.055725763507259753 0 0.080929384875897931 0.072824942917520646 0 0.064078299002631331 0.064109116041237729 0 0.080929384875897931 0.072824942917520646 0 0.063080782670363753 0.094311682073193084 0 0.081651131499346871 0.091804376432238474 0 0.080929384875897931 0.072824942917520646 0 0.063080782670363753 0.094311682073193084 0 0.080929384875897931 0.072824942917520646 0 0.063080782670363753 0.094311682073193084 0 0.051849273738451072 0.077188194534356436 0 0.063080782670363753 0.094311682073193084 0 0.079070426215555767 0.1062909195466962 0 0.066542801400378992 0.1200667909218705 0 0.081651131499346871 0.091804376432238474 0 0.063080782670363753 0.094311682073193084 0 0.079070426215555767 0.1062909195466962 0 0.097247250919828554 0.1021921334677756 0 0.081651131499346871 0.091804376432238474 0 0.079070426215555767 0.1062909195466962 0 0.097247250919828554 0.1021921334677756 0 0.079070426215555767 0.1062909195466962 0 0.086830164587860595 0.1230796148384033 0 0.097247250919828554 0.1021921334677756 0 0.086830164587860595 0.1230796148384033 0 0.079070426215555767 0.1062909195466962 0 0.086830164587860595 0.1230796148384033 0 0.066542801400378992 0.1200667909218705 0 0.066542801400378992 0.1200667909218705 0 0.045232180464829699 0.1157984212288654 0 0.05209094167211873 0.1343773302300659 0 0.063080782670363753 0.094311682073193084 0 0.066542801400378992 0.1200667909218705 0 0.045232180464829699 0.1157984212288654 0 0.063080782670363753 0.094311682073193084 0 0.045232180464829699 0.1157984212288654 0 0.063080782670363753 0.094311682073193084 0 0.045232180464829699 0.1157984212288654 0 0.041647316927421379 0.091903201512506486 0 0.033642105335764408 0.105347315062605 0 0.045232180464829699 0.1157984212288654 0 0.041647316927421379 0.091903201512506486 0 0.033642105335764408 0.105347315062605 0 0.041647316927421379 0.091903201512506486 0 0.021490049830675359 0.099576454770123543 0 0.033642105335764408 0.105347315062605 0 0.045232180464829699 0.1157984212288654 0 0.0204822610977578 0.1150710310683363 0 0.045460661397028521 0.060461061322351961 0 0.064078299002631331 0.064109116041237729 0 0.051849273738451072 0.077188194534356436 0 0.063080782670363753 0.094311682073193084 0 0.051849273738451072 0.077188194534356436 0 0.041647316927421379 0.091903201512506486 0 0.051849273738451072 0.077188194534356436 0 0.041647316927421379 0.091903201512506486 0 0.027322786840623191 0.075778621823178044 0 0.045460661397028521 0.060461061322351961 0 0.051849273738451072 0.077188194534356436 0 0.027322786840623191 0.075778621823178044 0 0.045460661397028521 0.060461061322351961 0 0.027322786840623191 0.075778621823178044 0 0.017540000344276972 0.055846969232491488 0 0.045460661397028521 0.060461061322351961 0 0.027322786840623191 0.075778621823178044 0 0.017540000344276972 0.055846969232491488 0 0.027322786840623191 0.075778621823178044 0 0.0093541588554246474 0.072899074274879822 0 0.027322786840623191 0.075778621823178044 0 0.0091849122842178627 0.091096182324004127 0 0.021490049830675359 0.099576454770123543 0 0.027322786840623191 0.075778621823178044 0 0.0091849122842178627 0.091096182324004127 0 0.041647316927421379 0.091903201512506486 0 0.027322786840623191 0.075778621823178044 0 0.021490049830675359 0.099576454770123543 0 0.027322786840623191 0.075778621823178044 0 0.0091849122842178627 0.091096182324004127 0 0.0093541588554246474 0.072899074274879822 0 -0.0075509514396256729 0.089676379199685144 0 0.0091849122842178627 0.091096182324004127 0 0.0093541588554246474 0.072899074274879822 0 0.00043187230278597959 0.062219037880863803 0 0.017540000344276972 0.055846969232491488 0 0.0093541588554246474 0.072899074274879822 0 -0.0088437095779531124 0.072930222867837638 0 0.00043187230278597959 0.062219037880863803 0 0.0093541588554246474 0.072899074274879822 0 0.045232180464829699 0.1157984212288654 0 0.0204822610977578 0.1150710310683363 0 0.027916090425737072 0.1377375811490168 0 0.0204822610977578 0.1150710310683363 0 0.019474472364841081 0.1305656073665491 0 0.033642105335764408 0.105347315062605 0 0.0204822610977578 0.1150710310683363 0 0.021490049830675359 0.099576454770123543 0 0.0204822610977578 0.1150710310683363 0 0.021490049830675359 0.099576454770123543 0 0.0204822610977578 0.1150710310683363 0 0.021490049830675359 0.099576454770123543 0 0.0094930031973578261 0.10612941721659611 0 -0.0089529622721888219 0.1064137428248286 0 0.0091849122842178627 0.091096182324004127 0 0.0094930031973578261 0.10612941721659611 0 -0.0089529622721888219 0.1064137428248286 0 0.0091849122842178627 0.091096182324004127 0 0.0091849122842178627 0.091096182324004127 0 0.021490049830675359 0.099576454770123543 0 0.0094930031973578261 0.10612941721659611 0 -0.0089529622721888219 0.1064137428248286 0 0.0094930031973578261 0.10612941721659611 0 0.0052607550463267053 0.1184896750956882 0 0.0204822610977578 0.1150710310683363 0 0.0094930031973578261 0.10612941721659611 0 0.0052607550463267053 0.1184896750956882 0 0.0052607550463267053 0.1184896750956882 0 0.019474472364841081 0.1305656073665491 0 0.0204822610977578 0.1150710310683363 0 0.0052607550463267053 0.1184896750956882 0 0.019474472364841081 0.1305656073665491 0 0.0019971322299643119 0.1361079308325148 0 0.019474472364841081 0.1305656073665491 0 0.018601145614931688 0.1439928540877515 0 0.0052607550463267053 0.1184896750956882 0 0.0019971322299643119 0.1361079308325148 0 0.019474472364841081 0.1305656073665491 0 0.0204822610977578 0.1150710310683363 0 0.019474472364841081 0.1305656073665491 0 0.027916090425737072 0.1377375811490168 0 0.019474472364841081 0.1305656073665491 0 0.025861850606585999 0.139117066590035 0 0.018601145614931688 0.1439928540877515 0 0.019474472364841081 0.1305656073665491 0 0.018601145614931688 0.1439928540877515 0 0.019474472364841081 0.1305656073665491 0 0.025861850606585999 0.139117066590035 0 0.027916090425737072 0.1377375811490168 0 0.019474472364841081 0.1305656073665491 0 0.027916090425737072 0.1377375811490168 0 0.025861850606585999 0.139117066590035 0 0.027916090425737072 0.1377375811490168 0 0.0260189017479798 0.1444791677117577 0 0.025861850606585999 0.139117066590035 0 0.027916090425737072 0.1377375811490168 0 0.027916090425737072 0.1377375811490168 0 0.030977234854835421 0.1356819281851161 0 0.01832841313989942 0.14818606840475659 0 0.017072380779464179 0.1674973472532946 0 0.031969252819696523 0.1528759547032221 0 0.0260189017479798 0.1444791677117577 0 0.01832841313989942 0.14818606840475659 0 0.031969252819696523 0.1528759547032221 0 0.027916090425737072 0.1377375811490168 0 0.0260189017479798 0.1444791677117577 0 0.031969252819696523 0.1528759547032221 0 0.025861850606585999 0.139117066590035 0 0.01832841313989942 0.14818606840475659 0 0.025861850606585999 0.139117066590035 0 0.018601145614931688 0.1439928540877515 0 0.01832841313989942 0.14818606840475659 0 0.025861850606585999 0.139117066590035 0 0.0260189017479798 0.1444791677117577 0 0.01832841313989942 0.14818606840475659 0 0.025861850606585999 0.139117066590035 0 0.018601145614931688 0.1439928540877515 0 0.018601145614931688 0.1439928540877515 0 0.01832841313989942 0.14818606840475659 0 0.018601145614931688 0.1439928540877515 0 0.01832841313989942 0.14818606840475659 0 0.002721816111255361 0.15465631395220419 0 0.018601145614931688 0.1439928540877515 0 0.002721816111255361 0.15465631395220419 0 0.0019971322299643119 0.1361079308325148 0 0.018601145614931688 0.1439928540877515 0 0.002721816111255361 0.15465631395220419 0 0.01832841313989942 0.14818606840475659 0 0.0031216897091246188 0.16649242629244701 0 0.01832841313989942 0.14818606840475659 0 0.0031216897091246188 0.16649242629244701 0 0.017072380779464179 0.1674973472532946 0 0.01832841313989942 0.14818606840475659 0 0.002721816111255361 0.15465631395220419 0 0.0031216897091246188 0.16649242629244701 0 0.0031216897091246188 0.16649242629244701 0 0.01039058711036667 0.1751580924433748 0 0.017072380779464179 0.1674973472532946 0 0.0031216897091246188 0.16649242629244701 0 0.017072380779464179 0.1674973472532946 0 0.01039058711036667 0.1751580924433748 0 0.01602375281203795 0.18361981967138491 0 0.017072380779464179 0.1674973472532946 0 0.0020710030378915268 0.18162716825173669 0 0.01039058711036667 0.1751580924433748 0 0.0078226968482189123 0.18801431183580819 0 0.0031216897091246188 0.16649242629244701 0 0.0020710030378915268 0.18162716825173669 0 0.01039058711036667 0.1751580924433748 0 0.01602375281203795 0.18361981967138491 0 0.0078226968482189123 0.18801431183580819 0 0.01466428434445716 0.1886907298920229 0 0.01039058711036667 0.1751580924433748 0 0.01602375281203795 0.18361981967138491 0 0.0078226968482189123 0.18801431183580819 0 0.01602375281203795 0.18361981967138491 0 0.024177881868064129 0.17672921773975539 0 0.017072380779464179 0.1674973472532946 0 0.01602375281203795 0.18361981967138491 0 0.017072380779464179 0.1674973472532946 0 0.02207992402376658 0.18587455697647459 0 0.01602375281203795 0.18361981967138491 0 0.024177881868064129 0.17672921773975539 0 0.02207992402376658 0.18587455697647459 0 0.01602375281203795 0.18361981967138491 0 0.01466428434445716 0.1886907298920229 0 0.02207992402376658 0.18587455697647459 0 0.034009966922591867 0.18304017656085469 0 0.030724493098632791 0.19237587755069729 0 0.02207992402376658 0.18587455697647459 0 0.024177881868064129 0.17672921773975539 0 0.034009966922591867 0.18304017656085469 0 0.024177881868064129 0.17672921773975539 0 0.017072380779464179 0.1674973472532946 0 0.042133074386376777 0.16930256365239391 0 0.01832841313989942 0.14818606840475659 0 0.017072380779464179 0.1674973472532946 0 0.017072380779464179 0.1674973472532946 0 0.042133074386376777 0.16930256365239391 0 0.017072380779464179 0.1674973472532946 0 0.042133074386376777 0.16930256365239391 0 0.031969252819696523 0.1528759547032221 0 0.042133074386376777 0.16930256365239391 0 0.047554929209512632 0.15442268060025621 0 0.031969252819696523 0.1528759547032221 0 0.024177881868064129 0.17672921773975539 0 0.042133074386376777 0.16930256365239391 0 0.034009966922591867 0.18304017656085469 0 0.042133074386376777 0.16930256365239391 0 0.034009966922591867 0.18304017656085469 0 0.049455286456484802 0.18314464057356269 0 0.034009966922591867 0.18304017656085469 0 0.049455286456484802 0.18314464057356269 0 0.039083473764486718 0.1911664268125394 0 0.042133074386376777 0.16930256365239391 0 0.049455286456484802 0.18314464057356269 0 0.067193767993289244 0.17110778005149421 0 0.049455286456484802 0.18314464057356269 0 0.06768265214528027 0.19006365998821859 0 0.067193767993289244 0.17110778005149421 0 0.047554929209512632 0.15442268060025621 0 0.067193767993289244 0.17110778005149421 0 0.042133074386376777 0.16930256365239391 0 0.047554929209512632 0.15442268060025621 0 0.067193767993289244 0.17110778005149421 0 0.042133074386376777 0.16930256365239391 0 0.067193767993289244 0.17110778005149421 0 0.047554929209512632 0.15442268060025621 0 0.05209094167211873 0.1343773302300659 0 0.073344225748019368 0.1449630040037922 0 0.045232180464829699 0.1157984212288654 0 0.027916090425737072 0.1377375811490168 0 0.045232180464829699 0.1157984212288654 0 0.027916090425737072 0.1377375811490168 0 0.030977234854835421 0.1356819281851161 0 0.045232180464829699 0.1157984212288654 0 0.030977234854835421 0.1356819281851161 0 0.05209094167211873 0.1343773302300659 0 0.030977234854835421 0.1356819281851161 0 0.047554929209512632 0.15442268060025621 0 0.05209094167211873 0.1343773302300659 0 0.027916090425737072 0.1377375811490168 0 0.047554929209512632 0.15442268060025621 0 0.027916090425737072 0.1377375811490168 0 0.030977234854835421 0.1356819281851161 0 0.047554929209512632 0.15442268060025621 0 0.027916090425737072 0.1377375811490168 0 0.047554929209512632 0.15442268060025621 0 0.031969252819696523 0.1528759547032221 0 0.024609805517523332 0.23701907883569009 0 0.013952484265132001 0.24694206511524761 0 0.025270477969434019 0.25866575055641922 0 0.024609805517523332 0.23701907883569009 0 0.040806943675022668 0.2451528941337994 0 0.025270477969434019 0.25866575055641922 0 -0.00011193775520391721 0.25517212070728618 0 0.013952484265132001 0.24694206511524761 0 0.0072853495044526012 0.23207293279701549 0 0.024609805517523332 0.23701907883569009 0 0.013952484265132001 0.24694206511524761 0 0.0072853495044526012 0.23207293279701549 0 -0.00011193775520391721 0.25517212070728618 0 0.0072853495044526012 0.23207293279701549 0 0.0072853495044526012 0.23207293279701549 0 0.019458209429823878 0.22453700804255311 0 0.014682636764109599 0.208973744886745 0 0.0072853495044526012 0.23207293279701549 0 0.014682636764109599 0.208973744886745 0 0.019458209429823878 0.22453700804255311 0 0.014682636764109599 0.208973744886745 0 0.032637491880371523 0.22325917055209549 0 0.024609805517523332 0.23701907883569009 0 0.0072853495044526012 0.23207293279701549 0 0.019458209429823878 0.22453700804255311 0 0.024609805517523332 0.23701907883569009 0 0.019458209429823878 0.22453700804255311 0 0.032637491880371523 0.22325917055209549 0 0.02446804008572136 0.2013654469703913 0 0.032637491880371523 0.22325917055209549 0 0.014682636764109599 0.208973744886745 0 0.02446804008572136 0.2013654469703913 0 0.032637491880371523 0.22325917055209549 0 0.0072853495044526012 0.23207293279701549 0 0.0025859288715124129 0.20777028317643681 0 0.014682636764109599 0.208973744886745 0 -0.0076580703121003086 0.21635808264377959 0 0.0072853495044526012 0.23207293279701549 0 0.0025859288715124129 0.20777028317643681 0 0.0025859288715124129 0.20777028317643681 0 0.014682636764109599 0.208973744886745 0 0.012730763693805189 0.197254231084424 0 0.0025859288715124129 0.20777028317643681 0 0.012730763693805189 0.197254231084424 0 0.0009353780770335635 0.1938765135825741 0 0.012730763693805189 0.197254231084424 0 0.0009353780770335635 0.1938765135825741 0 0.0078226968482189123 0.18801431183580819 0 0.0020710030378915268 0.18162716825173669 0 0.0009353780770335635 0.1938765135825741 0 0.0078226968482189123 0.18801431183580819 0 0.012730763693805189 0.197254231084424 0 0.0078226968482189123 0.18801431183580819 0 0.01466428434445716 0.1886907298920229 0 0.02207992402376658 0.18587455697647459 0 0.012730763693805189 0.197254231084424 0 0.01466428434445716 0.1886907298920229 0 0.02207992402376658 0.18587455697647459 0 0.014682636764109599 0.208973744886745 0 0.02446804008572136 0.2013654469703913 0 0.02207992402376658 0.18587455697647459 0 0.014682636764109599 0.208973744886745 0 0.012730763693805189 0.197254231084424 0 0.02207992402376658 0.18587455697647459 0 0.014682636764109599 0.208973744886745 0 0.02446804008572136 0.2013654469703913 0 0.030724493098632791 0.19237587755069729 0 0.035196681317143763 0.19969593766102131 0 0.02207992402376658 0.18587455697647459 0 0.02446804008572136 0.2013654469703913 0 0.030724493098632791 0.19237587755069729 0 0.035196681317143763 0.19969593766102131 0 0.039083473764486718 0.1911664268125394 0 0.052413793173919733 0.19906617387730741 0 0.035196681317143763 0.19969593766102131 0 0.052413793173919733 0.19906617387730741 0 0.039893818274122 0.2080804941205408 0 0.030724493098632791 0.19237587755069729 0 0.035196681317143763 0.19969593766102131 0 0.039083473764486718 0.1911664268125394 0 0.034009966922591867 0.18304017656085469 0 0.030724493098632791 0.19237587755069729 0 0.039083473764486718 0.1911664268125394 0 0.02446804008572136 0.2013654469703913 0 0.035196681317143763 0.19969593766102131 0 0.039893818274122 0.2080804941205408 0 0.049455286456484802 0.18314464057356269 0 0.052413793173919733 0.19906617387730741 0 0.06768265214528027 0.19006365998821859 0 0.049455286456484802 0.18314464057356269 0 0.039083473764486718 0.1911664268125394 0 0.052413793173919733 0.19906617387730741 0 0.052413793173919733 0.19906617387730741 0 0.039893818274122 0.2080804941205408 0 0.063217585045620917 0.22566121662373109 0 0.02446804008572136 0.2013654469703913 0 0.039893818274122 0.2080804941205408 0 0.032637491880371523 0.22325917055209549 0 0.040806943675022668 0.2451528941337994 0 0.072094824325247012 0.24298574325024011 0 0.063217585045620917 0.22566121662373109 0 0.040806943675022668 0.2451528941337994 0 0.072094824325247012 0.24298574325024011 0 0.057971352645957361 0.25638246478144561 0 0.032637491880371523 0.22325917055209549 0 0.040806943675022668 0.2451528941337994 0 0.039893818274122 0.2080804941205408 0 0.032637491880371523 0.22325917055209549 0 0.063217585045620917 0.22566121662373109 0 0.032637491880371523 0.22325917055209549 0 0.040806943675022668 0.2451528941337994 0 0.063217585045620917 0.22566121662373109 0 0.040806943675022668 0.2451528941337994 0 0.063217585045620917 0.22566121662373109 0 0.024609805517523332 0.23701907883569009 0 0.032637491880371523 0.22325917055209549 0 0.040806943675022668 0.2451528941337994 0 0.072094824325247012 0.24298574325024011 0 0.084867254655975291 0.2250628348518213 0 0.10545751563756051 0.2452700731161146 0 0.072094824325247012 0.24298574325024011 0 0.10545751563756051 0.2452700731161146 0 0.080502269182564701 0.26054306283585799 0 0.063217585045620917 0.22566121662373109 0 0.084867254655975291 0.2250628348518213 0 0.07356143448173319 0.20710793149761181 0 0.072094824325247012 0.24298574325024011 0 0.063217585045620917 0.22566121662373109 0 0.084867254655975291 0.2250628348518213 0 0.08993806664128895 0.20814308881565499 0 0.07356143448173319 0.20710793149761181 0 0.082031805010512132 0.19673799706412159 0 0.084867254655975291 0.2250628348518213 0 0.08993806664128895 0.20814308881565499 0 0.07356143448173319 0.20710793149761181 0 0.084867254655975291 0.2250628348518213 0 0.08993806664128895 0.20814308881565499 0 0.1049341018044013 0.2212089558075753 0 0.052413793173919733 0.19906617387730741 0 0.063217585045620917 0.22566121662373109 0 0.07356143448173319 0.20710793149761181 0 0.07356143448173319 0.20710793149761181 0 0.06768265214528027 0.19006365998821859 0 0.082031805010512132 0.19673799706412159 0 0.052413793173919733 0.19906617387730741 0 0.07356143448173319 0.20710793149761181 0 0.06768265214528027 0.19006365998821859 0 0.06768265214528027 0.19006365998821859 0 0.082031805010512132 0.19673799706412159 0 0.082444167708352931 0.18406447462587999 0 0.08993806664128895 0.20814308881565499 0 0.082031805010512132 0.19673799706412159 0 0.097694567423416992 0.1970211692002653 0 0.082031805010512132 0.19673799706412159 0 0.097694567423416992 0.1970211692002653 0 0.082444167708352931 0.18406447462587999 0 0.097694567423416992 0.1970211692002653 0 0.082444167708352931 0.18406447462587999 0 0.097694567423416992 0.1970211692002653 0 0.082444167708352931 0.18406447462587999 0 0.1016491721459812 0.18437153247106369 0 0.097694567423416992 0.1970211692002653 0 0.1075103917723899 0.1962584291385496 0 0.1034272960663345 0.20771946959080981 0 0.1075103917723899 0.1962584291385496 0 0.1016491721459812 0.18437153247106369 0 0.1136217816600231 0.1867752085105778 0 0.097694567423416992 0.1970211692002653 0 0.1075103917723899 0.1962584291385496 0 0.1016491721459812 0.18437153247106369 0 0.1075103917723899 0.1962584291385496 0 0.1314392001599711 0.20549126140759 0 0.1075103917723899 0.1962584291385496 0 0.1231302482089523 0.19140097921134661 0 0.1136217816600231 0.1867752085105778 0 0.1075103917723899 0.1962584291385496 0 0.1231302482089523 0.19140097921134661 0 0.1314392001599711 0.20549126140759 0 0.1075103917723899 0.1962584291385496 0 0.11606089020958781 0.2097226932922186 0 0.1314392001599711 0.20549126140759 0 0.11606089020958781 0.2097226932922186 0 0.1034272960663345 0.20771946959080981 0 0.1049341018044013 0.2212089558075753 0 0.1075103917723899 0.1962584291385496 0 0.11606089020958781 0.2097226932922186 0 0.1034272960663345 0.20771946959080981 0 0.08993806664128895 0.20814308881565499 0 0.097694567423416992 0.1970211692002653 0 0.1034272960663345 0.20771946959080981 0 0.08993806664128895 0.20814308881565499 0 0.1034272960663345 0.20771946959080981 0 0.1049341018044013 0.2212089558075753 0 0.084867254655975291 0.2250628348518213 0 0.1049341018044013 0.2212089558075753 0 0.10545751563756051 0.2452700731161146 0 0.11606089020958781 0.2097226932922186 0 0.1049341018044013 0.2212089558075753 0 0.13041276209255609 0.22999708339637129 0 0.1049341018044013 0.2212089558075753 0 0.10545751563756051 0.2452700731161146 0 0.13041276209255609 0.22999708339637129 0 0.10545751563756051 0.2452700731161146 0 0.13041276209255609 0.22999708339637129 0 0.13104421040972539 0.25029190085271041 0 0.10545751563756051 0.2452700731161146 0 0.13041276209255609 0.22999708339637129 0 0.090990191951666619 0.1435345190050161 0 0.073344225748019368 0.1449630040037922 0 0.086254704226928547 0.15787936573767461 0 0.090990191951666619 0.1435345190050161 0 0.086254704226928547 0.15787936573767461 0 0.10297426187115449 0.15581159366412331 0 0.086830164587860595 0.1230796148384033 0 0.090990191951666619 0.1435345190050161 0 0.073344225748019368 0.1449630040037922 0 0.066542801400378992 0.1200667909218705 0 0.05209094167211873 0.1343773302300659 0 0.073344225748019368 0.1449630040037922 0 0.086830164587860595 0.1230796148384033 0 0.066542801400378992 0.1200667909218705 0 0.073344225748019368 0.1449630040037922 0 0.047554929209512632 0.15442268060025621 0 0.073344225748019368 0.1449630040037922 0 0.067193767993289244 0.17110778005149421 0 0.073344225748019368 0.1449630040037922 0 0.067193767993289244 0.17110778005149421 0 0.086254704226928547 0.15787936573767461 0 0.06768265214528027 0.19006365998821859 0 0.067193767993289244 0.17110778005149421 0 0.082444167708352931 0.18406447462587999 0 0.067193767993289244 0.17110778005149421 0 0.082444167708352931 0.18406447462587999 0 0.067193767993289244 0.17110778005149421 0 0.0946955412530298 0.17308883663642019 0 0.067193767993289244 0.17110778005149421 0 0.082444167708352931 0.18406447462587999 0 0.0946955412530298 0.17308883663642019 0 0.082444167708352931 0.18406447462587999 0 0.0946955412530298 0.17308883663642019 0 0.1016491721459812 0.18437153247106369 0 0.067193767993289244 0.17110778005149421 0 0.086254704226928547 0.15787936573767461 0 0.0946955412530298 0.17308883663642019 0 0.0946955412530298 0.17308883663642019 0 0.1221973145127702 0.17506989322134961 0 0.10297426187115449 0.15581159366412331 0 0.086254704226928547 0.15787936573767461 0 0.0946955412530298 0.17308883663642019 0 0.10297426187115449 0.15581159366412331 0 0.0946955412530298 0.17308883663642019 0 0.1016491721459812 0.18437153247106369 0 0.1221973145127702 0.17506989322134961 0 0.0946955412530298 0.17308883663642019 0 0.1221973145127702 0.17506989322134961 0 0.1231302482089523 0.19140097921134661 0 0.1221973145127702 0.17506989322134961 0 0.1136217816600231 0.1867752085105778 0 0.1016491721459812 0.18437153247106369 0 0.1221973145127702 0.17506989322134961 0 0.1136217816600231 0.1867752085105778 0 0.1221973145127702 0.17506989322134961 0 0.10297426187115449 0.15581159366412331 0 0.1221973145127702 0.17506989322134961 0 0.1206325266746824 0.15824853214679349 0 0.10297426187115449 0.15581159366412331 0 0.1206325266746824 0.15824853214679349 0 0.11965910425370679 0.1445934858682307 0 0.10297426187115449 0.15581159366412331 0 0.11965910425370679 0.1445934858682307 0 0.10297426187115449 0.15581159366412331 0 0.1055476033243701 0.13593901678108711 0 0.090990191951666619 0.1435345190050161 0 0.10297426187115449 0.15581159366412331 0 0.1055476033243701 0.13593901678108711 0 0.086830164587860595 0.1230796148384033 0 0.090990191951666619 0.1435345190050161 0 0.1055476033243701 0.13593901678108711 0 0.1031758009652389 0.1181902088003204 0 0.086830164587860595 0.1230796148384033 0 0.1055476033243701 0.13593901678108711 0 0.1203304346491972 0.1247311024736667 0 0.11965910425370679 0.1445934858682307 0 0.13422408036942071 0.13745691177235619 0 0.1031758009652389 0.1181902088003204 0 0.1203304346491972 0.1247311024736667 0 0.1055476033243701 0.13593901678108711 0 0.1203304346491972 0.1247311024736667 0 0.11965910425370679 0.1445934858682307 0 0.1055476033243701 0.13593901678108711 0 0.1203304346491972 0.1247311024736667 0 0.13422408036942071 0.13745691177235619 0 0.13921331553565211 0.1205755020248503 0 0.13422408036942071 0.13745691177235619 0 0.1462351069439449 0.13629549982567599 0 0.13921331553565211 0.1205755020248503 0 0.1462351069439449 0.13629549982567599 0 0.15664017861286419 0.12832258981899269 0 0.13921331553565211 0.1205755020248503 0 0.13422408036942071 0.13745691177235619 0 0.1462351069439449 0.13629549982567599 0 0.14677221129111059 0.14655050016352239 0 0.1462351069439449 0.13629549982567599 0 0.15664017861286419 0.12832258981899269 0 0.15817072952799499 0.14214727334634081 0 0.14677221129111059 0.14655050016352239 0 0.13769942606109961 0.1575191558334689 0 0.1565494516126715 0.15438087079599661 0 0.1462351069439449 0.13629549982567599 0 0.14677221129111059 0.14655050016352239 0 0.15817072952799499 0.14214727334634081 0 0.14677221129111059 0.14655050016352239 0 0.15817072952799499 0.14214727334634081 0 0.1565494516126715 0.15438087079599661 0 0.13422408036942071 0.13745691177235619 0 0.14677221129111059 0.14655050016352239 0 0.13769942606109961 0.1575191558334689 0 0.11965910425370679 0.1445934858682307 0 0.13422408036942071 0.13745691177235619 0 0.13769942606109961 0.1575191558334689 0 0.1206325266746824 0.15824853214679349 0 0.11965910425370679 0.1445934858682307 0 0.13769942606109961 0.1575191558334689 0 0.1221973145127702 0.17506989322134961 0 0.13769942606109961 0.1575191558334689 0 0.1420260378244515 0.1764982310421957 0 0.1221973145127702 0.17506989322134961 0 0.1206325266746824 0.15824853214679349 0 0.13769942606109961 0.1575191558334689 0 0.1221973145127702 0.17506989322134961 0 0.1420260378244515 0.1764982310421957 0 0.1231302482089523 0.19140097921134661 0 0.1221973145127702 0.17506989322134961 0 0.14077252750151401 0.19367916526288659 0 0.1221973145127702 0.17506989322134961 0 0.14077252750151401 0.19367916526288659 0 0.1221973145127702 0.17506989322134961 0 0.1420260378244515 0.1764982310421957 0 0.14077252750151401 0.19367916526288659 0 0.1420260378244515 0.1764982310421957 0 0.15732931936881761 0.16917502138063681 0 0.1594036896264161 0.1863669358171659 0 0.1420260378244515 0.1764982310421957 0 0.1594036896264161 0.1863669358171659 0 0.14077252750151401 0.19367916526288659 0 0.13769942606109961 0.1575191558334689 0 0.15732931936881761 0.16917502138063681 0 0.1565494516126715 0.15438087079599661 0 0.13769942606109961 0.1575191558334689 0 0.1420260378244515 0.1764982310421957 0 0.15732931936881761 0.16917502138063681 0 0.15732931936881761 0.16917502138063681 0 0.16717421661364909 0.15983504491319209 0 0.1565494516126715 0.15438087079599661 0 0.15732931936881761 0.16917502138063681 0 0.17119501847031021 0.1699658079947014 0 0.16717421661364909 0.15983504491319209 0 0.17119501847031021 0.1699658079947014 0 0.16532857553902591 0.17812143802547151 0 0.17338627469055981 0.18697798690938189 0 0.15732931936881761 0.16917502138063681 0 0.1594036896264161 0.1863669358171659 0 0.16532857553902591 0.17812143802547151 0 0.15732931936881761 0.16917502138063681 0 0.17119501847031021 0.1699658079947014 0 0.16532857553902591 0.17812143802547151 0 0.1594036896264161 0.1863669358171659 0 0.16532857553902591 0.17812143802547151 0 0.17338627469055981 0.18697798690938189 0 0.17119501847031021 0.1699658079947014 0 0.18685299094783001 0.17962016457261529 0 0.18943919442320559 0.19387201062640591 0 0.17119501847031021 0.1699658079947014 0 0.18943919442320559 0.19387201062640591 0 0.17119501847031021 0.1699658079947014 0 0.17338627469055981 0.18697798690938189 0 0.18943919442320559 0.19387201062640591 0 0.17119501847031021 0.1699658079947014 0 0.18685299094783001 0.17962016457261529 0 0.18384256130723789 0.1706593609261377 0 0.17806388351039179 0.15937205132555241 0 0.18384256130723789 0.1706593609261377 0 0.1992583523004193 0.1736794198116817 0 0.17119501847031021 0.1699658079947014 0 0.16717421661364909 0.15983504491319209 0 0.17806388351039179 0.15937205132555241 0 0.17119501847031021 0.1699658079947014 0 0.17806388351039179 0.15937205132555241 0 0.18384256130723789 0.1706593609261377 0 0.17806388351039179 0.15937205132555241 0 0.18411336321729321 0.1447640993035251 0 0.19325036430083309 0.1558578881368882 0 0.17806388351039179 0.15937205132555241 0 0.18411336321729321 0.1447640993035251 0 0.17017010889531009 0.14885542476531241 0 0.18411336321729321 0.1447640993035251 0 0.1721661888418583 0.1360023600866582 0 0.17017010889531009 0.14885542476531241 0 0.18411336321729321 0.1447640993035251 0 0.1721661888418583 0.1360023600866582 0 0.18913854688041021 0.1272330631454284 0 0.1721661888418583 0.1360023600866582 0 0.18913854688041021 0.1272330631454284 0 0.16877696666127581 0.1222888441805631 0 0.1721661888418583 0.1360023600866582 0 0.15664017861286419 0.12832258981899269 0 0.16877696666127581 0.1222888441805631 0 0.1721661888418583 0.1360023600866582 0 0.15664017861286419 0.12832258981899269 0 0.15817072952799499 0.14214727334634081 0 0.15817072952799499 0.14214727334634081 0 0.1565494516126715 0.15438087079599661 0 0.17017010889531009 0.14885542476531241 0 0.16717421661364909 0.15983504491319209 0 0.1565494516126715 0.15438087079599661 0 0.17017010889531009 0.14885542476531241 0 0.16717421661364909 0.15983504491319209 0 0.17806388351039179 0.15937205132555241 0 0.17017010889531009 0.14885542476531241 0 0.1721661888418583 0.1360023600866582 0 0.15817072952799499 0.14214727334634081 0 0.17017010889531009 0.14885542476531241 0 0.15071771210549029 0.24461282216283159 0 0.14469775112824659 0.2336749596348886 0 0.1559460624859092 0.2287488980858991 0 0.15071771210549029 0.24461282216283159 0 0.14469775112824659 0.2336749596348886 0 0.13104421040972539 0.25029190085271041 0 0.13041276209255609 0.22999708339637129 0 0.14469775112824659 0.2336749596348886 0 0.13104421040972539 0.25029190085271041 0 0.14469775112824659 0.2336749596348886 0 0.1559460624859092 0.2287488980858991 0 0.15536800854755259 0.2147240936766294 0 0.13041276209255609 0.22999708339637129 0 0.15536800854755259 0.2147240936766294 0 0.13041276209255609 0.22999708339637129 0 0.14469775112824659 0.2336749596348886 0 0.15536800854755259 0.2147240936766294 0 0.15536800854755259 0.2147240936766294 0 0.1314392001599711 0.20549126140759 0 0.14077252750151401 0.19367916526288659 0 0.15536800854755259 0.2147240936766294 0 0.14077252750151401 0.19367916526288659 0 0.1593477404902604 0.2122884373044209 0 0.15536800854755259 0.2147240936766294 0 0.1314392001599711 0.20549126140759 0 0.11606089020958781 0.2097226932922186 0 0.13041276209255609 0.22999708339637129 0 0.1314392001599711 0.20549126140759 0 0.13041276209255609 0.22999708339637129 0 0.15536800854755259 0.2147240936766294 0 0.1314392001599711 0.20549126140759 0 0.1231302482089523 0.19140097921134661 0 0.1314392001599711 0.20549126140759 0 0.14077252750151401 0.19367916526288659 0 0.1594036896264161 0.1863669358171659 0 0.14077252750151401 0.19367916526288659 0 0.16183972399274371 0.19825681948879201 0 0.14077252750151401 0.19367916526288659 0 0.16183972399274371 0.19825681948879201 0 0.1593477404902604 0.2122884373044209 0 0.14077252750151401 0.19367916526288659 0 0.1593477404902604 0.2122884373044209 0 0.17338627469055981 0.18697798690938189 0 0.16183972399274371 0.19825681948879201 0 0.1743934674567312 0.20308022396541039 0 0.1594036896264161 0.1863669358171659 0 0.17338627469055981 0.18697798690938189 0 0.16183972399274371 0.19825681948879201 0 0.1743934674567312 0.20308022396541039 0 0.19144776800608529 0.19650393914961731 0 0.18943919442320559 0.19387201062640591 0 0.17338627469055981 0.18697798690938189 0 0.1743934674567312 0.20308022396541039 0 0.18943919442320559 0.19387201062640591 0 0.1743934674567312 0.20308022396541039 0 0.18943919442320559 0.19387201062640591 0 0.17834192407661281 0.2108069479565827 0 0.16579465434336191 0.21874717205989641 0 0.18173180650027271 0.2248964566514062 0 0.1743934674567312 0.20308022396541039 0 0.17834192407661281 0.2108069479565827 0 0.16579465434336191 0.21874717205989641 0 0.17834192407661281 0.2108069479565827 0 0.18173180650027271 0.2248964566514062 0 0.19144776800608529 0.19650393914961731 0 0.18173180650027271 0.2248964566514062 0 0.19144776800608529 0.19650393914961731 0 0.1743934674567312 0.20308022396541039 0 0.17834192407661281 0.2108069479565827 0 0.19144776800608529 0.19650393914961731 0 0.1743934674567312 0.20308022396541039 0 0.16579465434336191 0.21874717205989641 0 0.1593477404902604 0.2122884373044209 0 0.16183972399274371 0.19825681948879201 0 0.1743934674567312 0.20308022396541039 0 0.1593477404902604 0.2122884373044209 0 0.1743934674567312 0.20308022396541039 0 0.1593477404902604 0.2122884373044209 0 0.15536800854755259 0.2147240936766294 0 0.16579465434336191 0.21874717205989641 0 0.1593477404902604 0.2122884373044209 0 0.15536800854755259 0.2147240936766294 0 0.1593477404902604 0.2122884373044209 0 0.15536800854755259 0.2147240936766294 0 0.16579465434336191 0.21874717205989641 0 0.16091234567485321 0.22258416666499481 0 0.15536800854755259 0.2147240936766294 0 0.16579465434336191 0.21874717205989641 0 0.16579465434336191 0.21874717205989641 0 0.1593477404902604 0.2122884373044209 0 0.1559460624859092 0.2287488980858991 0 0.15536800854755259 0.2147240936766294 0 0.16091234567485321 0.22258416666499481 0 0.1559460624859092 0.2287488980858991 0 0.16091234567485321 0.22258416666499481 0 0.17008014701386279 0.22967345970440789 0 0.1559460624859092 0.2287488980858991 0 0.17008014701386279 0.22967345970440789 0 0.16619735653452569 0.23833744622431341 0 0.16579465434336191 0.21874717205989641 0 0.17008014701386279 0.22967345970440789 0 0.17923005628736399 0.23220720882581999 0 0.17008014701386279 0.22967345970440789 0 0.17923005628736399 0.23220720882581999 0 0.16619735653452569 0.23833744622431341 0 0.16579465434336191 0.21874717205989641 0 0.16091234567485321 0.22258416666499481 0 0.17008014701386279 0.22967345970440789 0 0.16579465434336191 0.21874717205989641 0 0.18173180650027271 0.2248964566514062 0 0.17923005628736399 0.23220720882581999 0 0.16579465434336191 0.21874717205989641 0 0.17923005628736399 0.23220720882581999 0 0.16579465434336191 0.21874717205989641 0 0.18173180650027271 0.2248964566514062 0 0.18173180650027271 0.2248964566514062 0 0.17923005628736399 0.23220720882581999 0 0.19094329512360109 0.2284506716390397 0 0.17923005628736399 0.23220720882581999 0 0.19094329512360109 0.2284506716390397 0 0.18173180650027271 0.2248964566514062 0 0.19094329512360109 0.2284506716390397 0 0.18173180650027271 0.2248964566514062 0 0.17923005628736399 0.23220720882581999 0 0.17923005628736399 0.23220720882581999 0 0.18363137650319269 0.2437216882932631 0 0.19567631166618171 0.24868361965321409 0 0.17923005628736399 0.23220720882581999 0 0.17346433219837201 0.2490561251177594 0 0.17923005628736399 0.23220720882581999 0 0.19567631166618171 0.24868361965321409 0 0.17923005628736399 0.23220720882581999 0 0.16619735653452569 0.23833744622431341 0 0.17923005628736399 0.23220720882581999 0 0.18363137650319269 0.2437216882932631 0 0.17346433219837201 0.2490561251177594 0 0.17923005628736399 0.23220720882581999 0 0.17346433219837201 0.2490561251177594 0 0.16619735653452569 0.23833744622431341 0 0.18363137650319269 0.2437216882932631 0 0.17346433219837201 0.2490561251177594 0 0.18351944270458609 0.25560495687435042 0 0.17346433219837201 0.2490561251177594 0 0.16619735653452569 0.23833744622431341 0 0.1612294229183229 0.25215473193171262 0 0.15071771210549029 0.24461282216283159 0 0.1559460624859092 0.2287488980858991 0 0.16619735653452569 0.23833744622431341 0 0.15071771210549029 0.24461282216283159 0 0.16619735653452569 0.23833744622431341 0 0.1612294229183229 0.25215473193171262 0 0.2209126603009012 0.23511317464152401 0 0.21119012336489751 0.25003357208248039 0 0.22219887874936009 0.25618338730180168 0 0.20702137889996899 0.24018815786255601 0 0.2209126603009012 0.23511317464152401 0 0.21119012336489751 0.25003357208248039 0 0.20702137889996899 0.24018815786255601 0 0.20873968620941361 0.23157951997755291 0 0.2209126603009012 0.23511317464152401 0 0.20702137889996899 0.24018815786255601 0 0.19567631166618171 0.24868361965321409 0 0.21119012336489751 0.25003357208248039 0 0.20702137889996899 0.24018815786255601 0 0.19567631166618171 0.24868361965321409 0 0.1978780612805468 0.2311264226298555 0 0.17923005628736399 0.23220720882581999 0 0.19567631166618171 0.24868361965321409 0 0.19094329512360109 0.2284506716390397 0 0.19567631166618171 0.24868361965321409 0 0.1978780612805468 0.2311264226298555 0 0.19094329512360109 0.2284506716390397 0 0.18363137650319269 0.2437216882932631 0 0.19567631166618171 0.24868361965321409 0 0.18351944270458609 0.25560495687435042 0 0.19094329512360109 0.2284506716390397 0 0.21001352220368 0.22083152089427899 0 0.1978780612805468 0.2311264226298555 0 0.19094329512360109 0.2284506716390397 0 0.21001352220368 0.22083152089427899 0 0.18173180650027271 0.2248964566514062 0 0.19094329512360109 0.2284506716390397 0 0.20073064510488231 0.20866773002194841 0 0.19094329512360109 0.2284506716390397 0 0.21001352220368 0.22083152089427899 0 0.20073064510488231 0.20866773002194841 0 0.1978780612805468 0.2311264226298555 0 0.19094329512360109 0.2284506716390397 0 0.21001352220368 0.22083152089427899 0 0.22499310367668029 0.21484671070523681 0 0.2209126603009012 0.23511317464152401 0 0.20702137889996899 0.24018815786255601 0 0.1978780612805468 0.2311264226298555 0 0.20873968620941361 0.23157951997755291 0 0.1978780612805468 0.2311264226298555 0 0.21001352220368 0.22083152089427899 0 0.20873968620941361 0.23157951997755291 0 0.21001352220368 0.22083152089427899 0 0.20873968620941361 0.23157951997755291 0 0.2209126603009012 0.23511317464152401 0 0.21001352220368 0.22083152089427899 0 0.2209126603009012 0.23511317464152401 0 0.21001352220368 0.22083152089427899 0 0.20073064510488231 0.20866773002194841 0 0.21528446084366731 0.2030377541353735 0 0.21001352220368 0.22083152089427899 0 0.21528446084366731 0.2030377541353735 0 0.22499310367668029 0.21484671070523681 0 0.21001352220368 0.22083152089427899 0 0.22499310367668029 0.21484671070523681 0 0.21001352220368 0.22083152089427899 0 0.20073064510488231 0.20866773002194841 0 0.18173180650027271 0.2248964566514062 0 0.20073064510488231 0.20866773002194841 0 0.19144776800608529 0.19650393914961731 0 0.20073064510488231 0.20866773002194841 0 0.19144776800608529 0.19650393914961731 0 0.20073064510488231 0.20866773002194841 0 0.20262247736475561 0.1975999259482398 0 0.19144776800608529 0.19650393914961731 0 0.20262247736475561 0.1975999259482398 0 0.1931191122327616 0.191619845055684 0 0.2102780700999799 0.18111830232076739 0 0.18685299094783001 0.17962016457261529 0 0.18943919442320559 0.19387201062640591 0 0.1931191122327616 0.191619845055684 0 0.19144776800608529 0.19650393914961731 0 0.18943919442320559 0.19387201062640591 0 0.1931191122327616 0.191619845055684 0 0.19144776800608529 0.19650393914961731 0 0.18943919442320559 0.19387201062640591 0 0.18943919442320559 0.19387201062640591 0 0.1931191122327616 0.191619845055684 0 0.19144776800608529 0.19650393914961731 0 0.1931191122327616 0.191619845055684 0 0.20262247736475561 0.1975999259482398 0 0.19144776800608529 0.19650393914961731 0 0.1931191122327616 0.191619845055684 0 0.20262247736475561 0.1975999259482398 0 0.21423110832967071 0.1938341648070542 0 0.2102780700999799 0.18111830232076739 0 0.21423110832967071 0.1938341648070542 0 0.22873942501028041 0.19358067682383581 0 0.2102780700999799 0.18111830232076739 0 0.20262247736475561 0.1975999259482398 0 0.21528446084366731 0.2030377541353735 0 0.21423110832967071 0.1938341648070542 0 0.20073064510488231 0.20866773002194841 0 0.20262247736475561 0.1975999259482398 0 0.21528446084366731 0.2030377541353735 0 0.21528446084366731 0.2030377541353735 0 0.22873942501028041 0.19358067682383581 0 0.22823624334491169 0.20434105768454339 0 0.21528446084366731 0.2030377541353735 0 0.21423110832967071 0.1938341648070542 0 0.22873942501028041 0.19358067682383581 0 0.22873942501028041 0.19358067682383581 0 0.238480617814675 0.20015648848147419 0 0.22823624334491169 0.20434105768454339 0 0.22873942501028041 0.19358067682383581 0 0.238480617814675 0.20015648848147419 0 0.22873942501028041 0.19358067682383581 0 0.23873067617828081 0.1927120695511754 0 0.2342830075869865 0.18450595673087361 0 0.23873067617828081 0.1927120695511754 0 0.2342830075869865 0.18450595673087361 0 0.24329510302008189 0.1871769661498516 0 0.24564481120887949 0.19357326373811029 0 0.24329510302008189 0.1871769661498516 0 0.25125949940876557 0.1865332481602214 0 0.23873067617828081 0.1927120695511754 0 0.24564481120887949 0.19357326373811029 0 0.24329510302008189 0.1871769661498516 0 0.24564481120887949 0.19357326373811029 0 0.25125949940876557 0.1865332481602214 0 0.25269584698820519 0.19667155210436921 0 0.24564481120887949 0.19357326373811029 0 0.24720077992058109 0.2060430513269037 0 0.25269584698820519 0.19667155210436921 0 0.238480617814675 0.20015648848147419 0 0.24720077992058109 0.2060430513269037 0 0.23873067617828081 0.1927120695511754 0 0.24564481120887949 0.19357326373811029 0 0.24720077992058109 0.2060430513269037 0 0.23873067617828081 0.1927120695511754 0 0.238480617814675 0.20015648848147419 0 0.24720077992058109 0.2060430513269037 0 0.22873942501028041 0.19358067682383581 0 0.23873067617828081 0.1927120695511754 0 0.238480617814675 0.20015648848147419 0 0.238480617814675 0.20015648848147419 0 0.2399726851496807 0.2088619005161948 0 0.24720077992058109 0.2060430513269037 0 0.238480617814675 0.20015648848147419 0 0.2399726851496807 0.2088619005161948 0 0.22823624334491169 0.20434105768454339 0 0.238480617814675 0.20015648848147419 0 0.2399726851496807 0.2088619005161948 0 0.2399726851496807 0.2088619005161948 0 0.24720077992058109 0.2060430513269037 0 0.2491656828497332 0.21658518813443031 0 0.2399726851496807 0.2088619005161948 0 0.24720077992058109 0.2060430513269037 0 0.2399726851496807 0.2088619005161948 0 0.22499310367668029 0.21484671070523681 0 0.2330398906759435 0.2254752894725314 0 0.2399726851496807 0.2088619005161948 0 0.22499310367668029 0.21484671070523681 0 0.2399726851496807 0.2088619005161948 0 0.22823624334491169 0.20434105768454339 0 0.22499310367668029 0.21484671070523681 0 0.21528446084366731 0.2030377541353735 0 0.22823624334491169 0.20434105768454339 0 0.22499310367668029 0.21484671070523681 0 0.22499310367668029 0.21484671070523681 0 0.2330398906759435 0.2254752894725314 0 0.2209126603009012 0.23511317464152401 0 0.2330398906759435 0.2254752894725314 0 0.23291522070487239 0.2359345716381985 0 0.2209126603009012 0.23511317464152401 0 0.2399726851496807 0.2088619005161948 0 0.2330398906759435 0.2254752894725314 0 0.24589653344452231 0.23375499404996961 0 0.2399726851496807 0.2088619005161948 0 0.24589653344452231 0.23375499404996961 0 0.2399726851496807 0.2088619005161948 0 0.2491656828497332 0.21658518813443031 0 0.24589653344452231 0.23375499404996961 0 0.2330398906759435 0.2254752894725314 0 0.24589653344452231 0.23375499404996961 0 0.23291522070487239 0.2359345716381985 0 0.24589653344452231 0.23375499404996961 0 0.25182038173936289 0.25864808758374469 0 0.24589653344452231 0.23375499404996961 0 0.23181179839812269 0.24939482838876889 0 0.25182038173936289 0.25864808758374469 0 0.24589653344452231 0.23375499404996961 0 0.23181179839812269 0.24939482838876889 0 0.23291522070487239 0.2359345716381985 0 0.23181179839812269 0.24939482838876889 0 0.2209126603009012 0.23511317464152401 0 0.22219887874936009 0.25618338730180168 0 0.23181179839812269 0.24939482838876889 0 0.23291522070487239 0.2359345716381985 0 0.2209126603009012 0.23511317464152401 0 0.23181179839812269 0.24939482838876889 0 0.2209126603009012 0.23511317464152401 0 0.20650696960211351 0.15249711135163119 0 0.22167393261844079 0.14209216832933491 0 0.22429333290629089 0.15333728474227651 0 0.20650696960211351 0.15249711135163119 0 0.21375558690380739 0.1313148028915806 0 0.22167393261844079 0.14209216832933491 0 0.20650696960211351 0.15249711135163119 0 0.21375558690380739 0.1313148028915806 0 0.20650696960211351 0.15249711135163119 0 0.21375558690380739 0.1313148028915806 0 0.19838021668379111 0.14113266025954579 0 0.21375558690380739 0.1313148028915806 0 0.18913854688041021 0.1272330631454284 0 0.19838021668379111 0.14113266025954579 0 0.21375558690380739 0.1313148028915806 0 0.18913854688041021 0.1272330631454284 0 0.20450014250225221 0.1173936081939221 0 0.18411336321729321 0.1447640993035251 0 0.18913854688041021 0.1272330631454284 0 0.19838021668379111 0.14113266025954579 0 0.18411336321729321 0.1447640993035251 0 0.19838021668379111 0.14113266025954579 0 0.19325036430083309 0.1558578881368882 0 0.20650696960211351 0.15249711135163119 0 0.19838021668379111 0.14113266025954579 0 0.19325036430083309 0.1558578881368882 0 0.17806388351039179 0.15937205132555241 0 0.19325036430083309 0.1558578881368882 0 0.1992583523004193 0.1736794198116817 0 0.20650696960211351 0.15249711135163119 0 0.1992583523004193 0.1736794198116817 0 0.20650696960211351 0.15249711135163119 0 0.19325036430083309 0.1558578881368882 0 0.1992583523004193 0.1736794198116817 0 0.17806388351039179 0.15937205132555241 0 0.1992583523004193 0.1736794198116817 0 0.1931191122327616 0.191619845055684 0 0.1992583523004193 0.1736794198116817 0 0.2102780700999799 0.18111830232076739 0 0.1931191122327616 0.191619845055684 0 0.2102780700999799 0.18111830232076739 0 0.18685299094783001 0.17962016457261529 0 0.1931191122327616 0.191619845055684 0 0.1992583523004193 0.1736794198116817 0 0.1931191122327616 0.191619845055684 0 0.1992583523004193 0.1736794198116817 0 0.18685299094783001 0.17962016457261529 0 0.18384256130723789 0.1706593609261377 0 0.1992583523004193 0.1736794198116817 0 0.2102780700999799 0.18111830232076739 0 0.2135466351928467 0.16625474229965539 0 0.22739645105542991 0.17064159327191969 0 0.1992583523004193 0.1736794198116817 0 0.2102780700999799 0.18111830232076739 0 0.1992583523004193 0.1736794198116817 0 0.2102780700999799 0.18111830232076739 0 0.2135466351928467 0.16625474229965539 0 0.20650696960211351 0.15249711135163119 0 0.1992583523004193 0.1736794198116817 0 0.2135466351928467 0.16625474229965539 0 0.20650696960211351 0.15249711135163119 0 0.2135466351928467 0.16625474229965539 0 0.22429333290629089 0.15333728474227651 0 0.22739645105542991 0.17064159327191969 0 0.23453919537699511 0.1544833452518766 0 0.22429333290629089 0.15333728474227651 0 0.2135466351928467 0.16625474229965539 0 0.22739645105542991 0.17064159327191969 0 0.22429333290629089 0.15333728474227651 0 0.22873942501028041 0.19358067682383581 0 0.2102780700999799 0.18111830232076739 0 0.2102780700999799 0.18111830232076739 0 0.22739645105542991 0.17064159327191969 0 0.22873942501028041 0.19358067682383581 0 0.2102780700999799 0.18111830232076739 0 0.2231445815279034 0.18193584120885661 0 0.2102780700999799 0.18111830232076739 0 0.22739645105542991 0.17064159327191969 0 0.2231445815279034 0.18193584120885661 0 0.22739645105542991 0.17064159327191969 0 0.2231445815279034 0.18193584120885661 0 0.2342830075869865 0.18450595673087361 0 0.22873942501028041 0.19358067682383581 0 0.2231445815279034 0.18193584120885661 0 0.2342830075869865 0.18450595673087361 0 0.2342830075869865 0.18450595673087361 0 0.24655752071749731 0.17856029256887709 0 0.24451483201087909 0.1601648842230706 0 0.2342830075869865 0.18450595673087361 0 0.24451483201087909 0.1601648842230706 0 0.2342830075869865 0.18450595673087361 0 0.24655752071749731 0.17856029256887709 0 0.24329510302008189 0.1871769661498516 0 0.24655752071749731 0.17856029256887709 0 0.24329510302008189 0.1871769661498516 0 0.25125949940876557 0.1865332481602214 0 0.22739645105542991 0.17064159327191969 0 0.24451483201087909 0.1601648842230706 0 0.22739645105542991 0.17064159327191969 0 0.24451483201087909 0.1601648842230706 0 0.23453919537699511 0.1544833452518766 0 0.24655752071749731 0.17856029256887709 0 0.24451483201087909 0.1601648842230706 0 0.25341655966781701 0.1705551613544993 0 0.22739645105542991 0.17064159327191969 0 0.2342830075869865 0.18450595673087361 0 0.24451483201087909 0.1601648842230706 0 0.24451483201087909 0.1601648842230706 0 0.24443506524866351 0.1438614150856288 0 0.25325916843957558 0.1393624820095726 0 0.24451483201087909 0.1601648842230706 0 0.24443506524866351 0.1438614150856288 0 0.23453919537699511 0.1544833452518766 0 0.24451483201087909 0.1601648842230706 0 0.25325916843957558 0.1393624820095726 0 0.24443506524866351 0.1438614150856288 0 0.23453919537699511 0.1544833452518766 0 0.23205629566371011 0.14441154893648489 0 0.23453919537699511 0.1544833452518766 0 0.23205629566371011 0.14441154893648489 0 0.22429333290629089 0.15333728474227651 0 0.23205629566371011 0.14441154893648489 0 0.22167393261844079 0.14209216832933491 0 0.22429333290629089 0.15333728474227651 0 0.21375558690380739 0.1313148028915806 0 0.22167393261844079 0.14209216832933491 0 0.23115646396220299 0.13254813212789479 0 0.21375558690380739 0.1313148028915806 0 0.23115646396220299 0.13254813212789479 0 0.22589829930334179 0.122590870403155 0 0.23205629566371011 0.14441154893648489 0 0.22167393261844079 0.14209216832933491 0 0.23115646396220299 0.13254813212789479 0 0.24443506524866351 0.1438614150856288 0 0.23115646396220299 0.13254813212789479 0 0.2376769421418555 0.1163680521616146 0 0.24443506524866351 0.1438614150856288 0 0.24945576560316771 0.12615472028677199 0 0.25325916843957558 0.1393624820095726 0 0.24443506524866351 0.1438614150856288 0 0.2376769421418555 0.1163680521616146 0 0.24443506524866351 0.1438614150856288 0 0.24945576560316771 0.12615472028677199 0 0.2376769421418555 0.1163680521616146 0 0.24443506524866351 0.1438614150856288 0 0.23205629566371011 0.14441154893648489 0 0.23115646396220299 0.13254813212789479 0 0.24945576560316771 0.12615472028677199 0 0.2499041473174686 0.1126215723809678 0 0.2376769421418555 0.1163680521616146 0 0.2499041473174686 0.1126215723809678 0 0.2376769421418555 0.1163680521616146 0 0.23864449589847689 0.1065584950207374 0 0.2376769421418555 0.1163680521616146 0 0.23864449589847689 0.1065584950207374 0 0.23091881903504741 0.088874689237600613 0 0.23864449589847689 0.1065584950207374 0 0.23091881903504741 0.088874689237600613 0 0.2425221092558765 0.093752846065615764 0 0.23864449589847689 0.1065584950207374 0 0.23091881903504741 0.088874689237600613 0 0.2425221092558765 0.093752846065615764 0 0.23864449589847689 0.1065584950207374 0 0.25099925453232802 0.099791245076321963 0 0.2425221092558765 0.093752846065615764 0 0.25317767889284221 0.088265634331709378 0 0.25099925453232802 0.099791245076321963 0 0.2499041473174686 0.1126215723809678 0 0.23864449589847689 0.1065584950207374 0 0.25099925453232802 0.099791245076321963 0 0.22100420420550129 0.11013249443153 0 0.2159823370088691 0.095425031717352726 0 0.23091881903504741 0.088874689237600613 0 0.2376769421418555 0.1163680521616146 0 0.22100420420550129 0.11013249443153 0 0.23091881903504741 0.088874689237600613 0 0.2376769421418555 0.1163680521616146 0 0.23091881903504741 0.088874689237600613 0 0.23115646396220299 0.13254813212789479 0 0.2376769421418555 0.1163680521616146 0 0.22589829930334179 0.122590870403155 0 0.2376769421418555 0.1163680521616146 0 0.22589829930334179 0.122590870403155 0 0.22100420420550129 0.11013249443153 0 0.21375558690380739 0.1313148028915806 0 0.22589829930334179 0.122590870403155 0 0.22100420420550129 0.11013249443153 0 0.21375558690380739 0.1313148028915806 0 0.22100420420550129 0.11013249443153 0 0.20450014250225221 0.1173936081939221 0 0.22100420420550129 0.11013249443153 0 0.20450014250225221 0.1173936081939221 0 0.20371822313209731 0.1045415540484162 0 0.21375558690380739 0.1313148028915806 0 0.22100420420550129 0.11013249443153 0 0.2159823370088691 0.095425031717352726 0 0.20371822313209731 0.1045415540484162 0 0.1994875123079084 0.09101926859271961 0 0.22100420420550129 0.11013249443153 0 0.2159823370088691 0.095425031717352726 0 0.20371822313209731 0.1045415540484162 0 0.20371822313209731 0.1045415540484162 0 0.1994875123079084 0.09101926859271961 0 0.18675213703513241 0.10005460587339381 0 0.20371822313209731 0.1045415540484162 0 0.19183018478479241 0.11337089656159589 0 0.18675213703513241 0.10005460587339381 0 0.18913854688041021 0.1272330631454284 0 0.20450014250225221 0.1173936081939221 0 0.19183018478479241 0.11337089656159589 0 0.20450014250225221 0.1173936081939221 0 0.20371822313209731 0.1045415540484162 0 0.19183018478479241 0.11337089656159589 0 0.2013770802051349 0.067979927987863453 0 0.1886676301517948 0.072211050940352378 0 0.18562135436981231 0.057495320904719947 0 0.2013770802051349 0.067979927987863453 0 0.1886676301517948 0.072211050940352378 0 0.19712934682141781 0.07903721211395974 0 0.2013770802051349 0.067979927987863453 0 0.19712934682141781 0.07903721211395974 0 0.21036226697757779 0.082173601669043042 0 0.1994875123079084 0.09101926859271961 0 0.18675213703513241 0.10005460587339381 0 0.18298076287235629 0.084883606134152259 0 0.1994875123079084 0.09101926859271961 0 0.19712934682141781 0.07903721211395974 0 0.18298076287235629 0.084883606134152259 0 0.1886676301517948 0.072211050940352378 0 0.19712934682141781 0.07903721211395974 0 0.18298076287235629 0.084883606134152259 0 0.1994875123079084 0.09101926859271961 0 0.19712934682141781 0.07903721211395974 0 0.21036226697757779 0.082173601669043042 0 0.2159823370088691 0.095425031717352726 0 0.1994875123079084 0.09101926859271961 0 0.21036226697757779 0.082173601669043042 0 0.2013770802051349 0.067979927987863453 0 0.21036226697757779 0.082173601669043042 0 0.21847347858569591 0.060387737569577972 0 0.21036226697757779 0.082173601669043042 0 0.22469614881037331 0.074631213403588567 0 0.21847347858569591 0.060387737569577972 0 0.21036226697757779 0.082173601669043042 0 0.21847347858569591 0.060387737569577972 0 0.22633538666121211 0.07022839237381806 0 0.22469614881037331 0.074631213403588567 0 0.21847347858569591 0.060387737569577972 0 0.22633538666121211 0.07022839237381806 0 0.22469614881037331 0.074631213403588567 0 0.23091881903504741 0.088874689237600613 0 0.22469614881037331 0.074631213403588567 0 0.21847347858569591 0.060387737569577972 0 0.2159823370088691 0.095425031717352726 0 0.21036226697757779 0.082173601669043042 0 0.23091881903504741 0.088874689237600613 0 0.21036226697757779 0.082173601669043042 0 0.22469614881037331 0.074631213403588567 0 0.23091881903504741 0.088874689237600613 0 0.22633538666121211 0.07022839237381806 0 0.23091881903504741 0.088874689237600613 0 0.22633538666121211 0.07022839237381806 0 0.23091881903504741 0.088874689237600613 0 0.2417244546013218 0.082663739431196065 0 0.22469614881037331 0.074631213403588567 0 0.23091881903504741 0.088874689237600613 0 0.2417244546013218 0.082663739431196065 0 0.2478465110212274 0.070439300038157515 0 0.25317767889284221 0.088265634331709378 0 0.2425221092558765 0.093752846065615764 0 0.23091881903504741 0.088874689237600613 0 0.2417244546013218 0.082663739431196065 0 0.2425221092558765 0.093752846065615764 0 0.2417244546013218 0.082663739431196065 0 0.25317767889284221 0.088265634331709378 0 0.22633538666121211 0.07022839237381806 0 0.2417244546013218 0.082663739431196065 0 0.2478465110212274 0.070439300038157515 0 0.22633538666121211 0.07022839237381806 0 0.2478465110212274 0.070439300038157515 0 0.23521035250893729 0.058160370130262602 0 0.2478465110212274 0.070439300038157515 0 0.23521035250893729 0.058160370130262602 0 0.24735006605431861 0.04938372300819379 0 0.23521035250893729 0.058160370130262602 0 0.24735006605431861 0.04938372300819379 0 0.2360259791973727 0.045297970126192112 0 0.24691542149975779 0.034986112718363299 0 0.22890210163647301 0.03237754926410516 0 0.25476028869216721 0.031482054603957102 0 0.22890210163647301 0.03237754926410516 0 0.25476028869216721 0.031482054603957102 0 0.24691542149975779 0.034986112718363299 0 0.2360259791973727 0.045297970126192112 0 0.22890210163647301 0.03237754926410516 0 0.24735006605431861 0.04938372300819379 0 0.24691542149975779 0.034986112718363299 0 0.2360259791973727 0.045297970126192112 0 0.22890210163647301 0.03237754926410516 0 0.22175195428737651 0.051582095510035661 0 0.2171314977064655 0.032785176950575021 0 0.22890210163647301 0.03237754926410516 0 0.22175195428737651 0.051582095510035661 0 0.22175195428737651 0.051582095510035661 0 0.2171314977064655 0.032785176950575021 0 0.2360259791973727 0.045297970126192112 0 0.22890210163647301 0.03237754926410516 0 0.22175195428737651 0.051582095510035661 0 0.22890210163647301 0.03237754926410516 0 0.2171314977064655 0.032785176950575021 0 0.22633538666121211 0.07022839237381806 0 0.23521035250893729 0.058160370130262602 0 0.22175195428737651 0.051582095510035661 0 0.22633538666121211 0.07022839237381806 0 0.22175195428737651 0.051582095510035661 0 0.22633538666121211 0.07022839237381806 0 0.22175195428737651 0.051582095510035661 0 0.21847347858569591 0.060387737569577972 0 0.22175195428737651 0.051582095510035661 0 0.21847347858569591 0.060387737569577972 0 0.23521035250893729 0.058160370130262602 0 0.2360259791973727 0.045297970126192112 0 0.22175195428737651 0.051582095510035661 0 0.23914767988150079 0.0048590001187119756 0 0.25197628184863868 0.0051656796147290978 0 0.2444704141750727 -0.0094373062236474958 0 0.23914767988150079 0.0048590001187119756 0 0.24567564017074209 0.014119593049138551 0 0.25197628184863868 0.0051656796147290978 0 0.23914767988150079 0.0048590001187119756 0 0.23382494558792899 0.019155306461071529 0 0.23914767988150079 0.0048590001187119756 0 0.23382494558792899 0.019155306461071529 0 0.23038872763987081 0.0084623230033625436 0 0.23914767988150079 0.0048590001187119756 0 0.24567564017074209 0.014119593049138551 0 0.23382494558792899 0.019155306461071529 0 0.24541456557393751 0.024685190324105249 0 0.23382494558792899 0.019155306461071529 0 0.25476028869216721 0.031482054603957102 0 0.22890210163647301 0.03237754926410516 0 0.23382494558792899 0.019155306461071529 0 0.25476028869216721 0.031482054603957102 0 0.23382494558792899 0.019155306461071529 0 0.25476028869216721 0.031482054603957102 0 0.24541456557393751 0.024685190324105249 0 0.23382494558792899 0.019155306461071529 0 0.24567564017074209 0.014119593049138551 0 0.24541456557393751 0.024685190324105249 0 0.23382494558792899 0.019155306461071529 0 0.24567564017074209 0.014119593049138551 0 0.24541456557393751 0.024685190324105249 0 0.2580147279617046 0.016732788727074909 0 0.22014203960093531 0.021544946793788339 0 0.23119262986851349 0.017899320480790851 0 0.2122635326507126 0.012981345640581151 0 0.22890210163647301 0.03237754926410516 0 0.22737003191994101 0.023898111685191101 0 0.23382494558792899 0.019155306461071529 0 0.22890210163647301 0.03237754926410516 0 0.23382494558792899 0.019155306461071529 0 0.22890210163647301 0.03237754926410516 0 0.2228684787507112 0.028298467536888111 0 0.2171314977064655 0.032785176950575021 0 0.2228684787507112 0.028298467536888111 0 0.22014203960093531 0.021544946793788339 0 0.2171314977064655 0.032785176950575021 0 0.22890210163647301 0.03237754926410516 0 0.22737003191994101 0.023898111685191101 0 0.2228684787507112 0.028298467536888111 0 0.22737003191994101 0.023898111685191101 0 0.2228684787507112 0.028298467536888111 0 0.22014203960093531 0.021544946793788339 0 0.22737003191994101 0.023898111685191101 0 0.22014203960093531 0.021544946793788339 0 0.23119262986851349 0.017899320480790851 0 0.22737003191994101 0.023898111685191101 0 0.23382494558792899 0.019155306461071529 0 0.23119262986851349 0.017899320480790851 0 0.23382494558792899 0.019155306461071529 0 0.23119262986851349 0.017899320480790851 0 0.23119262986851349 0.017899320480790851 0 0.23038872763987081 0.0084623230033625436 0 0.21339875929355481 0.0076441901409559487 0 0.23119262986851349 0.017899320480790851 0 0.21339875929355481 0.0076441901409559487 0 0.23119262986851349 0.017899320480790851 0 0.2116800262066581 0.0085890555846391166 0 0.23038872763987081 0.0084623230033625436 0 0.21339875929355481 0.0076441901409559487 0 0.22893458673431399 -0.00089655804134538761 0 0.23119262986851349 0.017899320480790851 0 0.21339875929355481 0.0076441901409559487 0 0.2116800262066581 0.0085890555846391166 0 0.23382494558792899 0.019155306461071529 0 0.23119262986851349 0.017899320480790851 0 0.23038872763987081 0.0084623230033625436 0 0.21339875929355481 0.0076441901409559487 0 0.22893458673431399 -0.00089655804134538761 0 0.23914767988150079 0.0048590001187119756 0 0.23038872763987081 0.0084623230033625436 0 0.22893458673431399 -0.00089655804134538761 0 0.23119262986851349 0.017899320480790851 0 0.2122635326507126 0.012981345640581151 0 0.2116800262066581 0.0085890555846391166 0 0.20590763576530829 0.0033268355861740722 0 0.21339875929355481 0.0076441901409559487 0 0.22744893828151519 -0.0091251255713614941 0 0.20353083960945159 0.0047007438440358294 0 0.2116800262066581 0.0085890555846391166 0 0.20383855752384 0.0087500063140377345 0 0.20590763576530829 0.0033268355861740722 0 0.20353083960945159 0.0047007438440358294 0 0.2116800262066581 0.0085890555846391166 0 0.20353083960945159 0.0047007438440358294 0 0.2116800262066581 0.0085890555846391166 0 0.20590763576530829 0.0033268355861740722 0 0.20353083960945159 0.0047007438440358294 0 0.20590763576530829 0.0033268355861740722 0 0.21339875929355481 0.0076441901409559487 0 0.2116800262066581 0.0085890555846391166 0 0.20590763576530829 0.0033268355861740722 0 0.21339875929355481 0.0076441901409559487 0 0.21339875929355481 0.0076441901409559487 0 0.2116800262066581 0.0085890555846391166 0 0.2116800262066581 0.0085890555846391166 0 0.20383855752384 0.0087500063140377345 0 0.20145750362023651 0.014208839373525789 0 0.2116800262066581 0.0085890555846391166 0 0.20145750362023651 0.014208839373525789 0 0.2122635326507126 0.012981345640581151 0 0.2116800262066581 0.0085890555846391166 0 0.20145750362023651 0.014208839373525789 0 0.22014203960093531 0.021544946793788339 0 0.2122635326507126 0.012981345640581151 0 0.2171314977064655 0.032785176950575021 0 0.2122635326507126 0.012981345640581151 0 0.2171314977064655 0.032785176950575021 0 0.2122635326507126 0.012981345640581151 0 0.20145750362023651 0.014208839373525789 0 0.20961374654983039 0.033045524128153737 0 0.20145750362023651 0.014208839373525789 0 0.20961374654983039 0.033045524128153737 0 0.2122635326507126 0.012981345640581151 0 0.2171314977064655 0.032785176950575021 0 0.20961374654983039 0.033045524128153737 0 0.20145750362023651 0.014208839373525789 0 0.1950590076479366 0.0103054465264773 0 0.17989322253291301 0.034074775347355382 0 0.20145750362023651 0.014208839373525789 0 0.20961374654983039 0.033045524128153737 0 0.17989322253291301 0.034074775347355382 0 0.20145750362023651 0.014208839373525789 0 0.1986858606590135 0.0075013864539500274 0 0.20383855752384 0.0087500063140377345 0 0.20145750362023651 0.014208839373525789 0 0.1986858606590135 0.0075013864539500274 0 0.20145750362023651 0.014208839373525789 0 0.1950590076479366 0.0103054465264773 0 0.1986858606590135 0.0075013864539500274 0 0.1950590076479366 0.0103054465264773 0 0.1951186342042579 0.006765403100063315 0 0.1986858606590135 0.0075013864539500274 0 0.19102737819291371 0.0080871192678811741 0 0.1877429202382668 0.0047149823847660068 0 0.18510279272099431 0.01267940637480801 0 0.19102737819291371 0.0080871192678811741 0 0.1950590076479366 0.0103054465264773 0 0.18510279272099431 0.01267940637480801 0 0.19102737819291371 0.0080871192678811741 0 0.1950590076479366 0.0103054465264773 0 0.1951186342042579 0.006765403100063315 0 0.19102737819291371 0.0080871192678811741 0 0.1951186342042579 0.006765403100063315 0 0.1922945040161233 0.0055535755071543886 0 0.1951186342042579 0.006765403100063315 0 0.1922945040161233 0.0055535755071543886 0 0.19593782656424771 0.001077805355871994 0 0.1877429202382668 0.0047149823847660068 0 0.19593782656424771 0.001077805355871994 0 0.18341751240963211 0.00061568397150330858 0 0.1922945040161233 0.0055535755071543886 0 0.1877429202382668 0.0047149823847660068 0 0.19593782656424771 0.001077805355871994 0 0.19102737819291371 0.0080871192678811741 0 0.1922945040161233 0.0055535755071543886 0 0.1877429202382668 0.0047149823847660068 0 0.20590763576530829 0.0033268355861740722 0 0.20353083960945159 0.0047007438440358294 0 0.19593782656424771 0.001077805355871994 0 0.20590763576530829 0.0033268355861740722 0 0.19593782656424771 0.001077805355871994 0 0.19538333160442831 -0.002738630072423164 0 0.20590763576530829 0.0033268355861740722 0 0.19538333160442831 -0.002738630072423164 0 0.1951186342042579 0.006765403100063315 0 0.19593782656424771 0.001077805355871994 0 0.1986858606590135 0.0075013864539500274 0 0.19593782656424771 0.001077805355871994 0 0.1986858606590135 0.0075013864539500274 0 0.20353083960945159 0.0047007438440358294 0 0.1986858606590135 0.0075013864539500274 0 0.20353083960945159 0.0047007438440358294 0 0.19593782656424771 0.001077805355871994 0 0.1986858606590135 0.0075013864539500274 0 0.20353083960945159 0.0047007438440358294 0 0.20383855752384 0.0087500063140377345 0 0.1986858606590135 0.0075013864539500274 0 0.20353083960945159 0.0047007438440358294 0 0.19593782656424771 0.001077805355871994 0 0.21847347858569591 0.060387737569577972 0 0.21179805246051811 0.048866836918511007 0 0.20731015225534899 0.03483527165501598 0 0.2013770802051349 0.067979927987863453 0 0.20431749140528971 0.058682455845167861 0 0.21847347858569591 0.060387737569577972 0 0.22175195428737651 0.051582095510035661 0 0.21847347858569591 0.060387737569577972 0 0.21116331348358711 0.036667665820294709 0 0.21847347858569591 0.060387737569577972 0 0.20731015225534899 0.03483527165501598 0 0.20431749140528971 0.058682455845167861 0 0.21847347858569591 0.060387737569577972 0 0.21179805246051811 0.048866836918511007 0 0.22175195428737651 0.051582095510035661 0 0.2171314977064655 0.032785176950575021 0 0.21116331348358711 0.036667665820294709 0 0.21179805246051811 0.048866836918511007 0 0.20731015225534899 0.03483527165501598 0 0.19377095304712411 0.044139315222621392 0 0.21847347858569591 0.060387737569577972 0 0.21116331348358711 0.036667665820294709 0 0.20731015225534899 0.03483527165501598 0 0.2171314977064655 0.032785176950575021 0 0.21116331348358711 0.036667665820294709 0 0.20961374654983039 0.033045524128153737 0 0.2171314977064655 0.032785176950575021 0 0.20961374654983039 0.033045524128153737 0 0.21116331348358711 0.036667665820294709 0 0.20961374654983039 0.033045524128153737 0 0.21116331348358711 0.036667665820294709 0 0.20961374654983039 0.033045524128153737 0 0.20731015225534899 0.03483527165501598 0 0.20961374654983039 0.033045524128153737 0 0.17989322253291301 0.034074775347355382 0 0.20961374654983039 0.033045524128153737 0 0.20731015225534899 0.03483527165501598 0 0.17989322253291301 0.034074775347355382 0 0.20731015225534899 0.03483527165501598 0 0.19377095304712411 0.044139315222621392 0 0.17989322253291301 0.034074775347355382 0 0.21179805246051811 0.048866836918511007 0 0.19377095304712411 0.044139315222621392 0 0.18562135436981231 0.057495320904719947 0 0.21179805246051811 0.048866836918511007 0 0.18562135436981231 0.057495320904719947 0 0.2013770802051349 0.067979927987863453 0 0.20431749140528971 0.058682455845167861 0 0.18562135436981231 0.057495320904719947 0 0.20431749140528971 0.058682455845167861 0 0.21179805246051811 0.048866836918511007 0 0.18562135436981231 0.057495320904719947 0 0.18562135436981231 0.057495320904719947 0 0.1822386173389656 0.046452175398458903 0 0.1696689394060131 0.050099290119144033 0 0.18562135436981231 0.057495320904719947 0 0.15944465627910631 0.066123804890928256 0 0.19377095304712411 0.044139315222621392 0 0.18562135436981231 0.057495320904719947 0 0.1822386173389656 0.046452175398458903 0 0.1822386173389656 0.046452175398458903 0 0.17989322253291301 0.034074775347355382 0 0.1696689394060131 0.050099290119144033 0 0.19377095304712411 0.044139315222621392 0 0.1822386173389656 0.046452175398458903 0 0.17989322253291301 0.034074775347355382 0 0.17989322253291301 0.034074775347355382 0 0.1696689394060131 0.050099290119144033 0 0.1696689394060131 0.050099290119144033 0 0.15004873761716181 0.054314792069199633 0 0.15605884899175279 0.034900183338551292 0 0.17989322253291301 0.034074775347355382 0 0.1696689394060131 0.050099290119144033 0 0.15605884899175279 0.034900183338551292 0 0.17989322253291301 0.034074775347355382 0 0.15605884899175279 0.034900183338551292 0 0.17989322253291301 0.034074775347355382 0 0.16726282718832869 0.024860768718606239 0 0.15605884899175279 0.034900183338551292 0 0.18562135436981231 0.057495320904719947 0 0.1696689394060131 0.050099290119144033 0 0.15944465627910631 0.066123804890928256 0 0.1696689394060131 0.050099290119144033 0 0.15944465627910631 0.066123804890928256 0 0.1696689394060131 0.050099290119144033 0 0.15004873761716181 0.054314792069199633 0 0.15944465627910631 0.066123804890928256 0 0.17325987661650349 0.0042648455274535337 0 0.18341751240963211 0.00061568397150330858 0 0.1803122228523833 0.0071207485651375701 0 0.1877429202382668 0.0047149823847660068 0 0.18341751240963211 0.00061568397150330858 0 0.1803122228523833 0.0071207485651375701 0 0.1877429202382668 0.0047149823847660068 0 0.1803122228523833 0.0071207485651375701 0 0.18510279272099431 0.01267940637480801 0 0.1803122228523833 0.0071207485651375701 0 0.18510279272099431 0.01267940637480801 0 0.17473079967751451 0.01563010426622612 0 0.17325987661650349 0.0042648455274535337 0 0.1803122228523833 0.0071207485651375701 0 0.17473079967751451 0.01563010426622612 0 0.1950590076479366 0.0103054465264773 0 0.17989322253291301 0.034074775347355382 0 0.18510279272099431 0.01267940637480801 0 0.17989322253291301 0.034074775347355382 0 0.18510279272099431 0.01267940637480801 0 0.17473079967751451 0.01563010426622612 0 0.17989322253291301 0.034074775347355382 0 0.17473079967751451 0.01563010426622612 0 0.16726282718832869 0.024860768718606239 0 0.1950590076479366 0.0103054465264773 0 0.17989322253291301 0.034074775347355382 0 0.16726282718832869 0.024860768718606239 0 0.14634855098306929 0.024375299632060719 0 0.15605884899175279 0.034900183338551292 0 0.16726282718832869 0.024860768718606239 0 0.16047262651554151 0.01302500793435849 0 0.14634855098306929 0.024375299632060719 0 0.17473079967751451 0.01563010426622612 0 0.16726282718832869 0.024860768718606239 0 0.16047262651554151 0.01302500793435849 0 0.17325987661650349 0.0042648455274535337 0 0.17473079967751451 0.01563010426622612 0 0.16047262651554151 0.01302500793435849 0 0.16047262651554151 0.01302500793435849 0 0.15701690388062359 0.0017519640960013401 0 0.16460404253818639 -0.0005485413642497026 0 0.17325987661650349 0.0042648455274535337 0 0.16047262651554151 0.01302500793435849 0 0.16460404253818639 -0.0005485413642497026 0 0.16047262651554151 0.01302500793435849 0 0.15701690388062359 0.0017519640960013401 0 0.14374347907762411 0.01013166170502392 0 0.16047262651554151 0.01302500793435849 0 0.14374347907762411 0.01013166170502392 0 0.14634855098306929 0.024375299632060719 0 0.14374347907762411 0.01013166170502392 0 0.14634855098306929 0.024375299632060719 0 0.1322244754505929 0.035725591329757708 0 0.16047262651554151 0.01302500793435849 0 0.14634855098306929 0.024375299632060719 0 0.13169583908544269 0.016106768671930841 0 0.12558367300033579 0.022767244629745529 0 0.1282394907641051 0.035863595301175187 0 0.14374347907762411 0.01013166170502392 0 0.13169583908544269 0.016106768671930841 0 0.1282394907641051 0.035863595301175187 0 0.14374347907762411 0.01013166170502392 0 0.1322244754505929 0.035725591329757708 0 0.1282394907641051 0.035863595301175187 0 0.14374347907762411 0.01013166170502392 0 0.1282394907641051 0.035863595301175187 0 0.14634855098306929 0.024375299632060719 0 0.1322244754505929 0.035725591329757708 0 0.12208056491605811 0.014528897861411091 0 0.13169583908544269 0.016106768671930841 0 0.12558367300033579 0.022767244629745529 0 0.14374347907762411 0.01013166170502392 0 0.12949372161206399 0.002034182974538255 0 0.14235702862779581 -0.010108582017845339 0 0.14374347907762411 0.01013166170502392 0 0.13169583908544269 0.016106768671930841 0 0.12949372161206399 0.002034182974538255 0 0.12208056491605811 0.014528897861411091 0 0.13169583908544269 0.016106768671930841 0 0.12949372161206399 0.002034182974538255 0 0.15004873761716181 0.054314792069199633 0 0.14361180325386499 0.062680394774222034 0 0.15944465627910631 0.066123804890928256 0 0.15004873761716181 0.054314792069199633 0 0.1392543977066619 0.045484963639933429 0 0.13503412358221201 0.055830521829783278 0 0.15004873761716181 0.054314792069199633 0 0.13503412358221201 0.055830521829783278 0 0.14361180325386499 0.062680394774222034 0 0.15605884899175279 0.034900183338551292 0 0.1392543977066619 0.045484963639933429 0 0.1322244754505929 0.035725591329757708 0 0.15004873761716181 0.054314792069199633 0 0.15605884899175279 0.034900183338551292 0 0.1392543977066619 0.045484963639933429 0 0.14634855098306929 0.024375299632060719 0 0.15605884899175279 0.034900183338551292 0 0.1322244754505929 0.035725591329757708 0 0.15605884899175279 0.034900183338551292 0 0.1322244754505929 0.035725591329757708 0 0.1392543977066619 0.045484963639933429 0 0.1322244754505929 0.035725591329757708 0 0.13253546081664641 0.043599949341945929 0 0.1392543977066619 0.045484963639933429 0 0.13253546081664641 0.043599949341945929 0 0.13041459778777181 0.048995349532635728 0 0.1322244754505929 0.035725591329757708 0 0.1282394907641051 0.035863595301175187 0 0.12465995933422511 0.041804535348110183 0 0.1322244754505929 0.035725591329757708 0 0.12465995933422511 0.041804535348110183 0 0.1282394907641051 0.035863595301175187 0 0.12465995933422511 0.041804535348110183 0 0.1322244754505929 0.035725591329757708 0 0.12849850991573211 0.039529689355893148 0 0.12465995933422511 0.041804535348110183 0 0.1322244754505929 0.035725591329757708 0 0.1282394907641051 0.035863595301175187 0 0.1322244754505929 0.035725591329757708 0 0.13253546081664641 0.043599949341945929 0 0.12849850991573211 0.039529689355893148 0 0.13253546081664641 0.043599949341945929 0 0.12849850991573211 0.039529689355893148 0 0.13041459778777181 0.048995349532635728 0 0.12849850991573211 0.039529689355893148 0 0.13041459778777181 0.048995349532635728 0 0.12601268130434359 0.05520451676938741 0 0.13041459778777181 0.048995349532635728 0 0.12906006263473471 0.055824255438964777 0 0.12601268130434359 0.05520451676938741 0 0.13041459778777181 0.048995349532635728 0 0.13503412358221201 0.055830521829783278 0 0.12906006263473471 0.055824255438964777 0 0.1392543977066619 0.045484963639933429 0 0.13041459778777181 0.048995349532635728 0 0.13503412358221201 0.055830521829783278 0 0.13503412358221201 0.055830521829783278 0 0.13449203937332399 0.064318515496665785 0 0.14361180325386499 0.062680394774222034 0 0.13503412358221201 0.055830521829783278 0 0.12768778858411331 0.061257316790250732 0 0.13449203937332399 0.064318515496665785 0 0.1223337053199457 0.065203318772059468 0 0.12601268130434359 0.05520451676938741 0 0.12768778858411331 0.061257316790250732 0 0.13503412358221201 0.055830521829783278 0 0.12906006263473471 0.055824255438964777 0 0.12768778858411331 0.061257316790250732 0 0.12906006263473471 0.055824255438964777 0 0.12601268130434359 0.05520451676938741 0 0.12768778858411331 0.061257316790250732 0 0.1223337053199457 0.065203318772059468 0 0.12768778858411331 0.061257316790250732 0 0.1263994410961542 0.069272168535292278 0 0.11725910069042619 0.080029202339642724 0 0.13835187848476629 0.073076503615285796 0 0.12768778858411331 0.061257316790250732 0 0.1263994410961542 0.069272168535292278 0 0.13449203937332399 0.064318515496665785 0 0.11725910069042619 0.080029202339642724 0 0.1263994410961542 0.069272168535292278 0 0.13835187848476629 0.073076503615285796 0 0.13835187848476629 0.073076503615285796 0 0.13449203937332399 0.064318515496665785 0 0.14361180325386499 0.062680394774222034 0 0.1263994410961542 0.069272168535292278 0 0.13835187848476629 0.073076503615285796 0 0.13449203937332399 0.064318515496665785 0 0.14907866011381241 0.08237042644993342 0 0.15944465627910631 0.066123804890928256 0 0.13835187848476629 0.073076503615285796 0 0.14361180325386499 0.062680394774222034 0 0.15944465627910631 0.066123804890928256 0 0.13835187848476629 0.073076503615285796 0 0.15944465627910631 0.066123804890928256 0 0.13835187848476629 0.073076503615285796 0 0.14907866011381241 0.08237042644993342 0 0.15944465627910631 0.066123804890928256 0 0.14907866011381241 0.08237042644993342 0 0.13871266394851919 0.098617048008939057 0 0.14907866011381241 0.08237042644993342 0 0.13871266394851919 0.098617048008939057 0 0.15506804222976281 0.096306136817504218 0 0.14907866011381241 0.08237042644993342 0 0.15506804222976281 0.096306136817504218 0 0.16438417041920289 0.082060716991922342 0 0.13835187848476629 0.073076503615285796 0 0.14907866011381241 0.08237042644993342 0 0.12853839693713259 0.089957381944641202 0 0.11725910069042619 0.080029202339642724 0 0.13835187848476629 0.073076503615285796 0 0.12853839693713259 0.089957381944641202 0 0.14907866011381241 0.08237042644993342 0 0.12853839693713259 0.089957381944641202 0 0.13871266394851919 0.098617048008939057 0 0.13871266394851919 0.098617048008939057 0 0.1264328286530991 0.107947313821514 0 0.13921331553565211 0.1205755020248503 0 0.12853839693713259 0.089957381944641202 0 0.13871266394851919 0.098617048008939057 0 0.1264328286530991 0.107947313821514 0 0.1203304346491972 0.1247311024736667 0 0.1264328286530991 0.107947313821514 0 0.13921331553565211 0.1205755020248503 0 0.15664017861286419 0.12832258981899269 0 0.13921331553565211 0.1205755020248503 0 0.153189523866859 0.11262417085015521 0 0.13871266394851919 0.098617048008939057 0 0.13921331553565211 0.1205755020248503 0 0.153189523866859 0.11262417085015521 0 0.13871266394851919 0.098617048008939057 0 0.153189523866859 0.11262417085015521 0 0.15506804222976281 0.096306136817504218 0 0.15506804222976281 0.096306136817504218 0 0.16484484452891329 0.10815746383915489 0 0.16813103972679269 0.095909878150675434 0 0.153189523866859 0.11262417085015521 0 0.15506804222976281 0.096306136817504218 0 0.16484484452891329 0.10815746383915489 0 0.16484484452891329 0.10815746383915489 0 0.16813103972679269 0.095909878150675434 0 0.17772226318600209 0.1114207973317277 0 0.15664017861286419 0.12832258981899269 0 0.153189523866859 0.11262417085015521 0 0.16877696666127581 0.1222888441805631 0 0.153189523866859 0.11262417085015521 0 0.16484484452891329 0.10815746383915489 0 0.16877696666127581 0.1222888441805631 0 0.16484484452891329 0.10815746383915489 0 0.16877696666127581 0.1222888441805631 0 0.17772226318600209 0.1114207973317277 0 0.18913854688041021 0.1272330631454284 0 0.16877696666127581 0.1222888441805631 0 0.17772226318600209 0.1114207973317277 0 0.18913854688041021 0.1272330631454284 0 0.19183018478479241 0.11337089656159589 0 0.17772226318600209 0.1114207973317277 0 0.16813103972679269 0.095909878150675434 0 0.17772226318600209 0.1114207973317277 0 0.18675213703513241 0.10005460587339381 0 0.19183018478479241 0.11337089656159589 0 0.17772226318600209 0.1114207973317277 0 0.18675213703513241 0.10005460587339381 0 0.18298076287235629 0.084883606134152259 0 0.17622960649025271 0.071659187561066442 0 0.16438417041920289 0.082060716991922342 0 0.16813103972679269 0.095909878150675434 0 0.18675213703513241 0.10005460587339381 0 0.18298076287235629 0.084883606134152259 0 0.18562135436981231 0.057495320904719947 0 0.17622960649025271 0.071659187561066442 0 0.15944465627910631 0.066123804890928256 0 0.1886676301517948 0.072211050940352378 0 0.18298076287235629 0.084883606134152259 0 0.17622960649025271 0.071659187561066442 0 0.1886676301517948 0.072211050940352378 0 0.18562135436981231 0.057495320904719947 0 0.17622960649025271 0.071659187561066442 0 0.17622960649025271 0.071659187561066442 0 0.15944465627910631 0.066123804890928256 0 0.16438417041920289 0.082060716991922342 0 0.14907866011381241 0.08237042644993342 0 0.15944465627910631 0.066123804890928256 0 0.16438417041920289 0.082060716991922342 0 0.16813103972679269 0.095909878150675434 0 0.18298076287235629 0.084883606134152259 0 0.16438417041920289 0.082060716991922342 0 0.15506804222976281 0.096306136817504218 0 0.16813103972679269 0.095909878150675434 0 0.16438417041920289 0.082060716991922342 0 0.096696446932400829 0.48419735378883599 0 0.1063043178267617 0.46625489478651688 0 0.09127407013284855 0.46999686553818493 0 0.096696446932400829 0.48419735378883599 0 0.11332657807219509 0.48020438310970659 0 0.1063043178267617 0.46625489478651688 0 0.096696446932400829 0.48419735378883599 0 0.11666344788485949 0.49173645753724088 0 0.096696446932400829 0.48419735378883599 0 0.11320932187650649 0.5 0 0.086397976856911182 0.4999999999999995 0 0.096696446932400829 0.48419735378883599 0 0.11666344788485949 0.49173645753724088 0 0.11332657807219509 0.48020438310970659 0 0.096696446932400829 0.48419735378883599 0 0.11320932187650649 0.5 0 0.11666344788485949 0.49173645753724088 0 0.11666344788485949 0.49173645753724088 0 0.12090238479645 0.48429117728103271 0 0.11332657807219509 0.48020438310970659 0 0.11320932187650649 0.5 0 0.11666344788485949 0.49173645753724088 0 0.13663044883731831 0.49927556128564571 0 0.11666344788485949 0.49173645753724088 0 0.12713929737233831 0.48772060528617361 0 0.12937830138485501 0.49233267184816393 0 0.11666344788485949 0.49173645753724088 0 0.12090238479645 0.48429117728103271 0 0.12713929737233831 0.48772060528617361 0 0.11332657807219509 0.48020438310970659 0 0.1063043178267617 0.46625489478651688 0 0.12648021585640709 0.47750326319100989 0 0.12090238479645 0.48429117728103271 0 0.11332657807219509 0.48020438310970659 0 0.12648021585640709 0.47750326319100989 0 0.1063043178267617 0.46625489478651688 0 0.12728774723275341 0.46343820621533671 0 0.12648021585640709 0.47750326319100989 0 0.12090238479645 0.48429117728103271 0 0.12648021585640709 0.47750326319100989 0 0.12713929737233831 0.48772060528617361 0 0.1063043178267617 0.46625489478651688 0 0.12648021585640709 0.47750326319100989 0 0.1171160937478397 0.45330540541120767 0 0.1063043178267617 0.46625489478651688 0 0.12728774723275341 0.46343820621533671 0 0.1171160937478397 0.45330540541120767 0 0.1197623529423178 0.44368749188664858 0 0.13473714108801041 0.44759172450604551 0 0.1197623529423178 0.44368749188664858 0 0.11252209743103481 0.43734593136816718 0 0.1232986957980476 0.43521553444175898 0 0.1171160937478397 0.45330540541120767 0 0.1197623529423178 0.44368749188664858 0 0.1111377366466568 0.44497886370606349 0 0.1171160937478397 0.45330540541120767 0 0.1111377366466568 0.44497886370606349 0 0.10224014563976749 0.44998909709657248 0 0.1197623529423178 0.44368749188664858 0 0.1111377366466568 0.44497886370606349 0 0.11252209743103481 0.43734593136816718 0 0.1111377366466568 0.44497886370606349 0 0.1041391275431114 0.44044081645503907 0 0.10224014563976749 0.44998909709657248 0 0.1111377366466568 0.44497886370606349 0 0.1041391275431114 0.44044081645503907 0 0.11252209743103481 0.43734593136816718 0 0.1041391275431114 0.44044081645503907 0 0.10224014563976749 0.44998909709657248 0 0.089080503713446169 0.43800132221766452 0 0.1063043178267617 0.46625489478651688 0 0.08612841979711626 0.45500652638202382 0 0.09127407013284855 0.46999686553818493 0 0.10224014563976749 0.44998909709657248 0 0.1063043178267617 0.46625489478651688 0 0.08612841979711626 0.45500652638202382 0 0.1063043178267617 0.46625489478651688 0 0.08612841979711626 0.45500652638202382 0 0.1171160937478397 0.45330540541120767 0 0.10224014563976749 0.44998909709657248 0 0.1063043178267617 0.46625489478651688 0 0.08612841979711626 0.45500652638202382 0 0.076928933425178994 0.45153971166391199 0 0.076729445979942912 0.47665825004042928 0 0.08612841979711626 0.45500652638202382 0 0.076729445979942912 0.47665825004042928 0 0.09127407013284855 0.46999686553818493 0 0.10224014563976749 0.44998909709657248 0 0.08612841979711626 0.45500652638202382 0 0.089080503713446169 0.43800132221766452 0 0.089080503713446169 0.43800132221766452 0 0.068535899212921636 0.44642049976079179 0 0.089080503713446169 0.43800132221766452 0 0.076928933425178994 0.45153971166391199 0 0.068535899212921636 0.44642049976079179 0 0.08612841979711626 0.45500652638202382 0 0.089080503713446169 0.43800132221766452 0 0.076928933425178994 0.45153971166391199 0 0.068535899212921636 0.44642049976079179 0 0.067564165632249693 0.45453144660900191 0 0.05839888528455367 0.43240464317757571 0 0.067564165632249693 0.45453144660900191 0 0.05839888528455367 0.43240464317757571 0 0.089080503713446169 0.43800132221766452 0 0.068535899212921636 0.44642049976079179 0 0.07497090782234328 0.43284708895321389 0 0.076928933425178994 0.45153971166391199 0 0.068535899212921636 0.44642049976079179 0 0.067564165632249693 0.45453144660900191 0 0.076928933425178994 0.45153971166391199 0 0.067564165632249693 0.45453144660900191 0 0.076729445979942912 0.47665825004042928 0 0.067564165632249693 0.45453144660900191 0 0.076729445979942912 0.47665825004042928 0 0.067564165632249693 0.45453144660900191 0 0.076729445979942912 0.47665825004042928 0 0.049791795726759278 0.46648718126147259 0 0.076729445979942912 0.47665825004042928 0 0.049791795726759278 0.46648718126147259 0 0.096696446932400829 0.48419735378883599 0 0.076729445979942912 0.47665825004042928 0 0.09127407013284855 0.46999686553818493 0 0.096696446932400829 0.48419735378883599 0 0.076729445979942912 0.47665825004042928 0 0.076729445979942912 0.47665825004042928 0 0.086397976856911182 0.4999999999999995 0 0.096696446932400829 0.48419735378883599 0 0.076729445979942912 0.47665825004042928 0 0.086397976856911182 0.4999999999999995 0 0.076729445979942912 0.47665825004042928 0 0.086397976856911182 0.4999999999999995 0 0.059245573952601223 0.5 0 0.076729445979942912 0.47665825004042928 0 0.059245573952601223 0.5 0 0.049791795726759278 0.46648718126147259 0 0.059245573952601223 0.5 0 0.03479790773613195 0.48122464563623218 0 0.049791795726759278 0.46648718126147259 0 0.059245573952601223 0.5 0 0.03479790773613195 0.48122464563623218 0 0.032093171048291243 0.5 0 0.032093171048291243 0.5 0 0.017871664807832879 0.48945747188852212 0 0.0049407681439812556 0.5 0 0.03479790773613195 0.48122464563623218 0 0.032093171048291243 0.5 0 0.017871664807832879 0.48945747188852212 0 0.03479790773613195 0.48122464563623218 0 0.01559742940131773 0.47616395292796831 0 0.0228541454735764 0.45631611248251402 0 0.03479790773613195 0.48122464563623218 0 0.017871664807832879 0.48945747188852212 0 0.01559742940131773 0.47616395292796831 0 -0.002061053709250524 0.46811537839715339 0 -3.8602638893346641e-05 0.490085713090751 0 0.01559742940131773 0.47616395292796831 0 -3.8602638893346641e-05 0.490085713090751 0 0.017871664807832879 0.48945747188852212 0 0.0049407681439812556 0.5 0 -3.8602638893346641e-05 0.490085713090751 0 0.017871664807832879 0.48945747188852212 0 0.01559742940131773 0.47616395292796831 0 -0.0040835047796066171 0.44614504370355579 0 0.01551371448277244 0.44401266367615988 0 0.0228541454735764 0.45631611248251402 0 -0.0040835047796066171 0.44614504370355579 0 0.01551371448277244 0.44401266367615988 0 0.0068076146682195778 0.43247067270718242 0 -0.0040835047796066171 0.44614504370355579 0 0.0228541454735764 0.45631611248251402 0 0.01551371448277244 0.44401266367615988 0 0.019727242113877969 0.43624642068844899 0 0.0068076146682195778 0.43247067270718242 0 0.01559742940131773 0.47616395292796831 0 0.0080767540965092904 0.46168512187779781 0 0.0228541454735764 0.45631611248251402 0 -0.0040835047796066171 0.44614504370355579 0 0.0080767540965092904 0.46168512187779781 0 0.0228541454735764 0.45631611248251402 0 -0.002061053709250524 0.46811537839715339 0 -0.0040835047796066171 0.44614504370355579 0 0.0080767540965092904 0.46168512187779781 0 -0.002061053709250524 0.46811537839715339 0 0.01559742940131773 0.47616395292796831 0 0.0080767540965092904 0.46168512187779781 0 0.0228541454735764 0.45631611248251402 0 0.026990687199519699 0.45041241567007267 0 0.043353371551326438 0.45141130910033073 0 0.01551371448277244 0.44401266367615988 0 0.0228541454735764 0.45631611248251402 0 0.026990687199519699 0.45041241567007267 0 0.01551371448277244 0.44401266367615988 0 0.026990687199519699 0.45041241567007267 0 0.019727242113877969 0.43624642068844899 0 0.026990687199519699 0.45041241567007267 0 0.019727242113877969 0.43624642068844899 0 0.01551371448277244 0.44401266367615988 0 0.019727242113877969 0.43624642068844899 0 0.026990687199519699 0.45041241567007267 0 0.02921235614812941 0.43937195023677228 0 0.019727242113877969 0.43624642068844899 0 0.026990687199519699 0.45041241567007267 0 0.02921235614812941 0.43937195023677228 0 0.034705667278949769 0.44426778630267488 0 0.026990687199519699 0.45041241567007267 0 0.034705667278949769 0.44426778630267488 0 0.043353371551326438 0.45141130910033073 0 0.02921235614812941 0.43937195023677228 0 0.034705667278949769 0.44426778630267488 0 0.039266254216823511 0.43587547020352368 0 0.034705667278949769 0.44426778630267488 0 0.043353371551326438 0.45141130910033073 0 0.039266254216823511 0.43587547020352368 0 0.03479790773613195 0.48122464563623218 0 0.0228541454735764 0.45631611248251402 0 0.049791795726759278 0.46648718126147259 0 0.0228541454735764 0.45631611248251402 0 0.049791795726759278 0.46648718126147259 0 0.0228541454735764 0.45631611248251402 0 0.043353371551326438 0.45141130910033073 0 0.049791795726759278 0.46648718126147259 0 0.067564165632249693 0.45453144660900191 0 0.043353371551326438 0.45141130910033073 0 0.049791795726759278 0.46648718126147259 0 0.043353371551326438 0.45141130910033073 0 0.05839888528455367 0.43240464317757571 0 0.039266254216823511 0.43587547020352368 0 0.067564165632249693 0.45453144660900191 0 0.043353371551326438 0.45141130910033073 0 0.05839888528455367 0.43240464317757571 0 0.05839888528455367 0.43240464317757571 0 0.049233604936860617 0.41027783974614829 0 0.066889063351314226 0.42497869897282869 0 0.05839888528455367 0.43240464317757571 0 0.049233604936860617 0.41027783974614829 0 0.042056436093164243 0.42265434715294192 0 0.05839888528455367 0.43240464317757571 0 0.049233604936860617 0.41027783974614829 0 0.049233604936860617 0.41027783974614829 0 0.075621864915423026 0.41783965507471321 0 0.035890765279037021 0.40645431786432529 0 0.042056436093164243 0.42265434715294192 0 0.02780900369645711 0.42135036927638692 0 0.049233604936860617 0.41027783974614829 0 0.035890765279037021 0.40645431786432529 0 0.042056436093164243 0.42265434715294192 0 0.049233604936860617 0.41027783974614829 0 0.035890765279037021 0.40645431786432529 0 0.035890765279037021 0.40645431786432529 0 0.02780900369645711 0.42135036927638692 0 0.02921235614812941 0.43937195023677228 0 0.039266254216823511 0.43587547020352368 0 0.02780900369645711 0.42135036927638692 0 0.05839888528455367 0.43240464317757571 0 0.039266254216823511 0.43587547020352368 0 0.042056436093164243 0.42265434715294192 0 0.039266254216823511 0.43587547020352368 0 0.042056436093164243 0.42265434715294192 0 0.02780900369645711 0.42135036927638692 0 0.02921235614812941 0.43937195023677228 0 0.019727242113877969 0.43624642068844899 0 0.02780900369645711 0.42135036927638692 0 0.019727242113877969 0.43624642068844899 0 0.02780900369645711 0.42135036927638692 0 0.0093819848751835241 0.41606992587103159 0 0.019727242113877969 0.43624642068844899 0 0.02780900369645711 0.42135036927638692 0 0.035890765279037021 0.40645431786432529 0 0.02780900369645711 0.42135036927638692 0 0.017463746457762431 0.40117387445896913 0 0.02780900369645711 0.42135036927638692 0 0.0093819848751835241 0.41606992587103159 0 0.017463746457762431 0.40117387445896913 0 -0.00096327236351288715 0.3958934310536153 0 -0.0012936573118222481 0.40743927955417442 0 0.0093819848751835241 0.41606992587103159 0 -0.0065013633511284028 0.41987930959671688 0 -0.0012936573118222481 0.40743927955417442 0 0.0093819848751835241 0.41606992587103159 0 0.019727242113877969 0.43624642068844899 0 0.0093819848751835241 0.41606992587103159 0 0.0068076146682195778 0.43247067270718242 0 0.019727242113877969 0.43624642068844899 0 0.0093819848751835241 0.41606992587103159 0 -0.0065013633511284028 0.41987930959671688 0 0.0093819848751835241 0.41606992587103159 0 0.0068076146682195778 0.43247067270718242 0 -0.0031329232034019191 0.39166193173788189 0 0.019886647886446601 0.38748110019764709 0 -0.0003215519375964703 0.38162524250019381 0 0.0079972642859068212 0.3767752310385345 0 0.019886647886446601 0.38748110019764709 0 -0.0031329232034019191 0.39166193173788189 0 -0.0003215519375964703 0.38162524250019381 0 0.019886647886446601 0.38748110019764709 0 0.0079972642859068212 0.3767752310385345 0 0.019886647886446601 0.38748110019764709 0 0.01796441292455413 0.37213832508766859 0 -0.0022610491863152291 0.37261641259158551 0 -0.0003215519375964703 0.38162524250019381 0 0.0079972642859068212 0.3767752310385345 0 -0.00096327236351288715 0.3958934310536153 0 -0.0031329232034019191 0.39166193173788189 0 0.019886647886446601 0.38748110019764709 0 -0.00096327236351288715 0.3958934310536153 0 0.0093819848751835241 0.41606992587103159 0 -0.00096327236351288715 0.3958934310536153 0 0.017463746457762431 0.40117387445896913 0 0.019886647886446601 0.38748110019764709 0 -0.00096327236351288715 0.3958934310536153 0 0.017463746457762431 0.40117387445896913 0 -0.00096327236351288715 0.3958934310536153 0 0.0093819848751835241 0.41606992587103159 0 0.017463746457762431 0.40117387445896913 0 0.035890765279037021 0.40645431786432529 0 0.017463746457762431 0.40117387445896913 0 0.035890765279037021 0.40645431786432529 0 0.017463746457762431 0.40117387445896913 0 0.02978494331225293 0.39350912604748312 0 0.017463746457762431 0.40117387445896913 0 0.02978494331225293 0.39350912604748312 0 0.019886647886446601 0.38748110019764709 0 0.02978494331225293 0.39350912604748312 0 0.019886647886446601 0.38748110019764709 0 0.032498838744847207 0.36987679712069449 0 0.019886647886446601 0.38748110019764709 0 0.032498838744847207 0.36987679712069449 0 0.01796441292455413 0.37213832508766859 0 0.042558909505041688 0.39416380196644912 0 0.04800257401321277 0.38413020897373362 0 0.032498838744847207 0.36987679712069449 0 0.02978494331225293 0.39350912604748312 0 0.042558909505041688 0.39416380196644912 0 0.032498838744847207 0.36987679712069449 0 0.042558909505041688 0.39416380196644912 0 0.032498838744847207 0.36987679712069449 0 0.042558909505041688 0.39416380196644912 0 0.04800257401321277 0.38413020897373362 0 0.04800257401321277 0.38413020897373362 0 0.032498838744847207 0.36987679712069449 0 0.049233604936860617 0.41027783974614829 0 0.035890765279037021 0.40645431786432529 0 0.042558909505041688 0.39416380196644912 0 0.049233604936860617 0.41027783974614829 0 0.042558909505041688 0.39416380196644912 0 0.035890765279037021 0.40645431786432529 0 0.02978494331225293 0.39350912604748312 0 0.042558909505041688 0.39416380196644912 0 0.035890765279037021 0.40645431786432529 0 0.042558909505041688 0.39416380196644912 0 0.049233604936860617 0.41027783974614829 0 0.042558909505041688 0.39416380196644912 0 0.061203948254273541 0.3962669373702673 0 0.049233604936860617 0.41027783974614829 0 0.061203948254273541 0.3962669373702673 0 0.07440532249533359 0.40840366576680182 0 0.042558909505041688 0.39416380196644912 0 0.061203948254273541 0.3962669373702673 0 0.04800257401321277 0.38413020897373362 0 0.061203948254273541 0.3962669373702673 0 0.04800257401321277 0.38413020897373362 0 0.066959459858531453 0.37832585956228182 0 0.061203948254273541 0.3962669373702673 0 0.04800257401321277 0.38413020897373362 0 0.061203948254273541 0.3962669373702673 0 0.066959459858531453 0.37832585956228182 0 0.075611051802076487 0.3938440985547626 0 0.066959459858531453 0.37832585956228182 0 0.092045129464531431 0.38246867794663147 0 0.075611051802076487 0.3938440985547626 0 0.092045129464531431 0.38246867794663147 0 0.085890452518236876 0.40291211708462549 0 0.075611051802076487 0.3938440985547626 0 0.092045129464531431 0.38246867794663147 0 0.085890452518236876 0.40291211708462549 0 0.1008351188392515 0.40602541131058428 0 0.085890452518236876 0.40291211708462549 0 0.075611051802076487 0.3938440985547626 0 0.07440532249533359 0.40840366576680182 0 0.061203948254273541 0.3962669373702673 0 0.075611051802076487 0.3938440985547626 0 0.07440532249533359 0.40840366576680182 0 0.061203948254273541 0.3962669373702673 0 0.07440532249533359 0.40840366576680182 0 0.049233604936860617 0.41027783974614829 0 0.075621864915423026 0.41783965507471321 0 0.07440532249533359 0.40840366576680182 0 0.049233604936860617 0.41027783974614829 0 0.075621864915423026 0.41783965507471321 0 0.066889063351314226 0.42497869897282869 0 0.075621864915423026 0.41783965507471321 0 0.07440532249533359 0.40840366576680182 0 0.08147117855703484 0.41093177805527509 0 0.068535899212921636 0.44642049976079179 0 0.05839888528455367 0.43240464317757571 0 0.07497090782234328 0.43284708895321389 0 0.05839888528455367 0.43240464317757571 0 0.066889063351314226 0.42497869897282869 0 0.07497090782234328 0.43284708895321389 0 0.066889063351314226 0.42497869897282869 0 0.075755844917966872 0.42580388746407771 0 0.07497090782234328 0.43284708895321389 0 0.075621864915423026 0.41783965507471321 0 0.066889063351314226 0.42497869897282869 0 0.075755844917966872 0.42580388746407771 0 0.075621864915423026 0.41783965507471321 0 0.085541543582786969 0.42755010685555489 0 0.10201012489398389 0.42540147040328302 0 0.089080503713446169 0.43800132221766452 0 0.07497090782234328 0.43284708895321389 0 0.085541543582786969 0.42755010685555489 0 0.075755844917966872 0.42580388746407771 0 0.07497090782234328 0.43284708895321389 0 0.085541543582786969 0.42755010685555489 0 0.075621864915423026 0.41783965507471321 0 0.075755844917966872 0.42580388746407771 0 0.085541543582786969 0.42755010685555489 0 0.089080503713446169 0.43800132221766452 0 0.085541543582786969 0.42755010685555489 0 0.093881239170122852 0.42999376820418622 0 0.075621864915423026 0.41783965507471321 0 0.089967074299145924 0.41457167429496011 0 0.10201012489398389 0.42540147040328302 0 0.075621864915423026 0.41783965507471321 0 0.10201012489398389 0.42540147040328302 0 0.085890452518236876 0.40291211708462549 0 0.08147117855703484 0.41093177805527509 0 0.089967074299145924 0.41457167429496011 0 0.085890452518236876 0.40291211708462549 0 0.07440532249533359 0.40840366576680182 0 0.08147117855703484 0.41093177805527509 0 0.075621864915423026 0.41783965507471321 0 0.08147117855703484 0.41093177805527509 0 0.089967074299145924 0.41457167429496011 0 0.085890452518236876 0.40291211708462549 0 0.089967074299145924 0.41457167429496011 0 0.1008351188392515 0.40602541131058428 0 0.089967074299145924 0.41457167429496011 0 0.10201012489398389 0.42540147040328302 0 0.1008351188392515 0.40602541131058428 0 0.1096251082139706 0.42958214467453731 0 0.1008351188392515 0.40602541131058428 0 0.1096251082139706 0.42958214467453731 0 0.1158238455507597 0.41127905075886489 0 0.1008351188392515 0.40602541131058428 0 0.10201012489398389 0.42540147040328302 0 0.1096251082139706 0.42958214467453731 0 0.1008351188392515 0.40602541131058428 0 0.089080503713446169 0.43800132221766452 0 0.093881239170122852 0.42999376820418622 0 0.1096251082139706 0.42958214467453731 0 0.085541543582786969 0.42755010685555489 0 0.10201012489398389 0.42540147040328302 0 0.093881239170122852 0.42999376820418622 0 0.1041391275431114 0.44044081645503907 0 0.089080503713446169 0.43800132221766452 0 0.1096251082139706 0.42958214467453731 0 0.10201012489398389 0.42540147040328302 0 0.093881239170122852 0.42999376820418622 0 0.1096251082139706 0.42958214467453731 0 0.089080503713446169 0.43800132221766452 0 0.1096251082139706 0.42958214467453731 0 0.1041391275431114 0.44044081645503907 0 0.11252209743103481 0.43734593136816718 0 0.1096251082139706 0.42958214467453731 0 0.11252209743103481 0.43734593136816718 0 0.1096251082139706 0.42958214467453731 0 0.1232986957980476 0.43521553444175898 0 0.11252209743103481 0.43734593136816718 0 0.1096251082139706 0.42958214467453731 0 0.1096251082139706 0.42958214467453731 0 0.1243074460390626 0.4235653236208895 0 0.1096251082139706 0.42958214467453731 0 0.1243074460390626 0.4235653236208895 0 0.1232986957980476 0.43521553444175898 0 0.1096251082139706 0.42958214467453731 0 0.1243074460390626 0.4235653236208895 0 0.1158238455507597 0.41127905075886489 0 0.1243074460390626 0.4235653236208895 0 0.1158238455507597 0.41127905075886489 0 0.1276841851987448 0.41159992525274541 0 0.1158238455507597 0.41127905075886489 0 0.1220472729044056 0.40053948004037793 0 0.1276841851987448 0.41159992525274541 0 0.1220472729044056 0.40053948004037793 0 0.1097547069561213 0.39539721125921129 0 0.1145578543537481 0.38191162087736968 0 0.1158238455507597 0.41127905075886489 0 0.1220472729044056 0.40053948004037793 0 0.1097547069561213 0.39539721125921129 0 0.1220472729044056 0.40053948004037793 0 0.1145578543537481 0.38191162087736968 0 0.13414541565828941 0.38804756129226192 0 0.092045129464531431 0.38246867794663147 0 0.1097547069561213 0.39539721125921129 0 0.1145578543537481 0.38191162087736968 0 0.092045129464531431 0.38246867794663147 0 0.1145578543537481 0.38191162087736968 0 0.1038627260752653 0.36541770830114811 0 0.092045129464531431 0.38246867794663147 0 0.1097547069561213 0.39539721125921129 0 0.1008351188392515 0.40602541131058428 0 0.092045129464531431 0.38246867794663147 0 0.1008351188392515 0.40602541131058428 0 0.1158238455507597 0.41127905075886489 0 0.1097547069561213 0.39539721125921129 0 0.1008351188392515 0.40602541131058428 0 0.097978827271064786 0.35124698854519609 0 0.1038627260752653 0.36541770830114811 0 0.083255140089811303 0.35891194458267872 0 0.097978827271064786 0.35124698854519609 0 0.1038627260752653 0.36541770830114811 0 0.1102709175506927 0.35330093111031369 0 0.097978827271064786 0.35124698854519609 0 0.1102709175506927 0.35330093111031369 0 0.10676142006133341 0.34156706287575112 0 0.1038627260752653 0.36541770830114811 0 0.1239569692541571 0.36256503670992252 0 0.1102709175506927 0.35330093111031369 0 0.1145578543537481 0.38191162087736968 0 0.1239569692541571 0.36256503670992252 0 0.12758607288106619 0.3763797749985775 0 0.1145578543537481 0.38191162087736968 0 0.1038627260752653 0.36541770830114811 0 0.1239569692541571 0.36256503670992252 0 0.1239569692541571 0.36256503670992252 0 0.1102709175506927 0.35330093111031369 0 0.1212080119051053 0.34611313826537721 0 0.1102709175506927 0.35330093111031369 0 0.1212080119051053 0.34611313826537721 0 0.10676142006133341 0.34156706287575112 0 0.1154515910518593 0.33325136419885831 0 0.11414460126541311 0.31608548941914238 0 0.13268076497723921 0.33578641585607688 0 0.1212080119051053 0.34611313826537721 0 0.1154515910518593 0.33325136419885831 0 0.13268076497723921 0.33578641585607688 0 0.1212080119051053 0.34611313826537721 0 0.1154515910518593 0.33325136419885831 0 0.10676142006133341 0.34156706287575112 0 0.1154515910518593 0.33325136419885831 0 0.11414460126541311 0.31608548941914238 0 0.1018797200364966 0.32639713687698352 0 0.11414460126541311 0.31608548941914238 0 0.13268076497723921 0.33578641585607688 0 0.1018797200364966 0.32639713687698352 0 0.099313247500886742 0.31376116351994021 0 0.08503679413434137 0.31586988710046682 0 0.11414460126541311 0.31608548941914238 0 0.1018797200364966 0.32639713687698352 0 0.099313247500886742 0.31376116351994021 0 0.1018797200364966 0.32639713687698352 0 0.10676142006133341 0.34156706287575112 0 0.090570666205145672 0.33784785414774238 0 0.097978827271064786 0.35124698854519609 0 0.10676142006133341 0.34156706287575112 0 0.090570666205145672 0.33784785414774238 0 0.1154515910518593 0.33325136419885831 0 0.1018797200364966 0.32639713687698352 0 0.10676142006133341 0.34156706287575112 0 0.090570666205145672 0.33784785414774238 0 0.08503679413434137 0.31586988710046682 0 0.0744651507150937 0.33535521121872491 0 0.1018797200364966 0.32639713687698352 0 0.090570666205145672 0.33784785414774238 0 0.08503679413434137 0.31586988710046682 0 0.08503679413434137 0.31586988710046682 0 0.0744651507150937 0.33535521121872491 0 0.08503679413434137 0.31586988710046682 0 0.069132397407420665 0.32106369817937919 0 0.075424394526301397 0.30956036994577307 0 0.069132397407420665 0.32106369817937919 0 0.059434355578294393 0.32579716193140301 0 0.063799644099750391 0.30677218514003252 0 0.08503679413434137 0.31586988710046682 0 0.069132397407420665 0.32106369817937919 0 0.0744651507150937 0.33535521121872491 0 0.069132397407420665 0.32106369817937919 0 0.0744651507150937 0.33535521121872491 0 0.059434355578294393 0.32579716193140301 0 0.069132397407420665 0.32106369817937919 0 0.063799644099750391 0.30677218514003252 0 0.069132397407420665 0.32106369817937919 0 0.0744651507150937 0.33535521121872491 0 0.0744651507150937 0.33535521121872491 0 0.061233862364153943 0.35974271009622949 0 0.0744651507150937 0.33535521121872491 0 0.083255140089811303 0.35891194458267872 0 0.061233862364153943 0.35974271009622949 0 0.0744651507150937 0.33535521121872491 0 0.083255140089811303 0.35891194458267872 0 0.097978827271064786 0.35124698854519609 0 0.090570666205145672 0.33784785414774238 0 0.083255140089811303 0.35891194458267872 0 0.090570666205145672 0.33784785414774238 0 0.0744651507150937 0.33535521121872491 0 0.083255140089811303 0.35891194458267872 0 0.066959459858531453 0.37832585956228182 0 0.092045129464531431 0.38246867794663147 0 0.083255140089811303 0.35891194458267872 0 0.092045129464531431 0.38246867794663147 0 0.083255140089811303 0.35891194458267872 0 0.092045129464531431 0.38246867794663147 0 0.1038627260752653 0.36541770830114811 0 0.083255140089811303 0.35891194458267872 0 0.066959459858531453 0.37832585956228182 0 0.083255140089811303 0.35891194458267872 0 0.061233862364153943 0.35974271009622949 0 0.04800257401321277 0.38413020897373362 0 0.061233862364153943 0.35974271009622949 0 0.04800257401321277 0.38413020897373362 0 0.066959459858531453 0.37832585956228182 0 0.061233862364153943 0.35974271009622949 0 0.04800257401321277 0.38413020897373362 0 0.061233862364153943 0.35974271009622949 0 0.043850863660092297 0.35861439145339369 0 0.0744651507150937 0.33535521121872491 0 0.061233862364153943 0.35974271009622949 0 0.051182321745953309 0.34377049042666041 0 0.061233862364153943 0.35974271009622949 0 0.051182321745953309 0.34377049042666041 0 0.043850863660092297 0.35861439145339369 0 0.043850863660092297 0.35861439145339369 0 0.025184851263051158 0.35221938161672961 0 0.035115613037759133 0.33855469731466481 0 0.051182321745953309 0.34377049042666041 0 0.043850863660092297 0.35861439145339369 0 0.035115613037759133 0.33855469731466481 0 0.04800257401321277 0.38413020897373362 0 0.043850863660092297 0.35861439145339369 0 0.032498838744847207 0.36987679712069449 0 0.043850863660092297 0.35861439145339369 0 0.032498838744847207 0.36987679712069449 0 0.025184851263051158 0.35221938161672961 0 0.032498838744847207 0.36987679712069449 0 0.025184851263051158 0.35221938161672961 0 0.032498838744847207 0.36987679712069449 0 0.025184851263051158 0.35221938161672961 0 0.0180127426592245 0.35655895531824899 0 0.032498838744847207 0.36987679712069449 0 0.01796441292455413 0.37213832508766859 0 0.0180127426592245 0.35655895531824899 0 0.032498838744847207 0.36987679712069449 0 0.0180127426592245 0.35655895531824899 0 0.025184851263051158 0.35221938161672961 0 0.016263427337622129 0.34557128611005572 0 0.017870863781255832 0.33456196611276429 0 0.025184851263051158 0.35221938161672961 0 0.016263427337622129 0.34557128611005572 0 0.0180127426592245 0.35655895531824899 0 0.0180127426592245 0.35655895531824899 0 0.0038867047330880238 0.35524624533010579 0 0.007254115786227873 0.36571902611812762 0 0.0180127426592245 0.35655895531824899 0 0.0038867047330880238 0.35524624533010579 0 0.00352664657360207 0.34324111351580311 0 0.0180127426592245 0.35655895531824899 0 0.00352664657360207 0.34324111351580311 0 0.016263427337622129 0.34557128611005572 0 0.0180127426592245 0.35655895531824899 0 0.00352664657360207 0.34324111351580311 0 -0.0067863524078850606 0.34948112208733911 0 0.0038867047330880238 0.35524624533010579 0 0.00352664657360207 0.34324111351580311 0 -0.0022610491863152291 0.37261641259158551 0 -0.0025736289457283651 0.36123100961101179 0 0.007254115786227873 0.36571902611812762 0 -0.0025736289457283651 0.36123100961101179 0 0.0038867047330880238 0.35524624533010579 0 0.007254115786227873 0.36571902611812762 0 -0.0022610491863152291 0.37261641259158551 0 0.0079972642859068212 0.3767752310385345 0 0.007254115786227873 0.36571902611812762 0 0.0079972642859068212 0.3767752310385345 0 0.01796441292455413 0.37213832508766859 0 0.007254115786227873 0.36571902611812762 0 0.01796441292455413 0.37213832508766859 0 0.0180127426592245 0.35655895531824899 0 0.007254115786227873 0.36571902611812762 0 0.017870863781255832 0.33456196611276429 0 0.0086143971113345399 0.31221502082522212 0 0.00091402235172630131 0.33084807145628131 0 0.017870863781255832 0.33456196611276429 0 0.0086143971113345399 0.31221502082522212 0 0.00091402235172630131 0.33084807145628131 0 0.0086143971113345399 0.31221502082522212 0 0.00091402235172630131 0.33084807145628131 0 0.00352664657360207 0.34324111351580311 0 0.017870863781255832 0.33456196611276429 0 0.00352664657360207 0.34324111351580311 0 0.017870863781255832 0.33456196611276429 0 0.016263427337622129 0.34557128611005572 0 0.00352664657360207 0.34324111351580311 0 0.017870863781255832 0.33456196611276429 0 0.025184851263051158 0.35221938161672961 0 0.017870863781255832 0.33456196611276429 0 0.035115613037759133 0.33855469731466481 0 0.017870863781255832 0.33456196611276429 0 0.038592263923252351 0.32202422469221692 0 0.035115613037759133 0.33855469731466481 0 0.017870863781255832 0.33456196611276429 0 0.038592263923252351 0.32202422469221692 0 0.025184851263051158 0.35221938161672961 0 0.017870863781255832 0.33456196611276429 0 0.022980227842280349 0.319614097240636 0 0.038592263923252351 0.32202422469221692 0 0.02866362898786309 0.30487492031840541 0 0.017870863781255832 0.33456196611276429 0 0.022980227842280349 0.319614097240636 0 0.038592263923252351 0.32202422469221692 0 0.017870863781255832 0.33456196611276429 0 0.022980227842280349 0.319614097240636 0 0.0086143971113345399 0.31221502082522212 0 0.038592263923252351 0.32202422469221692 0 0.02866362898786309 0.30487492031840541 0 0.051182321745953309 0.34377049042666041 0 0.038592263923252351 0.32202422469221692 0 0.035115613037759133 0.33855469731466481 0 0.051182321745953309 0.34377049042666041 0 0.038592263923252351 0.32202422469221692 0 0.051182321745953309 0.34377049042666041 0 0.038592263923252351 0.32202422469221692 0 0.059434355578294393 0.32579716193140301 0 0.0744651507150937 0.33535521121872491 0 0.051182321745953309 0.34377049042666041 0 0.059434355578294393 0.32579716193140301 0 0.038592263923252351 0.32202422469221692 0 0.059434355578294393 0.32579716193140301 0 0.063799644099750391 0.30677218514003252 0 0.038592263923252351 0.32202422469221692 0 0.063799644099750391 0.30677218514003252 0 0.05613541062484069 0.2862324214712883 0 0.04483801592569444 0.30071651047264458 0 0.063799644099750391 0.30677218514003252 0 0.038592263923252351 0.32202422469221692 0 0.04483801592569444 0.30071651047264458 0 0.063799644099750391 0.30677218514003252 0 0.05613541062484069 0.2862324214712883 0 0.06730297635764973 0.29130671779500122 0 0.063799644099750391 0.30677218514003252 0 0.05613541062484069 0.2862324214712883 0 0.063799644099750391 0.30677218514003252 0 0.036999131992765659 0.28367880074127999 0 0.04483801592569444 0.30071651047264458 0 0.02866362898786309 0.30487492031840541 0 0.05613541062484069 0.2862324214712883 0 0.036999131992765659 0.28367880074127999 0 0.04483801592569444 0.30071651047264458 0 0.038592263923252351 0.32202422469221692 0 0.04483801592569444 0.30071651047264458 0 0.02866362898786309 0.30487492031840541 0 0.022980227842280349 0.319614097240636 0 0.02866362898786309 0.30487492031840541 0 0.0086143971113345399 0.31221502082522212 0 0.02866362898786309 0.30487492031840541 0 0.018734994052468899 0.28772561594459672 0 0.0086143971113345399 0.31221502082522212 0 0.02866362898786309 0.30487492031840541 0 0.018734994052468899 0.28772561594459672 0 0.036999131992765659 0.28367880074127999 0 0.018734994052468899 0.28772561594459672 0 0.024872730113757291 0.27287377426671289 0 0.036999131992765659 0.28367880074127999 0 0.02866362898786309 0.30487492031840541 0 0.018734994052468899 0.28772561594459672 0 0.018734994052468899 0.28772561594459672 0 0.0082839095925191421 0.28704540641996401 0 0.0086143971113345399 0.31221502082522212 0 -0.002156139922442863 0.28621280957184281 0 0.0082839095925191421 0.28704540641996401 0 0.0086143971113345399 0.31221502082522212 0 0.018734994052468899 0.28772561594459672 0 0.0082839095925191421 0.28704540641996401 0 0.0097340122638434421 0.27217860697903701 0 -0.002156139922442863 0.28621280957184281 0 0.0082839095925191421 0.28704540641996401 0 0.0031113325240992242 0.27793868923660842 0 0.018734994052468899 0.28772561594459672 0 0.0086143971113345399 0.31221502082522212 0 -0.002156139922442863 0.28621280957184281 0 0.0086143971113345399 0.31221502082522212 0 -0.00011193775520391721 0.25517212070728618 0 0.012014597693893601 0.25908525535204852 0 0.0097340122638434421 0.27217860697903701 0 -0.00011193775520391721 0.25517212070728618 0 0.0011902785683393809 0.26692144956961572 0 0.0097340122638434421 0.27217860697903701 0 -0.00011193775520391721 0.25517212070728618 0 0.0097340122638434421 0.27217860697903701 0 -0.00011193775520391721 0.25517212070728618 0 0.013952484265132001 0.24694206511524761 0 0.012014597693893601 0.25908525535204852 0 0.0011902785683393809 0.26692144956961572 0 0.0031113325240992242 0.27793868923660842 0 0.0097340122638434421 0.27217860697903701 0 -0.003274538635535746 0.26908299884594111 0 0.0011902785683393809 0.26692144956961572 0 0.0031113325240992242 0.27793868923660842 0 0.0082839095925191421 0.28704540641996401 0 0.0031113325240992242 0.27793868923660842 0 0.0097340122638434421 0.27217860697903701 0 0.0031113325240992242 0.27793868923660842 0 0.0097340122638434421 0.27217860697903701 0 0.018734994052468899 0.28772561594459672 0 0.0097340122638434421 0.27217860697903701 0 0.0097340122638434421 0.27217860697903701 0 0.024872730113757291 0.27287377426671289 0 0.025270477969434019 0.25866575055641922 0 0.018734994052468899 0.28772561594459672 0 0.0097340122638434421 0.27217860697903701 0 0.024872730113757291 0.27287377426671289 0 0.018734994052468899 0.28772561594459672 0 0.024872730113757291 0.27287377426671289 0 0.024872730113757291 0.27287377426671289 0 0.025270477969434019 0.25866575055641922 0 0.03554415797816747 0.26575576479619101 0 0.0097340122638434421 0.27217860697903701 0 0.025270477969434019 0.25866575055641922 0 0.012014597693893601 0.25908525535204852 0 0.0097340122638434421 0.27217860697903701 0 0.025270477969434019 0.25866575055641922 0 0.013952484265132001 0.24694206511524761 0 0.012014597693893601 0.25908525535204852 0 0.025270477969434019 0.25866575055641922 0 0.040806943675022668 0.2451528941337994 0 0.025270477969434019 0.25866575055641922 0 0.040806943675022668 0.2451528941337994 0 0.04847117714993119 0.26569265780254397 0 0.040806943675022668 0.2451528941337994 0 0.03554415797816747 0.26575576479619101 0 0.04847117714993119 0.26569265780254397 0 0.040806943675022668 0.2451528941337994 0 0.025270477969434019 0.25866575055641922 0 0.03554415797816747 0.26575576479619101 0 0.036999131992765659 0.28367880074127999 0 0.03554415797816747 0.26575576479619101 0 0.04847117714993119 0.26569265780254397 0 0.036999131992765659 0.28367880074127999 0 0.024872730113757291 0.27287377426671289 0 0.03554415797816747 0.26575576479619101 0 0.05613541062484069 0.2862324214712883 0 0.036999131992765659 0.28367880074127999 0 0.04847117714993119 0.26569265780254397 0 0.05613541062484069 0.2862324214712883 0 0.04847117714993119 0.26569265780254397 0 0.05613541062484069 0.2862324214712883 0 0.04847117714993119 0.26569265780254397 0 0.059807976988982423 0.2701524220334004 0 0.040806943675022668 0.2451528941337994 0 0.04847117714993119 0.26569265780254397 0 0.057971352645957361 0.25638246478144561 0 0.04847117714993119 0.26569265780254397 0 0.059807976988982423 0.2701524220334004 0 0.057971352645957361 0.25638246478144561 0 0.072094824325247012 0.24298574325024011 0 0.07055512108881401 0.25663230586822711 0 0.080502269182564701 0.26054306283585799 0 0.072094824325247012 0.24298574325024011 0 0.057971352645957361 0.25638246478144561 0 0.07055512108881401 0.25663230586822711 0 0.057971352645957361 0.25638246478144561 0 0.07055512108881401 0.25663230586822711 0 0.07413425448563872 0.27356099994661592 0 0.057971352645957361 0.25638246478144561 0 0.07413425448563872 0.27356099994661592 0 0.07055512108881401 0.25663230586822711 0 0.080502269182564701 0.26054306283585799 0 0.07413425448563872 0.27356099994661592 0 0.10545751563756051 0.2452700731161146 0 0.080502269182564701 0.26054306283585799 0 0.10545751563756051 0.2452700731161146 0 0.080502269182564701 0.26054306283585799 0 0.094681962602013586 0.26409526653738818 0 0.080502269182564701 0.26054306283585799 0 0.083301471710416894 0.26963323564358133 0 0.094681962602013586 0.26409526653738818 0 0.086884887683759612 0.27751909053826418 0 0.07413425448563872 0.27356099994661592 0 0.090297156325320649 0.29073953511178552 0 0.086884887683759612 0.27751909053826418 0 0.092275535052204483 0.27339339048718431 0 0.083301471710416894 0.26963323564358133 0 0.086884887683759612 0.27751909053826418 0 0.092275535052204483 0.27339339048718431 0 0.095258613078755106 0.2803348478174274 0 0.092275535052204483 0.27339339048718431 0 0.083301471710416894 0.26963323564358133 0 0.094681962602013586 0.26409526653738818 0 0.080502269182564701 0.26054306283585799 0 0.083301471710416894 0.26963323564358133 0 0.07413425448563872 0.27356099994661592 0 0.086884887683759612 0.27751909053826418 0 0.083301471710416894 0.26963323564358133 0 0.07413425448563872 0.27356099994661592 0 0.05613541062484069 0.2862324214712883 0 0.059807976988982423 0.2701524220334004 0 0.07413425448563872 0.27356099994661592 0 0.059807976988982423 0.2701524220334004 0 0.057971352645957361 0.25638246478144561 0 0.07413425448563872 0.27356099994661592 0 0.07413425448563872 0.27356099994661592 0 0.06730297635764973 0.29130671779500122 0 0.077195696845285738 0.28859077824482759 0 0.05613541062484069 0.2862324214712883 0 0.07413425448563872 0.27356099994661592 0 0.06730297635764973 0.29130671779500122 0 0.06730297635764973 0.29130671779500122 0 0.077195696845285738 0.28859077824482759 0 0.077048400212534507 0.29875586012590732 0 0.069132397407420665 0.32106369817937919 0 0.063799644099750391 0.30677218514003252 0 0.075424394526301397 0.30956036994577307 0 0.06730297635764973 0.29130671779500122 0 0.063799644099750391 0.30677218514003252 0 0.077048400212534507 0.29875586012590732 0 0.063799644099750391 0.30677218514003252 0 0.077048400212534507 0.29875586012590732 0 0.063799644099750391 0.30677218514003252 0 0.077048400212534507 0.29875586012590732 0 0.075424394526301397 0.30956036994577307 0 0.08503679413434137 0.31586988710046682 0 0.095608437553587111 0.29638456298220772 0 0.099313247500886742 0.31376116351994021 0 0.08503679413434137 0.31586988710046682 0 0.095608437553587111 0.29638456298220772 0 0.08503679413434137 0.31586988710046682 0 0.084579904559498612 0.30238517009842231 0 0.095608437553587111 0.29638456298220772 0 0.08503679413434137 0.31586988710046682 0 0.075424394526301397 0.30956036994577307 0 0.084579904559498612 0.30238517009842231 0 0.077048400212534507 0.29875586012590732 0 0.084579904559498612 0.30238517009842231 0 0.090297156325320649 0.29073953511178552 0 0.077048400212534507 0.29875586012590732 0 0.075424394526301397 0.30956036994577307 0 0.084579904559498612 0.30238517009842231 0 0.07413425448563872 0.27356099994661592 0 0.077195696845285738 0.28859077824482759 0 0.090297156325320649 0.29073953511178552 0 0.07413425448563872 0.27356099994661592 0 0.090297156325320649 0.29073953511178552 0 0.077195696845285738 0.28859077824482759 0 0.077048400212534507 0.29875586012590732 0 0.090297156325320649 0.29073953511178552 0 0.077048400212534507 0.29875586012590732 0 0.090297156325320649 0.29073953511178552 0 0.084579904559498612 0.30238517009842231 0 0.090297156325320649 0.29073953511178552 0 0.095608437553587111 0.29638456298220772 0 0.090297156325320649 0.29073953511178552 0 0.095608437553587111 0.29638456298220772 0 0.086884887683759612 0.27751909053826418 0 0.090297156325320649 0.29073953511178552 0 0.095258613078755106 0.2803348478174274 0 0.090297156325320649 0.29073953511178552 0 0.10426408678202261 0.28228866975978212 0 0.095258613078755106 0.2803348478174274 0 0.090297156325320649 0.29073953511178552 0 0.10123849351844159 0.28600741905779231 0 0.10426408678202261 0.28228866975978212 0 0.090297156325320649 0.29073953511178552 0 0.10426408678202261 0.28228866975978212 0 0.10123849351844159 0.28600741905779231 0 0.095608437553587111 0.29638456298220772 0 0.090297156325320649 0.29073953511178552 0 0.10123849351844159 0.28600741905779231 0 0.095608437553587111 0.29638456298220772 0 0.10123849351844159 0.28600741905779231 0 0.095608437553587111 0.29638456298220772 0 0.1048510527441073 0.29181685163230281 0 0.095608437553587111 0.29638456298220772 0 0.1048510527441073 0.29181685163230281 0 0.11090319642742121 0.29965402709623179 0 0.1048510527441073 0.29181685163230281 0 0.11090319642742121 0.29965402709623179 0 0.1111975709322898 0.29099508384681438 0 0.1048510527441073 0.29181685163230281 0 0.1065410753755414 0.28695908693913041 0 0.1111975709322898 0.29099508384681438 0 0.1065410753755414 0.28695908693913041 0 0.10426408678202261 0.28228866975978212 0 0.1111541729008457 0.28368741039896012 0 0.10123849351844159 0.28600741905779231 0 0.1065410753755414 0.28695908693913041 0 0.10426408678202261 0.28228866975978212 0 0.10123849351844159 0.28600741905779231 0 0.1048510527441073 0.29181685163230281 0 0.1065410753755414 0.28695908693913041 0 0.11414460126541311 0.31608548941914238 0 0.095608437553587111 0.29638456298220772 0 0.11090319642742121 0.29965402709623179 0 0.11414460126541311 0.31608548941914238 0 0.099313247500886742 0.31376116351994021 0 0.095608437553587111 0.29638456298220772 0 0.11414460126541311 0.31608548941914238 0 0.095608437553587111 0.29638456298220772 0 0.11414460126541311 0.31608548941914238 0 0.11090319642742121 0.29965402709623179 0 0.1210940480051229 0.30579383670915999 0 0.11414460126541311 0.31608548941914238 0 0.1210940480051229 0.30579383670915999 0 0.1321706120052151 0.31404044484211607 0 0.11090319642742121 0.29965402709623179 0 0.1210940480051229 0.30579383670915999 0 0.1190597037317566 0.29540502060785512 0 0.1210940480051229 0.30579383670915999 0 0.1190597037317566 0.29540502060785512 0 0.1302645979313071 0.30089756682063712 0 0.1111541729008457 0.28368741039896012 0 0.1176616956721364 0.28752489705226381 0 0.11819631683411801 0.27936412308828662 0 0.1111541729008457 0.28368741039896012 0 0.1111975709322898 0.29099508384681438 0 0.1176616956721364 0.28752489705226381 0 0.1065410753755414 0.28695908693913041 0 0.1111541729008457 0.28368741039896012 0 0.1111975709322898 0.29099508384681438 0 0.11090319642742121 0.29965402709623179 0 0.1111975709322898 0.29099508384681438 0 0.1190597037317566 0.29540502060785512 0 0.1111975709322898 0.29099508384681438 0 0.1190597037317566 0.29540502060785512 0 0.1176616956721364 0.28752489705226381 0 0.1190597037317566 0.29540502060785512 0 0.1176616956721364 0.28752489705226381 0 0.12588048394205831 0.28716004849339077 0 0.1176616956721364 0.28752489705226381 0 0.11819631683411801 0.27936412308828662 0 0.12588048394205831 0.28716004849339077 0 0.11819631683411801 0.27936412308828662 0 0.12778380402316081 0.27437256958898981 0 0.12588048394205831 0.28716004849339077 0 0.1111541729008457 0.28368741039896012 0 0.11819631683411801 0.27936412308828662 0 0.10911533789695629 0.27485200072376509 0 0.11819631683411801 0.27936412308828662 0 0.12072715279974409 0.26590334666468191 0 0.10911533789695629 0.27485200072376509 0 0.12072715279974409 0.26590334666468191 0 0.1069910892756698 0.26327797680191728 0 0.10911533789695629 0.27485200072376509 0 0.11819631683411801 0.27936412308828662 0 0.12072715279974409 0.26590334666468191 0 0.12778380402316081 0.27437256958898981 0 0.10545751563756051 0.2452700731161146 0 0.1160549920306749 0.25618582435885612 0 0.1069910892756698 0.26327797680191728 0 0.10545751563756051 0.2452700731161146 0 0.1160549920306749 0.25618582435885612 0 0.13104421040972539 0.25029190085271041 0 0.12072715279974409 0.26590334666468191 0 0.1160549920306749 0.25618582435885612 0 0.13104421040972539 0.25029190085271041 0 0.12072715279974409 0.26590334666468191 0 0.1160549920306749 0.25618582435885612 0 0.1069910892756698 0.26327797680191728 0 0.10545751563756051 0.2452700731161146 0 0.1069910892756698 0.26327797680191728 0 0.094681962602013586 0.26409526653738818 0 0.1069910892756698 0.26327797680191728 0 0.094681962602013586 0.26409526653738818 0 0.1004064869872023 0.27252041665494742 0 0.092275535052204483 0.27339339048718431 0 0.094681962602013586 0.26409526653738818 0 0.1004064869872023 0.27252041665494742 0 0.10426408678202261 0.28228866975978212 0 0.1004064869872023 0.27252041665494742 0 0.095258613078755106 0.2803348478174274 0 0.092275535052204483 0.27339339048718431 0 0.1004064869872023 0.27252041665494742 0 0.095258613078755106 0.2803348478174274 0 0.10426408678202261 0.28228866975978212 0 0.1111541729008457 0.28368741039896012 0 0.10911533789695629 0.27485200072376509 0 0.10426408678202261 0.28228866975978212 0 0.1004064869872023 0.27252041665494742 0 0.10911533789695629 0.27485200072376509 0 0.1069910892756698 0.26327797680191728 0 0.1004064869872023 0.27252041665494742 0 0.10911533789695629 0.27485200072376509 0 0.1431962725516141 0.27589639743647992 0 0.1485957997311865 0.26118077987326987 0 0.15892298346897701 0.2741976670357445 0 0.1431962725516141 0.27589639743647992 0 0.1566419310728914 0.28518151245389861 0 0.15892298346897701 0.2741976670357445 0 0.1431962725516141 0.27589639743647992 0 0.1485957997311865 0.26118077987326987 0 0.1346207411442692 0.26488572446027758 0 0.15071771210549029 0.24461282216283159 0 0.1485957997311865 0.26118077987326987 0 0.1612294229183229 0.25215473193171262 0 0.15071771210549029 0.24461282216283159 0 0.1485957997311865 0.26118077987326987 0 0.13104421040972539 0.25029190085271041 0 0.1485957997311865 0.26118077987326987 0 0.1346207411442692 0.26488572446027758 0 0.13104421040972539 0.25029190085271041 0 0.12072715279974409 0.26590334666468191 0 0.1346207411442692 0.26488572446027758 0 0.13104421040972539 0.25029190085271041 0 0.12072715279974409 0.26590334666468191 0 0.1346207411442692 0.26488572446027758 0 0.12778380402316081 0.27437256958898981 0 0.1431962725516141 0.27589639743647992 0 0.1346207411442692 0.26488572446027758 0 0.12778380402316081 0.27437256958898981 0 0.1431962725516141 0.27589639743647992 0 0.12778380402316081 0.27437256958898981 0 0.1343547155295555 0.28201854753760802 0 0.12778380402316081 0.27437256958898981 0 0.12588048394205831 0.28716004849339077 0 0.1343547155295555 0.28201854753760802 0 0.1431962725516141 0.27589639743647992 0 0.1406046967664886 0.29171448804856248 0 0.1343547155295555 0.28201854753760802 0 0.1190597037317566 0.29540502060785512 0 0.12588048394205831 0.28716004849339077 0 0.1302645979313071 0.30089756682063712 0 0.12588048394205831 0.28716004849339077 0 0.1406046967664886 0.29171448804856248 0 0.1302645979313071 0.30089756682063712 0 0.12588048394205831 0.28716004849339077 0 0.1406046967664886 0.29171448804856248 0 0.1343547155295555 0.28201854753760802 0 0.1406046967664886 0.29171448804856248 0 0.1302645979313071 0.30089756682063712 0 0.1432203842930255 0.30889376213021352 0 0.1210940480051229 0.30579383670915999 0 0.1302645979313071 0.30089756682063712 0 0.1321706120052151 0.31404044484211607 0 0.1302645979313071 0.30089756682063712 0 0.1432203842930255 0.30889376213021352 0 0.1321706120052151 0.31404044484211607 0 0.1406046967664886 0.29171448804856248 0 0.1432203842930255 0.30889376213021352 0 0.15621369265645291 0.30064743119871501 0 0.1432203842930255 0.30889376213021352 0 0.15621369265645291 0.30064743119871501 0 0.1538965106352306 0.31567953555468231 0 0.1406046967664886 0.29171448804856248 0 0.15621369265645291 0.30064743119871501 0 0.1566419310728914 0.28518151245389861 0 0.1431962725516141 0.27589639743647992 0 0.1406046967664886 0.29171448804856248 0 0.1566419310728914 0.28518151245389861 0 0.15621369265645291 0.30064743119871501 0 0.1566419310728914 0.28518151245389861 0 0.171994080905681 0.29446369215904589 0 0.1566419310728914 0.28518151245389861 0 0.171994080905681 0.29446369215904589 0 0.1713266361235877 0.28078381451879642 0 0.15621369265645291 0.30064743119871501 0 0.17031192932677949 0.30750312645375433 0 0.171994080905681 0.29446369215904589 0 0.15621369265645291 0.30064743119871501 0 0.17031192932677949 0.30750312645375433 0 0.1538965106352306 0.31567953555468231 0 0.17031192932677949 0.30750312645375433 0 0.171994080905681 0.29446369215904589 0 0.1908053331268614 0.30726266579130201 0 0.171994080905681 0.29446369215904589 0 0.18367708738974481 0.28820303350379328 0 0.1908053331268614 0.30726266579130201 0 0.18367708738974481 0.28820303350379328 0 0.18293748198990589 0.27762640490574142 0 0.1713266361235877 0.28078381451879642 0 0.171994080905681 0.29446369215904589 0 0.18367708738974481 0.28820303350379328 0 0.1713266361235877 0.28078381451879642 0 0.18367708738974481 0.28820303350379328 0 0.18293748198990589 0.27762640490574142 0 0.19093085486711961 0.28326960003169199 0 0.18293748198990589 0.27762640490574142 0 0.17481425108543641 0.26755930545998091 0 0.20103270243968629 0.27393783104669178 0 0.18293748198990589 0.27762640490574142 0 0.17481425108543641 0.26755930545998091 0 0.1713266361235877 0.28078381451879642 0 0.17481425108543641 0.26755930545998091 0 0.1713266361235877 0.28078381451879642 0 0.15892298346897701 0.2741976670357445 0 0.1485957997311865 0.26118077987326987 0 0.17481425108543641 0.26755930545998091 0 0.15892298346897701 0.2741976670357445 0 0.1566419310728914 0.28518151245389861 0 0.1713266361235877 0.28078381451879642 0 0.15892298346897701 0.2741976670357445 0 0.1485957997311865 0.26118077987326987 0 0.17481425108543641 0.26755930545998091 0 0.16806458839946559 0.26483555366159389 0 0.17346433219837201 0.2490561251177594 0 0.1612294229183229 0.25215473193171262 0 0.16806458839946559 0.26483555366159389 0 0.1485957997311865 0.26118077987326987 0 0.1612294229183229 0.25215473193171262 0 0.16806458839946559 0.26483555366159389 0 0.1485957997311865 0.26118077987326987 0 0.17481425108543641 0.26755930545998091 0 0.17346433219837201 0.2490561251177594 0 0.16806458839946559 0.26483555366159389 0 0.17346433219837201 0.2490561251177594 0 0.16806458839946559 0.26483555366159389 0 0.174965653596965 0.25926398527842109 0 0.17346433219837201 0.2490561251177594 0 0.174965653596965 0.25926398527842109 0 0.18351944270458609 0.25560495687435042 0 0.17481425108543641 0.26755930545998091 0 0.18351944270458609 0.25560495687435042 0 0.19330128812519001 0.26205714023550891 0 0.17481425108543641 0.26755930545998091 0 0.174965653596965 0.25926398527842109 0 0.18351944270458609 0.25560495687435042 0 0.17481425108543641 0.26755930545998091 0 0.16806458839946559 0.26483555366159389 0 0.174965653596965 0.25926398527842109 0 0.19567631166618171 0.24868361965321409 0 0.19330128812519001 0.26205714023550891 0 0.21146373273005931 0.26449998814330772 0 0.19567631166618171 0.24868361965321409 0 0.18351944270458609 0.25560495687435042 0 0.19330128812519001 0.26205714023550891 0 0.17481425108543641 0.26755930545998091 0 0.19330128812519001 0.26205714023550891 0 0.20103270243968629 0.27393783104669178 0 0.17481425108543641 0.26755930545998091 0 0.20103270243968629 0.27393783104669178 0 0.19330128812519001 0.26205714023550891 0 0.20103270243968629 0.27393783104669178 0 0.21146373273005931 0.26449998814330772 0 0.18293748198990589 0.27762640490574142 0 0.20103270243968629 0.27393783104669178 0 0.19093085486711961 0.28326960003169199 0 0.20103270243968629 0.27393783104669178 0 0.2272511537939364 0.28031635663340182 0 0.20103270243968629 0.27393783104669178 0 0.2272511537939364 0.28031635663340182 0 0.21619755331927451 0.28646167621434188 0 0.20103270243968629 0.27393783104669178 0 0.21146373273005931 0.26449998814330772 0 0.2272511537939364 0.28031635663340182 0 0.19567631166618171 0.24868361965321409 0 0.21146373273005931 0.26449998814330772 0 0.19567631166618171 0.24868361965321409 0 0.21146373273005931 0.26449998814330772 0 0.21119012336489751 0.25003357208248039 0 0.21146373273005931 0.26449998814330772 0 0.21119012336489751 0.25003357208248039 0 0.22219887874936009 0.25618338730180168 0 0.23181179839812269 0.24939482838876889 0 0.22219887874936009 0.25618338730180168 0 0.23470490458720211 0.26560127542334999 0 0.22219887874936009 0.25618338730180168 0 0.22530514365118781 0.26812630649660701 0 0.23470490458720211 0.26560127542334999 0 0.21146373273005931 0.26449998814330772 0 0.22219887874936009 0.25618338730180168 0 0.22530514365118781 0.26812630649660701 0 0.21146373273005931 0.26449998814330772 0 0.22530514365118781 0.26812630649660701 0 0.2272511537939364 0.28031635663340182 0 0.21146373273005931 0.26449998814330772 0 0.2272511537939364 0.28031635663340182 0 0.22530514365118781 0.26812630649660701 0 0.2272511537939364 0.28031635663340182 0 0.2315481429484311 0.2737830724170201 0 0.2272511537939364 0.28031635663340182 0 0.2315481429484311 0.2737830724170201 0 0.2321709283831371 0.28151325829910617 0 0.2272511537939364 0.28031635663340182 0 0.2321709283831371 0.28151325829910617 0 0.2315481429484311 0.2737830724170201 0 0.23758987453413749 0.27569957009790103 0 0.2321709283831371 0.28151325829910617 0 0.22530514365118781 0.26812630649660701 0 0.2315481429484311 0.2737830724170201 0 0.23470490458720211 0.26560127542334999 0 0.2315481429484311 0.2737830724170201 0 0.23758987453413749 0.27569957009790103 0 0.23470490458720211 0.26560127542334999 0 0.23758987453413749 0.27569957009790103 0 0.2455931460095116 0.27451234785533479 0 0.23470490458720211 0.26560127542334999 0 0.2455931460095116 0.27451234785533479 0 0.23470490458720211 0.26560127542334999 0 0.25182038173936289 0.25864808758374469 0 0.23758987453413749 0.27569957009790103 0 0.24393225074240549 0.28308789649469418 0 0.2321709283831371 0.28151325829910617 0 0.23758987453413749 0.27569957009790103 0 0.2455931460095116 0.27451234785533479 0 0.24393225074240549 0.28308789649469418 0 0.2455931460095116 0.27451234785533479 0 0.24393225074240549 0.28308789649469418 0 0.25774423003420349 0.2835411811175198 0 0.23181179839812269 0.24939482838876889 0 0.23470490458720211 0.26560127542334999 0 0.25182038173936289 0.25864808758374469 0 0.24582725503917749 0.29892651856011748 0 0.23007804193002621 0.3173585302149452 0 0.25245296772897541 0.31468716816282799 0 0.2272511537939364 0.28031635663340182 0 0.24582725503917749 0.29892651856011748 0 0.24582725503917749 0.29892651856011748 0 0.24393225074240549 0.28308789649469418 0 0.25774423003420349 0.2835411811175198 0 0.2272511537939364 0.28031635663340182 0 0.24582725503917749 0.29892651856011748 0 0.2321709283831371 0.28151325829910617 0 0.24582725503917749 0.29892651856011748 0 0.24393225074240549 0.28308789649469418 0 0.2321709283831371 0.28151325829910617 0 0.2272511537939364 0.28031635663340182 0 0.24582725503917749 0.29892651856011748 0 0.22704506231795579 0.29909820333124482 0 0.2272511537939364 0.28031635663340182 0 0.22704506231795579 0.29909820333124482 0 0.21619755331927451 0.28646167621434188 0 0.24582725503917749 0.29892651856011748 0 0.22704506231795579 0.29909820333124482 0 0.23007804193002621 0.3173585302149452 0 0.22704506231795579 0.29909820333124482 0 0.2074592734756612 0.31895572959350399 0 0.23007804193002621 0.3173585302149452 0 0.22704506231795579 0.29909820333124482 0 0.20946129472551969 0.29249431384602942 0 0.2074592734756612 0.31895572959350399 0 0.20946129472551969 0.29249431384602942 0 0.2074592734756612 0.31895572959350399 0 0.22704506231795579 0.29909820333124482 0 0.20946129472551969 0.29249431384602942 0 0.21619755331927451 0.28646167621434188 0 0.20103270243968629 0.27393783104669178 0 0.20946129472551969 0.29249431384602942 0 0.21619755331927451 0.28646167621434188 0 0.20103270243968629 0.27393783104669178 0 0.19584325168408651 0.29219762540538152 0 0.19093085486711961 0.28326960003169199 0 0.20103270243968629 0.27393783104669178 0 0.20946129472551969 0.29249431384602942 0 0.19584325168408651 0.29219762540538152 0 0.18367708738974481 0.28820303350379328 0 0.19584325168408651 0.29219762540538152 0 0.1908053331268614 0.30726266579130201 0 0.18367708738974481 0.28820303350379328 0 0.19584325168408651 0.29219762540538152 0 0.19093085486711961 0.28326960003169199 0 0.20946129472551969 0.29249431384602942 0 0.1908053331268614 0.30726266579130201 0 0.2074592734756612 0.31895572959350399 0 0.20946129472551969 0.29249431384602942 0 0.19584325168408651 0.29219762540538152 0 0.1908053331268614 0.30726266579130201 0 0.1908053331268614 0.30726266579130201 0 0.2074592734756612 0.31895572959350399 0 0.1852938161397964 0.32473507817040942 0 0.2074592734756612 0.31895572959350399 0 0.20545725222580269 0.34541714534097862 0 0.1852938161397964 0.32473507817040942 0 0.20545725222580269 0.34541714534097862 0 0.1866508797863104 0.3430058305387057 0 0.1852938161397964 0.32473507817040942 0 0.2074592734756612 0.31895572959350399 0 0.22582233288054629 0.33931531487169247 0 0.20545725222580269 0.34541714534097862 0 0.2074592734756612 0.31895572959350399 0 0.20545725222580269 0.34541714534097862 0 0.2074592734756612 0.31895572959350399 0 0.23007804193002621 0.3173585302149452 0 0.22582233288054629 0.33931531487169247 0 0.23007804193002621 0.3173585302149452 0 0.22582233288054629 0.33931531487169247 0 0.2425230565035123 0.32904592114860032 0 0.2425230565035123 0.32904592114860032 0 0.2433754256795507 0.34410848734255323 0 0.25990355827748302 0.33285036939989648 0 0.22582233288054629 0.33931531487169247 0 0.2425230565035123 0.32904592114860032 0 0.2433754256795507 0.34410848734255323 0 0.23007804193002621 0.3173585302149452 0 0.2425230565035123 0.32904592114860032 0 0.25245296772897541 0.31468716816282799 0 0.23731827409842349 0.36028116931913579 0 0.25683323939467417 0.35321666106040112 0 0.2521892630791473 0.37140998668179731 0 0.23731827409842349 0.36028116931913579 0 0.22715334715129601 0.37970698952223869 0 0.2521892630791473 0.37140998668179731 0 0.22582233288054629 0.33931531487169247 0 0.23731827409842349 0.36028116931913579 0 0.2433754256795507 0.34410848734255323 0 0.23731827409842349 0.36028116931913579 0 0.2433754256795507 0.34410848734255323 0 0.25683323939467417 0.35321666106040112 0 0.23731827409842349 0.36028116931913579 0 0.25683323939467417 0.35321666106040112 0 0.22582233288054629 0.33931531487169247 0 0.23731827409842349 0.36028116931913579 0 0.2192955099850519 0.35894400697454221 0 0.23731827409842349 0.36028116931913579 0 0.2192955099850519 0.35894400697454221 0 0.22715334715129601 0.37970698952223869 0 0.2192955099850519 0.35894400697454221 0 0.20345523097594431 0.37187856108845319 0 0.22715334715129601 0.37970698952223869 0 0.20345523097594431 0.37187856108845319 0 0.20545725222580269 0.34541714534097862 0 0.22582233288054629 0.33931531487169247 0 0.2192955099850519 0.35894400697454221 0 0.20545725222580269 0.34541714534097862 0 0.2192955099850519 0.35894400697454221 0 0.20345523097594431 0.37187856108845319 0 0.20545725222580269 0.34541714534097862 0 0.20545725222580269 0.34541714534097862 0 0.18609955508064799 0.36674179809991497 0 0.1866508797863104 0.3430058305387057 0 0.20345523097594431 0.37187856108845319 0 0.20545725222580269 0.34541714534097862 0 0.18609955508064799 0.36674179809991497 0 0.18609955508064799 0.36674179809991497 0 0.16975997021235861 0.36033785470583363 0 0.1705990333306189 0.37608736631484291 0 0.18609955508064799 0.36674179809991497 0 0.16975997021235861 0.36033785470583363 0 0.17561643316102499 0.3528168884900944 0 0.16975997021235861 0.36033785470583363 0 0.15121692868906619 0.35548734229301049 0 0.1705990333306189 0.37608736631484291 0 0.15767663496248779 0.36954437956281072 0 0.15121692868906619 0.35548734229301049 0 0.1705990333306189 0.37608736631484291 0 0.15121692868906619 0.35548734229301049 0 0.1705990333306189 0.37608736631484291 0 0.16975997021235861 0.36033785470583363 0 0.1652679008004346 0.35055587833130541 0 0.15121692868906619 0.35548734229301049 0 0.1652679008004346 0.35055587833130541 0 0.15579462514265419 0.340833890151297 0 0.15121692868906619 0.35548734229301049 0 0.16975997021235861 0.36033785470583363 0 0.1652679008004346 0.35055587833130541 0 0.17561643316102499 0.3528168884900944 0 0.1652679008004346 0.35055587833130541 0 0.17561643316102499 0.3528168884900944 0 0.1686733988291447 0.3377185917162171 0 0.17561643316102499 0.3528168884900944 0 0.1866508797863104 0.3430058305387057 0 0.1686733988291447 0.3377185917162171 0 0.18609955508064799 0.36674179809991497 0 0.17561643316102499 0.3528168884900944 0 0.1866508797863104 0.3430058305387057 0 0.1866508797863104 0.3430058305387057 0 0.1852938161397964 0.32473507817040942 0 0.1686733988291447 0.3377185917162171 0 0.1852938161397964 0.32473507817040942 0 0.16660978021835771 0.32286952182932682 0 0.1686733988291447 0.3377185917162171 0 0.17031192932677949 0.30750312645375433 0 0.1852938161397964 0.32473507817040942 0 0.16660978021835771 0.32286952182932682 0 0.17031192932677949 0.30750312645375433 0 0.1908053331268614 0.30726266579130201 0 0.1852938161397964 0.32473507817040942 0 0.17031192932677949 0.30750312645375433 0 0.16660978021835771 0.32286952182932682 0 0.1538965106352306 0.31567953555468231 0 0.16660978021835771 0.32286952182932682 0 0.15487324616083711 0.32871127725157129 0 0.1538965106352306 0.31567953555468231 0 0.16660978021835771 0.32286952182932682 0 0.1686733988291447 0.3377185917162171 0 0.15487324616083711 0.32871127725157129 0 0.1686733988291447 0.3377185917162171 0 0.15579462514265419 0.340833890151297 0 0.15487324616083711 0.32871127725157129 0 0.1652679008004346 0.35055587833130541 0 0.1686733988291447 0.3377185917162171 0 0.15579462514265419 0.340833890151297 0 0.14169377034714131 0.33476389356756298 0 0.13268076497723921 0.33578641585607688 0 0.15121692868906619 0.35548734229301049 0 0.15579462514265419 0.340833890151297 0 0.14169377034714131 0.33476389356756298 0 0.15121692868906619 0.35548734229301049 0 0.15579462514265419 0.340833890151297 0 0.15487324616083711 0.32871127725157129 0 0.14169377034714131 0.33476389356756298 0 0.15487324616083711 0.32871127725157129 0 0.1538965106352306 0.31567953555468231 0 0.14518968359067499 0.32060467921175251 0 0.15487324616083711 0.32871127725157129 0 0.14169377034714131 0.33476389356756298 0 0.14518968359067499 0.32060467921175251 0 0.1432203842930255 0.30889376213021352 0 0.1538965106352306 0.31567953555468231 0 0.14518968359067499 0.32060467921175251 0 0.11414460126541311 0.31608548941914238 0 0.1321706120052151 0.31404044484211607 0 0.13268076497723921 0.33578641585607688 0 0.14169377034714131 0.33476389356756298 0 0.1321706120052151 0.31404044484211607 0 0.14169377034714131 0.33476389356756298 0 0.14518968359067499 0.32060467921175251 0 0.1321706120052151 0.31404044484211607 0 0.1432203842930255 0.30889376213021352 0 0.14518968359067499 0.32060467921175251 0 0.1321706120052151 0.31404044484211607 0 0.14169377034714131 0.33476389356756298 0 0.1321706120052151 0.31404044484211607 0 0.13268076497723921 0.33578641585607688 0 0.13268076497723921 0.33578641585607688 0 0.1341490470949013 0.352084717428233 0 0.15121692868906619 0.35548734229301049 0 0.1239569692541571 0.36256503670992252 0 0.1341490470949013 0.352084717428233 0 0.14150580771197119 0.36123210013072549 0 0.1239569692541571 0.36256503670992252 0 0.1212080119051053 0.34611313826537721 0 0.1341490470949013 0.352084717428233 0 0.1212080119051053 0.34611313826537721 0 0.13268076497723921 0.33578641585607688 0 0.1341490470949013 0.352084717428233 0 0.1239569692541571 0.36256503670992252 0 0.13898817294888891 0.37311011477327499 0 0.14150580771197119 0.36123210013072549 0 0.1239569692541571 0.36256503670992252 0 0.13898817294888891 0.37311011477327499 0 0.12758607288106619 0.3763797749985775 0 0.15767663496248779 0.36954437956281072 0 0.13898817294888891 0.37311011477327499 0 0.14150580771197119 0.36123210013072549 0 0.15767663496248779 0.36954437956281072 0 0.13898817294888891 0.37311011477327499 0 0.14969645972015619 0.38172430309587418 0 0.15767663496248779 0.36954437956281072 0 0.14150580771197119 0.36123210013072549 0 0.15121692868906619 0.35548734229301049 0 0.15767663496248779 0.36954437956281072 0 0.15121692868906619 0.35548734229301049 0 0.14169377034714131 0.33476389356756298 0 0.15121692868906619 0.35548734229301049 0 0.1341490470949013 0.352084717428233 0 0.14150580771197119 0.36123210013072549 0 0.15121692868906619 0.35548734229301049 0 0.13268076497723921 0.33578641585607688 0 0.15121692868906619 0.35548734229301049 0 0.15172304704879039 0.39856197474400812 0 0.14969645972015619 0.38172430309587418 0 0.13414541565828941 0.38804756129226192 0 0.15172304704879039 0.39856197474400812 0 0.14969645972015619 0.38172430309587418 0 0.1578045356328433 0.39034634935044021 0 0.13898817294888891 0.37311011477327499 0 0.14969645972015619 0.38172430309587418 0 0.13414541565828941 0.38804756129226192 0 0.1145578543537481 0.38191162087736968 0 0.13414541565828941 0.38804756129226192 0 0.12758607288106619 0.3763797749985775 0 0.13898817294888891 0.37311011477327499 0 0.13414541565828941 0.38804756129226192 0 0.12758607288106619 0.3763797749985775 0 0.1220472729044056 0.40053948004037793 0 0.13414541565828941 0.38804756129226192 0 0.13587410732933791 0.40313765248666478 0 0.15172304704879039 0.39856197474400812 0 0.13414541565828941 0.38804756129226192 0 0.13587410732933791 0.40313765248666478 0 0.1220472729044056 0.40053948004037793 0 0.13587410732933791 0.40313765248666478 0 0.1276841851987448 0.41159992525274541 0 0.1243074460390626 0.4235653236208895 0 0.13898978386415459 0.41754850256724169 0 0.1243074460390626 0.4235653236208895 0 0.1276841851987448 0.41159992525274541 0 0.13898978386415459 0.41754850256724169 0 0.13587410732933791 0.40313765248666478 0 0.1276841851987448 0.41159992525274541 0 0.13898978386415459 0.41754850256724169 0 0.1243074460390626 0.4235653236208895 0 0.1232986957980476 0.43521553444175898 0 0.13775391949354901 0.43048251473236793 0 0.1243074460390626 0.4235653236208895 0 0.13898978386415459 0.41754850256724169 0 0.13775391949354901 0.43048251473236793 0 0.13775391949354901 0.43048251473236793 0 0.15480896332433769 0.4212224763429232 0 0.15633117735431551 0.43795793436307001 0 0.13898978386415459 0.41754850256724169 0 0.13775391949354901 0.43048251473236793 0 0.15480896332433769 0.4212224763429232 0 0.15172304704879039 0.39856197474400812 0 0.13587410732933791 0.40313765248666478 0 0.13898978386415459 0.41754850256724169 0 0.15172304704879039 0.39856197474400812 0 0.13898978386415459 0.41754850256724169 0 0.15480896332433769 0.4212224763429232 0 0.15480896332433769 0.4212224763429232 0 0.17057620105232479 0.41028389064361659 0 0.1742892417583681 0.42876902697017849 0 0.15172304704879039 0.39856197474400812 0 0.15480896332433769 0.4212224763429232 0 0.17057620105232479 0.41028389064361659 0 0.15480896332433769 0.4212224763429232 0 0.1742892417583681 0.42876902697017849 0 0.15633117735431551 0.43795793436307001 0 0.1742892417583681 0.42876902697017849 0 0.1885429693391498 0.4318876594674092 0 0.18533866368388779 0.44868557721459679 0 0.1742892417583681 0.42876902697017849 0 0.189602387118497 0.41946746991573658 0 0.1885429693391498 0.4318876594674092 0 0.17057620105232479 0.41028389064361659 0 0.1742892417583681 0.42876902697017849 0 0.189602387118497 0.41946746991573658 0 0.17057620105232479 0.41028389064361659 0 0.18998113797217259 0.39668739033667422 0 0.189602387118497 0.41946746991573658 0 0.16566229452651871 0.39749770272926721 0 0.16413634123590801 0.38360141683261162 0 0.18998113797217259 0.39668739033667422 0 0.17057620105232479 0.41028389064361659 0 0.16566229452651871 0.39749770272926721 0 0.18998113797217259 0.39668739033667422 0 0.15172304704879039 0.39856197474400812 0 0.17057620105232479 0.41028389064361659 0 0.16566229452651871 0.39749770272926721 0 0.15172304704879039 0.39856197474400812 0 0.16566229452651871 0.39749770272926721 0 0.1578045356328433 0.39034634935044021 0 0.15767663496248779 0.36954437956281072 0 0.16413634123590801 0.38360141683261162 0 0.15767663496248779 0.36954437956281072 0 0.14969645972015619 0.38172430309587418 0 0.16413634123590801 0.38360141683261162 0 0.16566229452651871 0.39749770272926721 0 0.1578045356328433 0.39034634935044021 0 0.16413634123590801 0.38360141683261162 0 0.14969645972015619 0.38172430309587418 0 0.1578045356328433 0.39034634935044021 0 0.16413634123590801 0.38360141683261162 0 0.15767663496248779 0.36954437956281072 0 0.16413634123590801 0.38360141683261162 0 0.1705990333306189 0.37608736631484291 0 0.18609955508064799 0.36674179809991497 0 0.1705990333306189 0.37608736631484291 0 0.18998113797217259 0.39668739033667422 0 0.16413634123590801 0.38360141683261162 0 0.1705990333306189 0.37608736631484291 0 0.18998113797217259 0.39668739033667422 0 0.1705990333306189 0.37608736631484291 0 0.18998113797217259 0.39668739033667422 0 0.20345523097594431 0.37187856108845319 0 0.18609955508064799 0.36674179809991497 0 0.18998113797217259 0.39668739033667422 0 0.20345523097594431 0.37187856108845319 0 0.18998113797217259 0.39668739033667422 0 0.21240045549503039 0.39602063858752851 0 0.18998113797217259 0.39668739033667422 0 0.21240045549503039 0.39602063858752851 0 0.2093632426137261 0.41728741435850553 0 0.20345523097594431 0.37187856108845319 0 0.21240045549503039 0.39602063858752851 0 0.22715334715129601 0.37970698952223869 0 0.21240045549503039 0.39602063858752851 0 0.22715334715129601 0.37970698952223869 0 0.2270614338934735 0.39570342882790049 0 0.22715334715129601 0.37970698952223869 0 0.2270614338934735 0.39570342882790049 0 0.244147427019763 0.3945145368781815 0 0.21240045549503039 0.39602063858752851 0 0.2270614338934735 0.39570342882790049 0 0.22454450590780459 0.41257155032365328 0 0.2270614338934735 0.39570342882790049 0 0.244147427019763 0.3945145368781815 0 0.22454450590780459 0.41257155032365328 0 0.244147427019763 0.3945145368781815 0 0.22454450590780459 0.41257155032365328 0 0.22715334715129601 0.37970698952223869 0 0.244147427019763 0.3945145368781815 0 0.2521892630791473 0.37140998668179731 0 0.24480019866971869 0.4210032181750728 0 0.23005574166434209 0.4378006494194151 0 0.25107636943441569 0.44513559726906782 0 0.24480019866971869 0.4210032181750728 0 0.23074763412655719 0.424282623352078 0 0.23005574166434209 0.4378006494194151 0 0.244147427019763 0.3945145368781815 0 0.24480019866971869 0.4210032181750728 0 0.22454450590780459 0.41257155032365328 0 0.24480019866971869 0.4210032181750728 0 0.22454450590780459 0.41257155032365328 0 0.23074763412655719 0.424282623352078 0 0.22454450590780459 0.41257155032365328 0 0.2211725731392733 0.42809720696525833 0 0.23074763412655719 0.424282623352078 0 0.2211725731392733 0.42809720696525833 0 0.23074763412655719 0.424282623352078 0 0.23005574166434209 0.4378006494194151 0 0.2211725731392733 0.42809720696525833 0 0.21628036644665749 0.43621494113863418 0 0.23005574166434209 0.4378006494194151 0 0.2211725731392733 0.42809720696525833 0 0.21628036644665749 0.43621494113863418 0 0.2049415847958462 0.43062856376912512 0 0.22454450590780459 0.41257155032365328 0 0.2211725731392733 0.42809720696525833 0 0.2049415847958462 0.43062856376912512 0 0.22454450590780459 0.41257155032365328 0 0.2049415847958462 0.43062856376912512 0 0.2093632426137261 0.41728741435850553 0 0.21240045549503039 0.39602063858752851 0 0.22454450590780459 0.41257155032365328 0 0.2093632426137261 0.41728741435850553 0 0.22454450590780459 0.41257155032365328 0 0.2049415847958462 0.43062856376912512 0 0.18998113797217259 0.39668739033667422 0 0.2093632426137261 0.41728741435850553 0 0.189602387118497 0.41946746991573658 0 0.18998113797217259 0.39668739033667422 0 0.2093632426137261 0.41728741435850553 0 0.2049415847958462 0.43062856376912512 0 0.189602387118497 0.41946746991573658 0 0.1885429693391498 0.4318876594674092 0 0.2049415847958462 0.43062856376912512 0 0.1885429693391498 0.4318876594674092 0 0.18533866368388779 0.44868557721459679 0 0.2049415847958462 0.43062856376912512 0 0.2093632426137261 0.41728741435850553 0 0.189602387118497 0.41946746991573658 0 0.2049415847958462 0.43062856376912512 0 0.18533866368388779 0.44868557721459679 0 0.2049415847958462 0.43062856376912512 0 0.21250023090400461 0.44761088200823351 0 0.18533866368388779 0.44868557721459679 0 0.206603344493622 0.46333609110379942 0 0.1937538337711516 0.47443536283097371 0 0.18533866368388779 0.44868557721459679 0 0.206603344493622 0.46333609110379942 0 0.21250023090400461 0.44761088200823351 0 0.18533866368388779 0.44868557721459679 0 0.206603344493622 0.46333609110379942 0 0.21250023090400461 0.44761088200823351 0 0.2214306985693732 0.46517249196019811 0 0.21628036644665749 0.43621494113863418 0 0.2049415847958462 0.43062856376912512 0 0.21250023090400461 0.44761088200823351 0 0.21628036644665749 0.43621494113863418 0 0.21250023090400461 0.44761088200823351 0 0.23005574166434209 0.4378006494194151 0 0.21250023090400461 0.44761088200823351 0 0.2323256828845813 0.45223235497602238 0 0.23005574166434209 0.4378006494194151 0 0.2214306985693732 0.46517249196019811 0 0.24656537385077101 0.46544215422319768 0 0.2323256828845813 0.45223235497602238 0 0.2214306985693732 0.46517249196019811 0 0.24656537385077101 0.46544215422319768 0 0.21250023090400461 0.44761088200823351 0 0.2323256828845813 0.45223235497602238 0 0.2214306985693732 0.46517249196019811 0 0.2323256828845813 0.45223235497602238 0 0.24656537385077101 0.46544215422319768 0 0.25107636943441569 0.44513559726906782 0 0.2323256828845813 0.45223235497602238 0 0.23005574166434209 0.4378006494194151 0 0.25107636943441569 0.44513559726906782 0 0.2440762477701573 0.5 0 0.2199932955396926 0.48077614150499498 0 0.19941551183571229 0.5 0 0.2440762477701573 0.5 0 0.23820077408298801 0.47901853990233678 0 0.26117031641083449 0.48203450212234639 0 0.24656537385077101 0.46544215422319768 0 0.23820077408298801 0.47901853990233678 0 0.26117031641083449 0.48203450212234639 0 0.2214306985693732 0.46517249196019811 0 0.24656537385077101 0.46544215422319768 0 0.23820077408298801 0.47901853990233678 0 0.2214306985693732 0.46517249196019811 0 0.23820077408298801 0.47901853990233678 0 0.2199932955396926 0.48077614150499498 0 0.2440762477701573 0.5 0 0.23820077408298801 0.47901853990233678 0 0.2199932955396926 0.48077614150499498 0 0.2199932955396926 0.48077614150499498 0 0.1937538337711516 0.47443536283097371 0 0.19941551183571229 0.5 0 0.2199932955396926 0.48077614150499498 0 0.1937538337711516 0.47443536283097371 0 0.206603344493622 0.46333609110379942 0 0.2199932955396926 0.48077614150499498 0 0.1937538337711516 0.47443536283097371 0 0.206603344493622 0.46333609110379942 0 0.2214306985693732 0.46517249196019811 0 0.2199932955396926 0.48077614150499498 0 0.1937538337711516 0.47443536283097371 0 0.19941551183571229 0.5 0 0.1775965351343447 0.48532486786733442 0 0.19941551183571229 0.5 0 0.1775965351343447 0.48532486786733442 0 0.16683201191569691 0.49999999999999778 0 0.1775965351343447 0.48532486786733442 0 0.16683201191569691 0.49999999999999778 0 0.16046694614655219 0.48409439234874602 0 0.16683201191569691 0.49999999999999778 0 0.1466561138860526 0.48875163159550311 0 0.16683201191569691 0.49999999999999778 0 0.16046694614655219 0.48409439234874602 0 0.1466561138860526 0.48875163159550311 0 0.1775965351343447 0.48532486786733442 0 0.16046694614655219 0.48409439234874602 0 0.16751437200261049 0.46809458415695238 0 0.1937538337711516 0.47443536283097371 0 0.16751437200261049 0.46809458415695238 0 0.1937538337711516 0.47443536283097371 0 0.1775965351343447 0.48532486786733442 0 0.16751437200261049 0.46809458415695238 0 0.1937538337711516 0.47443536283097371 0 0.18533866368388779 0.44868557721459679 0 0.16751437200261049 0.46809458415695238 0 0.1742892417583681 0.42876902697017849 0 0.18533866368388779 0.44868557721459679 0 0.15633117735431551 0.43795793436307001 0 0.18533866368388779 0.44868557721459679 0 0.15633117735431551 0.43795793436307001 0 0.15670336814057259 0.4553702019196591 0 0.18533866368388779 0.44868557721459679 0 0.15670336814057259 0.4553702019196591 0 0.16751437200261049 0.46809458415695238 0 0.15670336814057259 0.4553702019196591 0 0.16751437200261049 0.46809458415695238 0 0.1412749102340696 0.46175380548293099 0 0.15670336814057259 0.4553702019196591 0 0.1412749102340696 0.46175380548293099 0 0.13473714108801041 0.44759172450604551 0 0.16751437200261049 0.46809458415695238 0 0.1412749102340696 0.46175380548293099 0 0.14058251351705989 0.47592701742677729 0 0.16751437200261049 0.46809458415695238 0 0.1412749102340696 0.46175380548293099 0 0.15633117735431551 0.43795793436307001 0 0.15670336814057259 0.4553702019196591 0 0.13473714108801041 0.44759172450604551 0 0.13775391949354901 0.43048251473236793 0 0.15633117735431551 0.43795793436307001 0 0.13473714108801041 0.44759172450604551 0 0.1232986957980476 0.43521553444175898 0 0.13775391949354901 0.43048251473236793 0 0.13473714108801041 0.44759172450604551 0 0.1197623529423178 0.44368749188664858 0 0.1232986957980476 0.43521553444175898 0 0.13473714108801041 0.44759172450604551 0 0.1412749102340696 0.46175380548293099 0 0.13473714108801041 0.44759172450604551 0 0.12728774723275341 0.46343820621533671 0 0.1171160937478397 0.45330540541120767 0 0.13473714108801041 0.44759172450604551 0 0.12728774723275341 0.46343820621533671 0 0.1412749102340696 0.46175380548293099 0 0.12728774723275341 0.46343820621533671 0 0.14058251351705989 0.47592701742677729 0 0.14058251351705989 0.47592701742677729 0 0.12648021585640709 0.47750326319100989 0 0.1466561138860526 0.48875163159550311 0 0.12728774723275341 0.46343820621533671 0 0.14058251351705989 0.47592701742677729 0 0.12648021585640709 0.47750326319100989 0 0.12648021585640709 0.47750326319100989 0 0.1466561138860526 0.48875163159550311 0 0.12648021585640709 0.47750326319100989 0 0.13708001144490389 0.49059806328359551 0 0.1466561138860526 0.48875163159550311 0 0.11666344788485949 0.49173645753724088 0 0.13663044883731831 0.49927556128564571 0 0.12648021585640709 0.47750326319100989 0 0.12713929737233831 0.48772060528617361 0 0.13708001144490389 0.49059806328359551 0 0.11320932187650649 0.5 0 0.13663044883731831 0.49927556128564571 0 0.14002066689610171 0.5 0 0.11666344788485949 0.49173645753724088 0 0.12937830138485501 0.49233267184816393 0 0.13663044883731831 0.49927556128564571 0 0.12713929737233831 0.48772060528617361 0 0.12937830138485501 0.49233267184816393 0 0.13708001144490389 0.49059806328359551 0 0.13663044883731831 0.49927556128564571 0 0.14002066689610171 0.5 0 0.13708001144490389 0.49059806328359551 0 0.12937830138485501 0.49233267184816393 0 0.13663044883731831 0.49927556128564571 0 0.13708001144490389 0.49059806328359551 0 0.16683201191569691 0.49999999999999778 0 0.14002066689610171 0.5 0 0.1466561138860526 0.48875163159550311 0 0.14002066689610171 0.5 0 0.13708001144490389 0.49059806328359551 0 0.1466561138860526 0.48875163159550311 0 0.16046694614655219 0.48409439234874602 0 0.16751437200261049 0.46809458415695238 0 0.14058251351705989 0.47592701742677729 0 0.16046694614655219 0.48409439234874602 0 0.14058251351705989 0.47592701742677729 0 0.1466561138860526 0.48875163159550311 0 0.33771698773153852 0.49634466744435529 0 0.30530913721808739 0.5 0 0.38926440315541661 0.5 0 0.36676624368677102 0.47842409595896851 0 0.33771698773153852 0.49634466744435529 0 0.38926440315541661 0.5 0 0.36676624368677102 0.47842409595896851 0 0.34705721961416058 0.46825050824331249 0 0.33771698773153852 0.49634466744435529 0 0.36676624368677102 0.47842409595896851 0 0.35944862398180327 0.46098304174961202 0 0.34705721961416058 0.46825050824331249 0 0.36676624368677102 0.47842409595896851 0 0.36757358112949923 0.45710121375389712 0 0.37874971076221681 0.47404607846552432 0 0.36676624368677102 0.47842409595896851 0 0.35944862398180327 0.46098304174961202 0 0.36757358112949923 0.45710121375389712 0 0.36757358112949923 0.45710121375389712 0 0.37874971076221681 0.47404607846552432 0 0.36757358112949923 0.45710121375389712 0 0.35639745149678231 0.44015634904226952 0 0.36757358112949923 0.45710121375389712 0 0.37262846685289031 0.4395057113053743 0 0.35639745149678231 0.44015634904226952 0 0.35944862398180327 0.46098304174961202 0 0.36757358112949923 0.45710121375389712 0 0.35639745149678231 0.44015634904226952 0 0.35639745149678231 0.44015634904226952 0 0.3471040749763617 0.46652080327519613 0 0.33720744780609158 0.44821210909984333 0 0.35639745149678231 0.44015634904226952 0 0.33720744780609158 0.44821210909984333 0 0.34399698852822952 0.43691450804834042 0 0.35944862398180327 0.46098304174961202 0 0.35639745149678231 0.44015634904226952 0 0.34705721961416058 0.46825050824331249 0 0.35639745149678231 0.44015634904226952 0 0.34705721961416058 0.46825050824331249 0 0.3471040749763617 0.46652080327519613 0 0.35639745149678231 0.44015634904226952 0 0.34705721961416058 0.46825050824331249 0 0.3471040749763617 0.46652080327519613 0 0.33720744780609158 0.44821210909984333 0 0.32196939969496408 0.46625114101219661 0 0.3471040749763617 0.46652080327519613 0 0.32196939969496408 0.46625114101219661 0 0.33720744780609158 0.44821210909984333 0 0.31852459641669367 0.43688802904946888 0 0.33442470089835752 0.4319282955358123 0 0.33720744780609158 0.44821210909984333 0 0.33442470089835752 0.4319282955358123 0 0.34399698852822952 0.43691450804834042 0 0.33720744780609158 0.44821210909984333 0 0.32182333718667822 0.45078139775525228 0 0.31852459641669367 0.43688802904946888 0 0.32182333718667822 0.45078139775525228 0 0.3082908756260711 0.4508499332550262 0 0.31852459641669367 0.43688802904946888 0 0.33720744780609158 0.44821210909984333 0 0.32182333718667822 0.45078139775525228 0 0.32196939969496408 0.46625114101219661 0 0.32182333718667822 0.45078139775525228 0 0.32196939969496408 0.46625114101219661 0 0.3082908756260711 0.4508499332550262 0 0.33354834857988902 0.4793590403140367 0 0.33771698773153852 0.49634466744435529 0 0.30530913721808739 0.5 0 0.32196939969496408 0.46625114101219661 0 0.33354834857988902 0.4793590403140367 0 0.30530913721808739 0.5 0 0.34705721961416058 0.46825050824331249 0 0.33354834857988902 0.4793590403140367 0 0.33771698773153852 0.49634466744435529 0 0.34705721961416058 0.46825050824331249 0 0.33771698773153852 0.49634466744435529 0 0.3471040749763617 0.46652080327519613 0 0.32196939969496408 0.46625114101219661 0 0.33354834857988902 0.4793590403140367 0 0.34705721961416058 0.46825050824331249 0 0.3471040749763617 0.46652080327519613 0 0.33354834857988902 0.4793590403140367 0 0.32196939969496408 0.46625114101219661 0 0.30530913721808739 0.5 0 0.29683472441356651 0.46598147874919688 0 0.30530913721808739 0.5 0 0.27170004913216872 0.46571181648619731 0 0.29683472441356651 0.46598147874919688 0 0.30530913721808739 0.5 0 0.26117031641083449 0.48203450212234639 0 0.27170004913216872 0.46571181648619731 0 0.2440762477701573 0.5 0 0.30530913721808739 0.5 0 0.26117031641083449 0.48203450212234639 0 0.24656537385077101 0.46544215422319768 0 0.26117031641083449 0.48203450212234639 0 0.27170004913216872 0.46571181648619731 0 0.25107636943441569 0.44513559726906782 0 0.27510371890732971 0.44698624168923812 0 0.26462896982053657 0.42891016586402553 0 0.24656537385077101 0.46544215422319768 0 0.27170004913216872 0.46571181648619731 0 0.24656537385077101 0.46544215422319768 0 0.25107636943441569 0.44513559726906782 0 0.27170004913216872 0.46571181648619731 0 0.27170004913216872 0.46571181648619731 0 0.27510371890732971 0.44698624168923812 0 0.29683472441356651 0.46598147874919688 0 0.25107636943441569 0.44513559726906782 0 0.27170004913216872 0.46571181648619731 0 0.27510371890732971 0.44698624168923812 0 0.27510371890732971 0.44698624168923812 0 0.29343904897402229 0.43922323681809022 0 0.29683472441356651 0.46598147874919688 0 0.27170004913216872 0.46571181648619731 0 0.29683472441356651 0.46598147874919688 0 0.32196939969496408 0.46625114101219661 0 0.29683472441356651 0.46598147874919688 0 0.32196939969496408 0.46625114101219661 0 0.29683472441356651 0.46598147874919688 0 0.3082908756260711 0.4508499332550262 0 0.29343904897402229 0.43922323681809022 0 0.29683472441356651 0.46598147874919688 0 0.3082908756260711 0.4508499332550262 0 0.29343904897402229 0.43922323681809022 0 0.3082908756260711 0.4508499332550262 0 0.31852459641669367 0.43688802904946888 0 0.29343904897402229 0.43922323681809022 0 0.30112852226640291 0.42376257958785191 0 0.31852459641669367 0.43688802904946888 0 0.30112852226640291 0.42376257958785191 0 0.29203474294865012 0.40607958613720158 0 0.31863957280126859 0.41583068997788608 0 0.30112852226640291 0.42376257958785191 0 0.28261812485059662 0.42333545592692112 0 0.29203474294865012 0.40607958613720158 0 0.27510371890732971 0.44698624168923812 0 0.29343904897402229 0.43922323681809022 0 0.28261812485059662 0.42333545592692112 0 0.29343904897402229 0.43922323681809022 0 0.30112852226640291 0.42376257958785191 0 0.28261812485059662 0.42333545592692112 0 0.27510371890732971 0.44698624168923812 0 0.28261812485059662 0.42333545592692112 0 0.26462896982053657 0.42891016586402553 0 0.28261812485059662 0.42333545592692112 0 0.26462896982053657 0.42891016586402553 0 0.26761541085462331 0.40589547546909982 0 0.28261812485059662 0.42333545592692112 0 0.26761541085462331 0.40589547546909982 0 0.29203474294865012 0.40607958613720158 0 0.24480019866971869 0.4210032181750728 0 0.26462896982053657 0.42891016586402553 0 0.26761541085462331 0.40589547546909982 0 0.244147427019763 0.3945145368781815 0 0.24480019866971869 0.4210032181750728 0 0.26761541085462331 0.40589547546909982 0 0.24480019866971869 0.4210032181750728 0 0.25107636943441569 0.44513559726906782 0 0.26462896982053657 0.42891016586402553 0 0.244147427019763 0.3945145368781815 0 0.26735098622298459 0.38156810265038482 0 0.2521892630791473 0.37140998668179731 0 0.244147427019763 0.3945145368781815 0 0.26761541085462331 0.40589547546909982 0 0.26735098622298459 0.38156810265038482 0 0.26761541085462331 0.40589547546909982 0 0.28190508381648582 0.39028064797137768 0 0.29203474294865012 0.40607958613720158 0 0.26761541085462331 0.40589547546909982 0 0.26735098622298459 0.38156810265038482 0 0.28190508381648582 0.39028064797137768 0 0.26735098622298459 0.38156810265038482 0 0.28190508381648582 0.39028064797137768 0 0.27721295281809549 0.36680799699164168 0 0.28190508381648582 0.39028064797137768 0 0.29751231182034188 0.38130105583880441 0 0.27721295281809549 0.36680799699164168 0 0.28190508381648582 0.39028064797137768 0 0.29203474294865012 0.40607958613720158 0 0.29751231182034188 0.38130105583880441 0 0.29203474294865012 0.40607958613720158 0 0.31913311180273318 0.3949185758314665 0 0.31863957280126859 0.41583068997788608 0 0.29203474294865012 0.40607958613720158 0 0.31913311180273318 0.3949185758314665 0 0.29203474294865012 0.40607958613720158 0 0.29751231182034188 0.38130105583880441 0 0.31913311180273318 0.3949185758314665 0 0.29751231182034188 0.38130105583880441 0 0.31913311180273318 0.3949185758314665 0 0.32067386270269788 0.36660528874678522 0 0.31913311180273318 0.3949185758314665 0 0.3462314806568163 0.38375756552573148 0 0.32067386270269788 0.36660528874678522 0 0.31913311180273318 0.3949185758314665 0 0.3462314806568163 0.38375756552573148 0 0.34160110166908803 0.39917493579052998 0 0.31913311180273318 0.3949185758314665 0 0.33951925632659158 0.41456620798860311 0 0.34160110166908803 0.39917493579052998 0 0.31913311180273318 0.3949185758314665 0 0.3462314806568163 0.38375756552573148 0 0.31913311180273318 0.3949185758314665 0 0.31863957280126859 0.41583068997788608 0 0.33951925632659158 0.41456620798860311 0 0.30112852226640291 0.42376257958785191 0 0.31863957280126859 0.41583068997788608 0 0.31852459641669367 0.43688802904946888 0 0.31863957280126859 0.41583068997788608 0 0.31852459641669367 0.43688802904946888 0 0.33442470089835752 0.4319282955358123 0 0.33442470089835752 0.4319282955358123 0 0.33951925632659158 0.41456620798860311 0 0.34795835391168661 0.42736127851543648 0 0.33442470089835752 0.4319282955358123 0 0.34399698852822952 0.43691450804834042 0 0.34795835391168661 0.42736127851543648 0 0.31863957280126859 0.41583068997788608 0 0.33442470089835752 0.4319282955358123 0 0.33951925632659158 0.41456620798860311 0 0.33951925632659158 0.41456620798860311 0 0.34795835391168661 0.42736127851543648 0 0.35141078403018722 0.41787198815870291 0 0.36179501108488971 0.42392121695229162 0 0.35637051479758081 0.40563924917848071 0 0.34160110166908803 0.39917493579052998 0 0.33951925632659158 0.41456620798860311 0 0.35637051479758081 0.40563924917848071 0 0.33951925632659158 0.41456620798860311 0 0.35141078403018722 0.41787198815870291 0 0.35637051479758081 0.40563924917848071 0 0.33951925632659158 0.41456620798860311 0 0.35141078403018722 0.41787198815870291 0 0.34795835391168661 0.42736127851543648 0 0.35639745149678231 0.44015634904226952 0 0.36179501108488971 0.42392121695229162 0 0.35639745149678231 0.44015634904226952 0 0.34795835391168661 0.42736127851543648 0 0.36179501108488971 0.42392121695229162 0 0.35639745149678231 0.44015634904226952 0 0.34399698852822952 0.43691450804834042 0 0.34795835391168661 0.42736127851543648 0 0.35141078403018722 0.41787198815870291 0 0.34795835391168661 0.42736127851543648 0 0.36179501108488971 0.42392121695229162 0 0.35639745149678231 0.44015634904226952 0 0.34795835391168661 0.42736127851543648 0 0.37262846685289031 0.4395057113053743 0 0.35639745149678231 0.44015634904226952 0 0.36179501108488971 0.42392121695229162 0 0.37262846685289031 0.4395057113053743 0 0.36179501108488971 0.42392121695229162 0 0.38171526389902621 0.42285105453735627 0 0.36179501108488971 0.42392121695229162 0 0.37543993929724873 0.40575129785166902 0 0.38171526389902621 0.42285105453735627 0 0.36179501108488971 0.42392121695229162 0 0.35637051479758081 0.40563924917848071 0 0.37543993929724873 0.40575129785166902 0 0.36599916773242308 0.38970762502951528 0 0.35637051479758081 0.40563924917848071 0 0.37543993929724873 0.40575129785166902 0 0.36599916773242308 0.38970762502951528 0 0.3462314806568163 0.38375756552573148 0 0.37332984951089959 0.37259655521999629 0 0.3462314806568163 0.38375756552573148 0 0.37332984951089959 0.37259655521999629 0 0.34160110166908803 0.39917493579052998 0 0.3462314806568163 0.38375756552573148 0 0.35637051479758081 0.40563924917848071 0 0.36599916773242308 0.38970762502951528 0 0.3462314806568163 0.38375756552573148 0 0.35637051479758081 0.40563924917848071 0 0.3462314806568163 0.38375756552573148 0 0.34473707480591842 0.35226136777080469 0 0.36569025010772371 0.35591691989079172 0 0.3462314806568163 0.38375756552573148 0 0.37332984951089959 0.37259655521999629 0 0.36569025010772371 0.35591691989079172 0 0.37332984951089959 0.37259655521999629 0 0.36569025010772371 0.35591691989079172 0 0.38035683402569309 0.35420328335679652 0 0.34473707480591842 0.35226136777080469 0 0.36569025010772371 0.35591691989079172 0 0.37047311513062031 0.33877519134323869 0 0.36569025010772371 0.35591691989079172 0 0.37047311513062031 0.33877519134323869 0 0.38035683402569309 0.35420328335679652 0 0.37078299344108417 0.31463327025601312 0 0.35700789662195659 0.32587057006090642 0 0.35396962373814472 0.31081485745536303 0 0.37047311513062031 0.33877519134323869 0 0.37078299344108417 0.31463327025601312 0 0.35700789662195659 0.32587057006090642 0 0.35700789662195659 0.32587057006090642 0 0.339046817388306 0.32345496320958628 0 0.35396962373814472 0.31081485745536303 0 0.339046817388306 0.32345496320958628 0 0.33943960301412901 0.30499046234012323 0 0.35396962373814472 0.31081485745536303 0 0.34473707480591842 0.35226136777080469 0 0.37047311513062031 0.33877519134323869 0 0.35700789662195659 0.32587057006090642 0 0.34473707480591842 0.35226136777080469 0 0.35700789662195659 0.32587057006090642 0 0.339046817388306 0.32345496320958628 0 0.34473707480591842 0.35226136777080469 0 0.339046817388306 0.32345496320958628 0 0.32729528167744609 0.34459454345475971 0 0.339046817388306 0.32345496320958628 0 0.31745499368774072 0.33127130387625892 0 0.339046817388306 0.32345496320958628 0 0.32636690669725238 0.31301969973947952 0 0.33943960301412901 0.30499046234012323 0 0.32636690669725238 0.31301969973947952 0 0.31745499368774072 0.33127130387625892 0 0.31098518245226009 0.31163195984795539 0 0.339046817388306 0.32345496320958628 0 0.32636690669725238 0.31301969973947952 0 0.31745499368774072 0.33127130387625892 0 0.339046817388306 0.32345496320958628 0 0.31745499368774072 0.33127130387625892 0 0.32729528167744609 0.34459454345475971 0 0.31745499368774072 0.33127130387625892 0 0.32729528167744609 0.34459454345475971 0 0.31167641470117319 0.34903933155976019 0 0.32729528167744609 0.34459454345475971 0 0.32067386270269788 0.36660528874678522 0 0.31167641470117319 0.34903933155976019 0 0.3462314806568163 0.38375756552573148 0 0.34473707480591842 0.35226136777080469 0 0.32067386270269788 0.36660528874678522 0 0.34473707480591842 0.35226136777080469 0 0.32729528167744609 0.34459454345475971 0 0.32067386270269788 0.36660528874678522 0 0.29751231182034188 0.38130105583880441 0 0.29668774090375888 0.36019435019086837 0 0.29751231182034188 0.38130105583880441 0 0.32067386270269788 0.36660528874678522 0 0.29668774090375888 0.36019435019086837 0 0.31167641470117319 0.34903933155976019 0 0.29668774090375888 0.36019435019086837 0 0.29586316998717582 0.33908764454293239 0 0.32067386270269788 0.36660528874678522 0 0.31167641470117319 0.34903933155976019 0 0.29668774090375888 0.36019435019086837 0 0.29668774090375888 0.36019435019086837 0 0.29586316998717582 0.33908764454293239 0 0.29668774090375888 0.36019435019086837 0 0.27721295281809549 0.36680799699164168 0 0.27634820469092491 0.34615215280166628 0 0.29668774090375888 0.36019435019086837 0 0.27634820469092491 0.34615215280166628 0 0.29586316998717582 0.33908764454293239 0 0.29751231182034188 0.38130105583880441 0 0.29668774090375888 0.36019435019086837 0 0.27721295281809549 0.36680799699164168 0 0.27721295281809549 0.36680799699164168 0 0.27634820469092491 0.34615215280166628 0 0.25683323939467417 0.35321666106040112 0 0.27634820469092491 0.34615215280166628 0 0.25683323939467417 0.35321666106040112 0 0.27634820469092491 0.34615215280166628 0 0.25683323939467417 0.35321666106040112 0 0.25990355827748302 0.33285036939989648 0 0.27721295281809549 0.36680799699164168 0 0.25683323939467417 0.35321666106040112 0 0.2521892630791473 0.37140998668179731 0 0.26735098622298459 0.38156810265038482 0 0.27721295281809549 0.36680799699164168 0 0.2521892630791473 0.37140998668179731 0 0.2425230565035123 0.32904592114860032 0 0.25245296772897541 0.31468716816282799 0 0.25990355827748302 0.33285036939989648 0 0.25245296772897541 0.31468716816282799 0 0.25990355827748302 0.33285036939989648 0 0.26967064745186081 0.3141950741177052 0 0.2433754256795507 0.34410848734255323 0 0.25683323939467417 0.35321666106040112 0 0.25990355827748302 0.33285036939989648 0 0.27634820469092491 0.34615215280166628 0 0.25990355827748302 0.33285036939989648 0 0.27925017797118218 0.32834576003209293 0 0.25990355827748302 0.33285036939989648 0 0.27925017797118218 0.32834576003209293 0 0.26967064745186081 0.3141950741177052 0 0.27925017797118218 0.32834576003209293 0 0.26967064745186081 0.3141950741177052 0 0.28426253816982161 0.31343602827275557 0 0.27925017797118218 0.32834576003209293 0 0.29519129965699448 0.32188964615670601 0 0.28426253816982161 0.31343602827275557 0 0.29519129965699448 0.32188964615670601 0 0.28426253816982161 0.31343602827275557 0 0.29451942932681308 0.30469164777047952 0 0.29519129965699448 0.32188964615670601 0 0.29451942932681308 0.30469164777047952 0 0.27634820469092491 0.34615215280166628 0 0.29586316998717582 0.33908764454293239 0 0.27925017797118218 0.32834576003209293 0 0.29519129965699448 0.32188964615670601 0 0.29586316998717582 0.33908764454293239 0 0.29519129965699448 0.32188964615670601 0 0.29586316998717582 0.33908764454293239 0 0.27634820469092491 0.34615215280166628 0 0.27925017797118218 0.32834576003209293 0 0.29586316998717582 0.33908764454293239 0 0.31745499368774072 0.33127130387625892 0 0.29519129965699448 0.32188964615670601 0 0.29586316998717582 0.33908764454293239 0 0.31745499368774072 0.33127130387625892 0 0.29586316998717582 0.33908764454293239 0 0.31745499368774072 0.33127130387625892 0 0.31167641470117319 0.34903933155976019 0 0.29586316998717582 0.33908764454293239 0 0.31745499368774072 0.33127130387625892 0 0.29519129965699448 0.32188964615670601 0 0.31098518245226009 0.31163195984795539 0 0.29519129965699448 0.32188964615670601 0 0.31098518245226009 0.31163195984795539 0 0.29451942932681308 0.30469164777047952 0 0.31098518245226009 0.31163195984795539 0 0.30776459377781168 0.29847136562561238 0 0.29451942932681308 0.30469164777047952 0 0.30776459377781168 0.29847136562561238 0 0.29452532225970779 0.29118286862994269 0 0.29451942932681308 0.30469164777047952 0 0.30776459377781168 0.29847136562561238 0 0.30677054539169812 0.28283105992711682 0 0.29452532225970779 0.29118286862994269 0 0.30776459377781168 0.29847136562561238 0 0.30677054539169812 0.28283105992711682 0 0.32175385898774511 0.28586066711185287 0 0.30677054539169812 0.28283105992711682 0 0.29452532225970779 0.29118286862994269 0 0.29386013997042149 0.27745374171741088 0 0.29452532225970779 0.29118286862994269 0 0.28186675714746351 0.28460861790007902 0 0.29386013997042149 0.27745374171741088 0 0.29452532225970779 0.29118286862994269 0 0.28186675714746351 0.28460861790007902 0 0.28237046794403942 0.29904077883895819 0 0.29452532225970779 0.29118286862994269 0 0.29451942932681308 0.30469164777047952 0 0.28237046794403942 0.29904077883895819 0 0.28426253816982161 0.31343602827275557 0 0.29451942932681308 0.30469164777047952 0 0.28237046794403942 0.29904077883895819 0 0.26967064745186081 0.3141950741177052 0 0.28426253816982161 0.31343602827275557 0 0.28237046794403942 0.29904077883895819 0 0.26967064745186081 0.3141950741177052 0 0.28237046794403942 0.29904077883895819 0 0.26671524717179262 0.29574659553570359 0 0.28186675714746351 0.28460861790007902 0 0.26671524717179262 0.29574659553570359 0 0.27011666215462238 0.27382603838520392 0 0.28186675714746351 0.28460861790007902 0 0.28237046794403942 0.29904077883895819 0 0.26671524717179262 0.29574659553570359 0 0.24582725503917749 0.29892651856011748 0 0.26671524717179262 0.29574659553570359 0 0.25774423003420349 0.2835411811175198 0 0.26671524717179262 0.29574659553570359 0 0.25774423003420349 0.2835411811175198 0 0.27011666215462238 0.27382603838520392 0 0.25245296772897541 0.31468716816282799 0 0.26967064745186081 0.3141950741177052 0 0.26671524717179262 0.29574659553570359 0 0.24582725503917749 0.29892651856011748 0 0.25245296772897541 0.31468716816282799 0 0.26671524717179262 0.29574659553570359 0 0.25182038173936289 0.25864808758374469 0 0.27011666215462238 0.27382603838520392 0 0.27093571721456888 0.25615309585990631 0 0.25182038173936289 0.25864808758374469 0 0.27093571721456888 0.25615309585990631 0 0.26039351933152011 0.24124957149211521 0 0.25774423003420349 0.2835411811175198 0 0.25182038173936289 0.25864808758374469 0 0.27011666215462238 0.27382603838520392 0 0.25774423003420349 0.2835411811175198 0 0.25182038173936289 0.25864808758374469 0 0.2455931460095116 0.27451234785533479 0 0.25774423003420349 0.2835411811175198 0 0.25182038173936289 0.25864808758374469 0 0.27011666215462238 0.27382603838520392 0 0.27093571721456888 0.25615309585990631 0 0.28240567017942619 0.26975833487456458 0 0.28186675714746351 0.28460861790007902 0 0.27011666215462238 0.27382603838520392 0 0.28240567017942619 0.26975833487456458 0 0.27093571721456888 0.25615309585990631 0 0.28240567017942619 0.26975833487456458 0 0.28702817405553338 0.24886536820887589 0 0.29402726737395779 0.26405707109078719 0 0.28240567017942619 0.26975833487456458 0 0.28702817405553338 0.24886536820887589 0 0.29402726737395779 0.26405707109078719 0 0.30085408144977849 0.25506947009820818 0 0.28702817405553338 0.24886536820887589 0 0.28186675714746351 0.28460861790007902 0 0.28240567017942619 0.26975833487456458 0 0.29386013997042149 0.27745374171741088 0 0.29402726737395779 0.26405707109078719 0 0.28240567017942619 0.26975833487456458 0 0.29386013997042149 0.27745374171741088 0 0.30677054539169812 0.28283105992711682 0 0.29386013997042149 0.27745374171741088 0 0.30451004307874191 0.2688509747103266 0 0.29402726737395779 0.26405707109078719 0 0.29386013997042149 0.27745374171741088 0 0.30451004307874191 0.2688509747103266 0 0.30677054539169812 0.28283105992711682 0 0.30451004307874191 0.2688509747103266 0 0.31821532849336059 0.27180844333198761 0 0.30451004307874191 0.2688509747103266 0 0.31418920758497548 0.25524760539231522 0 0.31821532849336059 0.27180844333198761 0 0.29402726737395779 0.26405707109078719 0 0.30451004307874191 0.2688509747103266 0 0.30085408144977849 0.25506947009820818 0 0.30451004307874191 0.2688509747103266 0 0.30085408144977849 0.25506947009820818 0 0.31418920758497548 0.25524760539231522 0 0.30085408144977849 0.25506947009820818 0 0.31418920758497548 0.25524760539231522 0 0.30198296723744328 0.24039256257184269 0 0.31418920758497548 0.25524760539231522 0 0.33032592345039269 0.25777531348904947 0 0.31821532849336059 0.27180844333198761 0 0.33032592345039269 0.25777531348904947 0 0.33472189562549548 0.27277637526447468 0 0.34633859489505231 0.26315379244527781 0 0.33032592345039269 0.25777531348904947 0 0.34633859489505231 0.26315379244527781 0 0.343917366577356 0.24832173179906719 0 0.33472189562549548 0.27277637526447468 0 0.33843691907115669 0.28882866260272988 0 0.3529390793539286 0.27596556626422242 0 0.33032592345039269 0.25777531348904947 0 0.33472189562549548 0.27277637526447468 0 0.31821532849336059 0.27180844333198761 0 0.33472189562549548 0.27277637526447468 0 0.31821532849336059 0.27180844333198761 0 0.32175385898774511 0.28586066711185287 0 0.30677054539169812 0.28283105992711682 0 0.31821532849336059 0.27180844333198761 0 0.32175385898774511 0.28586066711185287 0 0.30776459377781168 0.29847136562561238 0 0.32175385898774511 0.28586066711185287 0 0.32461387156694788 0.30044809591919652 0 0.31098518245226009 0.31163195984795539 0 0.30776459377781168 0.29847136562561238 0 0.32461387156694788 0.30044809591919652 0 0.32636690669725238 0.31301969973947952 0 0.31098518245226009 0.31163195984795539 0 0.32461387156694788 0.30044809591919652 0 0.32461387156694788 0.30044809591919652 0 0.33943960301412901 0.30499046234012323 0 0.33843691907115669 0.28882866260272988 0 0.32636690669725238 0.31301969973947952 0 0.32461387156694788 0.30044809591919652 0 0.33943960301412901 0.30499046234012323 0 0.33472189562549548 0.27277637526447468 0 0.32175385898774511 0.28586066711185287 0 0.33843691907115669 0.28882866260272988 0 0.32175385898774511 0.28586066711185287 0 0.32461387156694788 0.30044809591919652 0 0.33843691907115669 0.28882866260272988 0 0.33843691907115669 0.28882866260272988 0 0.35420347962296628 0.29337649511438468 0 0.3529390793539286 0.27596556626422242 0 0.35420347962296628 0.29337649511438468 0 0.36899736748334888 0.27849314412430137 0 0.3529390793539286 0.27596556626422242 0 0.33943960301412901 0.30499046234012323 0 0.33843691907115669 0.28882866260272988 0 0.35420347962296628 0.29337649511438468 0 0.33943960301412901 0.30499046234012323 0 0.35420347962296628 0.29337649511438468 0 0.35396962373814472 0.31081485745536303 0 0.35420347962296628 0.29337649511438468 0 0.35396962373814472 0.31081485745536303 0 0.37148201054319629 0.29648562342325552 0 0.37078299344108417 0.31463327025601312 0 0.35396962373814472 0.31081485745536303 0 0.37148201054319629 0.29648562342325552 0 0.35420347962296628 0.29337649511438468 0 0.37148201054319629 0.29648562342325552 0 0.36899736748334888 0.27849314412430137 0 0.37148201054319629 0.29648562342325552 0 0.36899736748334888 0.27849314412430137 0 0.38428742864009918 0.28489139290085858 0 0.36899736748334888 0.27849314412430137 0 0.36331744721426701 0.25872198124923812 0 0.3529390793539286 0.27596556626422242 0 0.36899736748334888 0.27849314412430137 0 0.36331744721426701 0.25872198124923812 0 0.38288139065206878 0.26863748696308309 0 0.36331744721426701 0.25872198124923812 0 0.38424774583347471 0.25207486274025709 0 0.37251516075371882 0.24207903867420399 0 0.36331744721426701 0.25872198124923812 0 0.34633859489505231 0.26315379244527781 0 0.343917366577356 0.24832173179906719 0 0.33472189562549548 0.27277637526447468 0 0.34633859489505231 0.26315379244527781 0 0.3529390793539286 0.27596556626422242 0 0.36331744721426701 0.25872198124923812 0 0.34633859489505231 0.26315379244527781 0 0.3529390793539286 0.27596556626422242 0 0.39855014860521792 0.27721466471795042 0 0.39641475740170318 0.26144696915314292 0 0.41298842006552372 0.26730783765275001 0 0.39855014860521792 0.27721466471795042 0 0.39641475740170318 0.26144696915314292 0 0.38288139065206878 0.26863748696308309 0 0.39641475740170318 0.26144696915314292 0 0.38424774583347471 0.25207486274025709 0 0.40231417230303168 0.24860060812396939 0 0.39641475740170318 0.26144696915314292 0 0.41298842006552372 0.26730783765275001 0 0.40231417230303168 0.24860060812396939 0 0.39641475740170318 0.26144696915314292 0 0.38424774583347471 0.25207486274025709 0 0.38288139065206878 0.26863748696308309 0 0.36331744721426701 0.25872198124923812 0 0.38424774583347471 0.25207486274025709 0 0.38288139065206878 0.26863748696308309 0 0.36899736748334888 0.27849314412430137 0 0.38288139065206878 0.26863748696308309 0 0.38428742864009918 0.28489139290085858 0 0.39855014860521792 0.27721466471795042 0 0.38288139065206878 0.26863748696308309 0 0.38428742864009918 0.28489139290085858 0 0.38428742864009918 0.28489139290085858 0 0.39305044198130101 0.30440693289414028 0 0.37148201054319629 0.29648562342325552 0 0.38428742864009918 0.28489139290085858 0 0.39305044198130101 0.30440693289414028 0 0.37078299344108417 0.31463327025601312 0 0.37148201054319629 0.29648562342325552 0 0.39305044198130101 0.30440693289414028 0 0.39305044198130101 0.30440693289414028 0 0.41005817493143942 0.30791884824025151 0 0.40181345532250279 0.32392247288742199 0 0.39305044198130101 0.30440693289414028 0 0.41115420333851072 0.29012846113173218 0 0.41005817493143942 0.30791884824025151 0 0.39855014860521792 0.27721466471795042 0 0.38428742864009918 0.28489139290085858 0 0.39305044198130101 0.30440693289414028 0 0.39855014860521792 0.27721466471795042 0 0.39305044198130101 0.30440693289414028 0 0.41115420333851072 0.29012846113173218 0 0.41115420333851072 0.29012846113173218 0 0.42237490691274399 0.30040046183112418 0 0.4262561741766292 0.28341554246128647 0 0.41005817493143942 0.30791884824025151 0 0.42237490691274399 0.30040046183112418 0 0.42474942449873038 0.31830282019795558 0 0.41115420333851072 0.29012846113173218 0 0.41005817493143942 0.30791884824025151 0 0.42237490691274399 0.30040046183112418 0 0.43892238033375652 0.29316762751520759 0 0.42474942449873038 0.31830282019795558 0 0.43901485369086091 0.30135339673430178 0 0.44153964711483901 0.31555601070629419 0 0.42474942449873038 0.31830282019795558 0 0.43892238033375652 0.29316762751520759 0 0.43901485369086091 0.30135339673430178 0 0.42474942449873038 0.31830282019795558 0 0.42237490691274399 0.30040046183112418 0 0.43892238033375652 0.29316762751520759 0 0.42474942449873038 0.31830282019795558 0 0.4262561741766292 0.28341554246128647 0 0.4351913196827728 0.26950095980203209 0 0.43892238033375652 0.29316762751520759 0 0.42237490691274399 0.30040046183112418 0 0.4262561741766292 0.28341554246128647 0 0.43892238033375652 0.29316762751520759 0 0.4262561741766292 0.28341554246128647 0 0.4351913196827728 0.26950095980203209 0 0.41298842006552372 0.26730783765275001 0 0.39855014860521792 0.27721466471795042 0 0.41115420333851072 0.29012846113173218 0 0.41298842006552372 0.26730783765275001 0 0.41115420333851072 0.29012846113173218 0 0.4262561741766292 0.28341554246128647 0 0.41298842006552372 0.26730783765275001 0 0.41298842006552372 0.26730783765275001 0 0.40231417230303168 0.24860060812396939 0 0.42313784770037072 0.24448727568822809 0 0.4351913196827728 0.26950095980203209 0 0.42313784770037072 0.24448727568822809 0 0.4351913196827728 0.26950095980203209 0 0.41298842006552372 0.26730783765275001 0 0.42313784770037072 0.24448727568822809 0 0.4351913196827728 0.26950095980203209 0 0.42313784770037072 0.24448727568822809 0 0.4443985789054769 0.24698865528882419 0 0.48241493055506079 0.26528965009330258 0 0.5 0.33492497653762981 0 0.47394230693558748 0.31256116002081558 0 0.48241493055506079 0.26528965009330258 0 0.50000000000000333 0.25067715318203487 0 0.5 0.33492497653762981 0 0.4351913196827728 0.26950095980203209 0 0.45877951230910918 0.25895515693046528 0 0.4443985789054769 0.24698865528882419 0 0.4351913196827728 0.26950095980203209 0 0.45151137119179341 0.27571822691322562 0 0.45877951230910918 0.25895515693046528 0 0.4351913196827728 0.26950095980203209 0 0.45151137119179341 0.27571822691322562 0 0.44724479166517439 0.29451464391583621 0 0.46482986111011698 0.27990214700456872 0 0.45877951230910918 0.25895515693046528 0 0.48241493055506079 0.26528965009330258 0 0.45151137119179341 0.27571822691322562 0 0.46482986111011698 0.27990214700456872 0 0.45877951230910918 0.25895515693046528 0 0.46482986111011698 0.27990214700456872 0 0.48241493055506079 0.26528965009330258 0 0.46397248621427972 0.29675777894034322 0 0.45877951230910918 0.25895515693046528 0 0.48241493055506079 0.26528965009330258 0 0.47459679039847708 0.24888537612968889 0 0.46482986111011698 0.27990214700456872 0 0.48241493055506079 0.26528965009330258 0 0.48241493055506079 0.26528965009330258 0 0.50000000000000333 0.25067715318203487 0 0.48241493055506079 0.26528965009330258 0 0.50000000000000333 0.25067715318203487 0 0.47459679039847708 0.24888537612968889 0 0.48241493055506079 0.26528965009330258 0 0.46397248621427972 0.29675777894034322 0 0.47394230693558748 0.31256116002081558 0 0.45530375565519909 0.31123881930905889 0 0.46397248621427972 0.29675777894034322 0 0.44724479166517439 0.29451464391583621 0 0.45530375565519909 0.31123881930905889 0 0.46397248621427972 0.29675777894034322 0 0.47394230693558748 0.31256116002081558 0 0.45151137119179341 0.27571822691322562 0 0.46482986111011698 0.27990214700456872 0 0.44724479166517439 0.29451464391583621 0 0.46482986111011698 0.27990214700456872 0 0.44724479166517439 0.29451464391583621 0 0.46482986111011698 0.27990214700456872 0 0.46397248621427972 0.29675777894034322 0 0.44724479166517439 0.29451464391583621 0 0.4351913196827728 0.26950095980203209 0 0.44724479166517439 0.29451464391583621 0 0.4351913196827728 0.26950095980203209 0 0.44724479166517439 0.29451464391583621 0 0.43892238033375652 0.29316762751520759 0 0.44724479166517439 0.29451464391583621 0 0.43892238033375652 0.29316762751520759 0 0.43901485369086091 0.30135339673430178 0 0.45530375565519909 0.31123881930905889 0 0.44724479166517439 0.29451464391583621 0 0.45530375565519909 0.31123881930905889 0 0.44724479166517439 0.29451464391583621 0 0.44577576203151831 0.30566571766637279 0 0.45530375565519909 0.31123881930905889 0 0.44577576203151831 0.30566571766637279 0 0.44153964711483901 0.31555601070629419 0 0.44724479166517439 0.29451464391583621 0 0.43901485369086091 0.30135339673430178 0 0.44724479166517439 0.29451464391583621 0 0.44577576203151831 0.30566571766637279 0 0.43901485369086091 0.30135339673430178 0 0.44577576203151831 0.30566571766637279 0 0.43901485369086091 0.30135339673430178 0 0.44153964711483901 0.31555601070629419 0 0.45530375565519909 0.31123881930905889 0 0.44153964711483901 0.31555601070629419 0 0.44647555311625892 0.32911055449855547 0 0.5 0.33492497653762981 0 0.47450063306197571 0.35536119497290758 0 0.5 0.40371247995192122 0 0.44153964711483901 0.31555601070629419 0 0.44647555311625892 0.32911055449855547 0 0.43644997072168029 0.32483233464342559 0 0.44647555311625892 0.32911055449855547 0 0.44582938632389452 0.3446830799248457 0 0.43303525815689309 0.33635995317089712 0 0.44647555311625892 0.32911055449855547 0 0.43303525815689309 0.33635995317089712 0 0.43644997072168029 0.32483233464342559 0 0.44647555311625892 0.32911055449855547 0 0.45721667556580181 0.34272861143504929 0 0.44582938632389452 0.3446830799248457 0 0.44647555311625892 0.32911055449855547 0 0.45721667556580181 0.34272861143504929 0 0.46336271964522341 0.32796299470228168 0 0.45721667556580181 0.34272861143504929 0 0.46336271964522341 0.32796299470228168 0 0.47450063306197571 0.35536119497290758 0 0.45530375565519909 0.31123881930905889 0 0.46336271964522341 0.32796299470228168 0 0.45530375565519909 0.31123881930905889 0 0.46336271964522341 0.32796299470228168 0 0.47394230693558748 0.31256116002081558 0 0.45530375565519909 0.31123881930905889 0 0.44647555311625892 0.32911055449855547 0 0.46336271964522341 0.32796299470228168 0 0.46336271964522341 0.32796299470228168 0 0.5 0.33492497653762981 0 0.47450063306197571 0.35536119497290758 0 0.46336271964522341 0.32796299470228168 0 0.5 0.33492497653762981 0 0.47394230693558748 0.31256116002081558 0 0.47450063306197571 0.35536119497290758 0 0.46237508566571639 0.37119040248890101 0 0.47495485695909972 0.39022156173406569 0 0.47450063306197571 0.35536119497290758 0 0.46237508566571639 0.37119040248890101 0 0.45591508568165617 0.35652523307665579 0 0.46237508566571639 0.37119040248890101 0 0.45591508568165617 0.35652523307665579 0 0.449274503017287 0.3702620484633834 0 0.45721667556580181 0.34272861143504929 0 0.47450063306197571 0.35536119497290758 0 0.45591508568165617 0.35652523307665579 0 0.45721667556580181 0.34272861143504929 0 0.45591508568165617 0.35652523307665579 0 0.44582938632389452 0.3446830799248457 0 0.45591508568165617 0.35652523307665579 0 0.44582938632389452 0.3446830799248457 0 0.44474902977494929 0.35703571735536571 0 0.44474902977494929 0.35703571735536571 0 0.43449463573246 0.36345389211014528 0 0.43581815195577039 0.35030040118639871 0 0.44582938632389452 0.3446830799248457 0 0.44474902977494929 0.35703571735536571 0 0.43581815195577039 0.35030040118639871 0 0.44582938632389452 0.3446830799248457 0 0.43581815195577039 0.35030040118639871 0 0.43303525815689309 0.33635995317089712 0 0.449274503017287 0.3702620484633834 0 0.43449463573246 0.36345389211014528 0 0.43799540591458608 0.38050746693636822 0 0.45591508568165617 0.35652523307665579 0 0.44474902977494929 0.35703571735536571 0 0.449274503017287 0.3702620484633834 0 0.44474902977494929 0.35703571735536571 0 0.449274503017287 0.3702620484633834 0 0.43449463573246 0.36345389211014528 0 0.43449463573246 0.36345389211014528 0 0.4237317835409527 0.37427476146927569 0 0.43799540591458608 0.38050746693636822 0 0.43449463573246 0.36345389211014528 0 0.42323291577698302 0.36539330361670708 0 0.42553480368865682 0.35935633571745118 0 0.42323291577698302 0.36539330361670708 0 0.41836119851374859 0.36077488101156913 0 0.42553480368865682 0.35935633571745118 0 0.43449463573246 0.36345389211014528 0 0.42323291577698302 0.36539330361670708 0 0.4237317835409527 0.37427476146927569 0 0.42323291577698302 0.36539330361670708 0 0.4237317835409527 0.37427476146927569 0 0.41367773031735378 0.36650723123225393 0 0.41367773031735378 0.36650723123225393 0 0.4004282183649831 0.36143554491426177 0 0.41003413355627177 0.37846169010867647 0 0.4237317835409527 0.37427476146927569 0 0.41367773031735378 0.36650723123225393 0 0.41003413355627177 0.37846169010867647 0 0.42323291577698302 0.36539330361670708 0 0.41836119851374859 0.36077488101156913 0 0.41367773031735378 0.36650723123225393 0 0.41836119851374859 0.36077488101156913 0 0.41367773031735378 0.36650723123225393 0 0.41581264341541613 0.35509915885869481 0 0.41367773031735378 0.36650723123225393 0 0.41581264341541613 0.35509915885869481 0 0.4004282183649831 0.36143554491426177 0 0.41581264341541613 0.35509915885869481 0 0.41057646866370429 0.34343801288070391 0 0.4004282183649831 0.36143554491426177 0 0.41581264341541613 0.35509915885869481 0 0.41057646866370429 0.34343801288070391 0 0.41581264341541613 0.35509915885869481 0 0.4004282183649831 0.36143554491426177 0 0.41836119851374859 0.36077488101156913 0 0.41581264341541613 0.35509915885869481 0 0.42248771373454291 0.35234989638372699 0 0.41836119851374859 0.36077488101156913 0 0.41581264341541613 0.35509915885869481 0 0.41581264341541613 0.35509915885869481 0 0.42248771373454291 0.35234989638372699 0 0.41581264341541613 0.35509915885869481 0 0.42248771373454291 0.35234989638372699 0 0.41057646866370429 0.34343801288070391 0 0.42248771373454291 0.35234989638372699 0 0.42378923182554501 0.33934181501112509 0 0.41057646866370429 0.34343801288070391 0 0.42809729407385377 0.34625839242234208 0 0.42248771373454291 0.35234989638372699 0 0.42928651983705679 0.35434378356401292 0 0.42809729407385377 0.34625839242234208 0 0.42248771373454291 0.35234989638372699 0 0.42378923182554501 0.33934181501112509 0 0.41836119851374859 0.36077488101156913 0 0.42553480368865682 0.35935633571745118 0 0.42248771373454291 0.35234989638372699 0 0.42553480368865682 0.35935633571745118 0 0.42248771373454291 0.35234989638372699 0 0.42928651983705679 0.35434378356401292 0 0.43449463573246 0.36345389211014528 0 0.42553480368865682 0.35935633571745118 0 0.42928651983705679 0.35434378356401292 0 0.43449463573246 0.36345389211014528 0 0.42928651983705679 0.35434378356401292 0 0.43581815195577039 0.35030040118639871 0 0.42809729407385377 0.34625839242234208 0 0.43581815195577039 0.35030040118639871 0 0.43303525815689309 0.33635995317089712 0 0.42809729407385377 0.34625839242234208 0 0.42928651983705679 0.35434378356401292 0 0.43581815195577039 0.35030040118639871 0 0.43303525815689309 0.33635995317089712 0 0.42378923182554501 0.33934181501112509 0 0.42474942449873038 0.31830282019795558 0 0.42809729407385377 0.34625839242234208 0 0.43303525815689309 0.33635995317089712 0 0.42378923182554501 0.33934181501112509 0 0.44153964711483901 0.31555601070629419 0 0.42474942449873038 0.31830282019795558 0 0.43644997072168029 0.32483233464342559 0 0.43303525815689309 0.33635995317089712 0 0.42474942449873038 0.31830282019795558 0 0.43644997072168029 0.32483233464342559 0 0.41005817493143942 0.30791884824025151 0 0.42474942449873038 0.31830282019795558 0 0.40181345532250279 0.32392247288742199 0 0.42474942449873038 0.31830282019795558 0 0.41057646866370429 0.34343801288070391 0 0.40181345532250279 0.32392247288742199 0 0.42378923182554501 0.33934181501112509 0 0.42474942449873038 0.31830282019795558 0 0.41057646866370429 0.34343801288070391 0 0.42474942449873038 0.31830282019795558 0 0.41057646866370429 0.34343801288070391 0 0.41057646866370429 0.34343801288070391 0 0.39186273701423879 0.34229220541569477 0 0.40181345532250279 0.32392247288742199 0 0.41057646866370429 0.34343801288070391 0 0.40181345532250279 0.32392247288742199 0 0.39186273701423879 0.34229220541569477 0 0.40181345532250279 0.32392247288742199 0 0.3851889771451974 0.32538937986428129 0 0.39305044198130101 0.30440693289414028 0 0.40181345532250279 0.32392247288742199 0 0.39305044198130101 0.30440693289414028 0 0.40181345532250279 0.32392247288742199 0 0.3851889771451974 0.32538937986428129 0 0.37047311513062031 0.33877519134323869 0 0.37078299344108417 0.31463327025601312 0 0.3851889771451974 0.32538937986428129 0 0.37078299344108417 0.31463327025601312 0 0.39305044198130101 0.30440693289414028 0 0.3851889771451974 0.32538937986428129 0 0.37047311513062031 0.33877519134323869 0 0.39186273701423879 0.34229220541569477 0 0.3851889771451974 0.32538937986428129 0 0.37047311513062031 0.33877519134323869 0 0.39186273701423879 0.34229220541569477 0 0.38035683402569309 0.35420328335679652 0 0.37332984951089959 0.37259655521999629 0 0.38035683402569309 0.35420328335679652 0 0.4004282183649831 0.36143554491426177 0 0.37332984951089959 0.37259655521999629 0 0.4004282183649831 0.36143554491426177 0 0.38793407883111619 0.38359342138296559 0 0.37332984951089959 0.37259655521999629 0 0.4004282183649831 0.36143554491426177 0 0.4004282183649831 0.36143554491426177 0 0.38793407883111619 0.38359342138296559 0 0.41057646866370429 0.34343801288070391 0 0.39186273701423879 0.34229220541569477 0 0.4004282183649831 0.36143554491426177 0 0.41057646866370429 0.34343801288070391 0 0.4004282183649831 0.36143554491426177 0 0.39186273701423879 0.34229220541569477 0 0.38035683402569309 0.35420328335679652 0 0.4004282183649831 0.36143554491426177 0 0.40443557602999092 0.40290210186246722 0 0.40041440838314979 0.3871872229167912 0 0.41162515892536972 0.39294142062304371 0 0.39097945535374901 0.40233896224928251 0 0.40041440838314979 0.3871872229167912 0 0.38793407883111619 0.38359342138296559 0 0.39097945535374901 0.40233896224928251 0 0.40443557602999092 0.40290210186246722 0 0.40041440838314979 0.3871872229167912 0 0.4004282183649831 0.36143554491426177 0 0.40041440838314979 0.3871872229167912 0 0.38793407883111619 0.38359342138296559 0 0.4004282183649831 0.36143554491426177 0 0.40041440838314979 0.3871872229167912 0 0.41003413355627177 0.37846169010867647 0 0.36599916773242308 0.38970762502951528 0 0.37332984951089959 0.37259655521999629 0 0.38793407883111619 0.38359342138296559 0 0.36599916773242308 0.38970762502951528 0 0.38793407883111619 0.38359342138296559 0 0.37543993929724873 0.40575129785166902 0 0.38793407883111619 0.38359342138296559 0 0.37543993929724873 0.40575129785166902 0 0.39097945535374901 0.40233896224928251 0 0.38793407883111619 0.38359342138296559 0 0.37543993929724873 0.40575129785166902 0 0.39097945535374901 0.40233896224928251 0 0.37543993929724873 0.40575129785166902 0 0.38171526389902621 0.42285105453735627 0 0.38171526389902621 0.42285105453735627 0 0.3994188763616614 0.41953624716296339 0 0.39004527558892799 0.44710621518463528 0 0.37262846685289031 0.4395057113053743 0 0.38171526389902621 0.42285105453735627 0 0.39004527558892799 0.44710621518463528 0 0.3994188763616614 0.41953624716296339 0 0.41127267093147091 0.43288505182199288 0 0.39004527558892799 0.44710621518463528 0 0.39097945535374901 0.40233896224928251 0 0.38171526389902621 0.42285105453735627 0 0.3994188763616614 0.41953624716296339 0 0.39097945535374901 0.40233896224928251 0 0.40443557602999092 0.40290210186246722 0 0.3994188763616614 0.41953624716296339 0 0.41798806079353151 0.40742689747979671 0 0.41127267093147091 0.43288505182199288 0 0.43250006627401388 0.41866388845935049 0 0.3994188763616614 0.41953624716296339 0 0.41798806079353151 0.40742689747979671 0 0.41127267093147091 0.43288505182199288 0 0.40443557602999092 0.40290210186246722 0 0.3994188763616614 0.41953624716296339 0 0.41798806079353151 0.40742689747979671 0 0.41127267093147091 0.43288505182199288 0 0.43250006627401388 0.41866388845935049 0 0.41127267093147091 0.43288505182199288 0 0.43250006627401388 0.41866388845935049 0 0.43541840795556708 0.44508037638667691 0 0.41798806079353151 0.40742689747979671 0 0.43250006627401388 0.41866388845935049 0 0.43789884526055628 0.39717584553547852 0 0.41798806079353151 0.40742689747979671 0 0.4252536158639047 0.38872919074748719 0 0.43789884526055628 0.39717584553547852 0 0.41798806079353151 0.40742689747979671 0 0.41162515892536972 0.39294142062304371 0 0.4252536158639047 0.38872919074748719 0 0.40443557602999092 0.40290210186246722 0 0.41798806079353151 0.40742689747979671 0 0.41162515892536972 0.39294142062304371 0 0.40041440838314979 0.3871872229167912 0 0.41162515892536972 0.39294142062304371 0 0.41003413355627177 0.37846169010867647 0 0.41162515892536972 0.39294142062304371 0 0.41003413355627177 0.37846169010867647 0 0.4252536158639047 0.38872919074748719 0 0.4237317835409527 0.37427476146927569 0 0.41003413355627177 0.37846169010867647 0 0.4252536158639047 0.38872919074748719 0 0.4237317835409527 0.37427476146927569 0 0.4252536158639047 0.38872919074748719 0 0.43799540591458608 0.38050746693636822 0 0.4252536158639047 0.38872919074748719 0 0.43799540591458608 0.38050746693636822 0 0.43789884526055628 0.39717584553547852 0 0.43799540591458608 0.38050746693636822 0 0.43789884526055628 0.39717584553547852 0 0.45379920280277591 0.38603464189941372 0 0.449274503017287 0.3702620484633834 0 0.43799540591458608 0.38050746693636822 0 0.45379920280277591 0.38603464189941372 0 0.43789884526055628 0.39717584553547852 0 0.45372746161655669 0.40444272509670809 0 0.45379920280277591 0.38603464189941372 0 0.45372746161655669 0.40444272509670809 0 0.47495485695909972 0.39022156173406569 0 0.45372746161655669 0.40444272509670809 0 0.45379920280277591 0.38603464189941372 0 0.47495485695909972 0.39022156173406569 0 0.45372746161655669 0.40444272509670809 0 0.47495485695909972 0.39022156173406569 0 0.47358492157794679 0.41035774047696899 0 0.46237508566571639 0.37119040248890101 0 0.449274503017287 0.3702620484633834 0 0.45379920280277591 0.38603464189941372 0 0.46237508566571639 0.37119040248890101 0 0.45379920280277591 0.38603464189941372 0 0.47495485695909972 0.39022156173406569 0 0.47450063306197571 0.35536119497290758 0 0.47495485695909972 0.39022156173406569 0 0.5 0.40371247995192122 0 0.47495485695909972 0.39022156173406569 0 0.5 0.40371247995192122 0 0.47358492157794679 0.41035774047696899 0 0.5 0.40371247995192122 0 0.48777079086849412 0.42334028757647979 0 0.47358492157794679 0.41035774047696899 0 0.48777079086849412 0.42334028757647979 0 0.46159459941203063 0.43421033198157832 0 0.48777079086849412 0.42334028757647979 0 0.47358492157794679 0.41035774047696899 0 0.46159459941203063 0.43421033198157832 0 0.45372746161655669 0.40444272509670809 0 0.47358492157794679 0.41035774047696899 0 0.46159459941203063 0.43421033198157832 0 0.43250006627401388 0.41866388845935049 0 0.45372746161655669 0.40444272509670809 0 0.43250006627401388 0.41866388845935049 0 0.43789884526055628 0.39717584553547852 0 0.45372746161655669 0.40444272509670809 0 0.43250006627401388 0.41866388845935049 0 0.45372746161655669 0.40444272509670809 0 0.46159459941203063 0.43421033198157832 0 0.43250006627401388 0.41866388845935049 0 0.46159459941203063 0.43421033198157832 0 0.43541840795556708 0.44508037638667691 0 0.5 0.40371247995192122 0 0.48777079086849412 0.42334028757647979 0 0.5 0.5 0 0.48777079086849412 0.42334028757647979 0 0.46159459941203063 0.43421033198157832 0 0.5 0.5 0 0.46159459941203063 0.43421033198157832 0 0.5 0.5 0 0.43541840795556708 0.44508037638667691 0 0.5 0.5 0 0.43541840795556708 0.44508037638667691 0 0.38926440315541661 0.5 0 0.46159459941203063 0.43421033198157832 0 0.43541840795556708 0.44508037638667691 0 0.43541840795556708 0.44508037638667691 0 0.40924221649910392 0.45595042079177522 0 0.38992584039493439 0.49099094317715142 0 0.43541840795556708 0.44508037638667691 0 0.40924221649910392 0.45595042079177522 0 0.41127267093147091 0.43288505182199288 0 0.43541840795556708 0.44508037638667691 0 0.40924221649910392 0.45595042079177522 0 0.40924221649910392 0.45595042079177522 0 0.39004527558892799 0.44710621518463528 0 0.38898576563787418 0.46487611727281247 0 0.41127267093147091 0.43288505182199288 0 0.39004527558892799 0.44710621518463528 0 0.41127267093147091 0.43288505182199288 0 0.40924221649910392 0.45595042079177522 0 0.39004527558892799 0.44710621518463528 0 0.36757358112949923 0.45710121375389712 0 0.37262846685289031 0.4395057113053743 0 0.39004527558892799 0.44710621518463528 0 0.36757358112949923 0.45710121375389712 0 0.38898576563787418 0.46487611727281247 0 0.37874971076221681 0.47404607846552432 0 0.36757358112949923 0.45710121375389712 0 0.39004527558892799 0.44710621518463528 0 0.38898576563787418 0.46487611727281247 0 0.37874971076221681 0.47404607846552432 0 0.38992584039493439 0.49099094317715142 0 0.40924221649910392 0.45595042079177522 0 0.38898576563787418 0.46487611727281247 0 0.38992584039493439 0.49099094317715142 0 0.38898576563787418 0.46487611727281247 0 0.37874971076221681 0.47404607846552432 0 0.38992584039493439 0.49099094317715142 0 0.36676624368677102 0.47842409595896851 0 0.37874971076221681 0.47404607846552432 0 0.38992584039493439 0.49099094317715142 0 0.43541840795556708 0.44508037638667691 0 0.38992584039493439 0.49099094317715142 0 0.38926440315541661 0.5 0 0.36676624368677102 0.47842409595896851 0 0.38992584039493439 0.49099094317715142 0 0.38926440315541661 0.5 0 0.34027494432360023 0.08274205547160092 0 0.32355467349170719 0.082137782779588414 0 0.33929143860544408 0.1021601620176088 0 0.34027494432360023 0.08274205547160092 0 0.33179191795131269 0.069283523027753952 0 0.32355467349170719 0.082137782779588414 0 0.33179191795131269 0.069283523027753952 0 0.34945299998495882 0.070799793538973504 0 0.34169117756127421 0.059124604046667063 0 0.34027494432360023 0.08274205547160092 0 0.33179191795131269 0.069283523027753952 0 0.34945299998495882 0.070799793538973504 0 0.33179191795131269 0.069283523027753952 0 0.31779441024090271 0.067810470595066979 0 0.32355467349170719 0.082137782779588414 0 0.31779441024090271 0.067810470595066979 0 0.32355467349170719 0.082137782779588414 0 0.30321984577415728 0.076072933864455572 0 0.33179191795131269 0.069283523027753952 0 0.31779441024090271 0.067810470595066979 0 0.31798330210543352 0.053086431734626932 0 0.32355467349170719 0.082137782779588414 0 0.33929143860544408 0.1021601620176088 0 0.30946347463590729 0.096333533521555048 0 0.31570710349765729 0.1165941331786545 0 0.33929143860544408 0.1021601620176088 0 0.30946347463590729 0.096333533521555048 0 0.31570710349765729 0.1165941331786545 0 0.30946347463590729 0.096333533521555048 0 0.31570710349765729 0.1165941331786545 0 0.33492063917175507 0.1193293501806334 0 0.3188448094112134 0.1267760009295919 0 0.31570710349765729 0.1165941331786545 0 0.33929143860544408 0.1021601620176088 0 0.31570710349765729 0.1165941331786545 0 0.3188448094112134 0.1267760009295919 0 0.31570710349765729 0.1165941331786545 0 0.33492063917175507 0.1193293501806334 0 0.33929143860544408 0.1021601620176088 0 0.33929143860544408 0.1021601620176088 0 0.35839766492079322 0.1160000189471745 0 0.36287577371323038 0.087726190856562886 0 0.33929143860544408 0.1021601620176088 0 0.36287577371323038 0.087726190856562886 0 0.33492063917175507 0.1193293501806334 0 0.33929143860544408 0.1021601620176088 0 0.35839766492079322 0.1160000189471745 0 0.33492063917175507 0.1193293501806334 0 0.35839766492079322 0.1160000189471745 0 0.34903491864144032 0.13528590060226831 0 0.35839766492079322 0.1160000189471745 0 0.38086954234553799 0.1017369790920199 0 0.38039099362527812 0.1245371739967609 0 0.35839766492079322 0.1160000189471745 0 0.36287577371323038 0.087726190856562886 0 0.38086954234553799 0.1017369790920199 0 0.36287577371323038 0.087726190856562886 0 0.38646010882101639 0.073292219695516275 0 0.34027494432360023 0.08274205547160092 0 0.36287577371323038 0.087726190856562886 0 0.34945299998495882 0.070799793538973504 0 0.34027494432360023 0.08274205547160092 0 0.33929143860544408 0.1021601620176088 0 0.36287577371323038 0.087726190856562886 0 0.34945299998495882 0.070799793538973504 0 0.36666552645034389 0.069436355068878269 0 0.35392665049107269 0.058062014582888712 0 0.34945299998495882 0.070799793538973504 0 0.35392665049107269 0.058062014582888712 0 0.34169117756127421 0.059124604046667063 0 0.36287577371323038 0.087726190856562886 0 0.34945299998495882 0.070799793538973504 0 0.36666552645034389 0.069436355068878269 0 0.36287577371323038 0.087726190856562886 0 0.36666552645034389 0.069436355068878269 0 0.38646010882101639 0.073292219695516275 0 0.36666552645034389 0.069436355068878269 0 0.3712494132862923 0.054164300928492733 0 0.38646010882101639 0.073292219695516275 0 0.36666552645034389 0.069436355068878269 0 0.3712494132862923 0.054164300928492733 0 0.35392665049107269 0.058062014582888712 0 0.3712494132862923 0.054164300928492733 0 0.35603871775156798 0.035036382161469252 0 0.3712494132862923 0.054164300928492733 0 0.35603871775156798 0.035036382161469252 0 0.3708444278259968 0.029801619446643699 0 0.35603871775156798 0.035036382161469252 0 0.35050376840079528 0.043391016228654128 0 0.3712494132862923 0.054164300928492733 0 0.35603871775156798 0.035036382161469252 0 0.35050376840079528 0.043391016228654128 0 0.35603871775156798 0.035036382161469252 0 0.34651005113678401 0.037337345130235247 0 0.34613833768788138 0.030094518301944581 0 0.35603871775156798 0.035036382161469252 0 0.34651005113678401 0.037337345130235247 0 0.35050376840079528 0.043391016228654128 0 0.34651005113678401 0.037337345130235247 0 0.34613833768788138 0.030094518301944581 0 0.34040526296424339 0.034130012249823073 0 0.35050376840079528 0.043391016228654128 0 0.34271859693263318 0.049237933921512753 0 0.34107013828221999 0.040792417929718529 0 0.34651005113678401 0.037337345130235247 0 0.35050376840079528 0.043391016228654128 0 0.34107013828221999 0.040792417929718529 0 0.35050376840079528 0.043391016228654128 0 0.35392665049107269 0.058062014582888712 0 0.34271859693263318 0.049237933921512753 0 0.3712494132862923 0.054164300928492733 0 0.35050376840079528 0.043391016228654128 0 0.35392665049107269 0.058062014582888712 0 0.35392665049107269 0.058062014582888712 0 0.34169117756127421 0.059124604046667063 0 0.34271859693263318 0.049237933921512753 0 0.37074806474438499 0.0128336114215599 0 0.35781662780556539 -0.0060507171186920863 0 0.37074806474438499 0.0128336114215599 0 0.38177212989710541 -0.0038064740511190229 0 0.35781662780556539 -0.0060507171186920863 0 0.35603871775156798 0.035036382161469252 0 0.37074806474438499 0.0128336114215599 0 0.3708444278259968 0.029801619446643699 0 0.35603871775156798 0.035036382161469252 0 0.37074806474438499 0.0128336114215599 0 0.37074806474438499 0.0128336114215599 0 0.3708444278259968 0.029801619446643699 0 0.376284423196455 0.019711610509055889 0 0.35603871775156798 0.035036382161469252 0 0.37074806474438499 0.0128336114215599 0 0.34509099329838788 0.0212692810091165 0 0.35603871775156798 0.035036382161469252 0 0.34509099329838788 0.0212692810091165 0 0.35603871775156798 0.035036382161469252 0 0.34613833768788138 0.030094518301944581 0 0.34509099329838788 0.0212692810091165 0 0.37074806474438499 0.0128336114215599 0 0.34943424683897151 0.0057298490405236447 0 0.35781662780556539 -0.0060507171186920863 0 0.37074806474438499 0.0128336114215599 0 0.34509099329838788 0.0212692810091165 0 0.34943424683897151 0.0057298490405236447 0 0.34943424683897151 0.0057298490405236447 0 0.3341432688452064 0.0075021798567649258 0 0.33951422985597463 -0.0087164329010892671 0 0.34509099329838788 0.0212692810091165 0 0.3341432688452064 0.0075021798567649258 0 0.33156458669054789 0.01528898881108909 0 0.34509099329838788 0.0212692810091165 0 0.34943424683897151 0.0057298490405236447 0 0.3341432688452064 0.0075021798567649258 0 0.34509099329838788 0.0212692810091165 0 0.3341432688452064 0.0075021798567649258 0 0.3341432688452064 0.0075021798567649258 0 0.33156458669054789 0.01528898881108909 0 0.33156458669054789 0.01528898881108909 0 0.33033399109532618 0.0190050004113223 0 0.32352671149830808 0.020303780856908839 0 0.33156458669054789 0.01528898881108909 0 0.33033399109532618 0.0190050004113223 0 0.33401959034850398 0.027157502057246909 0 0.33156458669054789 0.01528898881108909 0 0.33033399109532618 0.0190050004113223 0 0.34613833768788138 0.030094518301944581 0 0.34509099329838788 0.0212692810091165 0 0.33156458669054789 0.01528898881108909 0 0.34613833768788138 0.030094518301944581 0 0.33156458669054789 0.01528898881108909 0 0.34613833768788138 0.030094518301944581 0 0.33156458669054789 0.01528898881108909 0 0.33401959034850398 0.027157502057246909 0 0.34613833768788138 0.030094518301944581 0 0.33401959034850398 0.027157502057246909 0 0.34040526296424339 0.034130012249823073 0 0.33033399109532618 0.0190050004113223 0 0.33401959034850398 0.027157502057246909 0 0.32785983974055199 0.025460418630353539 0 0.33401959034850398 0.027157502057246909 0 0.32785983974055199 0.025460418630353539 0 0.32747203871753688 0.031739486558631777 0 0.33156458669054789 0.01528898881108909 0 0.32352671149830808 0.020303780856908839 0 0.3152088295116417 0.012519754001002871 0 0.32785983974055199 0.025460418630353539 0 0.32206956615499671 0.027478337712225701 0 0.32747203871753688 0.031739486558631777 0 0.32785983974055199 0.025460418630353539 0 0.32206956615499671 0.027478337712225701 0 0.32352671149830808 0.020303780856908839 0 0.32206956615499671 0.027478337712225701 0 0.31636310188807593 0.030765709573350779 0 0.31349542790498258 0.022204520578080179 0 0.31636310188807593 0.030765709573350779 0 0.31349542790498258 0.022204520578080179 0 0.31012763308059238 0.03105974513272337 0 0.32206956615499671 0.027478337712225701 0 0.31349542790498258 0.022204520578080179 0 0.32352671149830808 0.020303780856908839 0 0.31349542790498258 0.022204520578080179 0 0.32352671149830808 0.020303780856908839 0 0.3152088295116417 0.012519754001002871 0 0.33033399109532618 0.0190050004113223 0 0.32785983974055199 0.025460418630353539 0 0.32352671149830808 0.020303780856908839 0 0.33156458669054789 0.01528898881108909 0 0.3128121591228229 -0.0037616742220522481 0 0.3341432688452064 0.0075021798567649258 0 0.33156458669054789 0.01528898881108909 0 0.3128121591228229 -0.0037616742220522481 0 0.33156458669054789 0.01528898881108909 0 0.3152088295116417 0.012519754001002871 0 0.3128121591228229 -0.0037616742220522481 0 0.33179191795131269 0.069283523027753952 0 0.34169117756127421 0.059124604046667063 0 0.31798330210543352 0.053086431734626932 0 0.34169117756127421 0.059124604046667063 0 0.33239600375851119 0.046368352519524203 0 0.31798330210543352 0.053086431734626932 0 0.34169117756127421 0.059124604046667063 0 0.31798330210543352 0.053086431734626932 0 0.34169117756127421 0.059124604046667063 0 0.34271859693263318 0.049237933921512753 0 0.33239600375851119 0.046368352519524203 0 0.34271859693263318 0.049237933921512753 0 0.34107013828221999 0.040792417929718529 0 0.33239600375851119 0.046368352519524203 0 0.33401959034850398 0.027157502057246909 0 0.34040526296424339 0.034130012249823073 0 0.33372278954110579 0.036530914521093957 0 0.34651005113678401 0.037337345130235247 0 0.34107013828221999 0.040792417929718529 0 0.34040526296424339 0.034130012249823073 0 0.34107013828221999 0.040792417929718529 0 0.34040526296424339 0.034130012249823073 0 0.33372278954110579 0.036530914521093957 0 0.33401959034850398 0.027157502057246909 0 0.33372278954110579 0.036530914521093957 0 0.32747203871753688 0.031739486558631777 0 0.33372278954110579 0.036530914521093957 0 0.32747203871753688 0.031739486558631777 0 0.32697370317561952 0.038997715811619288 0 0.34107013828221999 0.040792417929718529 0 0.33372278954110579 0.036530914521093957 0 0.33239600375851119 0.046368352519524203 0 0.33372278954110579 0.036530914521093957 0 0.33239600375851119 0.046368352519524203 0 0.32697370317561952 0.038997715811619288 0 0.33239600375851119 0.046368352519524203 0 0.32697370317561952 0.038997715811619288 0 0.31957869548516232 0.042831143625766177 0 0.32697370317561952 0.038997715811619288 0 0.31962133551972222 0.036074667310375168 0 0.31957869548516232 0.042831143625766177 0 0.32206956615499671 0.027478337712225701 0 0.32747203871753688 0.031739486558631777 0 0.31962133551972222 0.036074667310375168 0 0.32747203871753688 0.031739486558631777 0 0.32697370317561952 0.038997715811619288 0 0.31962133551972222 0.036074667310375168 0 0.32206956615499671 0.027478337712225701 0 0.31636310188807593 0.030765709573350779 0 0.31962133551972222 0.036074667310375168 0 0.31962133551972222 0.036074667310375168 0 0.31957869548516232 0.042831143625766177 0 0.31197080791954762 0.037703397971856019 0 0.31636310188807593 0.030765709573350779 0 0.31197080791954762 0.037703397971856019 0 0.31012763308059238 0.03105974513272337 0 0.31636310188807593 0.030765709573350779 0 0.31962133551972222 0.036074667310375168 0 0.31197080791954762 0.037703397971856019 0 0.31957869548516232 0.042831143625766177 0 0.31798330210543352 0.053086431734626932 0 0.30865272612606082 0.043887349199197949 0 0.31957869548516232 0.042831143625766177 0 0.30865272612606082 0.043887349199197949 0 0.31197080791954762 0.037703397971856019 0 0.33239600375851119 0.046368352519524203 0 0.31957869548516232 0.042831143625766177 0 0.31798330210543352 0.053086431734626932 0 0.31798330210543352 0.053086431734626932 0 0.29427542664959261 0.047048259422587682 0 0.31798330210543352 0.053086431734626932 0 0.29697621691240761 0.055812334207355929 0 0.29427542664959261 0.047048259422587682 0 0.31798330210543352 0.053086431734626932 0 0.30865272612606082 0.043887349199197949 0 0.29427542664959261 0.047048259422587682 0 0.31779441024090271 0.067810470595066979 0 0.31798330210543352 0.053086431734626932 0 0.29697621691240761 0.055812334207355929 0 0.31779441024090271 0.067810470595066979 0 0.29697621691240761 0.055812334207355929 0 0.31197080791954762 0.037703397971856019 0 0.29979755365498889 0.035402357742011392 0 0.31012763308059238 0.03105974513272337 0 0.30865272612606082 0.043887349199197949 0 0.31197080791954762 0.037703397971856019 0 0.29979755365498889 0.035402357742011392 0 0.29979755365498889 0.035402357742011392 0 0.31012763308059238 0.03105974513272337 0 0.30244317340959692 0.02762552031992286 0 0.30865272612606082 0.043887349199197949 0 0.29979755365498889 0.035402357742011392 0 0.29427542664959261 0.047048259422587682 0 0.29427542664959261 0.047048259422587682 0 0.28815772154992791 0.02719628285751589 0 0.29427542664959261 0.047048259422587682 0 0.28815772154992791 0.02719628285751589 0 0.27587407148813953 0.03509049677549457 0 0.29979755365498889 0.035402357742011392 0 0.29427542664959261 0.047048259422587682 0 0.28815772154992791 0.02719628285751589 0 0.29427542664959261 0.047048259422587682 0 0.2718666567455702 0.041340957043958751 0 0.29697621691240761 0.055812334207355929 0 0.29427542664959261 0.047048259422587682 0 0.2718666567455702 0.041340957043958751 0 0.29697621691240761 0.055812334207355929 0 0.2718666567455702 0.041340957043958751 0 0.28391733574839512 0.066510700661278732 0 0.29697621691240761 0.055812334207355929 0 0.2718666567455702 0.041340957043958751 0 0.29697621691240761 0.055812334207355929 0 0.29427542664959261 0.047048259422587682 0 0.3152088295116417 0.012519754001002871 0 0.30366700803312707 0.0099431978903801906 0 0.3128121591228229 -0.0037616742220522481 0 0.30366700803312707 0.0099431978903801906 0 0.29133023549735382 0.0069148364263318229 0 0.29600732405563013 -0.0056944125088911179 0 0.30366700803312707 0.0099431978903801906 0 0.3128121591228229 -0.0037616742220522481 0 0.29600732405563013 -0.0056944125088911179 0 0.31349542790498258 0.022204520578080179 0 0.3152088295116417 0.012519754001002871 0 0.30366700803312707 0.0099431978903801906 0 0.30366700803312707 0.0099431978903801906 0 0.29888444326290159 0.01988190779369909 0 0.29133023549735382 0.0069148364263318229 0 0.31349542790498258 0.022204520578080179 0 0.29888444326290159 0.01988190779369909 0 0.30244317340959692 0.02762552031992286 0 0.31349542790498258 0.022204520578080179 0 0.30366700803312707 0.0099431978903801906 0 0.29888444326290159 0.01988190779369909 0 0.31349542790498258 0.022204520578080179 0 0.31012763308059238 0.03105974513272337 0 0.30244317340959692 0.02762552031992286 0 0.28815772154992791 0.02719628285751589 0 0.28346335519083482 0.017340383360276469 0 0.27587407148813953 0.03509049677549457 0 0.29979755365498889 0.035402357742011392 0 0.30244317340959692 0.02762552031992286 0 0.28815772154992791 0.02719628285751589 0 0.29888444326290159 0.01988190779369909 0 0.30244317340959692 0.02762552031992286 0 0.28815772154992791 0.02719628285751589 0 0.29888444326290159 0.01988190779369909 0 0.28815772154992791 0.02719628285751589 0 0.28346335519083482 0.017340383360276469 0 0.28346335519083482 0.017340383360276469 0 0.29133023549735382 0.0069148364263318229 0 0.27180313609554629 0.0064325663205091234 0 0.29888444326290159 0.01988190779369909 0 0.28346335519083482 0.017340383360276469 0 0.29133023549735382 0.0069148364263318229 0 0.29133023549735382 0.0069148364263318229 0 0.27180313609554629 0.0064325663205091234 0 0.28040157571996438 -0.0094129082818092888 0 0.28346335519083482 0.017340383360276469 0 0.27180313609554629 0.0064325663205091234 0 0.27587407148813953 0.03509049677549457 0 0.27180313609554629 0.0064325663205091234 0 0.26595873469214132 0.03109424131399887 0 0.27587407148813953 0.03509049677549457 0 0.27180313609554629 0.0064325663205091234 0 0.27587407148813953 0.03509049677549457 0 0.27180313609554629 0.0064325663205091234 0 0.26595873469214132 0.03109424131399887 0 0.2580147279617046 0.016732788727074909 0 0.26595873469214132 0.03109424131399887 0 0.2580147279617046 0.016732788727074909 0 0.25476028869216721 0.031482054603957102 0 0.24541456557393751 0.024685190324105249 0 0.2580147279617046 0.016732788727074909 0 0.25476028869216721 0.031482054603957102 0 0.27180313609554629 0.0064325663205091234 0 0.25197628184863868 0.0051656796147290978 0 0.25899550820555201 -0.0050161061057214986 0 0.27180313609554629 0.0064325663205091234 0 0.2580147279617046 0.016732788727074909 0 0.25197628184863868 0.0051656796147290978 0 0.24567564017074209 0.014119593049138551 0 0.2580147279617046 0.016732788727074909 0 0.25197628184863868 0.0051656796147290978 0 0.2718666567455702 0.041340957043958751 0 0.26703741512148288 0.066270488947615336 0 0.28391733574839512 0.066510700661278732 0 0.29427542664959261 0.047048259422587682 0 0.27587407148813953 0.03509049677549457 0 0.2718666567455702 0.041340957043958751 0 0.26595873469214132 0.03109424131399887 0 0.27587407148813953 0.03509049677549457 0 0.2718666567455702 0.041340957043958751 0 0.2718666567455702 0.041340957043958751 0 0.25476028869216721 0.031482054603957102 0 0.24691542149975779 0.034986112718363299 0 0.2718666567455702 0.041340957043958751 0 0.25476028869216721 0.031482054603957102 0 0.24691542149975779 0.034986112718363299 0 0.2718666567455702 0.041340957043958751 0 0.24735006605431861 0.04938372300819379 0 0.24691542149975779 0.034986112718363299 0 0.2718666567455702 0.041340957043958751 0 0.26595873469214132 0.03109424131399887 0 0.2718666567455702 0.041340957043958751 0 0.25476028869216721 0.031482054603957102 0 0.26595873469214132 0.03109424131399887 0 0.25476028869216721 0.031482054603957102 0 0.24735006605431861 0.04938372300819379 0 0.26703741512148288 0.066270488947615336 0 0.24735006605431861 0.04938372300819379 0 0.2718666567455702 0.041340957043958751 0 0.26703741512148288 0.066270488947615336 0 0.2478465110212274 0.070439300038157515 0 0.24735006605431861 0.04938372300819379 0 0.26703741512148288 0.066270488947615336 0 0.2478465110212274 0.070439300038157515 0 0.27081351035297457 0.081787727985532147 0 0.26703741512148288 0.066270488947615336 0 0.2478465110212274 0.070439300038157515 0 0.25317767889284221 0.088265634331709378 0 0.27081351035297457 0.081787727985532147 0 0.25317767889284221 0.088265634331709378 0 0.27081351035297457 0.081787727985532147 0 0.2707478412969756 0.097757677582579416 0 0.27081351035297457 0.081787727985532147 0 0.28672476418864712 0.083157254887036819 0 0.2707478412969756 0.097757677582579416 0 0.26703741512148288 0.066270488947615336 0 0.28391733574839512 0.066510700661278732 0 0.28672476418864712 0.083157254887036819 0 0.26703741512148288 0.066270488947615336 0 0.28672476418864712 0.083157254887036819 0 0.27081351035297457 0.081787727985532147 0 0.26703741512148288 0.066270488947615336 0 0.28672476418864712 0.083157254887036819 0 0.29697621691240761 0.055812334207355929 0 0.28391733574839512 0.066510700661278732 0 0.30321984577415728 0.076072933864455572 0 0.28391733574839512 0.066510700661278732 0 0.28672476418864712 0.083157254887036819 0 0.30321984577415728 0.076072933864455572 0 0.28672476418864712 0.083157254887036819 0 0.30641211325581141 0.1000440208264583 0 0.28672476418864712 0.083157254887036819 0 0.30321984577415728 0.076072933864455572 0 0.30946347463590729 0.096333533521555048 0 0.28672476418864712 0.083157254887036819 0 0.30946347463590729 0.096333533521555048 0 0.30641211325581141 0.1000440208264583 0 0.32355467349170719 0.082137782779588414 0 0.30321984577415728 0.076072933864455572 0 0.30946347463590729 0.096333533521555048 0 0.30321984577415728 0.076072933864455572 0 0.30946347463590729 0.096333533521555048 0 0.31779441024090271 0.067810470595066979 0 0.29697621691240761 0.055812334207355929 0 0.30321984577415728 0.076072933864455572 0 0.29697621691240761 0.055812334207355929 0 0.30321984577415728 0.076072933864455572 0 0.31570710349765729 0.1165941331786545 0 0.29197634633539848 0.13111771686012769 0 0.31570710349765729 0.1165941331786545 0 0.298264476574363 0.11514893757960271 0 0.29197634633539848 0.13111771686012769 0 0.31570710349765729 0.1165941331786545 0 0.298264476574363 0.11514893757960271 0 0.30629111363597827 0.1078258113616163 0 0.31570710349765729 0.1165941331786545 0 0.29197634633539848 0.13111771686012769 0 0.3188448094112134 0.1267760009295919 0 0.298264476574363 0.11514893757960271 0 0.30629111363597827 0.1078258113616163 0 0.30018073367720188 0.1064071519847135 0 0.30641211325581141 0.1000440208264583 0 0.30018073367720188 0.1064071519847135 0 0.28975523124265518 0.10260983817117671 0 0.31570710349765729 0.1165941331786545 0 0.30629111363597827 0.1078258113616163 0 0.30946347463590729 0.096333533521555048 0 0.30629111363597827 0.1078258113616163 0 0.30946347463590729 0.096333533521555048 0 0.30641211325581141 0.1000440208264583 0 0.30629111363597827 0.1078258113616163 0 0.30641211325581141 0.1000440208264583 0 0.30018073367720188 0.1064071519847135 0 0.28672476418864712 0.083157254887036819 0 0.28975523124265518 0.10260983817117671 0 0.2707478412969756 0.097757677582579416 0 0.298264476574363 0.11514893757960271 0 0.30018073367720188 0.1064071519847135 0 0.28975523124265518 0.10260983817117671 0 0.28672476418864712 0.083157254887036819 0 0.30641211325581141 0.1000440208264583 0 0.28975523124265518 0.10260983817117671 0 0.298264476574363 0.11514893757960271 0 0.2802334497292383 0.1172711913265167 0 0.29197634633539848 0.13111771686012769 0 0.298264476574363 0.11514893757960271 0 0.28975523124265518 0.10260983817117671 0 0.2802334497292383 0.1172711913265167 0 0.2802334497292383 0.1172711913265167 0 0.2707478412969756 0.097757677582579416 0 0.26200350486827562 0.11856007979607611 0 0.2802334497292383 0.1172711913265167 0 0.26200350486827562 0.11856007979607611 0 0.27114361170912549 0.13039055410677869 0 0.2707478412969756 0.097757677582579416 0 0.26200350486827562 0.11856007979607611 0 0.28975523124265518 0.10260983817117671 0 0.2802334497292383 0.1172711913265167 0 0.2707478412969756 0.097757677582579416 0 0.2499041473174686 0.1126215723809678 0 0.2707478412969756 0.097757677582579416 0 0.25099925453232802 0.099791245076321963 0 0.25317767889284221 0.088265634331709378 0 0.2707478412969756 0.097757677582579416 0 0.25099925453232802 0.099791245076321963 0 0.2499041473174686 0.1126215723809678 0 0.2707478412969756 0.097757677582579416 0 0.26200350486827562 0.11856007979607611 0 0.24945576560316771 0.12615472028677199 0 0.2499041473174686 0.1126215723809678 0 0.26200350486827562 0.11856007979607611 0 0.26200350486827562 0.11856007979607611 0 0.25325916843957558 0.1393624820095726 0 0.27114361170912549 0.13039055410677869 0 0.26200350486827562 0.11856007979607611 0 0.25325916843957558 0.1393624820095726 0 0.25325916843957558 0.1393624820095726 0 0.27114361170912549 0.13039055410677869 0 0.26824558917313962 0.1456413005416004 0 0.24945576560316771 0.12615472028677199 0 0.26200350486827562 0.11856007979607611 0 0.25325916843957558 0.1393624820095726 0 0.26824558917313962 0.1456413005416004 0 0.29197634633539848 0.13111771686012769 0 0.27114361170912549 0.13039055410677869 0 0.26824558917313962 0.1456413005416004 0 0.29197634633539848 0.13111771686012769 0 0.2802334497292383 0.1172711913265167 0 0.27114361170912549 0.13039055410677869 0 0.29197634633539848 0.13111771686012769 0 0.26824558917313962 0.1456413005416004 0 0.26371291471190972 0.16413027107594841 0 0.28396854692066231 0.1548236889716052 0 0.24451483201087909 0.1601648842230706 0 0.26824558917313962 0.1456413005416004 0 0.24451483201087909 0.1601648842230706 0 0.25325916843957558 0.1393624820095726 0 0.26824558917313962 0.1456413005416004 0 0.24451483201087909 0.1601648842230706 0 0.25341655966781701 0.1705551613544993 0 0.26371291471190972 0.16413027107594841 0 0.24451483201087909 0.1601648842230706 0 0.26824558917313962 0.1456413005416004 0 0.26371291471190972 0.16413027107594841 0 0.25341655966781701 0.1705551613544993 0 0.26371291471190972 0.16413027107594841 0 0.25888097123098008 0.17936519755009861 0 0.25125949940876557 0.1865332481602214 0 0.25888097123098008 0.17936519755009861 0 0.25827683990477052 0.19048673584282219 0 0.24655752071749731 0.17856029256887709 0 0.25125949940876557 0.1865332481602214 0 0.25888097123098008 0.17936519755009861 0 0.24655752071749731 0.17856029256887709 0 0.25341655966781701 0.1705551613544993 0 0.25888097123098008 0.17936519755009861 0 0.25888097123098008 0.17936519755009861 0 0.26763755622857083 0.1870759780467797 0 0.25827683990477052 0.19048673584282219 0 0.25888097123098008 0.17936519755009861 0 0.27676916031474152 0.17647389473198161 0 0.26763755622857083 0.1870759780467797 0 0.26371291471190972 0.16413027107594841 0 0.25888097123098008 0.17936519755009861 0 0.27676916031474152 0.17647389473198161 0 0.27676916031474152 0.17647389473198161 0 0.26763755622857083 0.1870759780467797 0 0.27661476040069338 0.19528646413973891 0 0.26371291471190972 0.16413027107594841 0 0.27676916031474152 0.17647389473198161 0 0.28396854692066231 0.1548236889716052 0 0.27676916031474152 0.17647389473198161 0 0.29548049758773243 0.16592189147154471 0 0.28396854692066231 0.1548236889716052 0 0.27676916031474152 0.17647389473198161 0 0.29489140072334519 0.1853747067758558 0 0.27661476040069338 0.19528646413973891 0 0.27676916031474152 0.17647389473198161 0 0.29548049758773243 0.16592189147154471 0 0.29489140072334519 0.1853747067758558 0 0.29489140072334519 0.1853747067758558 0 0.31149716804071143 0.19586364947637261 0 0.3145419810135871 0.16829504009510671 0 0.29548049758773243 0.16592189147154471 0 0.29489140072334519 0.1853747067758558 0 0.3145419810135871 0.16829504009510671 0 0.29548049758773243 0.16592189147154471 0 0.30762677340105238 0.1456570591484288 0 0.3145419810135871 0.16829504009510671 0 0.30762677340105238 0.1456570591484288 0 0.29197634633539848 0.13111771686012769 0 0.3188448094112134 0.1267760009295919 0 0.30762677340105238 0.1456570591484288 0 0.29197634633539848 0.13111771686012769 0 0.28396854692066231 0.1548236889716052 0 0.26824558917313962 0.1456413005416004 0 0.29197634633539848 0.13111771686012769 0 0.28396854692066231 0.1548236889716052 0 0.29548049758773243 0.16592189147154471 0 0.30762677340105238 0.1456570591484288 0 0.28396854692066231 0.1548236889716052 0 0.27394636987571819 0.2430972415952746 0 0.26039351933152011 0.24124957149211521 0 0.27742806890125038 0.2261209308202011 0 0.27394636987571819 0.2430972415952746 0 0.27742806890125038 0.2261209308202011 0 0.28702817405553338 0.24886536820887589 0 0.27093571721456888 0.25615309585990631 0 0.27394636987571819 0.2430972415952746 0 0.28702817405553338 0.24886536820887589 0 0.27093571721456888 0.25615309585990631 0 0.27394636987571819 0.2430972415952746 0 0.26039351933152011 0.24124957149211521 0 0.24589653344452231 0.23375499404996961 0 0.25182038173936289 0.25864808758374469 0 0.26039351933152011 0.24124957149211521 0 0.26039351933152011 0.24124957149211521 0 0.25824271161636492 0.22233484511280191 0 0.27742806890125038 0.2261209308202011 0 0.24589653344452231 0.23375499404996961 0 0.26039351933152011 0.24124957149211521 0 0.25824271161636492 0.22233484511280191 0 0.2491656828497332 0.21658518813443031 0 0.24589653344452231 0.23375499404996961 0 0.25824271161636492 0.22233484511280191 0 0.25824271161636492 0.22233484511280191 0 0.27742806890125038 0.2261209308202011 0 0.27002852887765522 0.21071327958425831 0 0.26039351933152011 0.24124957149211521 0 0.27742806890125038 0.2261209308202011 0 0.27742806890125038 0.2261209308202011 0 0.27002852887765522 0.21071327958425831 0 0.29446261847098087 0.21099229014828691 0 0.27002852887765522 0.21071327958425831 0 0.27661476040069338 0.19528646413973891 0 0.29446261847098087 0.21099229014828691 0 0.25824271161636492 0.22233484511280191 0 0.27002852887765522 0.21071327958425831 0 0.25686888040273781 0.2099468495260364 0 0.2491656828497332 0.21658518813443031 0 0.25824271161636492 0.22233484511280191 0 0.25686888040273781 0.2099468495260364 0 0.24720077992058109 0.2060430513269037 0 0.2491656828497332 0.21658518813443031 0 0.25686888040273781 0.2099468495260364 0 0.24720077992058109 0.2060430513269037 0 0.25686888040273781 0.2099468495260364 0 0.25340524049174229 0.20349517553653201 0 0.24720077992058109 0.2060430513269037 0 0.25340524049174229 0.20349517553653201 0 0.25686888040273781 0.2099468495260364 0 0.25340524049174229 0.20349517553653201 0 0.26319411162933071 0.20056905961999999 0 0.27002852887765522 0.21071327958425831 0 0.25686888040273781 0.2099468495260364 0 0.26319411162933071 0.20056905961999999 0 0.26319411162933071 0.20056905961999999 0 0.25269584698820519 0.19667155210436921 0 0.25827683990477052 0.19048673584282219 0 0.24720077992058109 0.2060430513269037 0 0.25340524049174229 0.20349517553653201 0 0.25269584698820519 0.19667155210436921 0 0.25340524049174229 0.20349517553653201 0 0.26319411162933071 0.20056905961999999 0 0.25269584698820519 0.19667155210436921 0 0.25125949940876557 0.1865332481602214 0 0.25269584698820519 0.19667155210436921 0 0.25827683990477052 0.19048673584282219 0 0.26763755622857083 0.1870759780467797 0 0.26319411162933071 0.20056905961999999 0 0.25827683990477052 0.19048673584282219 0 0.26763755622857083 0.1870759780467797 0 0.26319411162933071 0.20056905961999999 0 0.27661476040069338 0.19528646413973891 0 0.27002852887765522 0.21071327958425831 0 0.26319411162933071 0.20056905961999999 0 0.27661476040069338 0.19528646413973891 0 0.29489140072334519 0.1853747067758558 0 0.27661476040069338 0.19528646413973891 0 0.29446261847098087 0.21099229014828691 0 0.29489140072334519 0.1853747067758558 0 0.31149716804071143 0.19586364947637261 0 0.29446261847098087 0.21099229014828691 0 0.31149716804071143 0.19586364947637261 0 0.29446261847098087 0.21099229014828691 0 0.31802090649223069 0.21307633780189711 0 0.31149716804071143 0.19586364947637261 0 0.29446261847098087 0.21099229014828691 0 0.29446261847098087 0.21099229014828691 0 0.30459736554669969 0.22332671298235179 0 0.31802090649223069 0.21307633780189711 0 0.27742806890125038 0.2261209308202011 0 0.29446261847098087 0.21099229014828691 0 0.27742806890125038 0.2261209308202011 0 0.30459736554669969 0.22332671298235179 0 0.30198296723744328 0.24039256257184269 0 0.27742806890125038 0.2261209308202011 0 0.29446261847098087 0.21099229014828691 0 0.30459736554669969 0.22332671298235179 0 0.30459736554669969 0.22332671298235179 0 0.30198296723744328 0.24039256257184269 0 0.32457314752611632 0.23534393270117471 0 0.30085408144977849 0.25506947009820818 0 0.30198296723744328 0.24039256257184269 0 0.28702817405553338 0.24886536820887589 0 0.27742806890125038 0.2261209308202011 0 0.30198296723744328 0.24039256257184269 0 0.28702817405553338 0.24886536820887589 0 0.32457314752611632 0.23534393270117471 0 0.34623256453454282 0.231213714070923 0 0.343917366577356 0.24832173179906719 0 0.33032592345039269 0.25777531348904947 0 0.32457314752611632 0.23534393270117471 0 0.343917366577356 0.24832173179906719 0 0.31418920758497548 0.25524760539231522 0 0.30198296723744328 0.24039256257184269 0 0.32457314752611632 0.23534393270117471 0 0.31418920758497548 0.25524760539231522 0 0.33032592345039269 0.25777531348904947 0 0.32457314752611632 0.23534393270117471 0 0.32457314752611632 0.23534393270117471 0 0.33778326537895509 0.21564722519150831 0 0.31802090649223069 0.21307633780189711 0 0.30459736554669969 0.22332671298235179 0 0.32457314752611632 0.23534393270117471 0 0.31802090649223069 0.21307633780189711 0 0.32457314752611632 0.23534393270117471 0 0.33778326537895509 0.21564722519150831 0 0.34623256453454282 0.231213714070923 0 0.33778326537895509 0.21564722519150831 0 0.31802090649223069 0.21307633780189711 0 0.33521187398992131 0.19728421631168849 0 0.33778326537895509 0.21564722519150831 0 0.33521187398992131 0.19728421631168849 0 0.34942124727809598 0.20729530726019199 0 0.31149716804071143 0.19586364947637261 0 0.31802090649223069 0.21307633780189711 0 0.33521187398992131 0.19728421631168849 0 0.31149716804071143 0.19586364947637261 0 0.32853171761044192 0.18073500880445839 0 0.31149716804071143 0.19586364947637261 0 0.33521187398992131 0.19728421631168849 0 0.32853171761044192 0.18073500880445839 0 0.33521187398992131 0.19728421631168849 0 0.35059115605304342 0.193861231873699 0 0.34506939583143559 0.18172230518989491 0 0.33521187398992131 0.19728421631168849 0 0.35059115605304342 0.193861231873699 0 0.34942124727809598 0.20729530726019199 0 0.35059115605304342 0.193861231873699 0 0.3603102994727122 0.2006342513644874 0 0.34942124727809598 0.20729530726019199 0 0.35059115605304342 0.193861231873699 0 0.3603102994727122 0.2006342513644874 0 0.36048009496670269 0.18706370815598719 0 0.35059115605304342 0.193861231873699 0 0.34506939583143559 0.18172230518989491 0 0.36048009496670269 0.18706370815598719 0 0.36973640659909862 0.1967287469634717 0 0.36048009496670269 0.18706370815598719 0 0.37853599879473232 0.18250383705155979 0 0.36973640659909862 0.1967287469634717 0 0.3603102994727122 0.2006342513644874 0 0.36048009496670269 0.18706370815598719 0 0.36973640659909862 0.1967287469634717 0 0.3603102994727122 0.2006342513644874 0 0.36747074980764738 0.2053371921967875 0 0.3603102994727122 0.2006342513644874 0 0.36747074980764738 0.2053371921967875 0 0.36222779177931941 0.21249860188023159 0 0.36395912561929528 0.22803912849048799 0 0.37754977914907428 0.2133221773275093 0 0.37760850137945923 0.2114871685789593 0 0.36222779177931941 0.21249860188023159 0 0.36395912561929528 0.22803912849048799 0 0.37760850137945923 0.2114871685789593 0 0.36747074980764738 0.2053371921967875 0 0.36222779177931941 0.21249860188023159 0 0.37760850137945923 0.2114871685789593 0 0.36973640659909862 0.1967287469634717 0 0.36747074980764738 0.2053371921967875 0 0.37760850137945923 0.2114871685789593 0 0.36222779177931941 0.21249860188023159 0 0.34942124727809598 0.20729530726019199 0 0.35192479891804168 0.21893879537866859 0 0.3603102994727122 0.2006342513644874 0 0.36222779177931941 0.21249860188023159 0 0.34942124727809598 0.20729530726019199 0 0.33778326537895509 0.21564722519150831 0 0.34942124727809598 0.20729530726019199 0 0.35192479891804168 0.21893879537866859 0 0.34623256453454282 0.231213714070923 0 0.36395912561929528 0.22803912849048799 0 0.35798833293983601 0.24167511885678411 0 0.34623256453454282 0.231213714070923 0 0.35192479891804168 0.21893879537866859 0 0.36395912561929528 0.22803912849048799 0 0.33778326537895509 0.21564722519150831 0 0.34623256453454282 0.231213714070923 0 0.35192479891804168 0.21893879537866859 0 0.36222779177931941 0.21249860188023159 0 0.35192479891804168 0.21893879537866859 0 0.36395912561929528 0.22803912849048799 0 0.36395912561929528 0.22803912849048799 0 0.38178860342640641 0.22546404231931019 0 0.37754977914907428 0.2133221773275093 0 0.36395912561929528 0.22803912849048799 0 0.37251516075371882 0.24207903867420399 0 0.38178860342640641 0.22546404231931019 0 0.36395912561929528 0.22803912849048799 0 0.37760850137945923 0.2114871685789593 0 0.36395912561929528 0.22803912849048799 0 0.37251516075371882 0.24207903867420399 0 0.35798833293983601 0.24167511885678411 0 0.36331744721426701 0.25872198124923812 0 0.37251516075371882 0.24207903867420399 0 0.35798833293983601 0.24167511885678411 0 0.34623256453454282 0.231213714070923 0 0.343917366577356 0.24832173179906719 0 0.35798833293983601 0.24167511885678411 0 0.36331744721426701 0.25872198124923812 0 0.343917366577356 0.24832173179906719 0 0.35798833293983601 0.24167511885678411 0 0.34372943676498208 0.15111495397967939 0 0.33282990224798731 0.13692235245376669 0 0.34903491864144032 0.13528590060226831 0 0.34372943676498208 0.15111495397967939 0 0.32604923529574031 0.1512432560964653 0 0.33652647336826419 0.16611528814801041 0 0.34372943676498208 0.15111495397967939 0 0.33282990224798731 0.13692235245376669 0 0.32604923529574031 0.1512432560964653 0 0.33492063917175507 0.1193293501806334 0 0.33282990224798731 0.13692235245376669 0 0.3188448094112134 0.1267760009295919 0 0.33492063917175507 0.1193293501806334 0 0.33282990224798731 0.13692235245376669 0 0.34903491864144032 0.13528590060226831 0 0.30762677340105238 0.1456570591484288 0 0.32133768008899832 0.1401496671570632 0 0.3188448094112134 0.1267760009295919 0 0.33282990224798731 0.13692235245376669 0 0.32133768008899832 0.1401496671570632 0 0.3188448094112134 0.1267760009295919 0 0.30762677340105238 0.1456570591484288 0 0.32604923529574031 0.1512432560964653 0 0.3145419810135871 0.16829504009510671 0 0.30762677340105238 0.1456570591484288 0 0.32133768008899832 0.1401496671570632 0 0.32604923529574031 0.1512432560964653 0 0.33282990224798731 0.13692235245376669 0 0.32133768008899832 0.1401496671570632 0 0.32604923529574031 0.1512432560964653 0 0.3145419810135871 0.16829504009510671 0 0.32853171761044192 0.18073500880445839 0 0.33652647336826419 0.16611528814801041 0 0.32604923529574031 0.1512432560964653 0 0.3145419810135871 0.16829504009510671 0 0.33652647336826419 0.16611528814801041 0 0.31149716804071143 0.19586364947637261 0 0.3145419810135871 0.16829504009510671 0 0.32853171761044192 0.18073500880445839 0 0.32853171761044192 0.18073500880445839 0 0.33652647336826419 0.16611528814801041 0 0.34506939583143559 0.18172230518989491 0 0.33521187398992131 0.19728421631168849 0 0.32853171761044192 0.18073500880445839 0 0.34506939583143559 0.18172230518989491 0 0.33652647336826419 0.16611528814801041 0 0.35753076279084162 0.1664838157905755 0 0.34506939583143559 0.18172230518989491 0 0.34372943676498208 0.15111495397967939 0 0.33652647336826419 0.16611528814801041 0 0.35753076279084162 0.1664838157905755 0 0.35753076279084162 0.1664838157905755 0 0.34506939583143559 0.18172230518989491 0 0.36048009496670269 0.18706370815598719 0 0.35753076279084162 0.1664838157905755 0 0.36048009496670269 0.18706370815598719 0 0.37853599879473232 0.18250383705155979 0 0.35753076279084162 0.1664838157905755 0 0.37946349621000519 0.15352050552416041 0 0.37853599879473232 0.18250383705155979 0 0.35753076279084162 0.1664838157905755 0 0.35893073359876282 0.15015475911948509 0 0.37946349621000519 0.15352050552416041 0 0.35893073359876282 0.15015475911948509 0 0.36522962108674739 0.13623842956048071 0 0.37946349621000519 0.15352050552416041 0 0.34372943676498208 0.15111495397967939 0 0.35893073359876282 0.15015475911948509 0 0.34903491864144032 0.13528590060226831 0 0.34372943676498208 0.15111495397967939 0 0.35753076279084162 0.1664838157905755 0 0.35893073359876282 0.15015475911948509 0 0.35839766492079322 0.1160000189471745 0 0.34903491864144032 0.13528590060226831 0 0.36522962108674739 0.13623842956048071 0 0.35893073359876282 0.15015475911948509 0 0.34903491864144032 0.13528590060226831 0 0.36522962108674739 0.13623842956048071 0 0.35839766492079322 0.1160000189471745 0 0.36522962108674739 0.13623842956048071 0 0.38039099362527812 0.1245371739967609 0 0.39902466518873858 0.13126009331650099 0 0.37946349621000519 0.15352050552416041 0 0.38039099362527812 0.1245371739967609 0 0.37946349621000519 0.15352050552416041 0 0.38039099362527812 0.1245371739967609 0 0.36522962108674739 0.13623842956048071 0 0.37946349621000519 0.15352050552416041 0 0.38039099362527812 0.1245371739967609 0 0.39844370582841798 0.14819394937809899 0 0.40093489470038107 0.16027605041173959 0 0.41435176721454697 0.14771914825999491 0 0.39902466518873858 0.13126009331650099 0 0.39844370582841798 0.14819394937809899 0 0.37946349621000519 0.15352050552416041 0 0.39902466518873858 0.13126009331650099 0 0.39844370582841798 0.14819394937809899 0 0.41435176721454697 0.14771914825999491 0 0.39844370582841798 0.14819394937809899 0 0.37946349621000519 0.15352050552416041 0 0.40093489470038107 0.16027605041173959 0 0.37946349621000519 0.15352050552416041 0 0.39017763977191261 0.17202299798733209 0 0.37853599879473232 0.18250383705155979 0 0.37946349621000519 0.15352050552416041 0 0.39017763977191261 0.17202299798733209 0 0.40093489470038107 0.16027605041173959 0 0.37946349621000519 0.15352050552416041 0 0.37853599879473232 0.18250383705155979 0 0.39017763977191261 0.17202299798733209 0 0.37853599879473232 0.18250383705155979 0 0.39073135499771172 0.19557369745538469 0 0.39017763977191261 0.17202299798733209 0 0.40385420861596449 0.17966022633181031 0 0.39073135499771172 0.19557369745538469 0 0.39017763977191261 0.17202299798733209 0 0.40385420861596449 0.17966022633181031 0 0.40093489470038107 0.16027605041173959 0 0.40093489470038107 0.16027605041173959 0 0.41697706223421732 0.16374675520823581 0 0.41435176721454697 0.14771914825999491 0 0.40385420861596449 0.17966022633181031 0 0.41697706223421732 0.16374675520823581 0 0.40385420861596449 0.17966022633181031 0 0.40093489470038107 0.16027605041173959 0 0.41697706223421732 0.16374675520823581 0 0.41697706223421732 0.16374675520823581 0 0.42967886924035542 0.16417820320348889 0 0.41435176721454697 0.14771914825999491 0 0.40385420861596449 0.17966022633181031 0 0.41697706223421732 0.16374675520823581 0 0.42240549066692251 0.1765244995838077 0 0.40385420861596449 0.17966022633181031 0 0.42240549066692251 0.1765244995838077 0 0.42107887021263207 0.19156620638856409 0 0.43253230825434041 0.17416736124819829 0 0.42967886924035542 0.16417820320348889 0 0.44500597126616359 0.18063725814698309 0 0.42967886924035542 0.16417820320348889 0 0.44500597126616359 0.18063725814698309 0 0.42240549066692251 0.1765244995838077 0 0.43149836433940197 0.18602822060577601 0 0.42107887021263207 0.19156620638856409 0 0.42240549066692251 0.1765244995838077 0 0.43253230825434041 0.17416736124819829 0 0.43149836433940197 0.18602822060577601 0 0.43253230825434041 0.17416736124819829 0 0.43149836433940197 0.18602822060577601 0 0.43841432008382281 0.17982212251646179 0 0.43149836433940197 0.18602822060577601 0 0.43993915380668702 0.18717756377858999 0 0.43841432008382281 0.17982212251646179 0 0.42240549066692251 0.1765244995838077 0 0.43253230825434041 0.17416736124819829 0 0.42967886924035542 0.16417820320348889 0 0.41697706223421732 0.16374675520823581 0 0.42240549066692251 0.1765244995838077 0 0.42967886924035542 0.16417820320348889 0 0.42967886924035542 0.16417820320348889 0 0.43097501315793502 0.14760517370254911 0 0.43828897016139601 0.15673943888385539 0 0.43097501315793502 0.14760517370254911 0 0.43218783376564679 0.13079624415941421 0 0.44743040874719031 0.14996425231404681 0 0.42967886924035542 0.16417820320348889 0 0.43097501315793502 0.14760517370254911 0 0.41435176721454697 0.14771914825999491 0 0.42967886924035542 0.16417820320348889 0 0.41435176721454697 0.14771914825999491 0 0.43097501315793502 0.14760517370254911 0 0.43218783376564679 0.13079624415941421 0 0.41641237399527598 0.13186461557900531 0 0.39902466518873858 0.13126009331650099 0 0.41435176721454697 0.14771914825999491 0 0.39902466518873858 0.13126009331650099 0 0.41641237399527598 0.13186461557900531 0 0.41435176721454697 0.14771914825999491 0 0.43097501315793502 0.14760517370254911 0 0.41641237399527598 0.13186461557900531 0 0.41435176721454697 0.14771914825999491 0 0.40231417230303168 0.24860060812396939 0 0.39014322942562962 0.23660270978699691 0 0.40695303339148831 0.22968399372244169 0 0.38424774583347471 0.25207486274025709 0 0.40231417230303168 0.24860060812396939 0 0.39014322942562962 0.23660270978699691 0 0.37251516075371882 0.24207903867420399 0 0.39014322942562962 0.23660270978699691 0 0.38178860342640641 0.22546404231931019 0 0.38424774583347471 0.25207486274025709 0 0.37251516075371882 0.24207903867420399 0 0.39014322942562962 0.23660270978699691 0 0.39014322942562962 0.23660270978699691 0 0.38178860342640641 0.22546404231931019 0 0.39370988667375673 0.22394924488917239 0 0.38178860342640641 0.22546404231931019 0 0.39370988667375673 0.22394924488917239 0 0.38658218544011591 0.21269277996820249 0 0.39370988667375673 0.22394924488917239 0 0.40068001247148938 0.21310861182741009 0 0.40695303339148831 0.22968399372244169 0 0.39014322942562962 0.23660270978699691 0 0.39370988667375673 0.22394924488917239 0 0.40695303339148831 0.22968399372244169 0 0.40068001247148938 0.21310861182741009 0 0.38658218544011591 0.21269277996820249 0 0.39073135499771172 0.19557369745538469 0 0.39370988667375673 0.22394924488917239 0 0.40068001247148938 0.21310861182741009 0 0.38658218544011591 0.21269277996820249 0 0.38658218544011591 0.21269277996820249 0 0.37760850137945923 0.2114871685789593 0 0.39073135499771172 0.19557369745538469 0 0.37760850137945923 0.2114871685789593 0 0.39073135499771172 0.19557369745538469 0 0.38178860342640641 0.22546404231931019 0 0.38658218544011591 0.21269277996820249 0 0.37754977914907428 0.2133221773275093 0 0.38658218544011591 0.21269277996820249 0 0.37754977914907428 0.2133221773275093 0 0.37760850137945923 0.2114871685789593 0 0.37754977914907428 0.2133221773275093 0 0.37760850137945923 0.2114871685789593 0 0.37853599879473232 0.18250383705155979 0 0.37760850137945923 0.2114871685789593 0 0.39073135499771172 0.19557369745538469 0 0.37853599879473232 0.18250383705155979 0 0.37760850137945923 0.2114871685789593 0 0.36973640659909862 0.1967287469634717 0 0.37853599879473232 0.18250383705155979 0 0.37760850137945923 0.2114871685789593 0 0.40385420861596449 0.17966022633181031 0 0.39073135499771172 0.19557369745538469 0 0.40068001247148938 0.21310861182741009 0 0.39073135499771172 0.19557369745538469 0 0.40789098597060508 0.20020397883311089 0 0.40385420861596449 0.17966022633181031 0 0.39073135499771172 0.19557369745538469 0 0.40789098597060508 0.20020397883311089 0 0.40385420861596449 0.17966022633181031 0 0.40789098597060508 0.20020397883311089 0 0.42107887021263207 0.19156620638856409 0 0.40789098597060508 0.20020397883311089 0 0.42107887021263207 0.19156620638856409 0 0.42589579827200208 0.20378310751995371 0 0.43149836433940197 0.18602822060577601 0 0.42107887021263207 0.19156620638856409 0 0.43122515505439513 0.19563180621879689 0 0.43149836433940197 0.18602822060577601 0 0.43859547576846342 0.19380693976894259 0 0.43993915380668702 0.18717756377858999 0 0.43149836433940197 0.18602822060577601 0 0.43122515505439513 0.19563180621879689 0 0.43859547576846342 0.19380693976894259 0 0.43122515505439513 0.19563180621879689 0 0.43905726667947592 0.2029745568107483 0 0.43859547576846342 0.19380693976894259 0 0.43122515505439513 0.19563180621879689 0 0.42589579827200208 0.20378310751995371 0 0.43905726667947592 0.2029745568107483 0 0.42107887021263207 0.19156620638856409 0 0.43122515505439513 0.19563180621879689 0 0.42589579827200208 0.20378310751995371 0 0.42589579827200208 0.20378310751995371 0 0.43306103218170189 0.2151533907400523 0 0.41639141479393499 0.21505199980134709 0 0.42589579827200208 0.20378310751995371 0 0.43306103218170189 0.2151533907400523 0 0.43905726667947592 0.2029745568107483 0 0.40068001247148938 0.21310861182741009 0 0.40789098597060508 0.20020397883311089 0 0.41639141479393499 0.21505199980134709 0 0.40789098597060508 0.20020397883311089 0 0.42589579827200208 0.20378310751995371 0 0.41639141479393499 0.21505199980134709 0 0.40695303339148831 0.22968399372244169 0 0.4240715757752444 0.22646068613503839 0 0.42313784770037072 0.24448727568822809 0 0.40068001247148938 0.21310861182741009 0 0.41639141479393499 0.21505199980134709 0 0.40695303339148831 0.22968399372244169 0 0.41639141479393499 0.21505199980134709 0 0.40695303339148831 0.22968399372244169 0 0.4240715757752444 0.22646068613503839 0 0.43306103218170189 0.2151533907400523 0 0.41639141479393499 0.21505199980134709 0 0.4240715757752444 0.22646068613503839 0 0.43306103218170189 0.2151533907400523 0 0.4240715757752444 0.22646068613503839 0 0.44081455080872611 0.22792677072312259 0 0.4240715757752444 0.22646068613503839 0 0.42313784770037072 0.24448727568822809 0 0.44081455080872611 0.22792677072312259 0 0.42313784770037072 0.24448727568822809 0 0.4443985789054769 0.24698865528882419 0 0.44081455080872611 0.22792677072312259 0 0.40231417230303168 0.24860060812396939 0 0.40695303339148831 0.22968399372244169 0 0.42313784770037072 0.24448727568822809 0 0.45877951230910918 0.25895515693046528 0 0.46406966402640581 0.23407311330027269 0 0.47459679039847708 0.24888537612968889 0 0.45877951230910918 0.25895515693046528 0 0.4443985789054769 0.24698865528882419 0 0.46406966402640581 0.23407311330027269 0 0.4443985789054769 0.24698865528882419 0 0.44081455080872611 0.22792677072312259 0 0.46406966402640581 0.23407311330027269 0 0.44081455080872611 0.22792677072312259 0 0.46406966402640581 0.23407311330027269 0 0.45217315930160679 0.21299320501145319 0 0.46406966402640581 0.23407311330027269 0 0.45217315930160679 0.21299320501145319 0 0.47743765443215752 0.21483186967211571 0 0.45217315930160679 0.21299320501145319 0 0.46115816196987142 0.19798233706682489 0 0.47743765443215752 0.21483186967211571 0 0.43306103218170189 0.2151533907400523 0 0.44081455080872611 0.22792677072312259 0 0.45217315930160679 0.21299320501145319 0 0.43306103218170189 0.2151533907400523 0 0.45217315930160679 0.21299320501145319 0 0.43905726667947592 0.2029745568107483 0 0.45217315930160679 0.21299320501145319 0 0.44618163757558321 0.19559327785478611 0 0.43905726667947592 0.2029745568107483 0 0.46115816196987142 0.19798233706682489 0 0.44500597126616359 0.18063725814698309 0 0.44618163757558321 0.19559327785478611 0 0.46115816196987142 0.19798233706682489 0 0.44500597126616359 0.18063725814698309 0 0.44618163757558321 0.19559327785478611 0 0.43905726667947592 0.2029745568107483 0 0.43859547576846342 0.19380693976894259 0 0.44618163757558321 0.19559327785478611 0 0.43859547576846342 0.19380693976894259 0 0.43993915380668702 0.18717756377858999 0 0.44618163757558321 0.19559327785478611 0 0.43993915380668702 0.18717756377858999 0 0.44500597126616359 0.18063725814698309 0 0.46115816196987142 0.19798233706682489 0 0.44500597126616359 0.18063725814698309 0 0.47250298563308241 0.18403758919051411 0 0.45217315930160679 0.21299320501145319 0 0.44618163757558321 0.19559327785478611 0 0.46115816196987142 0.19798233706682489 0 0.46115816196987142 0.19798233706682489 0 0.48475152770304819 0.19786732731788101 0 0.47250298563308241 0.18403758919051411 0 0.48475152770304819 0.19786732731788101 0 0.5 0.20851766455004159 0 0.50000000000000133 0.18743792023404501 0 0.48475152770304819 0.19786732731788101 0 0.47250298563308241 0.18403758919051411 0 0.50000000000000133 0.18743792023404501 0 0.5 0.20851766455004159 0 0.47743765443215752 0.21483186967211571 0 0.5 0.2295974088660383 0 0.48475152770304819 0.19786732731788101 0 0.5 0.20851766455004159 0 0.47743765443215752 0.21483186967211571 0 0.46115816196987142 0.19798233706682489 0 0.48475152770304819 0.19786732731788101 0 0.47743765443215752 0.21483186967211571 0 0.46406966402640581 0.23407311330027269 0 0.47743765443215752 0.21483186967211571 0 0.48209686647073402 0.2323332651256016 0 0.47743765443215752 0.21483186967211571 0 0.48209686647073402 0.2323332651256016 0 0.5 0.2295974088660383 0 0.50000000000000333 0.25067715318203487 0 0.48209686647073402 0.2323332651256016 0 0.47459679039847708 0.24888537612968889 0 0.50000000000000333 0.25067715318203487 0 0.48209686647073402 0.2323332651256016 0 0.5 0.2295974088660383 0 0.46406966402640581 0.23407311330027269 0 0.48209686647073402 0.2323332651256016 0 0.47459679039847708 0.24888537612968889 0 0.46630373343989029 0.1540554196775239 0 0.45988335858462859 0.1361385845013203 0 0.47983612492910671 0.1477611156301803 0 0.46630373343989029 0.1540554196775239 0 0.45988335858462859 0.1361385845013203 0 0.44743040874719031 0.14996425231404681 0 0.43218783376564679 0.13079624415941421 0 0.45988335858462859 0.1361385845013203 0 0.44598412974230561 0.1139480922669725 0 0.43218783376564679 0.13079624415941421 0 0.45988335858462859 0.1361385845013203 0 0.44743040874719031 0.14996425231404681 0 0.43218783376564679 0.13079624415941421 0 0.44743040874719031 0.14996425231404681 0 0.43097501315793502 0.14760517370254911 0 0.44743040874719031 0.14996425231404681 0 0.43828897016139601 0.15673943888385539 0 0.44743040874719031 0.14996425231404681 0 0.43828897016139601 0.15673943888385539 0 0.44507158950010373 0.16521012631533691 0 0.42967886924035542 0.16417820320348889 0 0.43828897016139601 0.15673943888385539 0 0.44507158950010373 0.16521012631533691 0 0.42967886924035542 0.16417820320348889 0 0.44507158950010373 0.16521012631533691 0 0.44500597126616359 0.18063725814698309 0 0.44743040874719031 0.14996425231404681 0 0.44507158950010373 0.16521012631533691 0 0.46267298372873372 0.16913226046867949 0 0.43993915380668702 0.18717756377858999 0 0.43841432008382281 0.17982212251646179 0 0.44500597126616359 0.18063725814698309 0 0.43841432008382281 0.17982212251646179 0 0.44500597126616359 0.18063725814698309 0 0.43253230825434041 0.17416736124819829 0 0.43841432008382281 0.17982212251646179 0 0.44500597126616359 0.18063725814698309 0 0.44507158950010373 0.16521012631533691 0 0.44500597126616359 0.18063725814698309 0 0.45631338253202081 0.1747543085303784 0 0.44500597126616359 0.18063725814698309 0 0.47250298563308241 0.18403758919051411 0 0.44500597126616359 0.18063725814698309 0 0.45631338253202081 0.1747543085303784 0 0.47250298563308241 0.18403758919051411 0 0.45631338253202081 0.1747543085303784 0 0.46267298372873372 0.16913226046867949 0 0.47250298563308241 0.18403758919051411 0 0.46630373343989029 0.1540554196775239 0 0.44743040874719031 0.14996425231404681 0 0.46267298372873372 0.16913226046867949 0 0.44507158950010373 0.16521012631533691 0 0.45631338253202081 0.1747543085303784 0 0.46267298372873372 0.16913226046867949 0 0.44743040874719031 0.14996425231404681 0 0.46267298372873372 0.16913226046867949 0 0.46630373343989029 0.1540554196775239 0 0.481695791209792 0.16728088547339251 0 0.47983612492910671 0.1477611156301803 0 0.46630373343989029 0.1540554196775239 0 0.46267298372873372 0.16913226046867949 0 0.481695791209792 0.16728088547339251 0 0.46267298372873372 0.16913226046867949 0 0.481695791209792 0.16728088547339251 0 0.47250298563308241 0.18403758919051411 0 0.481695791209792 0.16728088547339251 0 0.50000000000000133 0.18743792023404501 0 0.5 0.16178081871024691 0 0.481695791209792 0.16728088547339251 0 0.47250298563308241 0.18403758919051411 0 0.50000000000000133 0.18743792023404501 0 0.47250298563308241 0.18403758919051411 0 0.50000000000000133 0.18743792023404501 0 0.481695791209792 0.16728088547339251 0 0.5 0.16178081871024691 0 0.47983612492910671 0.1477611156301803 0 0.5 0.16178081871024691 0 0.47983612492910671 0.1477611156301803 0 0.5 0.13612371718644889 0 0.45988335858462859 0.1361385845013203 0 0.48040892000196089 0.1286839124039415 0 0.46812980660744141 0.1213760825877616 0 0.45988335858462859 0.1361385845013203 0 0.47983612492910671 0.1477611156301803 0 0.48040892000196089 0.1286839124039415 0 0.48040892000196089 0.1286839124039415 0 0.5 0.13612371718644889 0 0.48911044557870648 0.1154009356994905 0 0.47983612492910671 0.1477611156301803 0 0.48040892000196089 0.1286839124039415 0 0.5 0.13612371718644889 0 0.5 0.13612371718644889 0 0.48911044557870648 0.1154009356994905 0 0.5 0.1104666156626509 0 0.5 0.1104666156626509 0 0.49526404898748622 0.1017529428078975 0 0.5 0.084809514138852959 0 0.48911044557870648 0.1154009356994905 0 0.5 0.1104666156626509 0 0.49526404898748622 0.1017529428078975 0 0.48911044557870648 0.1154009356994905 0 0.49526404898748622 0.1017529428078975 0 0.48109428560590312 0.1024640168145086 0 0.48109428560590312 0.1024640168145086 0 0.47458759585716809 0.084388363135292022 0 0.46674390172360558 0.1035394123809904 0 0.49526404898748622 0.1017529428078975 0 0.48109428560590312 0.1024640168145086 0 0.47458759585716809 0.084388363135292022 0 0.48109428560590312 0.1024640168145086 0 0.47789541887688902 0.11291440932149591 0 0.46674390172360558 0.1035394123809904 0 0.47789541887688902 0.11291440932149591 0 0.46812980660744141 0.1213760825877616 0 0.46674390172360558 0.1035394123809904 0 0.48040892000196089 0.1286839124039415 0 0.47789541887688902 0.11291440932149591 0 0.46812980660744141 0.1213760825877616 0 0.48040892000196089 0.1286839124039415 0 0.48911044557870648 0.1154009356994905 0 0.47789541887688902 0.11291440932149591 0 0.48911044557870648 0.1154009356994905 0 0.48109428560590312 0.1024640168145086 0 0.47789541887688902 0.11291440932149591 0 0.5 0.084809514138852959 0 0.47458759585716809 0.084388363135292022 0 0.47912787468276907 0.064584523165699487 0 0.5 0.084809514138852959 0 0.47912787468276907 0.064584523165699487 0 0.5 0.059152412615055112 0 0.49526404898748622 0.1017529428078975 0 0.47458759585716809 0.084388363135292022 0 0.49526404898748622 0.1017529428078975 0 0.5 0.084809514138852959 0 0.47458759585716809 0.084388363135292022 0 0.47458759585716809 0.084388363135292022 0 0.47912787468276907 0.064584523165699487 0 0.45391114272684979 0.067023783462686393 0 0.47458759585716809 0.084388363135292022 0 0.45391114272684979 0.067023783462686393 0 0.47458759585716809 0.084388363135292022 0 0.45391114272684979 0.067023783462686393 0 0.448682045013724 0.093840087721175788 0 0.45391114272684979 0.067023783462686393 0 0.448682045013724 0.093840087721175788 0 0.42882560412340831 0.076935142063640952 0 0.45391114272684979 0.067023783462686393 0 0.42882560412340831 0.076935142063640952 0 0.43323468959653161 0.049659203790080757 0 0.46812980660744141 0.1213760825877616 0 0.46674390172360558 0.1035394123809904 0 0.44598412974230561 0.1139480922669725 0 0.45988335858462859 0.1361385845013203 0 0.46812980660744141 0.1213760825877616 0 0.44598412974230561 0.1139480922669725 0 0.46674390172360558 0.1035394123809904 0 0.448682045013724 0.093840087721175788 0 0.44598412974230561 0.1139480922669725 0 0.47458759585716809 0.084388363135292022 0 0.46674390172360558 0.1035394123809904 0 0.448682045013724 0.093840087721175788 0 0.448682045013724 0.093840087721175788 0 0.44598412974230561 0.1139480922669725 0 0.42842794429322018 0.097762357181343934 0 0.43218783376564679 0.13079624415941421 0 0.41694525878410338 0.1116282360047816 0 0.43218783376564679 0.13079624415941421 0 0.44598412974230561 0.1139480922669725 0 0.41694525878410338 0.1116282360047816 0 0.39902466518873858 0.13126009331650099 0 0.41641237399527598 0.13186461557900531 0 0.41694525878410338 0.1116282360047816 0 0.43218783376564679 0.13079624415941421 0 0.41641237399527598 0.13186461557900531 0 0.41694525878410338 0.1116282360047816 0 0.41694525878410338 0.1116282360047816 0 0.40170268380256002 0.092460227850148902 0 0.41694525878410338 0.1116282360047816 0 0.42842794429322018 0.097762357181343934 0 0.40170268380256002 0.092460227850148902 0 0.44598412974230561 0.1139480922669725 0 0.41694525878410338 0.1116282360047816 0 0.42842794429322018 0.097762357181343934 0 0.42882560412340831 0.076935142063640952 0 0.40170268380256002 0.092460227850148902 0 0.40705243623013287 0.060689402672964132 0 0.448682045013724 0.093840087721175788 0 0.42842794429322018 0.097762357181343934 0 0.42882560412340831 0.076935142063640952 0 0.42842794429322018 0.097762357181343934 0 0.42882560412340831 0.076935142063640952 0 0.40170268380256002 0.092460227850148902 0 0.40170268380256002 0.092460227850148902 0 0.38646010882101639 0.073292219695516275 0 0.40705243623013287 0.060689402672964132 0 0.40170268380256002 0.092460227850148902 0 0.38646010882101639 0.073292219695516275 0 0.38646010882101639 0.073292219695516275 0 0.40705243623013287 0.060689402672964132 0 0.3712494132862923 0.054164300928492733 0 0.38646010882101639 0.073292219695516275 0 0.36287577371323038 0.087726190856562886 0 0.38646010882101639 0.073292219695516275 0 0.38086954234553799 0.1017369790920199 0 0.40170268380256002 0.092460227850148902 0 0.38646010882101639 0.073292219695516275 0 0.38086954234553799 0.1017369790920199 0 0.38086954234553799 0.1017369790920199 0 0.38039099362527812 0.1245371739967609 0 0.39578662874924359 0.11232454205204249 0 0.39902466518873858 0.13126009331650099 0 0.41694525878410338 0.1116282360047816 0 0.39578662874924359 0.11232454205204249 0 0.39902466518873858 0.13126009331650099 0 0.38039099362527812 0.1245371739967609 0 0.39578662874924359 0.11232454205204249 0 0.41694525878410338 0.1116282360047816 0 0.40170268380256002 0.092460227850148902 0 0.39578662874924359 0.11232454205204249 0 0.40170268380256002 0.092460227850148902 0 0.38086954234553799 0.1017369790920199 0 0.39578662874924359 0.11232454205204249 0 0.39467883659616743 0.026514027307662291 0 0.40566729177788402 0.039694202540384867 0 0.40752972589880521 0.020791180784284762 0 0.39467883659616743 0.026514027307662291 0 0.39197007277089058 0.012270099058981999 0 0.40752972589880521 0.020791180784284762 0 0.39197007277089058 0.012270099058981999 0 0.40589693233990659 -0.0029012340905509482 0 0.38177212989710541 -0.0038064740511190229 0 0.39197007277089058 0.012270099058981999 0 0.40752972589880521 0.020791180784284762 0 0.40589693233990659 -0.0029012340905509482 0 0.37074806474438499 0.0128336114215599 0 0.37942190730542552 0.012545434855993239 0 0.38177212989710541 -0.0038064740511190229 0 0.37074806474438499 0.0128336114215599 0 0.38177212989710541 -0.0038064740511190229 0 0.39197007277089058 0.012270099058981999 0 0.37942190730542552 0.012545434855993239 0 0.38177212989710541 -0.0038064740511190229 0 0.37074806474438499 0.0128336114215599 0 0.37942190730542552 0.012545434855993239 0 0.376284423196455 0.019711610509055889 0 0.37942190730542552 0.012545434855993239 0 0.376284423196455 0.019711610509055889 0 0.383244290811734 0.022382132082078999 0 0.39467883659616743 0.026514027307662291 0 0.39197007277089058 0.012270099058981999 0 0.383244290811734 0.022382132082078999 0 0.39197007277089058 0.012270099058981999 0 0.37942190730542552 0.012545434855993239 0 0.383244290811734 0.022382132082078999 0 0.39467883659616743 0.026514027307662291 0 0.383244290811734 0.022382132082078999 0 0.38498280172152338 0.037432522072580798 0 0.3708444278259968 0.029801619446643699 0 0.376284423196455 0.019711610509055889 0 0.383244290811734 0.022382132082078999 0 0.3708444278259968 0.029801619446643699 0 0.383244290811734 0.022382132082078999 0 0.38498280172152338 0.037432522072580798 0 0.3712494132862923 0.054164300928492733 0 0.3708444278259968 0.029801619446643699 0 0.38498280172152338 0.037432522072580798 0 0.3712494132862923 0.054164300928492733 0 0.38646010882101639 0.073292219695516275 0 0.39050775894424322 0.052739751315566991 0 0.3712494132862923 0.054164300928492733 0 0.38498280172152338 0.037432522072580798 0 0.39050775894424322 0.052739751315566991 0 0.39050775894424322 0.052739751315566991 0 0.40566729177788402 0.039694202540384867 0 0.40705243623013287 0.060689402672964132 0 0.38646010882101639 0.073292219695516275 0 0.39050775894424322 0.052739751315566991 0 0.40705243623013287 0.060689402672964132 0 0.39467883659616743 0.026514027307662291 0 0.38498280172152338 0.037432522072580798 0 0.40566729177788402 0.039694202540384867 0 0.38498280172152338 0.037432522072580798 0 0.39050775894424322 0.052739751315566991 0 0.40566729177788402 0.039694202540384867 0 0.40566729177788402 0.039694202540384867 0 0.40705243623013287 0.060689402672964132 0 0.43323468959653161 0.049659203790080757 0 0.42882560412340831 0.076935142063640952 0 0.40705243623013287 0.060689402672964132 0 0.43323468959653161 0.049659203790080757 0 0.40566729177788402 0.039694202540384867 0 0.43323468959653161 0.049659203790080757 0 0.42982106529816938 0.026988672659305431 0 0.42982106529816938 0.026988672659305431 0 0.40752972589880521 0.020791180784284762 0 0.42170884413912818 0.0088420932881880087 0 0.40566729177788402 0.039694202540384867 0 0.42982106529816938 0.026988672659305431 0 0.40752972589880521 0.020791180784284762 0 0.40752972589880521 0.020791180784284762 0 0.42170884413912818 0.0088420932881880087 0 0.40589693233990659 -0.0029012340905509482 0 0.42982106529816938 0.026988672659305431 0 0.42170884413912818 0.0088420932881880087 0 0.43761459707356049 0.0086465973424995311 0 0.42170884413912818 0.0088420932881880087 0 0.43761459707356049 0.0086465973424995311 0 0.43315562598089019 -0.01024506861916881 0 0.43761459707356049 0.0086465973424995311 0 0.45173658649962201 0.0016390362274539541 0 0.43315562598089019 -0.01024506861916881 0 0.43761459707356049 0.0086465973424995311 0 0.45173658649962201 0.0016390362274539541 0 0.45250675784088501 0.018560093630623119 0 0.42982106529816938 0.026988672659305431 0 0.45250675784088501 0.018560093630623119 0 0.45511766656395031 0.040318011432016902 0 0.42982106529816938 0.026988672659305431 0 0.43761459707356049 0.0086465973424995311 0 0.45250675784088501 0.018560093630623119 0 0.45250675784088501 0.018560093630623119 0 0.46808050549176677 0.026295686723049619 0 0.46900303588049108 0.0091480887287150835 0 0.45250675784088501 0.018560093630623119 0 0.46808050549176677 0.026295686723049619 0 0.45511766656395031 0.040318011432016902 0 0.45173658649962201 0.0016390362274539541 0 0.45250675784088501 0.018560093630623119 0 0.46900303588049108 0.0091480887287150835 0 0.45391114272684979 0.067023783462686393 0 0.43323468959653161 0.049659203790080757 0 0.45391114272684979 0.067023783462686393 0 0.43323468959653161 0.049659203790080757 0 0.45511766656395031 0.040318011432016902 0 0.43323468959653161 0.049659203790080757 0 0.42982106529816938 0.026988672659305431 0 0.45511766656395031 0.040318011432016902 0 0.45511766656395031 0.040318011432016902 0 0.46685755830170778 0.053514214493577447 0 0.4792735492332621 0.042130539913907063 0 0.46808050549176677 0.026295686723049619 0 0.45511766656395031 0.040318011432016902 0 0.4792735492332621 0.042130539913907063 0 0.45391114272684979 0.067023783462686393 0 0.45511766656395031 0.040318011432016902 0 0.46685755830170778 0.053514214493577447 0 0.47912787468276907 0.064584523165699487 0 0.45391114272684979 0.067023783462686393 0 0.46685755830170778 0.053514214493577447 0 0.47912787468276907 0.064584523165699487 0 0.46685755830170778 0.053514214493577447 0 0.4792735492332621 0.042130539913907063 0 0.4792735492332621 0.042130539913907063 0 0.50000000000000044 0.033495311091257141 0 0.5 0.059152412615055112 0 0.4792735492332621 0.042130539913907063 0 0.50000000000000044 0.033495311091257141 0 0.48450151794024582 0.02132169990998594 0 0.47912787468276907 0.064584523165699487 0 0.4792735492332621 0.042130539913907063 0 0.5 0.059152412615055112 0 0.48142183768046209 0.0017856283736550731 0 0.46900303588049108 0.0091480887287150835 0 0.48450151794024582 0.02132169990998594 0 0.46900303588049108 0.0091480887287150835 0 0.48450151794024582 0.02132169990998594 0 0.46808050549176677 0.026295686723049619 0 0.4792735492332621 0.042130539913907063 0 0.48450151794024582 0.02132169990998594 0 0.46808050549176677 0.026295686723049619 0 0.46900303588049108 0.0091480887287150835 0 0.48450151794024582 0.02132169990998594 0 0.50000000000000044 0.033495311091257141 0 0.48450151794024582 0.02132169990998594 0 0.49999999999998651 0.01734058092918947 0 0.50000000000000044 0.033495311091257141 0 0.48450151794024582 0.02132169990998594 0 0.48142183768046209 0.0017856283736550731 0 0.49999999999998651 0.01734058092918947 0 0.48142183768046209 0.0017856283736550731 0 0.48450151794024582 0.02132169990998594 0 0.49999999999998651 0.01734058092918947 0 0.48142183768046209 0.0017856283736550731 0 0.50000000000000022 0.0062713931358114854 0 0.49569226922874621 -0.0077984524782093046 0 0.48142183768046209 0.0017856283736550731 0 0.49999999999998651 0.01734058092918947 0 0.50000000000000022 0.0062713931358114854 0 0.50000000000000022 0.0062713931358114854 0 0.49999999999999639 -0.0055028720893961916 0 0.49569226922874621 -0.0077984524782093046 0 0.49999999999999639 -0.0055028720893961916 0 0.49569226922874621 -0.0077984524782093046 0 0.5 -0.031680043061674379 0 0.50000000000000022 0.0062713931358114854 0 0.49569226922874621 -0.0077984524782093046 0 0.49999999999999639 -0.0055028720893961916 0 0.49569226922874621 -0.0077984524782093046 0 0.48142183768046209 0.0017856283736550731 0 0.46284367536094329 -0.013769324181886009 0 0.48142183768046209 0.0017856283736550731 0 0.49569226922874621 -0.0077984524782093046 0 0.47245545097691588 -0.020181302547058869 0 0.48142183768046209 0.0017856283736550731 0 0.47245545097691588 -0.020181302547058869 0 0.46284367536094329 -0.013769324181886009 0 0.49569226922874621 -0.0077984524782093046 0 0.47245545097691588 -0.020181302547058869 0 0.48142183768046209 0.0017856283736550731 0 0.46900303588049108 0.0091480887287150835 0 0.46284367536094329 -0.013769324181886009 0 0.47245545097691588 -0.020181302547058869 0 0.48791488236666819 -0.033200836759084501 0 0.47341325415016228 -0.037152141636530148 0 0.49569226922874621 -0.0077984524782093046 0 0.48791488236666819 -0.033200836759084501 0 0.49569226922874621 -0.0077984524782093046 0 0.47245545097691588 -0.020181302547058869 0 0.48791488236666819 -0.033200836759084501 0 0.49569226922874621 -0.0077984524782093046 0 0.5 -0.031680043061674379 0 0.48791488236666819 -0.033200836759084501 0 0.5 -0.031680043061674379 0 0.49185328477527418 -0.043406822976133602 0 0.5 -0.057857214033952442 0 0.5 -0.031680043061674379 0 0.49185328477527418 -0.043406822976133602 0 0.48791488236666819 -0.033200836759084501 0 0.49185328477527418 -0.043406822976133602 0 0.48548648366758962 -0.048417288003476493 0 0.48301757376061022 -0.041777071785837207 0 0.49185328477527418 -0.043406822976133602 0 0.48791488236666819 -0.033200836759084501 0 0.48301757376061022 -0.041777071785837207 0 0.49470538195267932 -0.060764329071028467 0 0.5 -0.057857214033952442 0 0.49209956185473919 -0.052910247021154808 0 0.49185328477527418 -0.043406822976133602 0 0.5 -0.057857214033952442 0 0.49209956185473919 -0.052910247021154808 0 0.49185328477527418 -0.043406822976133602 0 0.48548648366758962 -0.048417288003476493 0 0.49209956185473919 -0.052910247021154808 0 0.48548648366758962 -0.048417288003476493 0 0.48484970165927038 -0.053829558030275837 0 0.49209956185473919 -0.052910247021154808 0 0.49470538195267932 -0.060764329071028467 0 0.48484970165927038 -0.053829558030275837 0 0.49209956185473919 -0.052910247021154808 0 0.49470538195267932 -0.060764329071028467 0 0.48484970165927038 -0.053829558030275837 0 0.47179752612620468 -0.05549188694227182 0 0.49470538195267932 -0.060764329071028467 0 0.47179752612620468 -0.05549188694227182 0 0.49470538195267932 -0.060764329071028467 0 0.48221585857725491 -0.062429287263086719 0 0.47179752612620468 -0.05549188694227182 0 0.48484970165927038 -0.053829558030275837 0 0.48015955469513899 -0.051564039113447632 0 0.47179752612620468 -0.05549188694227182 0 0.48548648366758962 -0.048417288003476493 0 0.48015955469513899 -0.051564039113447632 0 0.47641996384335622 -0.046708269553961297 0 0.48548648366758962 -0.048417288003476493 0 0.48484970165927038 -0.053829558030275837 0 0.48015955469513899 -0.051564039113447632 0 0.48015955469513899 -0.051564039113447632 0 0.47179752612620468 -0.05549188694227182 0 0.47641996384335622 -0.046708269553961297 0 0.47179752612620468 -0.05549188694227182 0 0.47641996384335622 -0.046708269553961297 0 0.46611065053414669 -0.045059591809623462 0 0.48221585857725491 -0.062429287263086719 0 0.47179752612620468 -0.05549188694227182 0 0.47448642952790421 -0.062590254567368303 0 0.47179752612620468 -0.05549188694227182 0 0.46716960355408721 -0.061309815644169277 0 0.47448642952790421 -0.062590254567368303 0 0.47245545097691588 -0.020181302547058869 0 0.47341325415016228 -0.037152141636530148 0 0.46201753173720822 -0.037035326684527199 0 0.48791488236666819 -0.033200836759084501 0 0.48301757376061022 -0.041777071785837207 0 0.47341325415016228 -0.037152141636530148 0 0.48301757376061022 -0.041777071785837207 0 0.47641996384335622 -0.046708269553961297 0 0.47341325415016228 -0.037152141636530148 0 0.48548648366758962 -0.048417288003476493 0 0.48301757376061022 -0.041777071785837207 0 0.47641996384335622 -0.046708269553961297 0 0.47641996384335622 -0.046708269553961297 0 0.47341325415016228 -0.037152141636530148 0 0.46611065053414669 -0.045059591809623462 0 0.46201753173720822 -0.037035326684527199 0 0.44888967029973009 -0.050219444813515167 0 0.44921863272508572 -0.032564152615908337 0 0.46201753173720822 -0.037035326684527199 0 0.46611065053414669 -0.045059591809623462 0 0.44888967029973009 -0.050219444813515167 0 0.47341325415016228 -0.037152141636530148 0 0.46201753173720822 -0.037035326684527199 0 0.46611065053414669 -0.045059591809623462 0 0.47179752612620468 -0.05549188694227182 0 0.44888967029973009 -0.050219444813515167 0 0.47179752612620468 -0.05549188694227182 0 0.46611065053414669 -0.045059591809623462 0 0.44888967029973009 -0.050219444813515167 0 0.47179752612620468 -0.05549188694227182 0 0.45915881230232142 -0.059821999910817367 0 0.44888967029973009 -0.050219444813515167 0 0.47179752612620468 -0.05549188694227182 0 0.46716960355408721 -0.061309815644169277 0 0.45915881230232142 -0.059821999910817367 0 0.44888967029973009 -0.050219444813515167 0 0.45028395525861248 -0.064169488527832108 0 0.43379267283734352 -0.058822472874925841 0 0.45915881230232142 -0.059821999910817367 0 0.44888967029973009 -0.050219444813515167 0 0.45028395525861248 -0.064169488527832108 0 0.44888967029973009 -0.050219444813515167 0 0.44921863272508572 -0.032564152615908337 0 0.42598181447325562 -0.044947002684758222 0 0.44921863272508572 -0.032564152615908337 0 0.42598181447325562 -0.044947002684758222 0 0.44921863272508572 -0.032564152615908337 0 0.44426551304142442 -0.029324276737427161 0 0.42598181447325562 -0.044947002684758222 0 0.44426551304142442 -0.029324276737427161 0 0.46284367536094329 -0.013769324181886009 0 0.43315562598089019 -0.01024506861916881 0 0.44921863272508572 -0.032564152615908337 0 0.44426551304142442 -0.029324276737427161 0 0.46284367536094329 -0.013769324181886009 0 0.45173658649962201 0.0016390362274539541 0 0.46284367536094329 -0.013769324181886009 0 0.43315562598089019 -0.01024506861916881 0 0.45173658649962201 0.0016390362274539541 0 0.46900303588049108 0.0091480887287150835 0 0.46284367536094329 -0.013769324181886009 0 0.47245545097691588 -0.020181302547058869 0 0.46201753173720822 -0.037035326684527199 0 0.44921863272508572 -0.032564152615908337 0 0.44426551304142442 -0.029324276737427161 0 0.46284367536094329 -0.013769324181886009 0 0.47245545097691588 -0.020181302547058869 0 0.44921863272508572 -0.032564152615908337 0 0.47245545097691588 -0.020181302547058869 0 0.44921863272508572 -0.032564152615908337 0 0.46284367536094329 -0.013769324181886009 0 0.47504794017770963 -0.1061530387032097 0 0.48068937793888461 -0.12593949268323121 0 0.47504794017770963 -0.1061530387032097 0 0.47539032622818961 -0.13271582894304479 0 0.48696024936982901 -0.1114784763554809 0 0.47504794017770963 -0.1061530387032097 0 0.48068937793888461 -0.12593949268323121 0 0.47504794017770963 -0.1061530387032097 0 0.48068937793888461 -0.12593949268323121 0 0.47539032622818961 -0.13271582894304479 0 0.47504794017770963 -0.1061530387032097 0 0.46517149914948219 -0.12137249055531869 0 0.47539032622818961 -0.13271582894304479 0 0.49408665633132159 -0.1224090628125768 0 0.5 -0.1110006688839877 0 0.5 -0.137966952761745 0 0.49408665633132159 -0.1224090628125768 0 0.48696024936982901 -0.1114784763554809 0 0.48068937793888461 -0.12593949268323121 0 0.49408665633132159 -0.1224090628125768 0 0.5 -0.1110006688839877 0 0.48696024936982901 -0.1114784763554809 0 0.5 -0.1110006688839877 0 0.48696024936982901 -0.1114784763554809 0 0.48655144874092121 -0.095403216446715705 0 0.5 -0.1110006688839877 0 0.48655144874092121 -0.095403216446715705 0 0.50000000000000133 -0.084034385006230491 0 0.48696024936982901 -0.1114784763554809 0 0.48655144874092121 -0.095403216446715705 0 0.47504794017770963 -0.1061530387032097 0 0.48655144874092121 -0.095403216446715705 0 0.47504794017770963 -0.1061530387032097 0 0.47472501960153662 -0.081100407274471431 0 0.47504794017770963 -0.1061530387032097 0 0.46767158297368883 -0.080281628162788915 0 0.47504794017770963 -0.1061530387032097 0 0.47472501960153662 -0.081100407274471431 0 0.46767158297368883 -0.080281628162788915 0 0.47504794017770963 -0.1061530387032097 0 0.47472501960153662 -0.081100407274471431 0 0.47472501960153662 -0.081100407274471431 0 0.46767158297368883 -0.080281628162788915 0 0.47472501960153662 -0.081100407274471431 0 0.50000000000000133 -0.084034385006230491 0 0.47472501960153662 -0.081100407274471431 0 0.50000000000000133 -0.084034385006230491 0 0.48620374372025571 -0.074608689503866718 0 0.48655144874092121 -0.095403216446715705 0 0.47472501960153662 -0.081100407274471431 0 0.50000000000000133 -0.084034385006230491 0 0.50000000000000133 -0.084034385006230491 0 0.48620374372025571 -0.074608689503866718 0 0.48933050179041371 -0.068029179049033717 0 0.49470538195267932 -0.060764329071028467 0 0.50000000000000133 -0.084034385006230491 0 0.48933050179041371 -0.068029179049033717 0 0.48620374372025571 -0.074608689503866718 0 0.48933050179041371 -0.068029179049033717 0 0.48139231064347299 -0.06975156353156535 0 0.49470538195267932 -0.060764329071028467 0 0.5 -0.057857214033952442 0 0.50000000000000133 -0.084034385006230491 0 0.49470538195267932 -0.060764329071028467 0 0.48221585857725491 -0.062429287263086719 0 0.48933050179041371 -0.068029179049033717 0 0.48221585857725491 -0.062429287263086719 0 0.48933050179041371 -0.068029179049033717 0 0.48139231064347299 -0.06975156353156535 0 0.47472501960153662 -0.081100407274471431 0 0.47448642952790421 -0.062590254567368303 0 0.46395874729449688 -0.067259442079784515 0 0.47472501960153662 -0.081100407274471431 0 0.47448642952790421 -0.062590254567368303 0 0.47472501960153662 -0.081100407274471431 0 0.48139231064347299 -0.06975156353156535 0 0.47448642952790421 -0.062590254567368303 0 0.48221585857725491 -0.062429287263086719 0 0.48139231064347299 -0.06975156353156535 0 0.47448642952790421 -0.062590254567368303 0 0.47472501960153662 -0.081100407274471431 0 0.48620374372025571 -0.074608689503866718 0 0.48139231064347299 -0.06975156353156535 0 0.47472501960153662 -0.081100407274471431 0 0.46395874729449688 -0.067259442079784515 0 0.46767158297368883 -0.080281628162788915 0 0.46395874729449688 -0.067259442079784515 0 0.44792955795081207 -0.077989928589383806 0 0.45028395525861248 -0.064169488527832108 0 0.46395874729449688 -0.067259442079784515 0 0.44792955795081207 -0.077989928589383806 0 0.46767158297368883 -0.080281628162788915 0 0.46716960355408721 -0.061309815644169277 0 0.47448642952790421 -0.062590254567368303 0 0.46395874729449688 -0.067259442079784515 0 0.46716960355408721 -0.061309815644169277 0 0.45915881230232142 -0.059821999910817367 0 0.46395874729449688 -0.067259442079784515 0 0.46395874729449688 -0.067259442079784515 0 0.46767158297368883 -0.080281628162788915 0 0.45915881230232142 -0.059821999910817367 0 0.46395874729449688 -0.067259442079784515 0 0.45028395525861248 -0.064169488527832108 0 0.44792955795081207 -0.077989928589383806 0 0.45028395525861248 -0.064169488527832108 0 0.43409435662899548 -0.075972588648687056 0 0.45028395525861248 -0.064169488527832108 0 0.43409435662899548 -0.075972588648687056 0 0.43379267283734352 -0.058822472874925841 0 0.44792955795081207 -0.077989928589383806 0 0.45434154280662381 -0.096920545148007922 0 0.43656592618912088 -0.092731216817004802 0 0.44792955795081207 -0.077989928589383806 0 0.43656592618912088 -0.092731216817004802 0 0.43409435662899548 -0.075972588648687056 0 0.44792955795081207 -0.077989928589383806 0 0.46767158297368883 -0.080281628162788915 0 0.44792955795081207 -0.077989928589383806 0 0.46767158297368883 -0.080281628162788915 0 0.45434154280662381 -0.096920545148007922 0 0.47504794017770963 -0.1061530387032097 0 0.45434154280662381 -0.096920545148007922 0 0.45605131026611578 -0.1119112733738655 0 0.47504794017770963 -0.1061530387032097 0 0.46767158297368883 -0.080281628162788915 0 0.45434154280662381 -0.096920545148007922 0 0.45434154280662381 -0.096920545148007922 0 0.44009077604799529 -0.10970821878109729 0 0.45605131026611578 -0.1119112733738655 0 0.45434154280662381 -0.096920545148007922 0 0.44009077604799529 -0.10970821878109729 0 0.43656592618912088 -0.092731216817004802 0 0.44009077604799529 -0.10970821878109729 0 0.44308087596173212 -0.1221693231112648 0 0.45605131026611578 -0.1119112733738655 0 0.44009077604799529 -0.10970821878109729 0 0.44308087596173212 -0.1221693231112648 0 0.43194268833908461 -0.1183122065610613 0 0.44308087596173212 -0.1221693231112648 0 0.45605131026611578 -0.1119112733738655 0 0.45471825288194551 -0.12585871809431229 0 0.45605131026611578 -0.1119112733738655 0 0.46517149914948219 -0.12137249055531869 0 0.45471825288194551 -0.12585871809431229 0 0.47504794017770963 -0.1061530387032097 0 0.45605131026611578 -0.1119112733738655 0 0.46517149914948219 -0.12137249055531869 0 0.41835665696605379 -0.12202144051617279 0 0.40612275810511328 -0.107362968848777 0 0.4017088804732013 -0.12953908341998191 0 0.41835665696605379 -0.12202144051617279 0 0.42518639158387428 -0.1070521590797764 0 0.40612275810511328 -0.107362968848777 0 0.41835665696605379 -0.12202144051617279 0 0.43194268833908461 -0.1183122065610613 0 0.43299874113576758 -0.1306098913169951 0 0.44308087596173212 -0.1221693231112648 0 0.43194268833908461 -0.1183122065610613 0 0.43299874113576758 -0.1306098913169951 0 0.44009077604799529 -0.10970821878109729 0 0.43194268833908461 -0.1183122065610613 0 0.42518639158387428 -0.1070521590797764 0 0.41835665696605379 -0.12202144051617279 0 0.43194268833908461 -0.1183122065610613 0 0.42518639158387428 -0.1070521590797764 0 0.42518639158387428 -0.1070521590797764 0 0.42064235543132411 -0.090258828022040188 0 0.43656592618912088 -0.092731216817004802 0 0.44009077604799529 -0.10970821878109729 0 0.42518639158387428 -0.1070521590797764 0 0.43656592618912088 -0.092731216817004802 0 0.42518639158387428 -0.1070521590797764 0 0.42064235543132411 -0.090258828022040188 0 0.40612275810511328 -0.107362968848777 0 0.42064235543132411 -0.090258828022040188 0 0.40275560229344393 -0.085396892994347676 0 0.40612275810511328 -0.107362968848777 0 0.42064235543132411 -0.090258828022040188 0 0.41978257434849958 -0.069992430471157885 0 0.40275560229344393 -0.085396892994347676 0 0.42064235543132411 -0.090258828022040188 0 0.43656592618912088 -0.092731216817004802 0 0.43409435662899548 -0.075972588648687056 0 0.42064235543132411 -0.090258828022040188 0 0.43409435662899548 -0.075972588648687056 0 0.41978257434849958 -0.069992430471157885 0 0.43409435662899548 -0.075972588648687056 0 0.41978257434849958 -0.069992430471157885 0 0.43379267283734352 -0.058822472874925841 0 0.41978257434849958 -0.069992430471157885 0 0.40323057640441901 -0.063681630362098535 0 0.40275560229344393 -0.085396892994347676 0 0.40323057640441901 -0.063681630362098535 0 0.38151201645195348 -0.081865946110074223 0 0.40323057640441901 -0.063681630362098535 0 0.38151201645195348 -0.081865946110074223 0 0.40275560229344393 -0.085396892994347676 0 0.38314400870441118 -0.065519247797471702 0 0.38151201645195348 -0.081865946110074223 0 0.37258869065361061 -0.074835800517348061 0 0.40323057640441901 -0.063681630362098535 0 0.38314400870441118 -0.065519247797471702 0 0.38151201645195348 -0.081865946110074223 0 0.38151201645195348 -0.081865946110074223 0 0.40275560229344393 -0.085396892994347676 0 0.38411571086551888 -0.10308068764267191 0 0.40275560229344393 -0.085396892994347676 0 0.40612275810511328 -0.107362968848777 0 0.38411571086551888 -0.10308068764267191 0 0.38151201645195348 -0.081865946110074223 0 0.38411571086551888 -0.10308068764267191 0 0.35979345649948807 -0.1000502618580498 0 0.39062623988436562 -0.1178116564265137 0 0.37177605610298958 -0.1178020369688564 0 0.38250903423046978 -0.13084347797709861 0 0.38411571086551888 -0.10308068764267191 0 0.39062623988436562 -0.1178116564265137 0 0.37177605610298958 -0.1178020369688564 0 0.40612275810511328 -0.107362968848777 0 0.39062623988436562 -0.1178116564265137 0 0.4017088804732013 -0.12953908341998191 0 0.40612275810511328 -0.107362968848777 0 0.38411571086551888 -0.10308068764267191 0 0.39062623988436562 -0.1178116564265137 0 0.42170884413912818 0.0088420932881880087 0 0.43315562598089019 -0.01024506861916881 0 0.40589693233990659 -0.0029012340905509482 0 0.41450977242206949 -0.025109989608885729 0 0.43315562598089019 -0.01024506861916881 0 0.40589693233990659 -0.0029012340905509482 0 0.41450977242206949 -0.025109989608885729 0 0.43315562598089019 -0.01024506861916881 0 0.42940456554157241 -0.027389641064612509 0 0.44426551304142442 -0.029324276737427161 0 0.43315562598089019 -0.01024506861916881 0 0.42940456554157241 -0.027389641064612509 0 0.44426551304142442 -0.029324276737427161 0 0.42598181447325562 -0.044947002684758222 0 0.44426551304142442 -0.029324276737427161 0 0.42940456554157241 -0.027389641064612509 0 0.42598181447325562 -0.044947002684758222 0 0.41450977242206949 -0.025109989608885729 0 0.42940456554157241 -0.027389641064612509 0 0.42598181447325562 -0.044947002684758222 0 0.41978257434849958 -0.069992430471157885 0 0.42598181447325562 -0.044947002684758222 0 0.43379267283734352 -0.058822472874925841 0 0.44888967029973009 -0.050219444813515167 0 0.42598181447325562 -0.044947002684758222 0 0.44888967029973009 -0.050219444813515167 0 0.42598181447325562 -0.044947002684758222 0 0.43379267283734352 -0.058822472874925841 0 0.42598181447325562 -0.044947002684758222 0 0.40715818982592389 -0.054978071449598188 0 0.40323057640441901 -0.063681630362098535 0 0.42598181447325562 -0.044947002684758222 0 0.41978257434849958 -0.069992430471157885 0 0.40323057640441901 -0.063681630362098535 0 0.42598181447325562 -0.044947002684758222 0 0.40323057640441901 -0.063681630362098535 0 0.42598181447325562 -0.044947002684758222 0 0.40715818982592389 -0.054978071449598188 0 0.42598181447325562 -0.044947002684758222 0 0.39909443124845068 -0.038758637736056027 0 0.41450977242206949 -0.025109989608885729 0 0.42598181447325562 -0.044947002684758222 0 0.39909443124845068 -0.038758637736056027 0 0.42598181447325562 -0.044947002684758222 0 0.40715818982592389 -0.054978071449598188 0 0.39909443124845068 -0.038758637736056027 0 0.39909443124845068 -0.038758637736056027 0 0.3826958552088553 -0.038044038126593953 0 0.39279619504982749 -0.02044655952379679 0 0.39909443124845068 -0.038758637736056027 0 0.39337087673578158 -0.053994313706432942 0 0.3826958552088553 -0.038044038126593953 0 0.40323057640441901 -0.063681630362098535 0 0.38314400870441118 -0.065519247797471702 0 0.39337087673578158 -0.053994313706432942 0 0.40715818982592389 -0.054978071449598188 0 0.39909443124845068 -0.038758637736056027 0 0.39337087673578158 -0.053994313706432942 0 0.40323057640441901 -0.063681630362098535 0 0.40715818982592389 -0.054978071449598188 0 0.39337087673578158 -0.053994313706432942 0 0.39337087673578158 -0.053994313706432942 0 0.37952618717540282 -0.05452842891581601 0 0.3826958552088553 -0.038044038126593953 0 0.38314400870441118 -0.065519247797471702 0 0.39337087673578158 -0.053994313706432942 0 0.37952618717540282 -0.05452842891581601 0 0.38314400870441118 -0.065519247797471702 0 0.37952618717540282 -0.05452842891581601 0 0.36863570480529972 -0.064209367173060528 0 0.37952618717540282 -0.05452842891581601 0 0.3826958552088553 -0.038044038126593953 0 0.36656806129819058 -0.044773265201258121 0 0.3826958552088553 -0.038044038126593953 0 0.375635308635762 -0.019190126142090921 0 0.39279619504982749 -0.02044655952379679 0 0.3826958552088553 -0.038044038126593953 0 0.375635308635762 -0.019190126142090921 0 0.3673836735272929 -0.030309841652976691 0 0.41450977242206949 -0.025109989608885729 0 0.39909443124845068 -0.038758637736056027 0 0.39279619504982749 -0.02044655952379679 0 0.41450977242206949 -0.025109989608885729 0 0.39279619504982749 -0.02044655952379679 0 0.40589693233990659 -0.0029012340905509482 0 0.39279619504982749 -0.02044655952379679 0 0.40589693233990659 -0.0029012340905509482 0 0.38177212989710541 -0.0038064740511190229 0 0.375635308635762 -0.019190126142090921 0 0.39279619504982749 -0.02044655952379679 0 0.38177212989710541 -0.0038064740511190229 0 0.39279619504982749 -0.02044655952379679 0 0.38177212989710541 -0.0038064740511190229 0 0.375635308635762 -0.019190126142090921 0 0.36143020020884142 -0.02012143264317582 0 0.35781662780556539 -0.0060507171186920863 0 0.375635308635762 -0.019190126142090921 0 0.38177212989710541 -0.0038064740511190229 0 0.35781662780556539 -0.0060507171186920863 0 0.375635308635762 -0.019190126142090921 0 0.3673836735272929 -0.030309841652976691 0 0.36143020020884142 -0.02012143264317582 0 0.3673836735272929 -0.030309841652976691 0 0.36143020020884142 -0.02012143264317582 0 0.3448851908667443 -0.024935045658942979 0 0.36143020020884142 -0.02012143264317582 0 0.3448851908667443 -0.024935045658942979 0 0.35781662780556539 -0.0060507171186920863 0 0.3448851908667443 -0.024935045658942979 0 0.35781662780556539 -0.0060507171186920863 0 0.3448851908667443 -0.024935045658942979 0 0.35781662780556539 -0.0060507171186920863 0 0.33951422985597463 -0.0087164329010892671 0 0.34943424683897151 0.0057298490405236447 0 0.35781662780556539 -0.0060507171186920863 0 0.33951422985597463 -0.0087164329010892671 0 0.3341432688452064 0.0075021798567649258 0 0.33951422985597463 -0.0087164329010892671 0 0.31858909885295322 -0.012057668634130001 0 0.3341432688452064 0.0075021798567649258 0 0.33951422985597463 -0.0087164329010892671 0 0.33951422985597463 -0.0087164329010892671 0 0.33205636347025819 -0.021984347149809111 0 0.31858909885295322 -0.012057668634130001 0 0.3448851908667443 -0.024935045658942979 0 0.33951422985597463 -0.0087164329010892671 0 0.3448851908667443 -0.024935045658942979 0 0.33205636347025819 -0.021984347149809111 0 0.33510801984818578 -0.039213065231109262 0 0.33205636347025819 -0.021984347149809111 0 0.32073889797108651 -0.029077574684747001 0 0.33510801984818578 -0.039213065231109262 0 0.3448851908667443 -0.024935045658942979 0 0.33951422985597463 -0.0087164329010892671 0 0.33205636347025819 -0.021984347149809111 0 0.32073889797108651 -0.029077574684747001 0 0.31858909885295322 -0.012057668634130001 0 0.30303492886069849 -0.031617517125024031 0 0.33205636347025819 -0.021984347149809111 0 0.32073889797108651 -0.029077574684747001 0 0.31858909885295322 -0.012057668634130001 0 0.3341432688452064 0.0075021798567649258 0 0.3128121591228229 -0.0037616742220522481 0 0.31858909885295322 -0.012057668634130001 0 0.3341432688452064 0.0075021798567649258 0 0.31858909885295322 -0.012057668634130001 0 0.32625562248799173 -0.054398340446079572 0 0.31667402281625312 -0.066133016811741302 0 0.32625562248799173 -0.054398340446079572 0 0.31449782233790452 -0.055858597144907429 0 0.31667402281625312 -0.066133016811741302 0 0.32625562248799173 -0.054398340446079572 0 0.31449782233790452 -0.055858597144907429 0 0.31131283011359501 -0.046183610506732288 0 0.32625562248799173 -0.054398340446079572 0 0.31418288884516338 -0.04255430096414925 0 0.31131283011359501 -0.046183610506732288 0 0.32625562248799173 -0.054398340446079572 0 0.31131283011359501 -0.046183610506732288 0 0.32625562248799173 -0.054398340446079572 0 0.31418288884516338 -0.04255430096414925 0 0.32625562248799173 -0.054398340446079572 0 0.31418288884516338 -0.04255430096414925 0 0.33510801984818578 -0.039213065231109262 0 0.32073889797108651 -0.029077574684747001 0 0.31418288884516338 -0.04255430096414925 0 0.33510801984818578 -0.039213065231109262 0 0.32073889797108651 -0.029077574684747001 0 0.31418288884516338 -0.04255430096414925 0 0.30303492886069849 -0.031617517125024031 0 0.32625562248799173 -0.054398340446079572 0 0.33510801984818578 -0.039213065231109262 0 0.3448851908667443 -0.024935045658942979 0 0.33510801984818578 -0.039213065231109262 0 0.33510801984818578 -0.039213065231109262 0 0.33472714285149369 -0.049163960722258843 0 0.35433751200294528 -0.053478082159031028 0 0.33472714285149369 -0.049163960722258843 0 0.33484702044189663 -0.0591214211276887 0 0.34758302764188748 -0.066168138842290641 0 0.32625562248799173 -0.054398340446079572 0 0.33472714285149369 -0.049163960722258843 0 0.33484702044189663 -0.0591214211276887 0 0.32625562248799173 -0.054398340446079572 0 0.33510801984818578 -0.039213065231109262 0 0.33472714285149369 -0.049163960722258843 0 0.32625562248799173 -0.054398340446079572 0 0.33484702044189663 -0.0591214211276887 0 0.34135075996794512 -0.069207530277241885 0 0.32625562248799173 -0.054398340446079572 0 0.33484702044189663 -0.0591214211276887 0 0.32625562248799173 -0.054398340446079572 0 0.34135075996794512 -0.069207530277241885 0 0.33472714285149369 -0.049163960722258843 0 0.35433751200294528 -0.053478082159031028 0 0.34758302764188748 -0.066168138842290641 0 0.3448851908667443 -0.024935045658942979 0 0.35433751200294528 -0.053478082159031028 0 0.3448851908667443 -0.024935045658942979 0 0.35433751200294528 -0.053478082159031028 0 0.36656806129819058 -0.044773265201258121 0 0.3448851908667443 -0.024935045658942979 0 0.33510801984818578 -0.039213065231109262 0 0.35433751200294528 -0.053478082159031028 0 0.3673836735272929 -0.030309841652976691 0 0.3448851908667443 -0.024935045658942979 0 0.36656806129819058 -0.044773265201258121 0 0.3826958552088553 -0.038044038126593953 0 0.3673836735272929 -0.030309841652976691 0 0.36656806129819058 -0.044773265201258121 0 0.37952618717540282 -0.05452842891581601 0 0.36656806129819058 -0.044773265201258121 0 0.36863570480529972 -0.064209367173060528 0 0.35433751200294528 -0.053478082159031028 0 0.36656806129819058 -0.044773265201258121 0 0.36863570480529972 -0.064209367173060528 0 0.36863570480529972 -0.064209367173060528 0 0.37258869065361061 -0.074835800517348061 0 0.36378983313914681 -0.082021118659118708 0 0.35433751200294528 -0.053478082159031028 0 0.36863570480529972 -0.064209367173060528 0 0.36378983313914681 -0.082021118659118708 0 0.38314400870441118 -0.065519247797471702 0 0.36863570480529972 -0.064209367173060528 0 0.37258869065361061 -0.074835800517348061 0 0.38151201645195348 -0.081865946110074223 0 0.35979345649948807 -0.1000502618580498 0 0.38151201645195348 -0.081865946110074223 0 0.36369991323787548 -0.087911899608031863 0 0.35979345649948807 -0.1000502618580498 0 0.38151201645195348 -0.081865946110074223 0 0.36369991323787548 -0.087911899608031863 0 0.36378983313914681 -0.082021118659118708 0 0.38151201645195348 -0.081865946110074223 0 0.37258869065361061 -0.074835800517348061 0 0.36378983313914681 -0.082021118659118708 0 0.36369991323787548 -0.087911899608031863 0 0.3569583626508917 -0.091605451304511781 0 0.35979345649948807 -0.1000502618580498 0 0.36369991323787548 -0.087911899608031863 0 0.36378983313914681 -0.082021118659118708 0 0.35644589744789801 -0.084016720108404774 0 0.36369991323787548 -0.087911899608031863 0 0.35644589744789801 -0.084016720108404774 0 0.3569583626508917 -0.091605451304511781 0 0.35644589744789801 -0.084016720108404774 0 0.3569583626508917 -0.091605451304511781 0 0.35200682244865122 -0.087577006570628904 0 0.3569583626508917 -0.091605451304511781 0 0.35200682244865122 -0.087577006570628904 0 0.34964661928250829 -0.091497634552970941 0 0.34964661928250829 -0.091497634552970941 0 0.34497641041330718 -0.083188220316628203 0 0.33861506698553812 -0.092318669865393527 0 0.35200682244865122 -0.087577006570628904 0 0.34964661928250829 -0.091497634552970941 0 0.34497641041330718 -0.083188220316628203 0 0.35644589744789801 -0.084016720108404774 0 0.34497641041330718 -0.083188220316628203 0 0.34135075996794512 -0.069207530277241885 0 0.35644589744789801 -0.084016720108404774 0 0.35200682244865122 -0.087577006570628904 0 0.34497641041330718 -0.083188220316628203 0 0.35644589744789801 -0.084016720108404774 0 0.34135075996794512 -0.069207530277241885 0 0.35433751200294528 -0.053478082159031028 0 0.36378983313914681 -0.082021118659118708 0 0.35644589744789801 -0.084016720108404774 0 0.34758302764188748 -0.066168138842290641 0 0.34135075996794512 -0.069207530277241885 0 0.35433751200294528 -0.053478082159031028 0 0.36378983313914681 -0.082021118659118708 0 0.34758302764188748 -0.066168138842290641 0 0.36378983313914681 -0.082021118659118708 0 0.35644589744789801 -0.084016720108404774 0 0.34758302764188748 -0.066168138842290641 0 0.37177605610298958 -0.1178020369688564 0 0.35535162016679789 -0.1203923229167273 0 0.36334643509868048 -0.13235550634614829 0 0.37177605610298958 -0.1178020369688564 0 0.35979345649948807 -0.1000502618580498 0 0.35535162016679789 -0.1203923229167273 0 0.38411571086551888 -0.10308068764267191 0 0.37177605610298958 -0.1178020369688564 0 0.35979345649948807 -0.1000502618580498 0 0.35979345649948807 -0.1000502618580498 0 0.33807489654702377 -0.1182345776060266 0 0.35747055106197378 -0.099194201187238373 0 0.34380626158828659 -0.1031910630416728 0 0.33861506698553812 -0.092318669865393527 0 0.35979345649948807 -0.1000502618580498 0 0.35747055106197378 -0.099194201187238373 0 0.34380626158828659 -0.1031910630416728 0 0.34964661928250829 -0.091497634552970941 0 0.35747055106197378 -0.099194201187238373 0 0.33861506698553812 -0.092318669865393527 0 0.35979345649948807 -0.1000502618580498 0 0.34380626158828659 -0.1031910630416728 0 0.33807489654702377 -0.1182345776060266 0 0.35747055106197378 -0.099194201187238373 0 0.33861506698553812 -0.092318669865393527 0 0.3569583626508917 -0.091605451304511781 0 0.34964661928250829 -0.091497634552970941 0 0.35747055106197378 -0.099194201187238373 0 0.3569583626508917 -0.091605451304511781 0 0.35979345649948807 -0.1000502618580498 0 0.35747055106197378 -0.099194201187238373 0 0.35535162016679789 -0.1203923229167273 0 0.33807489654702377 -0.1182345776060266 0 0.34608880438559197 -0.13258254760181329 0 0.35979345649948807 -0.1000502618580498 0 0.35535162016679789 -0.1203923229167273 0 0.33807489654702377 -0.1182345776060266 0 0.33807489654702377 -0.1182345776060266 0 0.32891723972806708 -0.1018388580747852 0 0.31777502947403408 -0.1168461426263063 0 0.33807489654702377 -0.1182345776060266 0 0.32891723972806708 -0.1018388580747852 0 0.34380626158828659 -0.1031910630416728 0 0.33807489654702377 -0.1182345776060266 0 0.32891723972806708 -0.1018388580747852 0 0.34380626158828659 -0.1031910630416728 0 0.32891723972806708 -0.1018388580747852 0 0.33861506698553812 -0.092318669865393527 0 0.32891723972806708 -0.1018388580747852 0 0.31267636441452218 -0.10015471203491171 0 0.31975958290910278 -0.085443138543548153 0 0.32891723972806708 -0.1018388580747852 0 0.31267636441452218 -0.10015471203491171 0 0.31777502947403408 -0.1168461426263063 0 0.33807489654702377 -0.1182345776060266 0 0.31777502947403408 -0.1168461426263063 0 0.31614600411196159 -0.13659499859688781 0 0.32830215935120183 -0.068081701118373236 0 0.34135075996794512 -0.069207530277241885 0 0.33282823928032668 -0.078743440139054405 0 0.32625562248799173 -0.054398340446079572 0 0.32830215935120183 -0.068081701118373236 0 0.34135075996794512 -0.069207530277241885 0 0.33484702044189663 -0.0591214211276887 0 0.34758302764188748 -0.066168138842290641 0 0.34135075996794512 -0.069207530277241885 0 0.34497641041330718 -0.083188220316628203 0 0.34135075996794512 -0.069207530277241885 0 0.33282823928032668 -0.078743440139054405 0 0.33861506698553812 -0.092318669865393527 0 0.33282823928032668 -0.078743440139054405 0 0.31975958290910278 -0.085443138543548153 0 0.33861506698553812 -0.092318669865393527 0 0.31975958290910278 -0.085443138543548153 0 0.32891723972806708 -0.1018388580747852 0 0.33861506698553812 -0.092318669865393527 0 0.31975958290910278 -0.085443138543548153 0 0.34497641041330718 -0.083188220316628203 0 0.33861506698553812 -0.092318669865393527 0 0.33282823928032668 -0.078743440139054405 0 0.32891723972806708 -0.1018388580747852 0 0.31975958290910278 -0.085443138543548153 0 0.33282823928032668 -0.078743440139054405 0 0.31975958290910278 -0.085443138543548153 0 0.32317270346868671 -0.075262064080674734 0 0.31671400781419029 -0.07999039052572357 0 0.31975958290910278 -0.085443138543548153 0 0.32317270346868671 -0.075262064080674734 0 0.31671400781419029 -0.07999039052572357 0 0.31975958290910278 -0.085443138543548153 0 0.31671400781419029 -0.07999039052572357 0 0.32317270346868671 -0.075262064080674734 0 0.31667402281625312 -0.066133016811741302 0 0.32830215935120183 -0.068081701118373236 0 0.33282823928032668 -0.078743440139054405 0 0.32317270346868671 -0.075262064080674734 0 0.32830215935120183 -0.068081701118373236 0 0.32317270346868671 -0.075262064080674734 0 0.31667402281625312 -0.066133016811741302 0 0.32625562248799173 -0.054398340446079572 0 0.32830215935120183 -0.068081701118373236 0 0.31667402281625312 -0.066133016811741302 0 0.31667402281625312 -0.066133016811741302 0 0.29668641999112683 -0.077029657686017702 0 0.30305150583652629 -0.05719574640978764 0 0.31671400781419029 -0.07999039052572357 0 0.31667402281625312 -0.066133016811741302 0 0.29668641999112683 -0.077029657686017702 0 0.31267636441452218 -0.10015471203491171 0 0.31975958290910278 -0.085443138543548153 0 0.29668641999112683 -0.077029657686017702 0 0.31975958290910278 -0.085443138543548153 0 0.29668641999112683 -0.077029657686017702 0 0.31671400781419029 -0.07999039052572357 0 0.31975958290910278 -0.085443138543548153 0 0.29668641999112683 -0.077029657686017702 0 0.29668641999112683 -0.077029657686017702 0 0.2949818688179075 -0.1056301572325291 0 0.27845573271977242 -0.089629400714898527 0 0.29668641999112683 -0.077029657686017702 0 0.27361325707315098 -0.068616176828486641 0 0.27845573271977242 -0.089629400714898527 0 0.29668641999112683 -0.077029657686017702 0 0.27361325707315098 -0.068616176828486641 0 0.29668641999112683 -0.077029657686017702 0 0.30305150583652629 -0.05719574640978764 0 0.28555325021025418 -0.053601267202299421 0 0.29668641999112683 -0.077029657686017702 0 0.27361325707315098 -0.068616176828486641 0 0.28555325021025418 -0.053601267202299421 0 0.31777502947403408 -0.1168461426263063 0 0.2949818688179075 -0.1056301572325291 0 0.30079481710545231 -0.127172667903095 0 0.31267636441452218 -0.10015471203491171 0 0.31777502947403408 -0.1168461426263063 0 0.2949818688179075 -0.1056301572325291 0 0.31267636441452218 -0.10015471203491171 0 0.29668641999112683 -0.077029657686017702 0 0.2949818688179075 -0.1056301572325291 0 0.2949818688179075 -0.1056301572325291 0 0.28241256269815868 -0.1276523449327783 0 0.30079481710545231 -0.127172667903095 0 0.2949818688179075 -0.1056301572325291 0 0.27029736467659082 -0.10698558202683681 0 0.28241256269815868 -0.1276523449327783 0 0.27029736467659082 -0.10698558202683681 0 0.26119158154211158 -0.12554023966135749 0 0.28241256269815868 -0.1276523449327783 0 0.2949818688179075 -0.1056301572325291 0 0.27029736467659082 -0.10698558202683681 0 0.27845573271977242 -0.089629400714898527 0 0.27029736467659082 -0.10698558202683681 0 0.27845573271977242 -0.089629400714898527 0 0.25669975304008619 -0.089885429800622307 0 0.27029736467659082 -0.10698558202683681 0 0.25669975304008619 -0.089885429800622307 0 0.24895986423086119 -0.10814680445365769 0 0.27029736467659082 -0.10698558202683681 0 0.26119158154211158 -0.12554023966135749 0 0.24895986423086119 -0.10814680445365769 0 0.26119158154211158 -0.12554023966135749 0 0.24895986423086119 -0.10814680445365769 0 0.2442740601995684 -0.12974252718241039 0 0.27361325707315098 -0.068616176828486641 0 0.27845573271977242 -0.089629400714898527 0 0.25669975304008619 -0.089885429800622307 0 0.27361325707315098 -0.068616176828486641 0 0.25669975304008619 -0.089885429800622307 0 0.27361325707315098 -0.068616176828486641 0 0.24882725861752331 -0.059578121478965212 0 0.27361325707315098 -0.068616176828486641 0 0.25078634396980071 -0.075245354593830374 0 0.24882725861752331 -0.059578121478965212 0 0.27361325707315098 -0.068616176828486641 0 0.25669975304008619 -0.089885429800622307 0 0.25078634396980071 -0.075245354593830374 0 0.26278791128271278 -0.053507690086671417 0 0.26861494625834548 -0.057694313882822923 0 0.24882725861752331 -0.059578121478965212 0 0.27361325707315098 -0.068616176828486641 0 0.26861494625834548 -0.057694313882822923 0 0.24882725861752331 -0.059578121478965212 0 0.26433021840630311 -0.046174103837850297 0 0.24882725861752331 -0.059578121478965212 0 0.26433021840630311 -0.046174103837850297 0 0.24882725861752331 -0.059578121478965212 0 0.24938780400303001 -0.047352155117508059 0 0.26278791128271278 -0.053507690086671417 0 0.26433021840630311 -0.046174103837850297 0 0.24882725861752331 -0.059578121478965212 0 0.26278791128271278 -0.053507690086671417 0 0.26583645707577952 -0.051858285751287148 0 0.26433021840630311 -0.046174103837850297 0 0.26861494625834548 -0.057694313882822923 0 0.27562342718322769 -0.047939756161899827 0 0.28555325021025418 -0.053601267202299421 0 0.27361325707315098 -0.068616176828486641 0 0.26861494625834548 -0.057694313882822923 0 0.28555325021025418 -0.053601267202299421 0 0.26861494625834548 -0.057694313882822923 0 0.26765770606498113 -0.049740577148626813 0 0.27562342718322769 -0.047939756161899827 0 0.26861494625834548 -0.057694313882822923 0 0.26583645707577952 -0.051858285751287148 0 0.26765770606498113 -0.049740577148626813 0 0.26765770606498113 -0.049740577148626813 0 0.27562342718322769 -0.047939756161899827 0 0.26433021840630311 -0.046174103837850297 0 0.26278791128271278 -0.053507690086671417 0 0.26861494625834548 -0.057694313882822923 0 0.26583645707577952 -0.051858285751287148 0 0.26583645707577952 -0.051858285751287148 0 0.26765770606498113 -0.049740577148626813 0 0.26433021840630311 -0.046174103837850297 0 0.27361325707315098 -0.068616176828486641 0 0.28555325021025418 -0.053601267202299421 0 0.27562342718322769 -0.047939756161899827 0 0.27697238096195598 -0.035243560752747621 0 0.28509796368979468 -0.04096547930356402 0 0.27562342718322769 -0.047939756161899827 0 0.27697238096195598 -0.035243560752747621 0 0.26433021840630311 -0.046174103837850297 0 0.27697238096195598 -0.035243560752747621 0 0.26433021840630311 -0.046174103837850297 0 0.26810845546563039 -0.032628380691606187 0 0.26639511320775028 -0.031637982305592338 0 0.26433021840630311 -0.046174103837850297 0 0.27697238096195598 -0.035243560752747621 0 0.26810845546563039 -0.032628380691606187 0 0.26433021840630311 -0.046174103837850297 0 0.26810845546563039 -0.032628380691606187 0 0.26639511320775028 -0.031637982305592338 0 0.26639511320775028 -0.031637982305592338 0 0.26433021840630311 -0.046174103837850297 0 0.26639511320775028 -0.031637982305592338 0 0.25671437015045312 -0.040213808997309343 0 0.25308285036203498 -0.03256940699965867 0 0.26639511320775028 -0.031637982305592338 0 0.26433021840630311 -0.046174103837850297 0 0.25671437015045312 -0.040213808997309343 0 0.25671437015045312 -0.040213808997309343 0 0.24938780400303001 -0.047352155117508059 0 0.24421700669423499 -0.036990757300935741 0 0.26433021840630311 -0.046174103837850297 0 0.25671437015045312 -0.040213808997309343 0 0.24938780400303001 -0.047352155117508059 0 0.25671437015045312 -0.040213808997309343 0 0.25308285036203498 -0.03256940699965867 0 0.24421700669423499 -0.036990757300935741 0 0.26773220070295078 -0.022225364134475959 0 0.2444704141750727 -0.0094373062236474958 0 0.26639511320775028 -0.031637982305592338 0 0.24899024079772161 -0.0215770867288981 0 0.26639511320775028 -0.031637982305592338 0 0.25308285036203498 -0.03256940699965867 0 0.24899024079772161 -0.0215770867288981 0 0.25308285036203498 -0.03256940699965867 0 0.24899024079772161 -0.0215770867288981 0 0.26773220070295078 -0.022225364134475959 0 0.24899024079772161 -0.0215770867288981 0 0.2444704141750727 -0.0094373062236474958 0 0.26639511320775028 -0.031637982305592338 0 0.26773220070295078 -0.022225364134475959 0 0.24899024079772161 -0.0215770867288981 0 0.25899550820555201 -0.0050161061057214986 0 0.26773220070295078 -0.022225364134475959 0 0.2444704141750727 -0.0094373062236474958 0 0.25197628184863868 0.0051656796147290978 0 0.25899550820555201 -0.0050161061057214986 0 0.2444704141750727 -0.0094373062236474958 0 0.27180313609554629 0.0064325663205091234 0 0.25899550820555201 -0.0050161061057214986 0 0.26773220070295078 -0.022225364134475959 0 0.27180313609554629 0.0064325663205091234 0 0.28040157571996438 -0.0094129082818092888 0 0.26773220070295078 -0.022225364134475959 0 0.27180313609554629 0.0064325663205091234 0 0.26773220070295078 -0.022225364134475959 0 0.28040157571996438 -0.0094129082818092888 0 0.26773220070295078 -0.022225364134475959 0 0.28261272202515392 -0.030405860855294509 0 0.27697238096195598 -0.035243560752747621 0 0.26810845546563039 -0.032628380691606187 0 0.26773220070295078 -0.022225364134475959 0 0.26810845546563039 -0.032628380691606187 0 0.26639511320775028 -0.031637982305592338 0 0.26773220070295078 -0.022225364134475959 0 0.26639511320775028 -0.031637982305592338 0 0.26773220070295078 -0.022225364134475959 0 0.26773220070295078 -0.022225364134475959 0 0.28261272202515392 -0.030405860855294509 0 0.27697238096195598 -0.035243560752747621 0 0.26773220070295078 -0.022225364134475959 0 0.28261272202515392 -0.030405860855294509 0 0.28040157571996438 -0.0094129082818092888 0 0.28261272202515392 -0.030405860855294509 0 0.29240984538527348 -0.024488462938166349 0 0.28040157571996438 -0.0094129082818092888 0 0.29405973155509718 -0.02281233725519272 0 0.28040157571996438 -0.0094129082818092888 0 0.29405973155509718 -0.02281233725519272 0 0.29240984538527348 -0.024488462938166349 0 0.28261272202515392 -0.030405860855294509 0 0.29392209423471621 -0.029582107149957969 0 0.29240984538527348 -0.024488462938166349 0 0.29405973155509718 -0.02281233725519272 0 0.29392209423471621 -0.029582107149957969 0 0.29240984538527348 -0.024488462938166349 0 0.29405973155509718 -0.02281233725519272 0 0.29240984538527348 -0.024488462938166349 0 0.29133023549735382 0.0069148364263318229 0 0.28040157571996438 -0.0094129082818092888 0 0.29600732405563013 -0.0056944125088911179 0 0.28040157571996438 -0.0094129082818092888 0 0.29405973155509718 -0.02281233725519272 0 0.29600732405563013 -0.0056944125088911179 0 0.3128121591228229 -0.0037616742220522481 0 0.31858909885295322 -0.012057668634130001 0 0.29405973155509718 -0.02281233725519272 0 0.3128121591228229 -0.0037616742220522481 0 0.29405973155509718 -0.02281233725519272 0 0.3128121591228229 -0.0037616742220522481 0 0.29405973155509718 -0.02281233725519272 0 0.29600732405563013 -0.0056944125088911179 0 0.31858909885295322 -0.012057668634130001 0 0.30303492886069849 -0.031617517125024031 0 0.31858909885295322 -0.012057668634130001 0 0.29405973155509718 -0.02281233725519272 0 0.30303492886069849 -0.031617517125024031 0 0.29405973155509718 -0.02281233725519272 0 0.29392209423471621 -0.029582107149957969 0 0.30303492886069849 -0.031617517125024031 0 0.29405973155509718 -0.02281233725519272 0 0.30303492886069849 -0.031617517125024031 0 0.31418288884516338 -0.04255430096414925 0 0.30303492886069849 -0.031617517125024031 0 0.29392209423471621 -0.029582107149957969 0 0.30303492886069849 -0.031617517125024031 0 0.29749324334735738 -0.038586357576112298 0 0.30303492886069849 -0.031617517125024031 0 0.29749324334735738 -0.038586357576112298 0 0.31131283011359501 -0.046183610506732288 0 0.30303492886069849 -0.031617517125024031 0 0.29749324334735738 -0.038586357576112298 0 0.29749324334735738 -0.038586357576112298 0 0.31131283011359501 -0.046183610506732288 0 0.31418288884516338 -0.04255430096414925 0 0.30303492886069849 -0.031617517125024031 0 0.31131283011359501 -0.046183610506732288 0 0.29749324334735738 -0.038586357576112298 0 0.31131283011359501 -0.046183610506732288 0 0.30305150583652629 -0.05719574640978764 0 0.31449782233790452 -0.055858597144907429 0 0.31131283011359501 -0.046183610506732288 0 0.30305150583652629 -0.05719574640978764 0 0.31449782233790452 -0.055858597144907429 0 0.31667402281625312 -0.066133016811741302 0 0.30305150583652629 -0.05719574640978764 0 0.29749324334735738 -0.038586357576112298 0 0.30305150583652629 -0.05719574640978764 0 0.28555325021025418 -0.053601267202299421 0 0.27562342718322769 -0.047939756161899827 0 0.28555325021025418 -0.053601267202299421 0 0.28509796368979468 -0.04096547930356402 0 0.27697238096195598 -0.035243560752747621 0 0.28261272202515392 -0.030405860855294509 0 0.28509796368979468 -0.04096547930356402 0 0.28261272202515392 -0.030405860855294509 0 0.29749324334735738 -0.038586357576112298 0 0.28509796368979468 -0.04096547930356402 0 0.28261272202515392 -0.030405860855294509 0 0.29749324334735738 -0.038586357576112298 0 0.28261272202515392 -0.030405860855294509 0 0.29392209423471621 -0.029582107149957969 0 0.29749324334735738 -0.038586357576112298 0 0.29749324334735738 -0.038586357576112298 0 0.28555325021025418 -0.053601267202299421 0 0.29749324334735738 -0.038586357576112298 0 0.28555325021025418 -0.053601267202299421 0 0.28509796368979468 -0.04096547930356402 0 0.29297362396349902 -0.21023954005987169 0 0.29292804074273621 -0.2259326653954444 0 0.29297362396349902 -0.21023954005987169 0 0.27345786721306908 -0.19734582091328509 0 0.29304819780851532 -0.18456569172246179 0 0.29297362396349902 -0.21023954005987169 0 0.29304819780851532 -0.18456569172246179 0 0.30488410278881772 -0.2034803061309414 0 0.29304819780851532 -0.18456569172246179 0 0.3159015948060267 -0.19339020528296749 0 0.29297362396349902 -0.21023954005987169 0 0.30488410278881772 -0.2034803061309414 0 0.29304819780851532 -0.18456569172246179 0 0.31246278053813548 -0.20671795478004529 0 0.30488410278881772 -0.2034803061309414 0 0.3159015948060267 -0.19339020528296749 0 0.31246278053813548 -0.20671795478004529 0 0.30488410278881772 -0.2034803061309414 0 0.30754649512552817 -0.21259009996016789 0 0.31246278053813548 -0.20671795478004529 0 0.30754649512552817 -0.21259009996016789 0 0.31238272265121447 -0.21198856777940919 0 0.29297362396349902 -0.21023954005987169 0 0.30488410278881772 -0.2034803061309414 0 0.30118622590554678 -0.21457111743483279 0 0.30488410278881772 -0.2034803061309414 0 0.30118622590554678 -0.21457111743483279 0 0.30754649512552817 -0.21259009996016789 0 0.30118622590554678 -0.21457111743483279 0 0.30754649512552817 -0.21259009996016789 0 0.30421279740648172 -0.22118776497408299 0 0.29297362396349902 -0.21023954005987169 0 0.30118622590554678 -0.21457111743483279 0 0.29897684122990881 -0.22566316189605501 0 0.30754649512552817 -0.21259009996016789 0 0.30921951564953848 -0.21895287414827549 0 0.30421279740648172 -0.22118776497408299 0 0.30754649512552817 -0.21259009996016789 0 0.31238272265121447 -0.21198856777940919 0 0.30921951564953848 -0.21895287414827549 0 0.30421279740648172 -0.22118776497408299 0 0.29897684122990881 -0.22566316189605501 0 0.3049266797793117 -0.23686172492080279 0 0.31091791468626861 -0.23410952610168409 0 0.3049266797793117 -0.23686172492080279 0 0.3170288832851566 -0.21213621310691419 0 0.30921951564953848 -0.21895287414827549 0 0.3049266797793117 -0.23686172492080279 0 0.3170288832851566 -0.21213621310691419 0 0.3049266797793117 -0.23686172492080279 0 0.3170288832851566 -0.21213621310691419 0 0.30921951564953848 -0.21895287414827549 0 0.30421279740648172 -0.22118776497408299 0 0.3049266797793117 -0.23686172492080279 0 0.29897684122990881 -0.22566316189605501 0 0.3049266797793117 -0.23686172492080279 0 0.2989940356993816 -0.235358078512936 0 0.29897684122990881 -0.22566316189605501 0 0.2989940356993816 -0.235358078512936 0 0.29289905011848272 -0.23591338839728149 0 0.30118622590554678 -0.21457111743483279 0 0.30421279740648172 -0.22118776497408299 0 0.29897684122990881 -0.22566316189605501 0 0.31091791468626861 -0.23410952610168409 0 0.30300397292774039 -0.25913859153275198 0 0.3049266797793117 -0.23686172492080279 0 0.29714253593384282 -0.24876274676278101 0 0.29246005145957049 -0.26233177801074281 0 0.31091791468626861 -0.23410952610168409 0 0.3049266797793117 -0.23686172492080279 0 0.30300397292774039 -0.25913859153275198 0 0.31091791468626861 -0.23410952610168409 0 0.3192444096746781 -0.24328484406878439 0 0.30300397292774039 -0.25913859153275198 0 0.3049266797793117 -0.23686172492080279 0 0.29246005145957049 -0.26233177801074281 0 0.3049266797793117 -0.23686172492080279 0 0.2984905753827547 -0.23922398464845029 0 0.29714253593384282 -0.24876274676278101 0 0.3049266797793117 -0.23686172492080279 0 0.2989940356993816 -0.235358078512936 0 0.2984905753827547 -0.23922398464845029 0 0.29714253593384282 -0.24876274676278101 0 0.29289905011848272 -0.23591338839728149 0 0.29246005145957049 -0.26233177801074281 0 0.29289905011848272 -0.23591338839728149 0 0.29246005145957049 -0.26233177801074281 0 0.29289905011848272 -0.23591338839728149 0 0.28681506764528031 -0.24909201677635021 0 0.29246005145957049 -0.26233177801074281 0 0.2984905753827547 -0.23922398464845029 0 0.29714253593384282 -0.24876274676278101 0 0.29289905011848272 -0.23591338839728149 0 0.2989940356993816 -0.235358078512936 0 0.2984905753827547 -0.23922398464845029 0 0.29289905011848272 -0.23591338839728149 0 0.29289905011848272 -0.23591338839728149 0 0.28308108674043592 -0.2407845825213519 0 0.28069359367437169 -0.23183750678618051 0 0.29289905011848272 -0.23591338839728149 0 0.28308108674043592 -0.2407845825213519 0 0.28681506764528031 -0.24909201677635021 0 0.29292804074273621 -0.2259326653954444 0 0.27126811697574071 -0.2206335376083827 0 0.29297362396349902 -0.21023954005987169 0 0.29897684122990881 -0.22566316189605501 0 0.29292804074273621 -0.2259326653954444 0 0.29292804074273621 -0.2259326653954444 0 0.27126811697574071 -0.2206335376083827 0 0.28069359367437169 -0.23183750678618051 0 0.29297362396349902 -0.21023954005987169 0 0.29292804074273621 -0.2259326653954444 0 0.27126811697574071 -0.2206335376083827 0 0.29897684122990881 -0.22566316189605501 0 0.29289905011848272 -0.23591338839728149 0 0.29292804074273621 -0.2259326653954444 0 0.29289905011848272 -0.23591338839728149 0 0.29292804074273621 -0.2259326653954444 0 0.29289905011848272 -0.23591338839728149 0 0.29292804074273621 -0.2259326653954444 0 0.28069359367437169 -0.23183750678618051 0 0.27126811697574071 -0.2206335376083827 0 0.28069359367437169 -0.23183750678618051 0 0.27191663552360912 -0.24629541812559541 0 0.28308108674043592 -0.2407845825213519 0 0.28681506764528031 -0.24909201677635021 0 0.27191663552360912 -0.24629541812559541 0 0.28308108674043592 -0.2407845825213519 0 0.28069359367437169 -0.23183750678618051 0 0.27191663552360912 -0.24629541812559541 0 0.27191663552360912 -0.24629541812559541 0 0.25560193416489979 -0.24659806198470721 0 0.25165868265973951 -0.23048189306851599 0 0.27191663552360912 -0.24629541812559541 0 0.25165868265973951 -0.23048189306851599 0 0.27126811697574071 -0.2206335376083827 0 0.27191663552360912 -0.24629541812559541 0 0.25165868265973951 -0.23048189306851599 0 0.27126811697574071 -0.2206335376083827 0 0.25165868265973951 -0.23048189306851599 0 0.24984927567372611 -0.21533511008433351 0 0.26300147541279989 -0.20810941334023331 0 0.25035932680677792 -0.19167626156947479 0 0.24984927567372611 -0.21533511008433351 0 0.27126811697574071 -0.2206335376083827 0 0.26300147541279989 -0.20810941334023331 0 0.24984927567372611 -0.21533511008433351 0 0.27126811697574071 -0.2206335376083827 0 0.24984927567372611 -0.21533511008433351 0 0.29297362396349902 -0.21023954005987169 0 0.27126811697574071 -0.2206335376083827 0 0.27345786721306908 -0.19734582091328509 0 0.27126811697574071 -0.2206335376083827 0 0.26300147541279989 -0.20810941334023331 0 0.27345786721306908 -0.19734582091328509 0 0.26300147541279989 -0.20810941334023331 0 0.27345786721306908 -0.19734582091328509 0 0.25035932680677792 -0.19167626156947479 0 0.27345786721306908 -0.19734582091328509 0 0.25035932680677792 -0.19167626156947479 0 0.2722882192418391 -0.17331584057861249 0 0.25035932680677792 -0.19167626156947479 0 0.25504809089951319 -0.16596793489827341 0 0.2722882192418391 -0.17331584057861249 0 0.25035932680677792 -0.19167626156947479 0 0.2722882192418391 -0.17331584057861249 0 0.25504809089951319 -0.16596793489827341 0 0.25383149558425172 -0.14596201818091509 0 0.2457441474414723 -0.15902650193771031 0 0.25504809089951319 -0.16596793489827341 0 0.2722882192418391 -0.17331584057861249 0 0.26995699682030377 -0.1482884918657322 0 0.2722882192418391 -0.17331584057861249 0 0.26995699682030377 -0.1482884918657322 0 0.29421711167690029 -0.15495541958775011 0 0.27345786721306908 -0.19734582091328509 0 0.2722882192418391 -0.17331584057861249 0 0.29304819780851532 -0.18456569172246179 0 0.26119158154211158 -0.12554023966135749 0 0.25383149558425172 -0.14596201818091509 0 0.26995699682030377 -0.1482884918657322 0 0.26119158154211158 -0.12554023966135749 0 0.25383149558425172 -0.14596201818091509 0 0.2442740601995684 -0.12974252718241039 0 0.25504809089951319 -0.16596793489827341 0 0.25383149558425172 -0.14596201818091509 0 0.26995699682030377 -0.1482884918657322 0 0.26119158154211158 -0.12554023966135749 0 0.26995699682030377 -0.1482884918657322 0 0.28241256269815868 -0.1276523449327783 0 0.28241256269815868 -0.1276523449327783 0 0.29421711167690029 -0.15495541958775011 0 0.30079481710545231 -0.127172667903095 0 0.26995699682030377 -0.1482884918657322 0 0.28241256269815868 -0.1276523449327783 0 0.29421711167690029 -0.15495541958775011 0 0.29421711167690029 -0.15495541958775011 0 0.32021960804671762 -0.16127263653903259 0 0.31614600411196159 -0.13659499859688781 0 0.29421711167690029 -0.15495541958775011 0 0.31614600411196159 -0.13659499859688781 0 0.31777502947403408 -0.1168461426263063 0 0.30079481710545231 -0.127172667903095 0 0.31614600411196159 -0.13659499859688781 0 0.29421711167690029 -0.15495541958775011 0 0.30079481710545231 -0.127172667903095 0 0.31614600411196159 -0.13659499859688781 0 0.2722882192418391 -0.17331584057861249 0 0.29421711167690029 -0.15495541958775011 0 0.29304819780851532 -0.18456569172246179 0 0.2722882192418391 -0.17331584057861249 0 0.29421711167690029 -0.15495541958775011 0 0.29421711167690029 -0.15495541958775011 0 0.29304819780851532 -0.18456569172246179 0 0.31002646210829737 -0.1756470696743522 0 0.29421711167690029 -0.15495541958775011 0 0.31002646210829737 -0.1756470696743522 0 0.32021960804671762 -0.16127263653903259 0 0.29304819780851532 -0.18456569172246179 0 0.31002646210829737 -0.1756470696743522 0 0.3159015948060267 -0.19339020528296749 0 0.31002646210829737 -0.1756470696743522 0 0.32674579820332739 -0.18405139523954919 0 0.3159015948060267 -0.19339020528296749 0 0.31002646210829737 -0.1756470696743522 0 0.32674579820332739 -0.18405139523954919 0 0.32021960804671762 -0.16127263653903259 0 0.32021960804671762 -0.16127263653903259 0 0.34055168039923323 -0.16558486475439879 0 0.33479716449970037 -0.14882728453974201 0 0.32674579820332739 -0.18405139523954919 0 0.32021960804671762 -0.16127263653903259 0 0.34055168039923323 -0.16558486475439879 0 0.32674579820332739 -0.18405139523954919 0 0.3478866883459894 -0.17755692921703789 0 0.34859524921631763 -0.19157943293675911 0 0.32674579820332739 -0.18405139523954919 0 0.34055168039923323 -0.16558486475439879 0 0.3478866883459894 -0.17755692921703789 0 0.33807489654702377 -0.1182345776060266 0 0.31614600411196159 -0.13659499859688781 0 0.32021960804671762 -0.16127263653903259 0 0.31614600411196159 -0.13659499859688781 0 0.33479716449970037 -0.14882728453974201 0 0.34055168039923323 -0.16558486475439879 0 0.33479716449970037 -0.14882728453974201 0 0.35410271222415329 -0.14693051759760389 0 0.33807489654702377 -0.1182345776060266 0 0.31614600411196159 -0.13659499859688781 0 0.34608880438559197 -0.13258254760181329 0 0.31614600411196159 -0.13659499859688781 0 0.33479716449970037 -0.14882728453974201 0 0.34608880438559197 -0.13258254760181329 0 0.33807489654702377 -0.1182345776060266 0 0.34608880438559197 -0.13258254760181329 0 0.35535162016679789 -0.1203923229167273 0 0.34608880438559197 -0.13258254760181329 0 0.36334643509868048 -0.13235550634614829 0 0.34608880438559197 -0.13258254760181329 0 0.35410271222415329 -0.14693051759760389 0 0.36334643509868048 -0.13235550634614829 0 0.34608880438559197 -0.13258254760181329 0 0.35410271222415329 -0.14693051759760389 0 0.33479716449970037 -0.14882728453974201 0 0.34608880438559197 -0.13258254760181329 0 0.35410271222415329 -0.14693051759760389 0 0.37389936933852802 -0.14563551401957611 0 0.36400920207036003 -0.15923239566652181 0 0.38647247245969768 -0.1594956484341806 0 0.35410271222415329 -0.14693051759760389 0 0.37389936933852802 -0.14563551401957611 0 0.36334643509868048 -0.13235550634614829 0 0.35410271222415329 -0.14693051759760389 0 0.37389936933852802 -0.14563551401957611 0 0.36400920207036003 -0.15923239566652181 0 0.37389936933852802 -0.14563551401957611 0 0.36334643509868048 -0.13235550634614829 0 0.38250903423046978 -0.13084347797709861 0 0.37177605610298958 -0.1178020369688564 0 0.36334643509868048 -0.13235550634614829 0 0.38250903423046978 -0.13084347797709861 0 0.34055168039923323 -0.16558486475439879 0 0.3478866883459894 -0.17755692921703789 0 0.36166408166187292 -0.17485209974071 0 0.3478866883459894 -0.17755692921703789 0 0.36599509945524411 -0.18665866760605329 0 0.34859524921631763 -0.19157943293675911 0 0.3478866883459894 -0.17755692921703789 0 0.36599509945524411 -0.18665866760605329 0 0.36166408166187292 -0.17485209974071 0 0.34055168039923323 -0.16558486475439879 0 0.36400920207036003 -0.15923239566652181 0 0.36166408166187292 -0.17485209974071 0 0.34055168039923323 -0.16558486475439879 0 0.35410271222415329 -0.14693051759760389 0 0.36400920207036003 -0.15923239566652181 0 0.36400920207036003 -0.15923239566652181 0 0.36166408166187292 -0.17485209974071 0 0.38087191286005589 -0.17735720480079609 0 0.36599509945524411 -0.18665866760605329 0 0.36166408166187292 -0.17485209974071 0 0.38087191286005589 -0.17735720480079609 0 0.36599509945524411 -0.18665866760605329 0 0.36621381707138501 -0.20341937060880891 0 0.34859524921631763 -0.19157943293675911 0 0.36599509945524411 -0.18665866760605329 0 0.36621381707138501 -0.20341937060880891 0 0.39073884757584387 -0.19518696833220811 0 0.36621381707138501 -0.20341937060880891 0 0.35867849734832991 -0.22196263337545391 0 0.38126929142328608 -0.20854791823582519 0 0.35867849734832991 -0.22196263337545391 0 0.38319031560862499 -0.22433648925421251 0 0.38126929142328608 -0.20854791823582519 0 0.36621381707138501 -0.20341937060880891 0 0.34168878656692597 -0.21165177288540979 0 0.35867849734832991 -0.22196263337545391 0 0.36621381707138501 -0.20341937060880891 0 0.34241680611087832 -0.20067791585399319 0 0.34168878656692597 -0.21165177288540979 0 0.34168878656692597 -0.21165177288540979 0 0.33416667908803488 -0.21958877749669539 0 0.35867849734832991 -0.22196263337545391 0 0.36621381707138501 -0.20341937060880891 0 0.34168878656692597 -0.21165177288540979 0 0.36621381707138501 -0.20341937060880891 0 0.34859524921631763 -0.19157943293675911 0 0.34241680611087832 -0.20067791585399319 0 0.32674579820332739 -0.18405139523954919 0 0.34859524921631763 -0.19157943293675911 0 0.33150282900478162 -0.19932120868959019 0 0.34859524921631763 -0.19157943293675911 0 0.33150282900478162 -0.19932120868959019 0 0.34241680611087832 -0.20067791585399319 0 0.33150282900478162 -0.19932120868959019 0 0.34241680611087832 -0.20067791585399319 0 0.33618023297626248 -0.20519901490840781 0 0.34168878656692597 -0.21165177288540979 0 0.32911251022246413 -0.20914516220463769 0 0.31716375606246711 -0.21988417516201059 0 0.34168878656692597 -0.21165177288540979 0 0.31716375606246711 -0.21988417516201059 0 0.34168878656692597 -0.21165177288540979 0 0.31716375606246711 -0.21988417516201059 0 0.33416667908803488 -0.21958877749669539 0 0.34241680611087832 -0.20067791585399319 0 0.33618023297626248 -0.20519901490840781 0 0.34168878656692597 -0.21165177288540979 0 0.33150282900478162 -0.19932120868959019 0 0.33618023297626248 -0.20519901490840781 0 0.32911251022246413 -0.20914516220463769 0 0.33618023297626248 -0.20519901490840781 0 0.34168878656692597 -0.21165177288540979 0 0.32911251022246413 -0.20914516220463769 0 0.33150282900478162 -0.19932120868959019 0 0.32911251022246413 -0.20914516220463769 0 0.318831856444798 -0.2090804606706167 0 0.31091791468626861 -0.23410952610168409 0 0.3170288832851566 -0.21213621310691419 0 0.318831856444798 -0.2090804606706167 0 0.32911251022246413 -0.20914516220463769 0 0.318831856444798 -0.2090804606706167 0 0.31716375606246711 -0.21988417516201059 0 0.31238272265121447 -0.21198856777940919 0 0.30921951564953848 -0.21895287414827549 0 0.3170288832851566 -0.21213621310691419 0 0.31238272265121447 -0.21198856777940919 0 0.3170288832851566 -0.21213621310691419 0 0.31517219164321869 -0.21016899432623279 0 0.3170288832851566 -0.21213621310691419 0 0.318831856444798 -0.2090804606706167 0 0.31517219164321869 -0.21016899432623279 0 0.31246278053813548 -0.20671795478004529 0 0.31238272265121447 -0.21198856777940919 0 0.31517219164321869 -0.21016899432623279 0 0.31246278053813548 -0.20671795478004529 0 0.318831856444798 -0.2090804606706167 0 0.31517219164321869 -0.21016899432623279 0 0.32674579820332739 -0.18405139523954919 0 0.318831856444798 -0.2090804606706167 0 0.3159015948060267 -0.19339020528296749 0 0.31246278053813548 -0.20671795478004529 0 0.318831856444798 -0.2090804606706167 0 0.3159015948060267 -0.19339020528296749 0 0.32674579820332739 -0.18405139523954919 0 0.318831856444798 -0.2090804606706167 0 0.32674579820332739 -0.18405139523954919 0 0.33150282900478162 -0.19932120868959019 0 0.318831856444798 -0.2090804606706167 0 0.3192444096746781 -0.24328484406878439 0 0.32584089678246358 -0.23216956679731821 0 0.33083616901617252 -0.2515046018757397 0 0.3192444096746781 -0.24328484406878439 0 0.31829174430146928 -0.23236202803244929 0 0.32584089678246358 -0.23216956679731821 0 0.31091791468626861 -0.23410952610168409 0 0.3192444096746781 -0.24328484406878439 0 0.31829174430146928 -0.23236202803244929 0 0.31091791468626861 -0.23410952610168409 0 0.31829174430146928 -0.23236202803244929 0 0.31716375606246711 -0.21988417516201059 0 0.31091791468626861 -0.23410952610168409 0 0.318831856444798 -0.2090804606706167 0 0.31716375606246711 -0.21988417516201059 0 0.31091791468626861 -0.23410952610168409 0 0.318831856444798 -0.2090804606706167 0 0.31716375606246711 -0.21988417516201059 0 0.32584089678246358 -0.23216956679731821 0 0.33416667908803488 -0.21958877749669539 0 0.31829174430146928 -0.23236202803244929 0 0.31716375606246711 -0.21988417516201059 0 0.32584089678246358 -0.23216956679731821 0 0.32584089678246358 -0.23216956679731821 0 0.33482169393483241 -0.23067716457853801 0 0.33416667908803488 -0.21958877749669539 0 0.33482169393483241 -0.23067716457853801 0 0.33416667908803488 -0.21958877749669539 0 0.34345521448737037 -0.23471882363442201 0 0.33482169393483241 -0.23067716457853801 0 0.34345521448737037 -0.23471882363442201 0 0.33083616901617252 -0.2515046018757397 0 0.32584089678246358 -0.23216956679731821 0 0.33482169393483241 -0.23067716457853801 0 0.33083616901617252 -0.2515046018757397 0 0.34345521448737037 -0.23471882363442201 0 0.35866836510460431 -0.24387061221872669 0 0.33083616901617252 -0.2515046018757397 0 0.35866836510460431 -0.24387061221872669 0 0.33083616901617252 -0.2515046018757397 0 0.33416667908803488 -0.21958877749669539 0 0.35867849734832991 -0.22196263337545391 0 0.33416667908803488 -0.21958877749669539 0 0.34345521448737037 -0.23471882363442201 0 0.35867849734832991 -0.22196263337545391 0 0.34345521448737037 -0.23471882363442201 0 0.35866836510460431 -0.24387061221872669 0 0.35867849734832991 -0.22196263337545391 0 0.35866836510460431 -0.24387061221872669 0 0.35867849734832991 -0.22196263337545391 0 0.37063356986830009 -0.2324407090630338 0 0.35867849734832991 -0.22196263337545391 0 0.37063356986830009 -0.2324407090630338 0 0.38319031560862499 -0.22433648925421251 0 0.35867849734832991 -0.22196263337545391 0 0.38319031560862499 -0.22433648925421251 0 0.35866836510460431 -0.24387061221872669 0 0.37063356986830009 -0.2324407090630338 0 0.38650056119303589 -0.23623662256171379 0 0.35866836510460431 -0.24387061221872669 0 0.38650056119303589 -0.23623662256171379 0 0.35866836510460431 -0.24387061221872669 0 0.38650056119303589 -0.23623662256171379 0 0.37666098301791873 -0.25658766975618591 0 0.38650056119303589 -0.23623662256171379 0 0.37666098301791873 -0.25658766975618591 0 0.391114334771963 -0.25102612265052882 0 0.38650056119303589 -0.23623662256171379 0 0.40036906043694481 -0.24343675146682139 0 0.40770213386892018 -0.226710345132971 0 0.38650056119303589 -0.23623662256171379 0 0.40036906043694481 -0.24343675146682139 0 0.391114334771963 -0.25102612265052882 0 0.40036906043694481 -0.24343675146682139 0 0.41611763170704741 -0.2471102234290326 0 0.40041064064375709 -0.25610044355986078 0 0.38650056119303589 -0.23623662256171379 0 0.38319031560862499 -0.22433648925421251 0 0.40770213386892018 -0.226710345132971 0 0.38319031560862499 -0.22433648925421251 0 0.3974269542438425 -0.21205362680620171 0 0.40770213386892018 -0.226710345132971 0 0.38319031560862499 -0.22433648925421251 0 0.40770213386892018 -0.226710345132971 0 0.37063356986830009 -0.2324407090630338 0 0.38650056119303589 -0.23623662256171379 0 0.38319031560862499 -0.22433648925421251 0 0.38126929142328608 -0.20854791823582519 0 0.39073884757584387 -0.19518696833220811 0 0.3974269542438425 -0.21205362680620171 0 0.38319031560862499 -0.22433648925421251 0 0.38126929142328608 -0.20854791823582519 0 0.3974269542438425 -0.21205362680620171 0 0.36621381707138501 -0.20341937060880891 0 0.38126929142328608 -0.20854791823582519 0 0.39073884757584387 -0.19518696833220811 0 0.36621381707138501 -0.20341937060880891 0 0.39073884757584387 -0.19518696833220811 0 0.39073884757584387 -0.19518696833220811 0 0.3974269542438425 -0.21205362680620171 0 0.41241522884482401 -0.1980844137720581 0 0.39073884757584387 -0.19518696833220811 0 0.41241522884482401 -0.1980844137720581 0 0.40528149427812571 -0.17939874674161421 0 0.3974269542438425 -0.21205362680620171 0 0.42116588299845492 -0.2154254314507098 0 0.40770213386892018 -0.226710345132971 0 0.3974269542438425 -0.21205362680620171 0 0.42116588299845492 -0.2154254314507098 0 0.41241522884482401 -0.1980844137720581 0 0.41241522884482401 -0.1980844137720581 0 0.40528149427812571 -0.17939874674161421 0 0.42733074068674931 -0.1851000137864873 0 0.41241522884482401 -0.1980844137720581 0 0.43505797581016409 -0.20400756589474181 0 0.42733074068674931 -0.1851000137864873 0 0.43505797581016409 -0.20400756589474181 0 0.42733074068674931 -0.1851000137864873 0 0.44696630131380649 -0.18946734327324549 0 0.42116588299845492 -0.2154254314507098 0 0.41241522884482401 -0.1980844137720581 0 0.43505797581016409 -0.20400756589474181 0 0.42116588299845492 -0.2154254314507098 0 0.43505797581016409 -0.20400756589474181 0 0.43221395212921537 -0.22908420101172949 0 0.43221395212921537 -0.22908420101172949 0 0.41611763170704741 -0.2471102234290326 0 0.43591918284985209 -0.25339129914353681 0 0.40036906043694481 -0.24343675146682139 0 0.41611763170704741 -0.2471102234290326 0 0.40770213386892018 -0.226710345132971 0 0.42116588299845492 -0.2154254314507098 0 0.43221395212921537 -0.22908420101172949 0 0.40770213386892018 -0.226710345132971 0 0.43221395212921537 -0.22908420101172949 0 0.40770213386892018 -0.226710345132971 0 0.43221395212921537 -0.22908420101172949 0 0.41611763170704741 -0.2471102234290326 0 0.40770213386892018 -0.226710345132971 0 0.39062623988436562 -0.1178116564265137 0 0.4017088804732013 -0.12953908341998191 0 0.38250903423046978 -0.13084347797709861 0 0.4017088804732013 -0.12953908341998191 0 0.38250903423046978 -0.13084347797709861 0 0.39295635994780648 -0.14495553809590311 0 0.4017088804732013 -0.12953908341998191 0 0.39295635994780648 -0.14495553809590311 0 0.40675106282599172 -0.1458507548134961 0 0.37389936933852802 -0.14563551401957611 0 0.38250903423046978 -0.13084347797709861 0 0.39295635994780648 -0.14495553809590311 0 0.37389936933852802 -0.14563551401957611 0 0.39295635994780648 -0.14495553809590311 0 0.38647247245969768 -0.1594956484341806 0 0.39295635994780648 -0.14495553809590311 0 0.40574266356319899 -0.15849173628763241 0 0.38647247245969768 -0.1594956484341806 0 0.39295635994780648 -0.14495553809590311 0 0.40574266356319899 -0.15849173628763241 0 0.40675106282599172 -0.1458507548134961 0 0.39459213579026953 -0.16868583406605581 0 0.40574266356319899 -0.15849173628763241 0 0.38647247245969768 -0.1594956484341806 0 0.39459213579026953 -0.16868583406605581 0 0.40574266356319899 -0.15849173628763241 0 0.40528149427812571 -0.17939874674161421 0 0.36400920207036003 -0.15923239566652181 0 0.38647247245969768 -0.1594956484341806 0 0.38087191286005589 -0.17735720480079609 0 0.39459213579026953 -0.16868583406605581 0 0.38647247245969768 -0.1594956484341806 0 0.38087191286005589 -0.17735720480079609 0 0.36599509945524411 -0.18665866760605329 0 0.39073884757584387 -0.19518696833220811 0 0.38087191286005589 -0.17735720480079609 0 0.39459213579026953 -0.16868583406605581 0 0.38087191286005589 -0.17735720480079609 0 0.40528149427812571 -0.17939874674161421 0 0.39073884757584387 -0.19518696833220811 0 0.38087191286005589 -0.17735720480079609 0 0.40528149427812571 -0.17939874674161421 0 0.40528149427812571 -0.17939874674161421 0 0.42733074068674931 -0.1851000137864873 0 0.42288552970723969 -0.16561213524753149 0 0.42733074068674931 -0.1851000137864873 0 0.42288552970723969 -0.16561213524753149 0 0.44137791416633559 -0.1740298777897327 0 0.42288552970723969 -0.16561213524753149 0 0.43124145996920132 -0.15053613375611999 0 0.44063260429246692 -0.1604381198068017 0 0.42288552970723969 -0.16561213524753149 0 0.44063260429246692 -0.1604381198068017 0 0.44137791416633559 -0.1740298777897327 0 0.40574266356319899 -0.15849173628763241 0 0.42288552970723969 -0.16561213524753149 0 0.41752701934725728 -0.14990265495706381 0 0.40574266356319899 -0.15849173628763241 0 0.40528149427812571 -0.17939874674161421 0 0.42288552970723969 -0.16561213524753149 0 0.40574266356319899 -0.15849173628763241 0 0.40675106282599172 -0.1458507548134961 0 0.41752701934725728 -0.14990265495706381 0 0.40675106282599172 -0.1458507548134961 0 0.41752701934725728 -0.14990265495706381 0 0.41393870737735111 -0.13680068269682361 0 0.41752701934725728 -0.14990265495706381 0 0.4252078808814147 -0.13846691630853719 0 0.41393870737735111 -0.13680068269682361 0 0.42288552970723969 -0.16561213524753149 0 0.41752701934725728 -0.14990265495706381 0 0.43124145996920132 -0.15053613375611999 0 0.43124145996920132 -0.15053613375611999 0 0.4252078808814147 -0.13846691630853719 0 0.43605769158264263 -0.13981112937207929 0 0.41752701934725728 -0.14990265495706381 0 0.43124145996920132 -0.15053613375611999 0 0.4252078808814147 -0.13846691630853719 0 0.41835665696605379 -0.12202144051617279 0 0.4252078808814147 -0.13846691630853719 0 0.43299874113576758 -0.1306098913169951 0 0.4252078808814147 -0.13846691630853719 0 0.43605769158264263 -0.13981112937207929 0 0.43299874113576758 -0.1306098913169951 0 0.4017088804732013 -0.12953908341998191 0 0.40675106282599172 -0.1458507548134961 0 0.41393870737735111 -0.13680068269682361 0 0.41835665696605379 -0.12202144051617279 0 0.4252078808814147 -0.13846691630853719 0 0.41393870737735111 -0.13680068269682361 0 0.41835665696605379 -0.12202144051617279 0 0.4017088804732013 -0.12953908341998191 0 0.41393870737735111 -0.13680068269682361 0 0.46517149914948219 -0.12137249055531869 0 0.46380637503059041 -0.13132997536488991 0 0.47539032622818961 -0.13271582894304479 0 0.46517149914948219 -0.12137249055531869 0 0.46380637503059041 -0.13132997536488991 0 0.45471825288194551 -0.12585871809431229 0 0.46380637503059041 -0.13132997536488991 0 0.46692533234421701 -0.1389922594609263 0 0.47539032622818961 -0.13271582894304479 0 0.46380637503059041 -0.13132997536488991 0 0.46692533234421701 -0.1389922594609263 0 0.45991321888571263 -0.14197757485360721 0 0.46380637503059041 -0.13132997536488991 0 0.45411841225964011 -0.13513675877187339 0 0.45991321888571263 -0.14197757485360721 0 0.46380637503059041 -0.13132997536488991 0 0.45411841225964011 -0.13513675877187339 0 0.45471825288194551 -0.12585871809431229 0 0.44308087596173212 -0.1221693231112648 0 0.45471825288194551 -0.12585871809431229 0 0.44471995461155511 -0.13347992647540369 0 0.45411841225964011 -0.13513675877187339 0 0.45471825288194551 -0.12585871809431229 0 0.44471995461155511 -0.13347992647540369 0 0.44308087596173212 -0.1221693231112648 0 0.43299874113576758 -0.1306098913169951 0 0.44471995461155511 -0.13347992647540369 0 0.43605769158264263 -0.13981112937207929 0 0.43299874113576758 -0.1306098913169951 0 0.44471995461155511 -0.13347992647540369 0 0.43605769158264263 -0.13981112937207929 0 0.44471995461155511 -0.13347992647540369 0 0.44612042131527457 -0.1459627790033404 0 0.45411841225964011 -0.13513675877187339 0 0.44471995461155511 -0.13347992647540369 0 0.44612042131527457 -0.1459627790033404 0 0.43124145996920132 -0.15053613375611999 0 0.43605769158264263 -0.13981112937207929 0 0.44612042131527457 -0.1459627790033404 0 0.43124145996920132 -0.15053613375611999 0 0.44612042131527457 -0.1459627790033404 0 0.44063260429246692 -0.1604381198068017 0 0.44612042131527457 -0.1459627790033404 0 0.45575188375454578 -0.15547484772686279 0 0.44063260429246692 -0.1604381198068017 0 0.45411841225964011 -0.13513675877187339 0 0.44612042131527457 -0.1459627790033404 0 0.45991321888571263 -0.14197757485360721 0 0.44612042131527457 -0.1459627790033404 0 0.45575188375454578 -0.15547484772686279 0 0.45991321888571263 -0.14197757485360721 0 0.46692533234421701 -0.1389922594609263 0 0.45991321888571263 -0.14197757485360721 0 0.46859140923237552 -0.14994565868216331 0 0.45575188375454578 -0.15547484772686279 0 0.45991321888571263 -0.14197757485360721 0 0.46859140923237552 -0.14994565868216331 0 0.45575188375454578 -0.15547484772686279 0 0.46859140923237552 -0.14994565868216331 0 0.46612843485607303 -0.16565408080756761 0 0.46612843485607303 -0.16565408080756761 0 0.45237024226965772 -0.16734818386024081 0 0.45725576282880059 -0.17785272747584729 0 0.45575188375454578 -0.15547484772686279 0 0.46612843485607303 -0.16565408080756761 0 0.45237024226965772 -0.16734818386024081 0 0.45575188375454578 -0.15547484772686279 0 0.44063260429246692 -0.1604381198068017 0 0.45237024226965772 -0.16734818386024081 0 0.44063260429246692 -0.1604381198068017 0 0.45237024226965772 -0.16734818386024081 0 0.44137791416633559 -0.1740298777897327 0 0.44137791416633559 -0.1740298777897327 0 0.45725576282880059 -0.17785272747584729 0 0.44696630131380649 -0.18946734327324549 0 0.45237024226965772 -0.16734818386024081 0 0.44137791416633559 -0.1740298777897327 0 0.45725576282880059 -0.17785272747584729 0 0.42733074068674931 -0.1851000137864873 0 0.44137791416633559 -0.1740298777897327 0 0.44696630131380649 -0.18946734327324549 0 0.45725576282880059 -0.17785272747584729 0 0.44696630131380649 -0.18946734327324549 0 0.46370613973740021 -0.18992032221637081 0 0.46612843485607303 -0.16565408080756761 0 0.45725576282880059 -0.17785272747584729 0 0.47223057295381649 -0.17917386756047071 0 0.45725576282880059 -0.17785272747584729 0 0.47223057295381649 -0.17917386756047071 0 0.46370613973740021 -0.18992032221637081 0 0.47223057295381649 -0.17917386756047071 0 0.46370613973740021 -0.18992032221637081 0 0.4765887306204506 -0.19119351893572731 0 0.47223057295381649 -0.17917386756047071 0 0.48228623355749228 -0.18097756972662321 0 0.48096646067464499 -0.17050466116450849 0 0.48228623355749228 -0.18097756972662321 0 0.4765887306204506 -0.19119351893572731 0 0.48950934180607097 -0.1890584360402438 0 0.47223057295381649 -0.17917386756047071 0 0.48228623355749228 -0.18097756972662321 0 0.4765887306204506 -0.19119351893572731 0 0.48228623355749228 -0.18097756972662321 0 0.49214937375448431 -0.174488117108204 0 0.48950934180607097 -0.1890584360402438 0 0.49214937375448431 -0.174488117108204 0 0.5 -0.1649332366395023 0 0.5 -0.19189952051725959 0 0.48228623355749228 -0.18097756972662321 0 0.49214937375448431 -0.174488117108204 0 0.48096646067464499 -0.17050466116450849 0 0.49214937375448431 -0.174488117108204 0 0.49248255423676102 -0.1655313832614255 0 0.48096646067464499 -0.17050466116450849 0 0.49248255423676102 -0.1655313832614255 0 0.47573271227866998 -0.15927861918288 0 0.48633081570005898 -0.1457259466632527 0 0.49248255423676102 -0.1655313832614255 0 0.5 -0.1649332366395023 0 0.49311801504290298 -0.1484485899603904 0 0.49248255423676102 -0.1655313832614255 0 0.49311801504290298 -0.1484485899603904 0 0.49214937375448431 -0.174488117108204 0 0.49248255423676102 -0.1655313832614255 0 0.5 -0.1649332366395023 0 0.49214937375448431 -0.174488117108204 0 0.49248255423676102 -0.1655313832614255 0 0.46859140923237552 -0.14994565868216331 0 0.46612843485607303 -0.16565408080756761 0 0.47573271227866998 -0.15927861918288 0 0.49248255423676102 -0.1655313832614255 0 0.48096646067464499 -0.17050466116450849 0 0.47573271227866998 -0.15927861918288 0 0.46612843485607303 -0.16565408080756761 0 0.47223057295381649 -0.17917386756047071 0 0.48096646067464499 -0.17050466116450849 0 0.46612843485607303 -0.16565408080756761 0 0.48096646067464499 -0.17050466116450849 0 0.47573271227866998 -0.15927861918288 0 0.47573271227866998 -0.15927861918288 0 0.47539032622818961 -0.13271582894304479 0 0.47573271227866998 -0.15927861918288 0 0.48633081570005898 -0.1457259466632527 0 0.47539032622818961 -0.13271582894304479 0 0.46859140923237552 -0.14994565868216331 0 0.47573271227866998 -0.15927861918288 0 0.47539032622818961 -0.13271582894304479 0 0.49248255423676102 -0.1655313832614255 0 0.48633081570005898 -0.1457259466632527 0 0.5 -0.1649332366395023 0 0.49311801504290298 -0.1484485899603904 0 0.5 -0.137966952761745 0 0.49248255423676102 -0.1655313832614255 0 0.49311801504290298 -0.1484485899603904 0 0.48633081570005898 -0.1457259466632527 0 0.49408665633132159 -0.1224090628125768 0 0.49311801504290298 -0.1484485899603904 0 0.49408665633132159 -0.1224090628125768 0 0.48633081570005898 -0.1457259466632527 0 0.48068937793888461 -0.12593949268323121 0 0.49408665633132159 -0.1224090628125768 0 0.49311801504290298 -0.1484485899603904 0 0.48633081570005898 -0.1457259466632527 0 0.49408665633132159 -0.1224090628125768 0 0.49311801504290298 -0.1484485899603904 0 0.5 -0.137966952761745 0 0.46692533234421701 -0.1389922594609263 0 0.46859140923237552 -0.14994565868216331 0 0.47539032622818961 -0.13271582894304479 0 0.48633081570005898 -0.1457259466632527 0 0.48068937793888461 -0.12593949268323121 0 0.48633081570005898 -0.1457259466632527 0 0.48068937793888461 -0.12593949268323121 0 0.47539032622818961 -0.13271582894304479 0 0.4609865354345995 -0.23063256106769159 0 0.44980172114689981 -0.2157114505073652 0 0.46893653354483211 -0.21485350215082341 0 0.4609865354345995 -0.23063256106769159 0 0.46893653354483211 -0.21485350215082341 0 0.47509604273869921 -0.23226989696277789 0 0.4609865354345995 -0.23063256106769159 0 0.46757974240813249 -0.24669858900260219 0 0.47509604273869921 -0.23226989696277789 0 0.4609865354345995 -0.23063256106769159 0 0.46757974240813249 -0.24669858900260219 0 0.45045738697435422 -0.2441335159392834 0 0.4609865354345995 -0.23063256106769159 0 0.45045738697435422 -0.2441335159392834 0 0.44836489892126719 -0.22989043213151741 0 0.43221395212921537 -0.22908420101172949 0 0.45045738697435422 -0.2441335159392834 0 0.43591918284985209 -0.25339129914353681 0 0.43221395212921537 -0.22908420101172949 0 0.44836489892126719 -0.22989043213151741 0 0.44980172114689981 -0.2157114505073652 0 0.43221395212921537 -0.22908420101172949 0 0.45045738697435422 -0.2441335159392834 0 0.44836489892126719 -0.22989043213151741 0 0.4609865354345995 -0.23063256106769159 0 0.44836489892126719 -0.22989043213151741 0 0.44980172114689981 -0.2157114505073652 0 0.43505797581016409 -0.20400756589474181 0 0.43221395212921537 -0.22908420101172949 0 0.44980172114689981 -0.2157114505073652 0 0.43505797581016409 -0.20400756589474181 0 0.44980172114689981 -0.2157114505073652 0 0.45575564360864329 -0.20173267767886499 0 0.43505797581016409 -0.20400756589474181 0 0.44696630131380649 -0.18946734327324549 0 0.45575564360864329 -0.20173267767886499 0 0.44696630131380649 -0.18946734327324549 0 0.45575564360864329 -0.20173267767886499 0 0.46370613973740021 -0.18992032221637081 0 0.45575564360864329 -0.20173267767886499 0 0.46370613973740021 -0.18992032221637081 0 0.46992522007215981 -0.20106330276412129 0 0.44980172114689981 -0.2157114505073652 0 0.45575564360864329 -0.20173267767886499 0 0.46893653354483211 -0.21485350215082341 0 0.45575564360864329 -0.20173267767886499 0 0.46893653354483211 -0.21485350215082341 0 0.46992522007215981 -0.20106330276412129 0 0.46893653354483211 -0.21485350215082341 0 0.47850069737436568 -0.20293204387166039 0 0.48754366082831541 -0.21849145946738641 0 0.46893653354483211 -0.21485350215082341 0 0.46992522007215981 -0.20106330276412129 0 0.47850069737436568 -0.20293204387166039 0 0.46370613973740021 -0.18992032221637081 0 0.46992522007215981 -0.20106330276412129 0 0.4765887306204506 -0.19119351893572731 0 0.46992522007215981 -0.20106330276412129 0 0.47850069737436568 -0.20293204387166039 0 0.4765887306204506 -0.19119351893572731 0 0.47850069737436568 -0.20293204387166039 0 0.4765887306204506 -0.19119351893572731 0 0.48950934180607097 -0.1890584360402438 0 0.49214937375448431 -0.174488117108204 0 0.49118073246606569 -0.20052764425601771 0 0.49214937375448431 -0.174488117108204 0 0.49118073246606569 -0.20052764425601771 0 0.48950934180607097 -0.1890584360402438 0 0.49118073246606569 -0.20052764425601771 0 0.48950934180607097 -0.1890584360402438 0 0.48754366082831541 -0.21849145946738641 0 0.49214937375448431 -0.174488117108204 0 0.49118073246606569 -0.20052764425601771 0 0.5 -0.19189952051725959 0 0.48950934180607097 -0.1890584360402438 0 0.48754366082831541 -0.21849145946738641 0 0.49118073246606569 -0.20052764425601771 0 0.5 -0.19189952051725959 0 0.5 -0.21886580439501679 0 0.47850069737436568 -0.20293204387166039 0 0.48950934180607097 -0.1890584360402438 0 0.48754366082831541 -0.21849145946738641 0 0.49118073246606569 -0.20052764425601771 0 0.48754366082831541 -0.21849145946738641 0 0.5 -0.21886580439501679 0 0.48754366082831541 -0.21849145946738641 0 0.5 -0.21886580439501679 0 0.4932804101697188 -0.23277845875742639 0 0.48754366082831541 -0.21849145946738641 0 0.48557797985055978 -0.24792448289452859 0 0.48754366082831541 -0.21849145946738641 0 0.4932804101697188 -0.23277845875742639 0 0.48557797985055978 -0.24792448289452859 0 0.5 -0.21886580439501679 0 0.4932804101697188 -0.23277845875742639 0 0.5 -0.24583208827277411 0 0.46893653354483211 -0.21485350215082341 0 0.48754366082831541 -0.21849145946738641 0 0.47509604273869921 -0.23226989696277789 0 0.48754366082831541 -0.21849145946738641 0 0.47509604273869921 -0.23226989696277789 0 0.48557797985055978 -0.24792448289452859 0 0.46757974240813249 -0.24669858900260219 0 0.47509604273869921 -0.23226989696277789 0 0.48557797985055978 -0.24792448289452859 0 0.4932804101697188 -0.23277845875742639 0 0.48557797985055978 -0.24792448289452859 0 0.5 -0.24583208827277411 0 0.48557797985055978 -0.24792448289452859 0 0.48361229887280421 -0.277357506321671 0 0.48557797985055978 -0.24792448289452859 0 0.5 -0.24583208827277411 0 0.5 -0.27279837215053132 0 0.5 -0.27279837215053132 0 0.48361229887280421 -0.277357506321671 0 0.48571795581354088 -0.29193716014168442 0 0.48557797985055978 -0.24792448289452859 0 0.5 -0.27279837215053132 0 0.48361229887280421 -0.277357506321671 0 0.48361229887280421 -0.277357506321671 0 0.47058539604636379 -0.27494773163894082 0 0.4724256780629833 -0.26182825857900632 0 0.48361229887280421 -0.277357506321671 0 0.47058539604636379 -0.27494773163894082 0 0.47194059518073511 -0.28784185561884912 0 0.48557797985055978 -0.24792448289452859 0 0.48361229887280421 -0.277357506321671 0 0.4724256780629833 -0.26182825857900632 0 0.46757974240813249 -0.24669858900260219 0 0.48557797985055978 -0.24792448289452859 0 0.4724256780629833 -0.26182825857900632 0 0.46757974240813249 -0.24669858900260219 0 0.4724256780629833 -0.26182825857900632 0 0.45573084913506351 -0.26478481026730599 0 0.46757974240813249 -0.24669858900260219 0 0.45045738697435422 -0.2441335159392834 0 0.45573084913506351 -0.26478481026730599 0 0.47058539604636379 -0.27494773163894082 0 0.4724256780629833 -0.26182825857900632 0 0.45573084913506351 -0.26478481026730599 0 0.47058539604636379 -0.27494773163894082 0 0.45573084913506351 -0.26478481026730599 0 0.45997547595798111 -0.28112548595299242 0 0.45573084913506351 -0.26478481026730599 0 0.45997547595798111 -0.28112548595299242 0 0.44643769059238381 -0.28119942287691668 0 0.43815780452435371 -0.26971281778625728 0 0.44643769059238381 -0.28119942287691668 0 0.42919172188061472 -0.28146746135768053 0 0.45573084913506351 -0.26478481026730599 0 0.43815780452435371 -0.26971281778625728 0 0.44643769059238381 -0.28119942287691668 0 0.45045738697435422 -0.2441335159392834 0 0.45573084913506351 -0.26478481026730599 0 0.43591918284985209 -0.25339129914353681 0 0.45573084913506351 -0.26478481026730599 0 0.43815780452435371 -0.26971281778625728 0 0.43591918284985209 -0.25339129914353681 0 0.44881940778795171 -0.30773332650786561 0 0.43939820809221353 -0.29226061875816239 0 0.45402392823142212 -0.2934638687058207 0 0.44881940778795171 -0.30773332650786561 0 0.43382618663747091 -0.31901183274833522 0 0.43466657104933393 -0.30497136931565161 0 0.44881940778795171 -0.30773332650786561 0 0.43939820809221353 -0.29226061875816239 0 0.43466657104933393 -0.30497136931565161 0 0.44643769059238381 -0.28119942287691668 0 0.43939820809221353 -0.29226061875816239 0 0.42919172188061472 -0.28146746135768053 0 0.44643769059238381 -0.28119942287691668 0 0.43939820809221353 -0.29226061875816239 0 0.45402392823142212 -0.2934638687058207 0 0.45402392823142212 -0.2934638687058207 0 0.46864790456291178 -0.30253089174712872 0 0.47194059518073511 -0.28784185561884912 0 0.45997547595798111 -0.28112548595299242 0 0.45402392823142212 -0.2934638687058207 0 0.47194059518073511 -0.28784185561884912 0 0.45997547595798111 -0.28112548595299242 0 0.44643769059238381 -0.28119942287691668 0 0.45402392823142212 -0.2934638687058207 0 0.47058539604636379 -0.27494773163894082 0 0.45997547595798111 -0.28112548595299242 0 0.47194059518073511 -0.28784185561884912 0 0.44881940778795171 -0.30773332650786561 0 0.45402392823142212 -0.2934638687058207 0 0.46864790456291178 -0.30253089174712872 0 0.44881940778795171 -0.30773332650786561 0 0.46864790456291178 -0.30253089174712872 0 0.46516028186576608 -0.31869680835887337 0 0.46864790456291178 -0.30253089174712872 0 0.48571795581354088 -0.29193716014168442 0 0.48503002399312412 -0.31245892851720702 0 0.46864790456291178 -0.30253089174712872 0 0.48503002399312412 -0.31245892851720702 0 0.46516028186576608 -0.31869680835887337 0 0.46864790456291178 -0.30253089174712872 0 0.47194059518073511 -0.28784185561884912 0 0.48571795581354088 -0.29193716014168442 0 0.48361229887280421 -0.277357506321671 0 0.47194059518073511 -0.28784185561884912 0 0.48571795581354088 -0.29193716014168442 0 0.5 -0.27279837215053132 0 0.48571795581354088 -0.29193716014168442 0 0.5 -0.29976465602828839 0 0.48571795581354088 -0.29193716014168442 0 0.48503002399312412 -0.31245892851720702 0 0.5 -0.29976465602828839 0 0.48503002399312412 -0.31245892851720702 0 0.49999999999999861 -0.32673093990604563 0 0.47989969142011268 -0.33079324625788481 0 0.48503002399312412 -0.31245892851720702 0 0.5 -0.29976465602828839 0 0.49999999999999861 -0.32673093990604563 0 0.49999999999999861 -0.32673093990604563 0 0.47989969142011268 -0.33079324625788481 0 0.5 -0.34288548442152827 0 0.47989969142011268 -0.33079324625788481 0 0.48281879762800939 -0.34595760503028861 0 0.49999999999999861 -0.32673093990604563 0 0.5 -0.34288548442152827 0 0.47989969142011268 -0.33079324625788481 0 0.47989969142011268 -0.33079324625788481 0 0.45979938284022681 -0.33485555260972422 0 0.47989969142011268 -0.33079324625788481 0 0.48281879762800939 -0.34595760503028861 0 0.45979938284022681 -0.33485555260972422 0 0.48503002399312412 -0.31245892851720702 0 0.47989969142011268 -0.33079324625788481 0 0.46516028186576608 -0.31869680835887337 0 0.50000000000000222 -0.35904002893701098 0 0.5 -0.38451216760558121 0 0.47882878227350278 -0.38030621602011427 0 0.50000000000000222 -0.35904002893701098 0 0.47257215942579017 -0.35977291126703881 0 0.50000000000000222 -0.35904002893701098 0 0.48281879762800939 -0.34595760503028861 0 0.47257215942579017 -0.35977291126703881 0 0.5 -0.34288548442152827 0 0.50000000000000222 -0.35904002893701098 0 0.48281879762800939 -0.34595760503028861 0 0.48281879762800939 -0.34595760503028861 0 0.47257215942579017 -0.35977291126703881 0 0.45979938284022681 -0.33485555260972422 0 0.50000000000000222 -0.35904002893701098 0 0.47257215942579017 -0.35977291126703881 0 0.47882878227350278 -0.38030621602011427 0 0.47257215942579017 -0.35977291126703881 0 0.47882878227350278 -0.38030621602011427 0 0.45725508005532173 -0.3777873946206447 0 0.47257215942579017 -0.35977291126703881 0 0.44514431885157829 -0.36050579359706653 0 0.45725508005532173 -0.3777873946206447 0 0.47257215942579017 -0.35977291126703881 0 0.44514431885157829 -0.36050579359706653 0 0.47257215942579017 -0.35977291126703881 0 0.44514431885157829 -0.36050579359706653 0 0.45979938284022681 -0.33485555260972422 0 0.44514431885157829 -0.36050579359706653 0 0.45979938284022681 -0.33485555260972422 0 0.43969907426034083 -0.33891785896156368 0 0.44514431885157829 -0.36050579359706653 0 0.45725508005532173 -0.3777873946206447 0 0.43415958041440028 -0.3854836608909934 0 0.47989969142011268 -0.33079324625788481 0 0.46516028186576608 -0.31869680835887337 0 0.45979938284022681 -0.33485555260972422 0 0.44881940778795171 -0.30773332650786561 0 0.46516028186576608 -0.31869680835887337 0 0.44876528059026999 -0.32380890451343042 0 0.46516028186576608 -0.31869680835887337 0 0.45979938284022681 -0.33485555260972422 0 0.44876528059026999 -0.32380890451343042 0 0.45979938284022681 -0.33485555260972422 0 0.43969907426034083 -0.33891785896156368 0 0.44876528059026999 -0.32380890451343042 0 0.45979938284022681 -0.33485555260972422 0 0.43969907426034083 -0.33891785896156368 0 0.43969907426034083 -0.33891785896156368 0 0.44876528059026999 -0.32380890451343042 0 0.43382618663747091 -0.31901183274833522 0 0.44881940778795171 -0.30773332650786561 0 0.44876528059026999 -0.32380890451343042 0 0.43382618663747091 -0.31901183274833522 0 0.43382618663747091 -0.31901183274833522 0 0.4167523755319984 -0.3214581282731811 0 0.42469773991117271 -0.30974785582620412 0 0.43382618663747091 -0.31901183274833522 0 0.42342193919872401 -0.33574889595031721 0 0.4167523755319984 -0.3214581282731811 0 0.43969907426034083 -0.33891785896156368 0 0.43382618663747091 -0.31901183274833522 0 0.42342193919872401 -0.33574889595031721 0 0.42342193919872401 -0.33574889595031721 0 0.40911558128644371 -0.3381179838414119 0 0.4167523755319984 -0.3214581282731811 0 0.40911558128644371 -0.3381179838414119 0 0.4167523755319984 -0.3214581282731811 0 0.40412667749741771 -0.32422251820000159 0 0.40657279312965822 -0.31498398309699521 0 0.4167523755319984 -0.3214581282731811 0 0.41260219002132081 -0.30595709049500841 0 0.40657279312965822 -0.31498398309699521 0 0.4167523755319984 -0.3214581282731811 0 0.40412667749741771 -0.32422251820000159 0 0.44514431885157829 -0.36050579359706653 0 0.41771647827736619 -0.36123867592709419 0 0.43415958041440028 -0.3854836608909934 0 0.44514431885157829 -0.36050579359706653 0 0.41771647827736619 -0.36123867592709419 0 0.44514431885157829 -0.36050579359706653 0 0.43969907426034083 -0.33891785896156368 0 0.41771647827736619 -0.36123867592709419 0 0.43969907426034083 -0.33891785896156368 0 0.42342193919872401 -0.33574889595031721 0 0.41771647827736619 -0.36123867592709419 0 0.40911558128644371 -0.3381179838414119 0 0.41771647827736619 -0.36123867592709419 0 0.39871351135606792 -0.34921048665052262 0 0.42342193919872401 -0.33574889595031721 0 0.40911558128644371 -0.3381179838414119 0 0.41771647827736619 -0.36123867592709419 0 0.41771647827736619 -0.36123867592709419 0 0.39028863770315408 -0.36197155825712451 0 0.39028863770315408 -0.36197155825712451 0 0.40149185337026239 -0.38215128282911348 0 0.41771647827736619 -0.36123867592709419 0 0.39028863770315408 -0.36197155825712451 0 0.40149185337026239 -0.38215128282911348 0 0.41771647827736619 -0.36123867592709419 0 0.39871351135606792 -0.34921048665052262 0 0.39028863770315408 -0.36197155825712451 0 0.39871351135606792 -0.34921048665052262 0 0.38330808568584612 -0.34939788108662689 0 0.39028863770315408 -0.36197155825712451 0 0.39871351135606792 -0.34921048665052262 0 0.38330808568584612 -0.34939788108662689 0 0.39313877382753049 -0.3353263341403549 0 0.38330808568584612 -0.34939788108662689 0 0.38345605721323228 -0.3621541274060131 0 0.36776579861554443 -0.34803064883252138 0 0.38330808568584612 -0.34939788108662689 0 0.37539665452532778 -0.33514746348034941 0 0.36776579861554443 -0.34803064883252138 0 0.38330808568584612 -0.34939788108662689 0 0.39028863770315408 -0.36197155825712451 0 0.38330808568584612 -0.34939788108662689 0 0.39028863770315408 -0.36197155825712451 0 0.38345605721323228 -0.3621541274060131 0 0.38330808568584612 -0.34939788108662689 0 0.38345605721323228 -0.3621541274060131 0 0.39028863770315408 -0.36197155825712451 0 0.38345605721323228 -0.3621541274060131 0 0.38377697706299613 -0.38981980555725831 0 0.39028863770315408 -0.36197155825712451 0 0.38345605721323228 -0.3621541274060131 0 0.39318759663988628 -0.32423013721891542 0 0.3973642890400747 -0.31520718377614643 0 0.40412667749741771 -0.32422251820000159 0 0.39318759663988628 -0.32423013721891542 0 0.40412667749741771 -0.32422251820000159 0 0.39313877382753049 -0.3353263341403549 0 0.39318759663988628 -0.32423013721891542 0 0.3973642890400747 -0.31520718377614643 0 0.3863961098565809 -0.31217448443772611 0 0.40657279312965822 -0.31498398309699521 0 0.3973642890400747 -0.31520718377614643 0 0.40412667749741771 -0.32422251820000159 0 0.40911558128644371 -0.3381179838414119 0 0.39871351135606792 -0.34921048665052262 0 0.39313877382753049 -0.3353263341403549 0 0.40911558128644371 -0.3381179838414119 0 0.40412667749741771 -0.32422251820000159 0 0.39313877382753049 -0.3353263341403549 0 0.38330808568584612 -0.34939788108662689 0 0.37539665452532778 -0.33514746348034941 0 0.38299258828626342 -0.3221996584745056 0 0.38330808568584612 -0.34939788108662689 0 0.39313877382753049 -0.3353263341403549 0 0.38299258828626342 -0.3221996584745056 0 0.38330808568584612 -0.34939788108662689 0 0.38299258828626342 -0.3221996584745056 0 0.38330808568584612 -0.34939788108662689 0 0.37539665452532778 -0.33514746348034941 0 0.37539665452532778 -0.33514746348034941 0 0.37679900271294831 -0.3281674588367024 0 0.38299258828626342 -0.3221996584745056 0 0.37679900271294831 -0.3281674588367024 0 0.38299258828626342 -0.3221996584745056 0 0.37732365148229441 -0.31862365556580391 0 0.39318759663988628 -0.32423013721891542 0 0.39313877382753049 -0.3353263341403549 0 0.38299258828626342 -0.3221996584745056 0 0.39318759663988628 -0.32423013721891542 0 0.38299258828626342 -0.3221996584745056 0 0.3863961098565809 -0.31217448443772611 0 0.37732365148229441 -0.31862365556580391 0 0.3863961098565809 -0.31217448443772611 0 0.37294533319086931 -0.30967963020601358 0 0.38299258828626342 -0.3221996584745056 0 0.37732365148229441 -0.31862365556580391 0 0.3863961098565809 -0.31217448443772611 0 0.37924677571148219 -0.2998365313877942 0 0.3863961098565809 -0.31217448443772611 0 0.37294533319086931 -0.30967963020601358 0 0.37924677571148219 -0.2998365313877942 0 0.38971880384935548 -0.30117197657558092 0 0.3863961098565809 -0.31217448443772611 0 0.38971880384935548 -0.30117197657558092 0 0.3863961098565809 -0.31217448443772611 0 0.39925755807293389 -0.30512496694405938 0 0.3973642890400747 -0.31520718377614643 0 0.3863961098565809 -0.31217448443772611 0 0.39925755807293389 -0.30512496694405938 0 0.38971880384935548 -0.30117197657558092 0 0.39925755807293389 -0.30512496694405938 0 0.39481285287057449 -0.29346010193772798 0 0.39925755807293389 -0.30512496694405938 0 0.40426123569735789 -0.2947790223898456 0 0.39481285287057449 -0.29346010193772798 0 0.39925755807293389 -0.30512496694405938 0 0.40426123569735789 -0.2947790223898456 0 0.41260219002132081 -0.30595709049500841 0 0.40657279312965822 -0.31498398309699521 0 0.39925755807293389 -0.30512496694405938 0 0.41260219002132081 -0.30595709049500841 0 0.40657279312965822 -0.31498398309699521 0 0.3973642890400747 -0.31520718377614643 0 0.39925755807293389 -0.30512496694405938 0 0.40457439515200122 -0.28373668613363678 0 0.40426123569735789 -0.2947790223898456 0 0.39481285287057449 -0.29346010193772798 0 0.40457439515200122 -0.28373668613363678 0 0.39481285287057449 -0.29346010193772798 0 0.39382973700167689 -0.27965639038802048 0 0.39481285287057449 -0.29346010193772798 0 0.38549360426252588 -0.28930760335587502 0 0.39382973700167689 -0.27965639038802048 0 0.37924677571148219 -0.2998365313877942 0 0.38971880384935548 -0.30117197657558092 0 0.38549360426252588 -0.28930760335587502 0 0.38971880384935548 -0.30117197657558092 0 0.39481285287057449 -0.29346010193772798 0 0.38549360426252588 -0.28930760335587502 0 0.37924677571148219 -0.2998365313877942 0 0.38549360426252588 -0.28930760335587502 0 0.37235398216260152 -0.28793899056949163 0 0.38549360426252588 -0.28930760335587502 0 0.37932485764384538 -0.27448842641624471 0 0.37235398216260152 -0.28793899056949163 0 0.37932485764384538 -0.27448842641624471 0 0.37666098301791873 -0.25658766975618591 0 0.36926959111252949 -0.26702983770972 0 0.37932485764384538 -0.27448842641624471 0 0.39075459997603068 -0.26551057557561608 0 0.39382973700167689 -0.27965639038802048 0 0.38549360426252588 -0.28930760335587502 0 0.37932485764384538 -0.27448842641624471 0 0.39382973700167689 -0.27965639038802048 0 0.37932485764384538 -0.27448842641624471 0 0.37666098301791873 -0.25658766975618591 0 0.39075459997603068 -0.26551057557561608 0 0.37666098301791873 -0.25658766975618591 0 0.391114334771963 -0.25102612265052882 0 0.39075459997603068 -0.26551057557561608 0 0.39075459997603068 -0.26551057557561608 0 0.40041064064375709 -0.25610044355986078 0 0.40697224225270912 -0.27009967816728631 0 0.40036906043694481 -0.24343675146682139 0 0.391114334771963 -0.25102612265052882 0 0.40041064064375709 -0.25610044355986078 0 0.391114334771963 -0.25102612265052882 0 0.39075459997603068 -0.26551057557561608 0 0.40041064064375709 -0.25610044355986078 0 0.39075459997603068 -0.26551057557561608 0 0.39382973700167689 -0.27965639038802048 0 0.40697224225270912 -0.27009967816728631 0 0.40457439515200122 -0.28373668613363678 0 0.39382973700167689 -0.27965639038802048 0 0.40697224225270912 -0.27009967816728631 0 0.40697224225270912 -0.27009967816728631 0 0.4166699197438789 -0.27580777845706028 0 0.42283747262907878 -0.26552222642761181 0 0.40457439515200122 -0.28373668613363678 0 0.40697224225270912 -0.27009967816728631 0 0.4166699197438789 -0.27580777845706028 0 0.4166699197438789 -0.27580777845706028 0 0.42919172188061472 -0.28146746135768053 0 0.41491228798580021 -0.28590676779548352 0 0.41611763170704741 -0.2471102234290326 0 0.40041064064375709 -0.25610044355986078 0 0.41158449680814813 -0.2597081428959479 0 0.40697224225270912 -0.27009967816728631 0 0.41158449680814813 -0.2597081428959479 0 0.42283747262907878 -0.26552222642761181 0 0.41611763170704741 -0.2471102234290326 0 0.41158449680814813 -0.2597081428959479 0 0.42283747262907878 -0.26552222642761181 0 0.40041064064375709 -0.25610044355986078 0 0.40697224225270912 -0.27009967816728631 0 0.41158449680814813 -0.2597081428959479 0 0.43815780452435371 -0.26971281778625728 0 0.42283747262907878 -0.26552222642761181 0 0.43591918284985209 -0.25339129914353681 0 0.41611763170704741 -0.2471102234290326 0 0.42283747262907878 -0.26552222642761181 0 0.43591918284985209 -0.25339129914353681 0 0.43815780452435371 -0.26971281778625728 0 0.42283747262907878 -0.26552222642761181 0 0.42919172188061472 -0.28146746135768053 0 0.4166699197438789 -0.27580777845706028 0 0.42283747262907878 -0.26552222642761181 0 0.42919172188061472 -0.28146746135768053 0 0.42919172188061472 -0.28146746135768053 0 0.42469143981361962 -0.2985785038599979 0 0.41491228798580021 -0.28590676779548352 0 0.43939820809221353 -0.29226061875816239 0 0.42919172188061472 -0.28146746135768053 0 0.42469143981361962 -0.2985785038599979 0 0.43939820809221353 -0.29226061875816239 0 0.43466657104933393 -0.30497136931565161 0 0.42469143981361962 -0.2985785038599979 0 0.43382618663747091 -0.31901183274833522 0 0.43466657104933393 -0.30497136931565161 0 0.42469773991117271 -0.30974785582620412 0 0.43466657104933393 -0.30497136931565161 0 0.42469773991117271 -0.30974785582620412 0 0.42469143981361962 -0.2985785038599979 0 0.42469143981361962 -0.2985785038599979 0 0.41260219002132081 -0.30595709049500841 0 0.41345623309920271 -0.29650501908647492 0 0.4167523755319984 -0.3214581282731811 0 0.42469773991117271 -0.30974785582620412 0 0.41260219002132081 -0.30595709049500841 0 0.42469773991117271 -0.30974785582620412 0 0.42469143981361962 -0.2985785038599979 0 0.41260219002132081 -0.30595709049500841 0 0.40426123569735789 -0.2947790223898456 0 0.41260219002132081 -0.30595709049500841 0 0.41345623309920271 -0.29650501908647492 0 0.40426123569735789 -0.2947790223898456 0 0.41345623309920271 -0.29650501908647492 0 0.41491228798580021 -0.28590676779548352 0 0.40457439515200122 -0.28373668613363678 0 0.4166699197438789 -0.27580777845706028 0 0.41491228798580021 -0.28590676779548352 0 0.40457439515200122 -0.28373668613363678 0 0.40426123569735789 -0.2947790223898456 0 0.41491228798580021 -0.28590676779548352 0 0.42469143981361962 -0.2985785038599979 0 0.41345623309920271 -0.29650501908647492 0 0.41491228798580021 -0.28590676779548352 0 0.45197194058793699 -0.49872832457439131 0 0.44794158448123211 -0.481891434429703 0 0.43062926234260651 -0.48180119995952703 0 0.45197194058793699 -0.49872832457439131 0 0.43062926234260651 -0.48180119995952703 0 0.45197194058793699 -0.49872832457439131 0 0.43062926234260651 -0.48180119995952703 0 0.43296197826673027 -0.5 0 0.45197194058793699 -0.49872832457439131 0 0.45691543775683119 -0.499999999999999 0 0.43296197826673027 -0.5 0 0.45197194058793699 -0.49872832457439131 0 0.44794158448123211 -0.481891434429703 0 0.45833594235266512 -0.4874994403911308 0 0.44794158448123211 -0.481891434429703 0 0.44271168035736591 -0.47205256551160107 0 0.46065764549881422 -0.47014296932619698 0 0.44794158448123211 -0.481891434429703 0 0.44271168035736591 -0.47205256551160107 0 0.43062926234260651 -0.48180119995952703 0 0.44794158448123211 -0.481891434429703 0 0.46065764549881422 -0.47014296932619698 0 0.45833594235266512 -0.4874994403911308 0 0.46065764549881422 -0.47014296932619698 0 0.45833594235266512 -0.4874994403911308 0 0.47954919139227209 -0.48158998281123627 0 0.45833594235266512 -0.4874994403911308 0 0.45691543775683119 -0.499999999999999 0 0.47954919139227209 -0.48158998281123627 0 0.45691543775683119 -0.499999999999999 0 0.47954919139227209 -0.48158998281123627 0 0.45197194058793699 -0.49872832457439131 0 0.45833594235266512 -0.4874994403911308 0 0.45691543775683119 -0.499999999999999 0 0.45691543775683119 -0.499999999999999 0 0.5 -0.5 0 0.47954919139227209 -0.48158998281123627 0 0.50000000000000178 -0.49398180522919949 0 0.47954919139227209 -0.48158998281123627 0 0.5 -0.5 0 0.50000000000000178 -0.49398180522919949 0 0.47954919139227209 -0.48158998281123627 0 0.47954919139227209 -0.48158998281123627 0 0.50000000000000422 -0.46495554629413532 0 0.50000000000000178 -0.49398180522919949 0 0.47954919139227209 -0.48158998281123627 0 0.50000000000000422 -0.46495554629413532 0 0.46065764549881422 -0.47014296932619698 0 0.47954919139227209 -0.48158998281123627 0 0.46065764549881422 -0.47014296932619698 0 0.47954919139227209 -0.48158998281123627 0 0.47924732222374627 -0.45934696221735899 0 0.47954919139227209 -0.48158998281123627 0 0.47924732222374627 -0.45934696221735899 0 0.50000000000000422 -0.46495554629413532 0 0.47924732222374627 -0.45934696221735899 0 0.50000000000000422 -0.46495554629413532 0 0.48940362225357531 -0.44940668389943172 0 0.50000000000000422 -0.46495554629413532 0 0.48940362225357531 -0.44940668389943172 0 0.50000000000001099 -0.43545644494272179 0 0.48940362225357531 -0.44940668389943172 0 0.47836716679053798 -0.43786778214350769 0 0.50000000000001099 -0.43545644494272179 0 0.47924732222374627 -0.45934696221735899 0 0.47836716679053798 -0.43786778214350769 0 0.46442283184515232 -0.4540256963627286 0 0.47924732222374627 -0.45934696221735899 0 0.48940362225357531 -0.44940668389943172 0 0.47836716679053798 -0.43786778214350769 0 0.47836716679053798 -0.43786778214350769 0 0.45673433358106502 -0.44027911934429242 0 0.47836716679053798 -0.43786778214350769 0 0.45673433358106502 -0.44027911934429242 0 0.46442283184515232 -0.4540256963627286 0 0.45673433358106502 -0.44027911934429242 0 0.46442283184515232 -0.4540256963627286 0 0.44932260021189602 -0.44954636718274238 0 0.46065764549881422 -0.47014296932619698 0 0.47924732222374627 -0.45934696221735899 0 0.46442283184515232 -0.4540256963627286 0 0.46065764549881422 -0.47014296932619698 0 0.46442283184515232 -0.4540256963627286 0 0.44932260021189602 -0.44954636718274238 0 0.46065764549881422 -0.47014296932619698 0 0.44176609960535468 -0.45869595584116007 0 0.44932260021189602 -0.44954636718274238 0 0.46065764549881422 -0.47014296932619698 0 0.44176609960535468 -0.45869595584116007 0 0.44271168035736591 -0.47205256551160107 0 0.46065764549881422 -0.47014296932619698 0 0.44176609960535468 -0.45869595584116007 0 0.44271168035736591 -0.47205256551160107 0 0.44176609960535468 -0.45869595584116007 0 0.43256380985882209 -0.4677312680014184 0 0.44176609960535468 -0.45869595584116007 0 0.43766801290080531 -0.44731337174095098 0 0.43312112620452731 -0.45635997649879428 0 0.44176609960535468 -0.45869595584116007 0 0.43766801290080531 -0.44731337174095098 0 0.44932260021189602 -0.44954636718274238 0 0.45673433358106502 -0.44027911934429242 0 0.4351015003715919 -0.44269045654507783 0 0.45673433358106502 -0.44027911934429242 0 0.44932260021189602 -0.44954636718274238 0 0.4351015003715919 -0.44269045654507783 0 0.43766801290080531 -0.44731337174095098 0 0.44932260021189602 -0.44954636718274238 0 0.4351015003715919 -0.44269045654507783 0 0.45673433358106502 -0.44027911934429242 0 0.44668589890465932 -0.41962389903845487 0 0.4351015003715919 -0.44269045654507783 0 0.44668589890465932 -0.41962389903845487 0 0.45887672642709049 -0.40122100188240079 0 0.43526311189760059 -0.40623406023720821 0 0.46300092594234971 -0.42445871066252161 0 0.48102777174177969 -0.41794472383175157 0 0.45887672642709049 -0.40122100188240079 0 0.44668589890465932 -0.41962389903845487 0 0.46300092594234971 -0.42445871066252161 0 0.45887672642709049 -0.40122100188240079 0 0.47836716679053798 -0.43786778214350769 0 0.45673433358106502 -0.44027911934429242 0 0.46300092594234971 -0.42445871066252161 0 0.45673433358106502 -0.44027911934429242 0 0.44668589890465932 -0.41962389903845487 0 0.46300092594234971 -0.42445871066252161 0 0.47836716679053798 -0.43786778214350769 0 0.46300092594234971 -0.42445871066252161 0 0.48102777174177969 -0.41794472383175157 0 0.47836716679053798 -0.43786778214350769 0 0.50000000000001099 -0.43545644494272179 0 0.48102777174177969 -0.41794472383175157 0 0.47836716679053798 -0.43786778214350769 0 0.50000000000001099 -0.43545644494272179 0 0.50000000000001099 -0.43545644494272179 0 0.5 -0.4099843062741515 0 0.48102777174177969 -0.41794472383175157 0 0.5 -0.4099843062741515 0 0.48102777174177969 -0.41794472383175157 0 0.48592181129068929 -0.39868009708520502 0 0.48592181129068929 -0.39868009708520502 0 0.47882878227350278 -0.38030621602011427 0 0.45887672642709049 -0.40122100188240079 0 0.48102777174177969 -0.41794472383175157 0 0.48592181129068929 -0.39868009708520502 0 0.45887672642709049 -0.40122100188240079 0 0.5 -0.4099843062741515 0 0.48592181129068929 -0.39868009708520502 0 0.5 -0.38451216760558121 0 0.48592181129068929 -0.39868009708520502 0 0.5 -0.38451216760558121 0 0.47882878227350278 -0.38030621602011427 0 0.47882878227350278 -0.38030621602011427 0 0.45725508005532173 -0.3777873946206447 0 0.45887672642709049 -0.40122100188240079 0 0.45887672642709049 -0.40122100188240079 0 0.43415958041440028 -0.3854836608909934 0 0.43526311189760059 -0.40623406023720821 0 0.45725508005532173 -0.3777873946206447 0 0.45887672642709049 -0.40122100188240079 0 0.43415958041440028 -0.3854836608909934 0 0.41771647827736619 -0.36123867592709419 0 0.43415958041440028 -0.3854836608909934 0 0.40149185337026239 -0.38215128282911348 0 0.43415958041440028 -0.3854836608909934 0 0.41269506903737169 -0.40233100740110178 0 0.40149185337026239 -0.38215128282911348 0 0.43415958041440028 -0.3854836608909934 0 0.43526311189760059 -0.40623406023720821 0 0.41269506903737169 -0.40233100740110178 0 0.41269506903737169 -0.40233100740110178 0 0.40149185337026239 -0.38215128282911348 0 0.39028863770315408 -0.36197155825712451 0 0.40149185337026239 -0.38215128282911348 0 0.38377697706299613 -0.38981980555725831 0 0.40149185337026239 -0.38215128282911348 0 0.38377697706299613 -0.38981980555725831 0 0.39551544909584652 -0.39794689487399432 0 0.38345605721323228 -0.3621541274060131 0 0.38377697706299613 -0.38981980555725831 0 0.38377697706299613 -0.38981980555725831 0 0.39551544909584652 -0.39794689487399432 0 0.38409789691275598 -0.41748548370850369 0 0.38377697706299613 -0.38981980555725831 0 0.38409789691275598 -0.41748548370850369 0 0.38377697706299613 -0.38981980555725831 0 0.38409789691275598 -0.41748548370850369 0 0.36550556753505009 -0.40846725578956949 0 0.41269506903737169 -0.40233100740110178 0 0.40149185337026239 -0.38215128282911348 0 0.39551544909584652 -0.39794689487399432 0 0.41269506903737169 -0.40233100740110178 0 0.39551544909584652 -0.39794689487399432 0 0.38409789691275598 -0.41748548370850369 0 0.41269506903737169 -0.40233100740110178 0 0.38409789691275598 -0.41748548370850369 0 0.39805518060777528 -0.43157787184141538 0 0.38409789691275598 -0.41748548370850369 0 0.38441881676251388 -0.44515116185974901 0 0.38409789691275598 -0.41748548370850369 0 0.39805518060777528 -0.43157787184141538 0 0.38441881676251388 -0.44515116185974901 0 0.38409789691275598 -0.41748548370850369 0 0.38441881676251388 -0.44515116185974901 0 0.36416521191137619 -0.42908779393213659 0 0.39805518060777528 -0.43157787184141538 0 0.42389828470448099 -0.42251073197309019 0 0.41152270311176781 -0.44531870363744019 0 0.41269506903737169 -0.40233100740110178 0 0.39805518060777528 -0.43157787184141538 0 0.42389828470448099 -0.42251073197309019 0 0.41269506903737169 -0.40233100740110178 0 0.42389828470448099 -0.42251073197309019 0 0.43526311189760059 -0.40623406023720821 0 0.41269506903737169 -0.40233100740110178 0 0.42389828470448099 -0.42251073197309019 0 0.44668589890465932 -0.41962389903845487 0 0.43526311189760059 -0.40623406023720821 0 0.42389828470448099 -0.42251073197309019 0 0.42389828470448099 -0.42251073197309019 0 0.4351015003715919 -0.44269045654507783 0 0.44668589890465932 -0.41962389903845487 0 0.42389828470448099 -0.42251073197309019 0 0.4351015003715919 -0.44269045654507783 0 0.42389828470448099 -0.42251073197309019 0 0.4351015003715919 -0.44269045654507783 0 0.41152270311176781 -0.44531870363744019 0 0.42873493793989792 -0.44971021550023088 0 0.4351015003715919 -0.44269045654507783 0 0.41152270311176781 -0.44531870363744019 0 0.4351015003715919 -0.44269045654507783 0 0.41152270311176781 -0.44531870363744019 0 0.43766801290080531 -0.44731337174095098 0 0.4351015003715919 -0.44269045654507783 0 0.43766801290080531 -0.44731337174095098 0 0.42873493793989792 -0.44971021550023088 0 0.43312112620452731 -0.45635997649879428 0 0.43766801290080531 -0.44731337174095098 0 0.42873493793989792 -0.44971021550023088 0 0.4351015003715919 -0.44269045654507783 0 0.44176609960535468 -0.45869595584116007 0 0.43312112620452731 -0.45635997649879428 0 0.43256380985882209 -0.4677312680014184 0 0.43312112620452731 -0.45635997649879428 0 0.43256380985882209 -0.4677312680014184 0 0.42487277071775631 -0.45834907141021147 0 0.43256380985882209 -0.4677312680014184 0 0.42487277071775631 -0.45834907141021147 0 0.40928658409727592 -0.46487407534466268 0 0.42873493793989792 -0.44971021550023088 0 0.43312112620452731 -0.45635997649879428 0 0.42487277071775631 -0.45834907141021147 0 0.42487277071775631 -0.45834907141021147 0 0.40928658409727592 -0.46487407534466268 0 0.41152270311176781 -0.44531870363744019 0 0.42873493793989792 -0.44971021550023088 0 0.42487277071775631 -0.45834907141021147 0 0.41152270311176781 -0.44531870363744019 0 0.41152270311176781 -0.44531870363744019 0 0.38794390585194338 -0.44794695072980112 0 0.39805518060777528 -0.43157787184141538 0 0.41152270311176781 -0.44531870363744019 0 0.38794390585194338 -0.44794695072980112 0 0.40928658409727592 -0.46487407534466268 0 0.41152270311176781 -0.44531870363744019 0 0.38794390585194338 -0.44794695072980112 0 0.39805518060777528 -0.43157787184141538 0 0.38441881676251388 -0.44515116185974901 0 0.38794390585194338 -0.44794695072980112 0 0.38441881676251388 -0.44515116185974901 0 0.3844557578981731 -0.44833576253458918 0 0.36334304513980498 -0.45068912370511899 0 0.3844557578981731 -0.44833576253458918 0 0.38459427635784121 -0.46027708409996843 0 0.36334304513980498 -0.45068912370511899 0 0.38794390585194338 -0.44794695072980112 0 0.3844557578981731 -0.44833576253458918 0 0.38459427635784121 -0.46027708409996843 0 0.38441881676251388 -0.44515116185974901 0 0.38794390585194338 -0.44794695072980112 0 0.38441881676251388 -0.44515116185974901 0 0.38794390585194338 -0.44794695072980112 0 0.3844557578981731 -0.44833576253458918 0 0.38794390585194338 -0.44794695072980112 0 0.3844557578981731 -0.44833576253458918 0 0.38441881676251388 -0.44515116185974901 0 0.3844557578981731 -0.44833576253458918 0 0.38459427635784121 -0.46027708409996843 0 0.39515984400336351 -0.46504397233787798 0 0.38482466782218472 -0.48013854204998341 0 0.38794390585194338 -0.44794695072980112 0 0.38459427635784121 -0.46027708409996843 0 0.39515984400336351 -0.46504397233787798 0 0.3844557578981731 -0.44833576253458918 0 0.38459427635784121 -0.46027708409996843 0 0.38459427635784121 -0.46027708409996843 0 0.39515984400336351 -0.46504397233787798 0 0.40928658409727592 -0.46487407534466268 0 0.38794390585194338 -0.44794695072980112 0 0.39515984400336351 -0.46504397233787798 0 0.40928658409727592 -0.46487407534466268 0 0.38794390585194338 -0.44794695072980112 0 0.40928658409727592 -0.46487407534466268 0 0.39515984400336351 -0.46504397233787798 0 0.40151961274198927 -0.48172369866522968 0 0.39515984400336351 -0.46504397233787798 0 0.40151961274198927 -0.48172369866522968 0 0.38482466782218472 -0.48013854204998341 0 0.38459427635784121 -0.46027708409996843 0 0.38482466782218472 -0.48013854204998341 0 0.38459427635784121 -0.46027708409996843 0 0.38482466782218472 -0.48013854204998341 0 0.37163059445165719 -0.470397968107792 0 0.38482466782218472 -0.48013854204998341 0 0.37053053542080799 -0.48595099317565688 0 0.37163059445165719 -0.470397968107792 0 0.40151961274198927 -0.48172369866522968 0 0.38482466782218472 -0.48013854204998341 0 0.3850550592865285 -0.4999999999999985 0 0.38482466782218472 -0.48013854204998341 0 0.3850550592865285 -0.4999999999999985 0 0.37053053542080799 -0.48595099317565688 0 0.38482466782218472 -0.48013854204998341 0 0.3850550592865285 -0.4999999999999985 0 0.40151961274198927 -0.48172369866522968 0 0.3850550592865285 -0.4999999999999985 0 0.40900851877662942 -0.5 0 0.40900851877662942 -0.5 0 0.41638940318844692 -0.48682626173493682 0 0.43296197826673027 -0.5 0 0.40151961274198927 -0.48172369866522968 0 0.40900851877662942 -0.5 0 0.41638940318844692 -0.48682626173493682 0 0.40928658409727592 -0.46487407534466268 0 0.41638940318844692 -0.48682626173493682 0 0.43062926234260651 -0.48180119995952703 0 0.40928658409727592 -0.46487407534466268 0 0.40151961274198927 -0.48172369866522968 0 0.41638940318844692 -0.48682626173493682 0 0.40928658409727592 -0.46487407534466268 0 0.43062926234260651 -0.48180119995952703 0 0.43256380985882209 -0.4677312680014184 0 0.40928658409727592 -0.46487407534466268 0 0.43062926234260651 -0.48180119995952703 0 0.44271168035736591 -0.47205256551160107 0 0.43256380985882209 -0.4677312680014184 0 0.43062926234260651 -0.48180119995952703 0 0.41638940318844692 -0.48682626173493682 0 0.43062926234260651 -0.48180119995952703 0 0.43296197826673027 -0.5 0 0.32732482578489303 -0.5 0 0.33666356082656729 -0.48218259646348538 0 0.31084530555300299 -0.47818746604870482 0 0.33666356082656729 -0.48218259646348538 0 0.33363484208569372 -0.46640494190869308 0 0.31084530555300299 -0.47818746604870482 0 0.33666356082656729 -0.48218259646348538 0 0.35476848202733641 -0.47064973929595633 0 0.33363484208569372 -0.46640494190869308 0 0.32732482578489303 -0.5 0 0.33666356082656729 -0.48218259646348538 0 0.35618994253571079 -0.5 0 0.35618994253571079 -0.5 0 0.37053053542080799 -0.48595099317565688 0 0.35476848202733641 -0.47064973929595633 0 0.3850550592865285 -0.4999999999999985 0 0.35618994253571079 -0.5 0 0.37053053542080799 -0.48595099317565688 0 0.37053053542080799 -0.48595099317565688 0 0.37163059445165719 -0.470397968107792 0 0.35476848202733641 -0.47064973929595633 0 0.33666356082656729 -0.48218259646348538 0 0.35618994253571079 -0.5 0 0.35476848202733641 -0.47064973929595633 0 0.35476848202733641 -0.47064973929595633 0 0.36334304513980498 -0.45068912370511899 0 0.34298472707962402 -0.45295839510422542 0 0.35476848202733641 -0.47064973929595633 0 0.34298472707962402 -0.45295839510422542 0 0.33363484208569372 -0.46640494190869308 0 0.38459427635784121 -0.46027708409996843 0 0.37163059445165719 -0.470397968107792 0 0.36334304513980498 -0.45068912370511899 0 0.37163059445165719 -0.470397968107792 0 0.35476848202733641 -0.47064973929595633 0 0.36334304513980498 -0.45068912370511899 0 0.38459427635784121 -0.46027708409996843 0 0.36334304513980498 -0.45068912370511899 0 0.3844557578981731 -0.44833576253458918 0 0.36334304513980498 -0.45068912370511899 0 0.38441881676251388 -0.44515116185974901 0 0.36334304513980498 -0.45068912370511899 0 0.36416521191137619 -0.42908779393213659 0 0.36334304513980498 -0.45068912370511899 0 0.33940990229184592 -0.43989115988852429 0 0.36334304513980498 -0.45068912370511899 0 0.33940990229184592 -0.43989115988852429 0 0.34298472707962402 -0.45295839510422542 0 0.36334304513980498 -0.45068912370511899 0 0.33940990229184592 -0.43989115988852429 0 0.36416521191137619 -0.42908779393213659 0 0.36334304513980498 -0.45068912370511899 0 0.34298472707962402 -0.45295839510422542 0 0.33940990229184592 -0.43989115988852429 0 0.32747525854687032 -0.44368224668836831 0 0.32203335888551421 -0.43205135012550849 0 0.34298472707962402 -0.45295839510422542 0 0.32262640901944312 -0.45522766650333302 0 0.32747525854687032 -0.44368224668836831 0 0.33940990229184592 -0.43989115988852429 0 0.34298472707962402 -0.45295839510422542 0 0.32747525854687032 -0.44368224668836831 0 0.34298472707962402 -0.45295839510422542 0 0.33363484208569372 -0.46640494190869308 0 0.32262640901944312 -0.45522766650333302 0 0.34298472707962402 -0.45295839510422542 0 0.32262640901944312 -0.45522766650333302 0 0.33363484208569372 -0.46640494190869308 0 0.32262640901944312 -0.45522766650333302 0 0.31084530555300299 -0.47818746604870482 0 0.32262640901944312 -0.45522766650333302 0 0.31638743753277088 -0.44478121002230803 0 0.30226809095926199 -0.45749693790243928 0 0.31638743753277088 -0.44478121002230803 0 0.32203335888551421 -0.43205135012550849 0 0.30648853934086512 -0.44064963787351669 0 0.31638743753277088 -0.44478121002230803 0 0.32747525854687032 -0.44368224668836831 0 0.32203335888551421 -0.43205135012550849 0 0.32262640901944312 -0.45522766650333302 0 0.31638743753277088 -0.44478121002230803 0 0.32747525854687032 -0.44368224668836831 0 0.32203335888551421 -0.43205135012550849 0 0.3154767594438872 -0.42909319607192847 0 0.33294390447444722 -0.42446393807234328 0 0.3154767594438872 -0.42909319607192847 0 0.32118086433709447 -0.41427621240758788 0 0.33294390447444722 -0.42446393807234328 0 0.32203335888551421 -0.43205135012550849 0 0.3154767594438872 -0.42909319607192847 0 0.3154767594438872 -0.42909319607192847 0 0.32118086433709447 -0.41427621240758788 0 0.31165222404903631 -0.41907330585177532 0 0.32118086433709447 -0.41427621240758788 0 0.30557874435829552 -0.40910879091062979 0 0.31165222404903631 -0.41907330585177532 0 0.32118086433709447 -0.41427621240758788 0 0.32365800220910262 -0.39696105807691001 0 0.30557874435829552 -0.40910879091062979 0 0.32118086433709447 -0.41427621240758788 0 0.33294390447444722 -0.42446393807234328 0 0.34391160706023938 -0.41302442600452338 0 0.32118086433709447 -0.41427621240758788 0 0.34391160706023938 -0.41302442600452338 0 0.32365800220910262 -0.39696105807691001 0 0.33294390447444722 -0.42446393807234328 0 0.34510765643447722 -0.42661682947438179 0 0.34391160706023938 -0.41302442600452338 0 0.33940990229184592 -0.43989115988852429 0 0.32203335888551421 -0.43205135012550849 0 0.33940990229184592 -0.43989115988852429 0 0.32203335888551421 -0.43205135012550849 0 0.33294390447444722 -0.42446393807234328 0 0.33940990229184592 -0.43989115988852429 0 0.33294390447444722 -0.42446393807234328 0 0.34510765643447722 -0.42661682947438179 0 0.33940990229184592 -0.43989115988852429 0 0.34510765643447722 -0.42661682947438179 0 0.36416521191137619 -0.42908779393213659 0 0.34510765643447722 -0.42661682947438179 0 0.36416521191137619 -0.42908779393213659 0 0.34391160706023938 -0.41302442600452338 0 0.38441881676251388 -0.44515116185974901 0 0.36416521191137619 -0.42908779393213659 0 0.38409789691275598 -0.41748548370850369 0 0.36416521191137619 -0.42908779393213659 0 0.36550556753505009 -0.40846725578956949 0 0.36416521191137619 -0.42908779393213659 0 0.34391160706023938 -0.41302442600452338 0 0.36416521191137619 -0.42908779393213659 0 0.36550556753505009 -0.40846725578956949 0 0.34391160706023938 -0.41302442600452338 0 0.36550556753505009 -0.40846725578956949 0 0.34391160706023938 -0.41302442600452338 0 0.35698673129494751 -0.3896408760100879 0 0.38377697706299613 -0.38981980555725831 0 0.36550556753505009 -0.40846725578956949 0 0.35698673129494751 -0.3896408760100879 0 0.38345605721323228 -0.3621541274060131 0 0.38377697706299613 -0.38981980555725831 0 0.35698673129494751 -0.3896408760100879 0 0.35698673129494751 -0.3896408760100879 0 0.33681826793280439 -0.37809741253598572 0 0.35521352880933238 -0.36290877850464831 0 0.34391160706023938 -0.41302442600452338 0 0.35698673129494751 -0.3896408760100879 0 0.32365800220910262 -0.39696105807691001 0 0.35698673129494751 -0.3896408760100879 0 0.33681826793280439 -0.37809741253598572 0 0.32365800220910262 -0.39696105807691001 0 0.34391160706023938 -0.41302442600452338 0 0.32365800220910262 -0.39696105807691001 0 0.32365800220910262 -0.39696105807691001 0 0.30340439735796582 -0.3808976901492967 0 0.32365800220910262 -0.39696105807691001 0 0.32126207694520681 -0.37731292048499848 0 0.30340439735796582 -0.3808976901492967 0 0.33681826793280439 -0.37809741253598572 0 0.32365800220910262 -0.39696105807691001 0 0.32126207694520681 -0.37731292048499848 0 0.32126207694520681 -0.37731292048499848 0 0.30340439735796582 -0.3808976901492967 0 0.31090321600502607 -0.37122113585037708 0 0.32365800220910262 -0.39696105807691001 0 0.29393984598187262 -0.39587933552058913 0 0.30557874435829552 -0.40910879091062979 0 0.32365800220910262 -0.39696105807691001 0 0.30340439735796582 -0.3808976901492967 0 0.29393984598187262 -0.39587933552058913 0 0.29393984598187262 -0.39587933552058913 0 0.28094077880799417 -0.40604977547840071 0 0.30557874435829552 -0.40910879091062979 0 0.29393984598187262 -0.39587933552058913 0 0.28684435135892111 -0.38097740435774552 0 0.28094077880799417 -0.40604977547840071 0 0.30340439735796582 -0.3808976901492967 0 0.29393984598187262 -0.39587933552058913 0 0.28684435135892111 -0.38097740435774552 0 0.30340439735796582 -0.3808976901492967 0 0.28684435135892111 -0.38097740435774552 0 0.28315079250682851 -0.36483432222168388 0 0.28684435135892111 -0.38097740435774552 0 0.27029525867841347 -0.38036994300301108 0 0.28094077880799417 -0.40604977547840071 0 0.28684435135892111 -0.38097740435774552 0 0.27029525867841347 -0.38036994300301108 0 0.27650752314835159 -0.37242380700814948 0 0.26226572621890049 -0.38797960067001869 0 0.26912261064857063 -0.36520916057538172 0 0.27029525867841347 -0.38036994300301108 0 0.26226572621890049 -0.38797960067001869 0 0.26682732387455399 -0.40195048528917232 0 0.27029525867841347 -0.38036994300301108 0 0.26226572621890049 -0.38797960067001869 0 0.26912261064857063 -0.36520916057538172 0 0.25115578665232452 -0.37796349236568272 0 0.26226572621890049 -0.38797960067001869 0 0.24671603634214531 -0.39614759421264722 0 0.25115578665232452 -0.37796349236568272 0 0.26226572621890049 -0.38797960067001869 0 0.26912261064857063 -0.36520916057538172 0 0.26226572621890049 -0.38797960067001869 0 0.26682732387455399 -0.40195048528917232 0 0.25506301757475153 -0.41075928131917461 0 0.26226572621890049 -0.38797960067001869 0 0.25506301757475153 -0.41075928131917461 0 0.24671603634214531 -0.39614759421264722 0 0.26226572621890049 -0.38797960067001869 0 0.25506301757475153 -0.41075928131917461 0 0.27029525867841347 -0.38036994300301108 0 0.28094077880799417 -0.40604977547840071 0 0.26682732387455399 -0.40195048528917232 0 0.27029525867841347 -0.38036994300301108 0 0.28094077880799417 -0.40604977547840071 0 0.28094077880799417 -0.40604977547840071 0 0.26682732387455399 -0.40195048528917232 0 0.26727759555342689 -0.43110604113865592 0 0.26682732387455399 -0.40195048528917232 0 0.25506301757475153 -0.41075928131917461 0 0.26727759555342689 -0.43110604113865592 0 0.25506301757475153 -0.41075928131917461 0 0.26727759555342689 -0.43110604113865592 0 0.2429688921692805 -0.43048247432352033 0 0.26727759555342689 -0.43110604113865592 0 0.24372663769304459 -0.44719712808524892 0 0.2429688921692805 -0.43048247432352033 0 0.26727759555342689 -0.43110604113865592 0 0.2429688921692805 -0.43048247432352033 0 0.26727759555342689 -0.43110604113865592 0 0.29158629893757332 -0.43172960795379089 0 0.28094077880799417 -0.40604977547840071 0 0.26727759555342689 -0.43110604113865592 0 0.29158629893757332 -0.43172960795379089 0 0.26727759555342689 -0.43110604113865592 0 0.29158629893757332 -0.43172960795379089 0 0.28495699866852631 -0.44821794764543371 0 0.28094077880799417 -0.40604977547840071 0 0.30557874435829552 -0.40910879091062979 0 0.30231475583138367 -0.42204952440352139 0 0.28094077880799417 -0.40604977547840071 0 0.29158629893757332 -0.43172960795379089 0 0.30231475583138367 -0.42204952440352139 0 0.28094077880799417 -0.40604977547840071 0 0.29158629893757332 -0.43172960795379089 0 0.30557874435829552 -0.40910879091062979 0 0.31165222404903631 -0.41907330585177532 0 0.30231475583138367 -0.42204952440352139 0 0.32203335888551421 -0.43205135012550849 0 0.29158629893757332 -0.43172960795379089 0 0.3154767594438872 -0.42909319607192847 0 0.29158629893757332 -0.43172960795379089 0 0.30231475583138367 -0.42204952440352139 0 0.32203335888551421 -0.43205135012550849 0 0.29158629893757332 -0.43172960795379089 0 0.30648853934086512 -0.44064963787351669 0 0.32203335888551421 -0.43205135012550849 0 0.3154767594438872 -0.42909319607192847 0 0.29158629893757332 -0.43172960795379089 0 0.3154767594438872 -0.42909319607192847 0 0.31165222404903631 -0.41907330585177532 0 0.30231475583138367 -0.42204952440352139 0 0.31638743753277088 -0.44478121002230803 0 0.30648853934086512 -0.44064963787351669 0 0.30226809095926199 -0.45749693790243928 0 0.29158629893757332 -0.43172960795379089 0 0.30648853934086512 -0.44064963787351669 0 0.30226809095926199 -0.45749693790243928 0 0.29158629893757332 -0.43172960795379089 0 0.30226809095926199 -0.45749693790243928 0 0.30226809095926199 -0.45749693790243928 0 0.31084530555300299 -0.47818746604870482 0 0.32262640901944312 -0.45522766650333302 0 0.30226809095926199 -0.45749693790243928 0 0.31084530555300299 -0.47818746604870482 0 0.32262640901944312 -0.45522766650333302 0 0.30226809095926199 -0.45749693790243928 0 0.30226809095926199 -0.45749693790243928 0 0.27421326213601732 -0.46062411277353021 0 0.30226809095926199 -0.45749693790243928 0 0.28495699866852631 -0.44821794764543371 0 0.27421326213601732 -0.46062411277353021 0 0.30226809095926199 -0.45749693790243928 0 0.27421326213601732 -0.46062411277353021 0 0.28609157354039572 -0.47788528647707912 0 0.29158629893757332 -0.43172960795379089 0 0.30226809095926199 -0.45749693790243928 0 0.28495699866852631 -0.44821794764543371 0 0.26727759555342689 -0.43110604113865592 0 0.28495699866852631 -0.44821794764543371 0 0.25920399556126728 -0.45337920835883072 0 0.26727759555342689 -0.43110604113865592 0 0.25920399556126728 -0.45337920835883072 0 0.24372663769304459 -0.44719712808524892 0 0.27421326213601732 -0.46062411277353021 0 0.26508168627509382 -0.4770041925227913 0 0.2461584333127726 -0.46375128764461981 0 0.25920399556126728 -0.45337920835883072 0 0.27421326213601732 -0.46062411277353021 0 0.2461584333127726 -0.46375128764461981 0 0.27421326213601732 -0.46062411277353021 0 0.2461584333127726 -0.46375128764461981 0 0.28495699866852631 -0.44821794764543371 0 0.25920399556126728 -0.45337920835883072 0 0.27421326213601732 -0.46062411277353021 0 0.27421326213601732 -0.46062411277353021 0 0.26508168627509382 -0.4770041925227913 0 0.28609157354039572 -0.47788528647707912 0 0.26508168627509382 -0.4770041925227913 0 0.24935057010302611 -0.48276027571872782 0 0.2461584333127726 -0.46375128764461981 0 0.26959459228325738 -0.5 0 0.24072947553243959 -0.5 0 0.24935057010302611 -0.48276027571872782 0 0.26508168627509382 -0.4770041925227913 0 0.26959459228325738 -0.5 0 0.24935057010302611 -0.48276027571872782 0 0.26508168627509382 -0.4770041925227913 0 0.26959459228325738 -0.5 0 0.28609157354039572 -0.47788528647707912 0 0.26959459228325738 -0.5 0 0.28609157354039572 -0.47788528647707912 0 0.29845970903407532 -0.5 0 0.30226809095926199 -0.45749693790243928 0 0.28609157354039572 -0.47788528647707912 0 0.31084530555300299 -0.47818746604870482 0 0.32732482578489303 -0.5 0 0.31084530555300299 -0.47818746604870482 0 0.29845970903407532 -0.5 0 0.28609157354039572 -0.47788528647707912 0 0.31084530555300299 -0.47818746604870482 0 0.29845970903407532 -0.5 0 0.32256635159124009 -0.28583300415670659 0 0.34502578747802581 -0.30336502501538842 0 0.32256635159124009 -0.28583300415670659 0 0.34233073812729897 -0.27539645866094231 0 0.34502578747802581 -0.30336502501538842 0 0.33085955695129832 -0.30308591924434819 0 0.32256635159124009 -0.28583300415670659 0 0.34502578747802581 -0.30336502501538842 0 0.33085955695129832 -0.30308591924434819 0 0.31747836327517381 -0.30709237417780988 0 0.33836772546075361 -0.31605327362748781 0 0.33085955695129832 -0.30308591924434819 0 0.34502578747802581 -0.30336502501538842 0 0.33836772546075361 -0.31605327362748781 0 0.33085955695129832 -0.30308591924434819 0 0.31747836327517381 -0.30709237417780988 0 0.32256635159124009 -0.28583300415670659 0 0.31747836327517381 -0.30709237417780988 0 0.32256635159124009 -0.28583300415670659 0 0.30559033408401343 -0.28874793735438009 0 0.32256635159124009 -0.28583300415670659 0 0.31775675597918529 -0.26884248115985587 0 0.3001069157044523 -0.26830098329802782 0 0.32256635159124009 -0.28583300415670659 0 0.31775675597918529 -0.26884248115985587 0 0.34233073812729897 -0.27539645866094231 0 0.3192444096746781 -0.24328484406878439 0 0.33083616901617252 -0.2515046018757397 0 0.30300397292774039 -0.25913859153275198 0 0.33083616901617252 -0.2515046018757397 0 0.30300397292774039 -0.25913859153275198 0 0.31775675597918529 -0.26884248115985587 0 0.33083616901617252 -0.2515046018757397 0 0.30300397292774039 -0.25913859153275198 0 0.33083616901617252 -0.2515046018757397 0 0.34233073812729897 -0.27539645866094231 0 0.35722017945539453 -0.26157020813809062 0 0.31775675597918529 -0.26884248115985587 0 0.33083616901617252 -0.2515046018757397 0 0.34233073812729897 -0.27539645866094231 0 0.34233073812729897 -0.27539645866094231 0 0.36387234433295962 -0.27547304652835891 0 0.35839914205776341 -0.29092710735458049 0 0.34233073812729897 -0.27539645866094231 0 0.35722017945539453 -0.26157020813809062 0 0.36387234433295962 -0.27547304652835891 0 0.35866836510460431 -0.24387061221872669 0 0.33083616901617252 -0.2515046018757397 0 0.35722017945539453 -0.26157020813809062 0 0.37666098301791873 -0.25658766975618591 0 0.35722017945539453 -0.26157020813809062 0 0.36926959111252949 -0.26702983770972 0 0.35866836510460431 -0.24387061221872669 0 0.37666098301791873 -0.25658766975618591 0 0.35722017945539453 -0.26157020813809062 0 0.35722017945539453 -0.26157020813809062 0 0.36387234433295962 -0.27547304652835891 0 0.36926959111252949 -0.26702983770972 0 0.37932485764384538 -0.27448842641624471 0 0.36387234433295962 -0.27547304652835891 0 0.36926959111252949 -0.26702983770972 0 0.37932485764384538 -0.27448842641624471 0 0.36387234433295962 -0.27547304652835891 0 0.37235398216260152 -0.28793899056949163 0 0.37924677571148219 -0.2998365313877942 0 0.37235398216260152 -0.28793899056949163 0 0.36857282094696042 -0.29874650318207852 0 0.37235398216260152 -0.28793899056949163 0 0.35839914205776341 -0.29092710735458049 0 0.36857282094696042 -0.29874650318207852 0 0.36387234433295962 -0.27547304652835891 0 0.37235398216260152 -0.28793899056949163 0 0.35839914205776341 -0.29092710735458049 0 0.34233073812729897 -0.27539645866094231 0 0.35839914205776341 -0.29092710735458049 0 0.34502578747802581 -0.30336502501538842 0 0.34502578747802581 -0.30336502501538842 0 0.36748522336481071 -0.3208970458740712 0 0.34502578747802581 -0.30336502501538842 0 0.35942349109336952 -0.30637589929930881 0 0.36748522336481071 -0.3208970458740712 0 0.35839914205776341 -0.29092710735458049 0 0.34502578747802581 -0.30336502501538842 0 0.35942349109336952 -0.30637589929930881 0 0.35942349109336952 -0.30637589929930881 0 0.37294533319086931 -0.30967963020601358 0 0.36748522336481071 -0.3208970458740712 0 0.35942349109336952 -0.30637589929930881 0 0.36857282094696042 -0.29874650318207852 0 0.37294533319086931 -0.30967963020601358 0 0.35839914205776341 -0.29092710735458049 0 0.35942349109336952 -0.30637589929930881 0 0.36857282094696042 -0.29874650318207852 0 0.37924677571148219 -0.2998365313877942 0 0.36857282094696042 -0.29874650318207852 0 0.37294533319086931 -0.30967963020601358 0 0.36748522336481071 -0.3208970458740712 0 0.36233934469778739 -0.33400648812308231 0 0.34991436429896761 -0.32443725093225112 0 0.37732365148229441 -0.31862365556580391 0 0.37294533319086931 -0.30967963020601358 0 0.36748522336481071 -0.3208970458740712 0 0.35942349109336952 -0.30637589929930881 0 0.36748522336481071 -0.3208970458740712 0 0.37539665452532778 -0.33514746348034941 0 0.37679900271294831 -0.3281674588367024 0 0.36748522336481071 -0.3208970458740712 0 0.37679900271294831 -0.3281674588367024 0 0.37732365148229441 -0.31862365556580391 0 0.36748522336481071 -0.3208970458740712 0 0.37679900271294831 -0.3281674588367024 0 0.36748522336481071 -0.3208970458740712 0 0.37539665452532778 -0.33514746348034941 0 0.36748522336481071 -0.3208970458740712 0 0.37539665452532778 -0.33514746348034941 0 0.36748522336481071 -0.3208970458740712 0 0.36233934469778739 -0.33400648812308231 0 0.36233934469778739 -0.33400648812308231 0 0.35113468268428749 -0.34152003149621801 0 0.36776579861554443 -0.34803064883252138 0 0.37539665452532778 -0.33514746348034941 0 0.36233934469778739 -0.33400648812308231 0 0.36776579861554443 -0.34803064883252138 0 0.35113468268428749 -0.34152003149621801 0 0.34991436429896761 -0.32443725093225112 0 0.33551445654725159 -0.33263663035745678 0 0.36233934469778739 -0.33400648812308231 0 0.35113468268428749 -0.34152003149621801 0 0.34991436429896761 -0.32443725093225112 0 0.34502578747802581 -0.30336502501538842 0 0.34991436429896761 -0.32443725093225112 0 0.33836772546075361 -0.31605327362748781 0 0.34502578747802581 -0.30336502501538842 0 0.36748522336481071 -0.3208970458740712 0 0.34991436429896761 -0.32443725093225112 0 0.38345605721323228 -0.3621541274060131 0 0.35521352880933238 -0.36290877850464831 0 0.38345605721323228 -0.3621541274060131 0 0.35698673129494751 -0.3896408760100879 0 0.35521352880933238 -0.36290877850464831 0 0.38345605721323228 -0.3621541274060131 0 0.36776579861554443 -0.34803064883252138 0 0.35521352880933238 -0.36290877850464831 0 0.35113468268428749 -0.34152003149621801 0 0.35521352880933238 -0.36290877850464831 0 0.33752948880435069 -0.34962270524419109 0 0.35113468268428749 -0.34152003149621801 0 0.36776579861554443 -0.34803064883252138 0 0.35521352880933238 -0.36290877850464831 0 0.35521352880933238 -0.36290877850464831 0 0.32697100040543281 -0.36366342960328368 0 0.33681826793280439 -0.37809741253598572 0 0.35521352880933238 -0.36290877850464831 0 0.32697100040543281 -0.36366342960328368 0 0.33681826793280439 -0.37809741253598572 0 0.32126207694520681 -0.37731292048499848 0 0.32697100040543281 -0.36366342960328368 0 0.35521352880933238 -0.36290877850464831 0 0.33752948880435069 -0.34962270524419109 0 0.32697100040543281 -0.36366342960328368 0 0.3188137755754491 -0.34738465625934911 0 0.32697100040543281 -0.36366342960328368 0 0.29872847200153307 -0.36441808070191722 0 0.33752948880435069 -0.34962270524419109 0 0.3188137755754491 -0.34738465625934911 0 0.32697100040543281 -0.36366342960328368 0 0.32126207694520681 -0.37731292048499848 0 0.32697100040543281 -0.36366342960328368 0 0.31090321600502607 -0.37122113585037708 0 0.32697100040543281 -0.36366342960328368 0 0.29872847200153307 -0.36441808070191722 0 0.33836772546075361 -0.31605327362748781 0 0.3198405053721477 -0.32920542072991421 0 0.33836772546075361 -0.31605327362748781 0 0.33551445654725159 -0.33263663035745678 0 0.3198405053721477 -0.32920542072991421 0 0.34991436429896761 -0.32443725093225112 0 0.33836772546075361 -0.31605327362748781 0 0.33551445654725159 -0.33263663035745678 0 0.33752948880435069 -0.34962270524419109 0 0.3188137755754491 -0.34738465625934911 0 0.33551445654725159 -0.33263663035745678 0 0.35113468268428749 -0.34152003149621801 0 0.33752948880435069 -0.34962270524419109 0 0.33551445654725159 -0.33263663035745678 0 0.3188137755754491 -0.34738465625934911 0 0.3198405053721477 -0.32920542072991421 0 0.30131328528354179 -0.34235756783234061 0 0.3188137755754491 -0.34738465625934911 0 0.33551445654725159 -0.33263663035745678 0 0.3198405053721477 -0.32920542072991421 0 0.31747836327517381 -0.30709237417780988 0 0.33836772546075361 -0.31605327362748781 0 0.3198405053721477 -0.32920542072991421 0 0.31747836327517381 -0.30709237417780988 0 0.3198405053721477 -0.32920542072991421 0 0.30032042833367489 -0.3225972478118172 0 0.3198405053721477 -0.32920542072991421 0 0.30131328528354179 -0.34235756783234061 0 0.3198405053721477 -0.32920542072991421 0 0.30032042833367489 -0.3225972478118172 0 0.30131328528354179 -0.34235756783234061 0 0.2875935225898813 -0.33913379010562722 0 0.28209499927075249 -0.32526645622080691 0 0.27407200008733329 -0.3506404326338618 0 0.30032042833367489 -0.3225972478118172 0 0.30131328528354179 -0.34235756783234061 0 0.2875935225898813 -0.33913379010562722 0 0.30032042833367489 -0.3225972478118172 0 0.2875935225898813 -0.33913379010562722 0 0.28209499927075249 -0.32526645622080691 0 0.28209499927075249 -0.32526645622080691 0 0.2901179984541723 -0.29989247980775208 0 0.30032042833367489 -0.3225972478118172 0 0.28209499927075249 -0.32526645622080691 0 0.2901179984541723 -0.29989247980775208 0 0.30340439735796582 -0.3808976901492967 0 0.31090321600502607 -0.37122113585037708 0 0.29872847200153307 -0.36441808070191722 0 0.32697100040543281 -0.36366342960328368 0 0.31090321600502607 -0.37122113585037708 0 0.29872847200153307 -0.36441808070191722 0 0.31090321600502607 -0.37122113585037708 0 0.29872847200153307 -0.36441808070191722 0 0.3188137755754491 -0.34738465625934911 0 0.30131328528354179 -0.34235756783234061 0 0.29872847200153307 -0.36441808070191722 0 0.2875935225898813 -0.33913379010562722 0 0.2827860651949361 -0.35550971493476707 0 0.27407200008733329 -0.3506404326338618 0 0.30131328528354179 -0.34235756783234061 0 0.29872847200153307 -0.36441808070191722 0 0.2827860651949361 -0.35550971493476707 0 0.30131328528354179 -0.34235756783234061 0 0.2827860651949361 -0.35550971493476707 0 0.30131328528354179 -0.34235756783234061 0 0.2875935225898813 -0.33913379010562722 0 0.2827860651949361 -0.35550971493476707 0 0.30340439735796582 -0.3808976901492967 0 0.28315079250682851 -0.36483432222168388 0 0.29872847200153307 -0.36441808070191722 0 0.2827860651949361 -0.35550971493476707 0 0.29872847200153307 -0.36441808070191722 0 0.2827860651949361 -0.35550971493476707 0 0.28315079250682851 -0.36483432222168388 0 0.30340439735796582 -0.3808976901492967 0 0.29872847200153307 -0.36441808070191722 0 0.28315079250682851 -0.36483432222168388 0 0.28684435135892111 -0.38097740435774552 0 0.28315079250682851 -0.36483432222168388 0 0.27650752314835159 -0.37242380700814948 0 0.29872847200153307 -0.36441808070191722 0 0.28315079250682851 -0.36483432222168388 0 0.27029525867841347 -0.38036994300301108 0 0.27650752314835159 -0.37242380700814948 0 0.26912261064857063 -0.36520916057538172 0 0.28315079250682851 -0.36483432222168388 0 0.27650752314835159 -0.37242380700814948 0 0.26912261064857063 -0.36520916057538172 0 0.28315079250682851 -0.36483432222168388 0 0.27677450542604931 -0.35977721529462409 0 0.26912261064857063 -0.36520916057538172 0 0.28315079250682851 -0.36483432222168388 0 0.26912261064857063 -0.36520916057538172 0 0.2827860651949361 -0.35550971493476707 0 0.28315079250682851 -0.36483432222168388 0 0.27677450542604931 -0.35977721529462409 0 0.28315079250682851 -0.36483432222168388 0 0.27677450542604931 -0.35977721529462409 0 0.27677450542604931 -0.35977721529462409 0 0.26912261064857063 -0.36520916057538172 0 0.26912261064857063 -0.36520916057538172 0 0.27230410129141641 -0.3562316861442526 0 0.26912261064857063 -0.36520916057538172 0 0.27230410129141641 -0.3562316861442526 0 0.26477458269860332 -0.35861580565938722 0 0.27677450542604931 -0.35977721529462409 0 0.26912261064857063 -0.36520916057538172 0 0.27230410129141641 -0.3562316861442526 0 0.27230410129141641 -0.3562316861442526 0 0.27407200008733329 -0.3506404326338618 0 0.2582657724096622 -0.34509772537164629 0 0.27230410129141641 -0.3562316861442526 0 0.27407200008733329 -0.3506404326338618 0 0.2827860651949361 -0.35550971493476707 0 0.27407200008733329 -0.3506404326338618 0 0.27677450542604931 -0.35977721529462409 0 0.27230410129141641 -0.3562316861442526 0 0.27677450542604931 -0.35977721529462409 0 0.27230410129141641 -0.3562316861442526 0 0.27407200008733329 -0.3506404326338618 0 0.2827860651949361 -0.35550971493476707 0 0.27677450542604931 -0.35977721529462409 0 0.27407200008733329 -0.3506404326338618 0 0.2827860651949361 -0.35550971493476707 0 0.27677450542604931 -0.35977721529462409 0 0.27407200008733329 -0.3506404326338618 0 0.25914972180762208 -0.34230209861644878 0 0.27407200008733329 -0.3506404326338618 0 0.2582657724096622 -0.34509772537164629 0 0.25914972180762208 -0.34230209861644878 0 0.27230410129141641 -0.3562316861442526 0 0.2582657724096622 -0.34509772537164629 0 0.25559113330153221 -0.35582899282297931 0 0.2527930708408988 -0.36564549208861841 0 0.24653110725696439 -0.35395694817226542 0 0.2582657724096622 -0.34509772537164629 0 0.25559113330153221 -0.35582899282297931 0 0.24653110725696439 -0.35395694817226542 0 0.27230410129141641 -0.3562316861442526 0 0.2582657724096622 -0.34509772537164629 0 0.26477458269860332 -0.35861580565938722 0 0.2582657724096622 -0.34509772537164629 0 0.25559113330153221 -0.35582899282297931 0 0.26477458269860332 -0.35861580565938722 0 0.25115578665232452 -0.37796349236568272 0 0.26912261064857063 -0.36520916057538172 0 0.25115578665232452 -0.37796349236568272 0 0.26912261064857063 -0.36520916057538172 0 0.2527930708408988 -0.36564549208861841 0 0.26912261064857063 -0.36520916057538172 0 0.26477458269860332 -0.35861580565938722 0 0.2527930708408988 -0.36564549208861841 0 0.26912261064857063 -0.36520916057538172 0 0.2527930708408988 -0.36564549208861841 0 0.25559113330153221 -0.35582899282297931 0 0.26477458269860332 -0.35861580565938722 0 0.2527930708408988 -0.36564549208861841 0 0.28209499927075249 -0.32526645622080691 0 0.25981290572675259 -0.32359364722942918 0 0.27148764406703008 -0.3075882185044469 0 0.28209499927075249 -0.32526645622080691 0 0.27407200008733329 -0.3506404326338618 0 0.25914972180762208 -0.34230209861644878 0 0.28209499927075249 -0.32526645622080691 0 0.27407200008733329 -0.3506404326338618 0 0.28209499927075249 -0.32526645622080691 0 0.25914972180762208 -0.34230209861644878 0 0.25981290572675259 -0.32359364722942918 0 0.25914972180762208 -0.34230209861644878 0 0.25221666007275939 -0.32992895350932872 0 0.25981290572675259 -0.32359364722942918 0 0.25914972180762208 -0.34230209861644878 0 0.24422744352790901 -0.33396376459903893 0 0.2582657724096622 -0.34509772537164629 0 0.24422744352790901 -0.33396376459903893 0 0.2582657724096622 -0.34509772537164629 0 0.25914972180762208 -0.34230209861644878 0 0.24422744352790901 -0.33396376459903893 0 0.25914972180762208 -0.34230209861644878 0 0.25221666007275939 -0.32992895350932872 0 0.24422744352790901 -0.33396376459903893 0 0.25221666007275939 -0.32992895350932872 0 0.25981290572675259 -0.32359364722942918 0 0.24567656922875419 -0.31985630359239781 0 0.25981290572675259 -0.32359364722942918 0 0.25317879419931089 -0.30608837572475017 0 0.24567656922875419 -0.31985630359239781 0 0.25981290572675259 -0.32359364722942918 0 0.25317879419931089 -0.30608837572475017 0 0.27148764406703008 -0.3075882185044469 0 0.25317879419931089 -0.30608837572475017 0 0.26250585377423719 -0.29451794409265569 0 0.27148764406703008 -0.3075882185044469 0 0.25317879419931089 -0.30608837572475017 0 0.26250585377423719 -0.29451794409265569 0 0.24920394114701519 -0.29176941157256642 0 0.26250585377423719 -0.29451794409265569 0 0.26069639218555202 -0.27779262155115553 0 0.24920394114701519 -0.29176941157256642 0 0.26250585377423719 -0.29451794409265569 0 0.27835629657953592 -0.2911465767156281 0 0.26069639218555202 -0.27779262155115553 0 0.27835629657953592 -0.2911465767156281 0 0.28597440315283679 -0.27558233802251231 0 0.26069639218555202 -0.27779262155115553 0 0.27835629657953592 -0.2911465767156281 0 0.27148764406703008 -0.3075882185044469 0 0.2901179984541723 -0.29989247980775208 0 0.26250585377423719 -0.29451794409265569 0 0.27835629657953592 -0.2911465767156281 0 0.27148764406703008 -0.3075882185044469 0 0.28209499927075249 -0.32526645622080691 0 0.27148764406703008 -0.3075882185044469 0 0.2901179984541723 -0.29989247980775208 0 0.27835629657953592 -0.2911465767156281 0 0.2901179984541723 -0.29989247980775208 0 0.28597440315283679 -0.27558233802251231 0 0.2901179984541723 -0.29989247980775208 0 0.29814099763759089 -0.27451850339469691 0 0.2901179984541723 -0.29989247980775208 0 0.29814099763759089 -0.27451850339469691 0 0.28597440315283679 -0.27558233802251231 0 0.27835629657953592 -0.2911465767156281 0 0.28597440315283679 -0.27558233802251231 0 0.2901179984541723 -0.29989247980775208 0 0.30559033408401343 -0.28874793735438009 0 0.29814099763759089 -0.27451850339469691 0 0.32256635159124009 -0.28583300415670659 0 0.30559033408401343 -0.28874793735438009 0 0.30496503067570652 -0.27392181689738199 0 0.31747836327517381 -0.30709237417780988 0 0.2901179984541723 -0.29989247980775208 0 0.30559033408401343 -0.28874793735438009 0 0.31747836327517381 -0.30709237417780988 0 0.30032042833367489 -0.3225972478118172 0 0.2901179984541723 -0.29989247980775208 0 0.3049266797793117 -0.23686172492080279 0 0.30300397292774039 -0.25913859153275198 0 0.29246005145957049 -0.26233177801074281 0 0.31775675597918529 -0.26884248115985587 0 0.30300397292774039 -0.25913859153275198 0 0.3001069157044523 -0.26830098329802782 0 0.30300397292774039 -0.25913859153275198 0 0.29246005145957049 -0.26233177801074281 0 0.30300397292774039 -0.25913859153275198 0 0.3001069157044523 -0.26830098329802782 0 0.29246005145957049 -0.26233177801074281 0 0.30300397292774039 -0.25913859153275198 0 0.3001069157044523 -0.26830098329802782 0 0.32256635159124009 -0.28583300415670659 0 0.3001069157044523 -0.26830098329802782 0 0.32256635159124009 -0.28583300415670659 0 0.30496503067570652 -0.27392181689738199 0 0.3001069157044523 -0.26830098329802782 0 0.30559033408401343 -0.28874793735438009 0 0.30496503067570652 -0.27392181689738199 0 0.29814099763759089 -0.27451850339469691 0 0.30496503067570652 -0.27392181689738199 0 0.29814099763759089 -0.27451850339469691 0 0.30496503067570652 -0.27392181689738199 0 0.29814099763759089 -0.27451850339469691 0 0.3001069157044523 -0.26830098329802782 0 0.29814099763759089 -0.27451850339469691 0 0.3001069157044523 -0.26830098329802782 0 0.29596580089707392 -0.26939575516801662 0 0.29814099763759089 -0.27451850339469691 0 0.3001069157044523 -0.26830098329802782 0 0.29279379614943207 -0.2721496108654276 0 0.28597440315283679 -0.27558233802251231 0 0.29246005145957049 -0.26233177801074281 0 0.29279379614943207 -0.2721496108654276 0 0.29246005145957049 -0.26233177801074281 0 0.29596580089707392 -0.26939575516801662 0 0.29279379614943207 -0.2721496108654276 0 0.29246005145957049 -0.26233177801074281 0 0.28597440315283679 -0.27558233802251231 0 0.29246005145957049 -0.26233177801074281 0 0.3001069157044523 -0.26830098329802782 0 0.29596580089707392 -0.26939575516801662 0 0.29246005145957049 -0.26233177801074281 0 0.29814099763759089 -0.27451850339469691 0 0.29596580089707392 -0.26939575516801662 0 0.29279379614943207 -0.2721496108654276 0 0.29814099763759089 -0.27451850339469691 0 0.29279379614943207 -0.2721496108654276 0 0.28597440315283679 -0.27558233802251231 0 0.29814099763759089 -0.27451850339469691 0 0.28597440315283679 -0.27558233802251231 0 0.28597440315283679 -0.27558233802251231 0 0.28416336545644411 -0.26430631175543029 0 0.29246005145957049 -0.26233177801074281 0 0.27191663552360912 -0.24629541812559541 0 0.29246005145957049 -0.26233177801074281 0 0.27191663552360912 -0.24629541812559541 0 0.28416336545644411 -0.26430631175543029 0 0.29246005145957049 -0.26233177801074281 0 0.28416336545644411 -0.26430631175543029 0 0.29246005145957049 -0.26233177801074281 0 0.28681506764528031 -0.24909201677635021 0 0.27191663552360912 -0.24629541812559541 0 0.29246005145957049 -0.26233177801074281 0 0.3001069157044523 -0.26830098329802782 0 0.29246005145957049 -0.26233177801074281 0 0.27191663552360912 -0.24629541812559541 0 0.28416336545644411 -0.26430631175543029 0 0.2674985460806269 -0.26246865727244661 0 0.28597440315283679 -0.27558233802251231 0 0.2674985460806269 -0.26246865727244661 0 0.26069639218555202 -0.27779262155115553 0 0.28597440315283679 -0.27558233802251231 0 0.28416336545644411 -0.26430631175543029 0 0.2674985460806269 -0.26246865727244661 0 0.28597440315283679 -0.27558233802251231 0 0.26069639218555202 -0.27779262155115553 0 0.2674985460806269 -0.26246865727244661 0 0.26069639218555202 -0.27779262155115553 0 0.24795738451006311 -0.2577032562273871 0 0.27191663552360912 -0.24629541812559541 0 0.25560193416489979 -0.24659806198470721 0 0.2674985460806269 -0.26246865727244661 0 0.25560193416489979 -0.24659806198470721 0 0.2674985460806269 -0.26246865727244661 0 0.24795738451006311 -0.2577032562273871 0 0.24795738451006311 -0.2577032562273871 0 0.2354183812182673 -0.2800029050797998 0 0.23050685115701741 -0.25438840625252512 0 0.24795738451006311 -0.2577032562273871 0 0.23050685115701741 -0.25438840625252512 0 0.24184400614806209 -0.24158664041967859 0 0.26069639218555202 -0.27779262155115553 0 0.24795738451006311 -0.2577032562273871 0 0.2354183812182673 -0.2800029050797998 0 0.26069639218555202 -0.27779262155115553 0 0.2354183812182673 -0.2800029050797998 0 0.2354183812182673 -0.2800029050797998 0 0.23050685115701741 -0.25438840625252512 0 0.21465133578226589 -0.26660985652484942 0 0.2354183812182673 -0.2800029050797998 0 0.21014037025098259 -0.28221318860844419 0 0.2354183812182673 -0.2800029050797998 0 0.21465133578226589 -0.26660985652484942 0 0.21014037025098259 -0.28221318860844419 0 0.23050685115701741 -0.25438840625252512 0 0.21465133578226589 -0.26660985652484942 0 0.21408358472910211 -0.24829254544199941 0 0.21465133578226589 -0.26660985652484942 0 0.1973869591089423 -0.25854664610706002 0 0.21465133578226589 -0.26660985652484942 0 0.1973869591089423 -0.25854664610706002 0 0.21408358472910211 -0.24829254544199941 0 0.21465133578226589 -0.26660985652484942 0 0.19842603567765529 -0.27221335539718911 0 0.1973869591089423 -0.25854664610706002 0 0.21465133578226589 -0.26660985652484942 0 0.19842603567765529 -0.27221335539718911 0 0.21014037025098259 -0.28221318860844419 0 0.19842603567765529 -0.27221335539718911 0 0.21014037025098259 -0.28221318860844419 0 0.1848623592836979 -0.28442347213708857 0 0.19842603567765529 -0.27221335539718911 0 0.1850891539623877 -0.26927361360850333 0 0.1848623592836979 -0.28442347213708857 0 0.19842603567765529 -0.27221335539718911 0 0.1973869591089423 -0.25854664610706002 0 0.1850891539623877 -0.26927361360850333 0 0.1973869591089423 -0.25854664610706002 0 0.18277568077667611 -0.26065323206262281 0 0.1850891539623877 -0.26927361360850333 0 0.1973869591089423 -0.25854664610706002 0 0.1801225824356335 -0.2504834356892387 0 0.19266205305411269 -0.30480619050398289 0 0.21155602840812579 -0.30751054589238352 0 0.19645406228100101 -0.32517191260024048 0 0.21014037025098259 -0.28221318860844419 0 0.1848623592836979 -0.28442347213708857 0 0.19266205305411269 -0.30480619050398289 0 0.21014037025098259 -0.28221318860844419 0 0.1848623592836979 -0.28442347213708857 0 0.21014037025098259 -0.28221318860844419 0 0.21155602840812579 -0.30751054589238352 0 0.2225978722574867 -0.29369494789747791 0 0.19266205305411269 -0.30480619050398289 0 0.21014037025098259 -0.28221318860844419 0 0.21155602840812579 -0.30751054589238352 0 0.21155602840812579 -0.30751054589238352 0 0.2225978722574867 -0.29369494789747791 0 0.23500788297222361 -0.30403617862500898 0 0.21155602840812579 -0.30751054589238352 0 0.23500788297222361 -0.30403617862500898 0 0.22753843717236719 -0.32072752090781809 0 0.2354183812182673 -0.2800029050797998 0 0.2225978722574867 -0.29369494789747791 0 0.23500788297222361 -0.30403617862500898 0 0.2354183812182673 -0.2800029050797998 0 0.21014037025098259 -0.28221318860844419 0 0.2225978722574867 -0.29369494789747791 0 0.26069639218555202 -0.27779262155115553 0 0.2354183812182673 -0.2800029050797998 0 0.24920394114701519 -0.29176941157256642 0 0.2354183812182673 -0.2800029050797998 0 0.24920394114701519 -0.29176941157256642 0 0.23500788297222361 -0.30403617862500898 0 0.25317879419931089 -0.30608837572475017 0 0.24920394114701519 -0.29176941157256642 0 0.23500788297222361 -0.30403617862500898 0 0.25317879419931089 -0.30608837572475017 0 0.23500788297222361 -0.30403617862500898 0 0.24567656922875419 -0.31985630359239781 0 0.24422744352790901 -0.33396376459903893 0 0.22753843717236719 -0.32072752090781809 0 0.23500788297222361 -0.30403617862500898 0 0.24567656922875419 -0.31985630359239781 0 0.22753843717236719 -0.32072752090781809 0 0.24567656922875419 -0.31985630359239781 0 0.24422744352790901 -0.33396376459903893 0 0.22753843717236719 -0.32072752090781809 0 0.25221666007275939 -0.32992895350932872 0 0.24567656922875419 -0.31985630359239781 0 0.24422744352790901 -0.33396376459903893 0 0.24422744352790901 -0.33396376459903893 0 0.23644781367865281 -0.33456363280466339 0 0.22753843717236719 -0.32072752090781809 0 0.2582657724096622 -0.34509772537164629 0 0.24422744352790901 -0.33396376459903893 0 0.24103080411923489 -0.34104670446016838 0 0.24103080411923489 -0.34104670446016838 0 0.22848954044410549 -0.33672433466609292 0 0.23469191260959171 -0.34858371307035668 0 0.24103080411923489 -0.34104670446016838 0 0.23644781367865281 -0.33456363280466339 0 0.22848954044410549 -0.33672433466609292 0 0.24422744352790901 -0.33396376459903893 0 0.24103080411923489 -0.34104670446016838 0 0.24125213032388609 -0.33575525005569562 0 0.24103080411923489 -0.34104670446016838 0 0.24125213032388609 -0.33575525005569562 0 0.23644781367865281 -0.33456363280466339 0 0.24422744352790901 -0.33396376459903893 0 0.24125213032388609 -0.33575525005569562 0 0.23644781367865281 -0.33456363280466339 0 0.23644781367865281 -0.33456363280466339 0 0.22848954044410549 -0.33672433466609292 0 0.22753843717236719 -0.32072752090781809 0 0.22848954044410549 -0.33672433466609292 0 0.22753843717236719 -0.32072752090781809 0 0.21345826021617781 -0.33020770116962078 0 0.22848954044410549 -0.33672433466609292 0 0.23469191260959171 -0.34858371307035668 0 0.21924112461623951 -0.34579740799479669 0 0.22848954044410549 -0.33672433466609292 0 0.21924112461623951 -0.34579740799479669 0 0.21345826021617781 -0.33020770116962078 0 0.2527930708408988 -0.36564549208861841 0 0.23646353103322701 -0.36608182360185382 0 0.25115578665232452 -0.37796349236568272 0 0.23646353103322701 -0.36608182360185382 0 0.22915253402853111 -0.37722812801113559 0 0.25115578665232452 -0.37796349236568272 0 0.2527930708408988 -0.36564549208861841 0 0.23646353103322701 -0.36608182360185382 0 0.2527930708408988 -0.36564549208861841 0 0.23646353103322701 -0.36608182360185382 0 0.24653110725696439 -0.35395694817226542 0 0.23646353103322701 -0.36608182360185382 0 0.24653110725696439 -0.35395694817226542 0 0.23469191260959171 -0.34858371307035668 0 0.2582657724096622 -0.34509772537164629 0 0.24103080411923489 -0.34104670446016838 0 0.24653110725696439 -0.35395694817226542 0 0.24103080411923489 -0.34104670446016838 0 0.24653110725696439 -0.35395694817226542 0 0.23469191260959171 -0.34858371307035668 0 0.23646353103322701 -0.36608182360185382 0 0.23469191260959171 -0.34858371307035668 0 0.2250844905019507 -0.36033682260802458 0 0.23469191260959171 -0.34858371307035668 0 0.21924112461623951 -0.34579740799479669 0 0.2250844905019507 -0.36033682260802458 0 0.2250844905019507 -0.36033682260802458 0 0.21640275415038601 -0.37203716612244458 0 0.22915253402853111 -0.37722812801113559 0 0.23646353103322701 -0.36608182360185382 0 0.2250844905019507 -0.36033682260802458 0 0.22915253402853111 -0.37722812801113559 0 0.21640275415038601 -0.37203716612244458 0 0.2098296864284146 -0.35998371576340671 0 0.2028700589789284 -0.37734644456953442 0 0.2250844905019507 -0.36033682260802458 0 0.21640275415038601 -0.37203716612244458 0 0.2098296864284146 -0.35998371576340671 0 0.21924112461623951 -0.34579740799479669 0 0.2098296864284146 -0.35998371576340671 0 0.199583163714211 -0.34593997653876929 0 0.21924112461623951 -0.34579740799479669 0 0.2250844905019507 -0.36033682260802458 0 0.2098296864284146 -0.35998371576340671 0 0.2098296864284146 -0.35998371576340671 0 0.199583163714211 -0.34593997653876929 0 0.19274757263903741 -0.36693741739918989 0 0.199583163714211 -0.34593997653876929 0 0.19274757263903741 -0.36693741739918989 0 0.17746179699802139 -0.35521955296801982 0 0.2098296864284146 -0.35998371576340671 0 0.19274757263903741 -0.36693741739918989 0 0.2028700589789284 -0.37734644456953442 0 0.21155602840812579 -0.30751054589238352 0 0.22753843717236719 -0.32072752090781809 0 0.21345826021617781 -0.33020770116962078 0 0.21155602840812579 -0.30751054589238352 0 0.21345826021617781 -0.33020770116962078 0 0.19645406228100101 -0.32517191260024048 0 0.199583163714211 -0.34593997653876929 0 0.21345826021617781 -0.33020770116962078 0 0.19645406228100101 -0.32517191260024048 0 0.21924112461623951 -0.34579740799479669 0 0.199583163714211 -0.34593997653876929 0 0.21345826021617781 -0.33020770116962078 0 0.199583163714211 -0.34593997653876929 0 0.19645406228100101 -0.32517191260024048 0 0.18445028446509559 -0.33809079679600618 0 0.19266205305411269 -0.30480619050398289 0 0.19645406228100101 -0.32517191260024048 0 0.1797883204881898 -0.32285339486174902 0 0.1797883204881898 -0.32285339486174902 0 0.16324768849744919 -0.3227808509654494 0 0.17306146670005229 -0.3058330501087772 0 0.19645406228100101 -0.32517191260024048 0 0.1797883204881898 -0.32285339486174902 0 0.18445028446509559 -0.33809079679600618 0 0.1797883204881898 -0.32285339486174902 0 0.18445028446509559 -0.33809079679600618 0 0.16885436793142811 -0.3404375681960376 0 0.1797883204881898 -0.32285339486174902 0 0.16885436793142811 -0.3404375681960376 0 0.16324768849744919 -0.3227808509654494 0 0.16885436793142811 -0.3404375681960376 0 0.15528560304171321 -0.3520269373370522 0 0.14963388231334551 -0.33562261129414023 0 0.16885436793142811 -0.3404375681960376 0 0.16324768849744919 -0.3227808509654494 0 0.14963388231334551 -0.33562261129414023 0 0.19274757263903741 -0.36693741739918989 0 0.17776772707428939 -0.37295859546435373 0 0.17746179699802139 -0.35521955296801982 0 0.17776772707428939 -0.37295859546435373 0 0.17746179699802139 -0.35521955296801982 0 0.16206066441736611 -0.36984486451014609 0 0.19274757263903741 -0.36693741739918989 0 0.17776772707428939 -0.37295859546435373 0 0.18709570916170551 -0.3847079922289775 0 0.18445028446509559 -0.33809079679600618 0 0.16885436793142811 -0.3404375681960376 0 0.17746179699802139 -0.35521955296801982 0 0.199583163714211 -0.34593997653876929 0 0.18445028446509559 -0.33809079679600618 0 0.17746179699802139 -0.35521955296801982 0 0.17746179699802139 -0.35521955296801982 0 0.16206066441736611 -0.36984486451014609 0 0.15528560304171321 -0.3520269373370522 0 0.16885436793142811 -0.3404375681960376 0 0.17746179699802139 -0.35521955296801982 0 0.15528560304171321 -0.3520269373370522 0 0.16206066441736611 -0.36984486451014609 0 0.14055129243268141 -0.36322195099291671 0 0.14960579326138179 -0.37719803152356612 0 0.16206066441736611 -0.36984486451014609 0 0.15528560304171321 -0.3520269373370522 0 0.14055129243268141 -0.36322195099291671 0 0.14055129243268141 -0.36322195099291671 0 0.13926033336125199 -0.37393801936380722 0 0.14960579326138179 -0.37719803152356612 0 0.15528560304171321 -0.3520269373370522 0 0.13445354178098801 -0.34527937369667239 0 0.14963388231334551 -0.33562261129414023 0 0.15528560304171321 -0.3520269373370522 0 0.13445354178098801 -0.34527937369667239 0 0.14055129243268141 -0.36322195099291671 0 0.13445354178098801 -0.34527937369667239 0 0.14055129243268141 -0.36322195099291671 0 0.1181321029238226 -0.35356822277873512 0 0.14055129243268141 -0.36322195099291671 0 0.1256480546403197 -0.37055384632459398 0 0.1181321029238226 -0.35356822277873512 0 0.14055129243268141 -0.36322195099291671 0 0.1256480546403197 -0.37055384632459398 0 0.13926033336125199 -0.37393801936380722 0 0.16324768849744919 -0.3227808509654494 0 0.14629805971542939 -0.31943799718684601 0 0.15749257966504471 -0.30793476596495239 0 0.16324768849744919 -0.3227808509654494 0 0.14629805971542939 -0.31943799718684601 0 0.14963388231334551 -0.33562261129414023 0 0.14629805971542939 -0.31943799718684601 0 0.14963388231334551 -0.33562261129414023 0 0.13101876618517971 -0.32613136330619619 0 0.14629805971542939 -0.31943799718684601 0 0.13492223174042889 -0.31489253380056292 0 0.14144839697752171 -0.30525167267830849 0 0.13445354178098801 -0.34527937369667239 0 0.14963388231334551 -0.33562261129414023 0 0.13101876618517971 -0.32613136330619619 0 0.13101876618517971 -0.32613136330619619 0 0.13492223174042889 -0.31489253380056292 0 0.1240151358346419 -0.30928910480810351 0 0.14629805971542939 -0.31943799718684601 0 0.13101876618517971 -0.32613136330619619 0 0.13492223174042889 -0.31489253380056292 0 0.14144839697752171 -0.30525167267830849 0 0.13430633734912881 -0.28884403919437918 0 0.1240151358346419 -0.30928910480810351 0 0.13492223174042889 -0.31489253380056292 0 0.14144839697752171 -0.30525167267830849 0 0.1240151358346419 -0.30928910480810351 0 0.13430633734912881 -0.28884403919437918 0 0.11805144501733431 -0.30245378566273012 0 0.1240151358346419 -0.30928910480810351 0 0.14144839697752171 -0.30525167267830849 0 0.15749257966504471 -0.30793476596495239 0 0.1595843483164133 -0.28663375566573301 0 0.14629805971542939 -0.31943799718684601 0 0.14144839697752171 -0.30525167267830849 0 0.15749257966504471 -0.30793476596495239 0 0.13430633734912881 -0.28884403919437918 0 0.15413180157793949 -0.27224475718968533 0 0.1595843483164133 -0.28663375566573301 0 0.14144839697752171 -0.30525167267830849 0 0.13430633734912881 -0.28884403919437918 0 0.1595843483164133 -0.28663375566573301 0 0.13430633734912881 -0.28884403919437918 0 0.1595843483164133 -0.28663375566573301 0 0.13430633734912881 -0.28884403919437918 0 0.13199737506607639 -0.28904593250430177 0 0.11805144501733431 -0.30245378566273012 0 0.13430633734912881 -0.28884403919437918 0 0.13142298349018691 -0.28368229279904139 0 0.1329473729328168 -0.27780182512601892 0 0.13430633734912881 -0.28884403919437918 0 0.11805144501733431 -0.30245378566273012 0 0.13430633734912881 -0.28884403919437918 0 0.13199737506607639 -0.28904593250430177 0 0.13199737506607639 -0.28904593250430177 0 0.12591204424150201 -0.28300834675642689 0 0.11941913265543359 -0.28794811942699738 0 0.13142298349018691 -0.28368229279904139 0 0.12591204424150201 -0.28300834675642689 0 0.1329473729328168 -0.27780182512601892 0 0.13430633734912881 -0.28884403919437918 0 0.13142298349018691 -0.28368229279904139 0 0.13199737506607639 -0.28904593250430177 0 0.13142298349018691 -0.28368229279904139 0 0.13199737506607639 -0.28904593250430177 0 0.12591204424150201 -0.28300834675642689 0 0.1329473729328168 -0.27780182512601892 0 0.13329429922167049 -0.26300964849405811 0 0.15413180157793949 -0.27224475718968533 0 0.12591204424150201 -0.28300834675642689 0 0.1329473729328168 -0.27780182512601892 0 0.1189076714457971 -0.27655008690831551 0 0.13430633734912881 -0.28884403919437918 0 0.1329473729328168 -0.27780182512601892 0 0.15413180157793949 -0.27224475718968533 0 0.1329473729328168 -0.27780182512601892 0 0.13329429922167049 -0.26300964849405811 0 0.1189076714457971 -0.27655008690831551 0 0.13329429922167049 -0.26300964849405811 0 0.15188635566873859 -0.25315609994904509 0 0.13360438743528111 -0.24792201064071129 0 0.13329429922167049 -0.26300964849405811 0 0.12350480426882821 -0.25139481519201218 0 0.13360438743528111 -0.24792201064071129 0 0.13329429922167049 -0.26300964849405811 0 0.11858073150515711 -0.26044478572921442 0 0.12350480426882821 -0.25139481519201218 0 0.13329429922167049 -0.26300964849405811 0 0.15188635566873859 -0.25315609994904509 0 0.15413180157793949 -0.27224475718968533 0 0.13430633734912881 -0.28884403919437918 0 0.15413180157793949 -0.27224475718968533 0 0.15413180157793949 -0.27224475718968533 0 0.1707520364421766 -0.27417429830292062 0 0.1595843483164133 -0.28663375566573301 0 0.15413180157793949 -0.27224475718968533 0 0.1707520364421766 -0.27417429830292062 0 0.1749818601367138 -0.25798590964428031 0 0.15188635566873859 -0.25315609994904509 0 0.17395726580675031 -0.25564547518499148 0 0.16953207428116379 -0.24553721044775009 0 0.15413180157793949 -0.27224475718968533 0 0.17395726580675031 -0.25564547518499148 0 0.1749818601367138 -0.25798590964428031 0 0.15188635566873859 -0.25315609994904509 0 0.15413180157793949 -0.27224475718968533 0 0.17395726580675031 -0.25564547518499148 0 0.15413180157793949 -0.27224475718968533 0 0.17395726580675031 -0.25564547518499148 0 0.17395726580675031 -0.25564547518499148 0 0.16953207428116379 -0.24553721044775009 0 0.1973869591089423 -0.25854664610706002 0 0.18277568077667611 -0.26065323206262281 0 0.1801225824356335 -0.2504834356892387 0 0.17395726580675031 -0.25564547518499148 0 0.1801225824356335 -0.2504834356892387 0 0.16953207428116379 -0.24553721044775009 0 0.1749818601367138 -0.25798590964428031 0 0.18277568077667611 -0.26065323206262281 0 0.1801225824356335 -0.2504834356892387 0 0.17395726580675031 -0.25564547518499148 0 0.1801225824356335 -0.2504834356892387 0 0.17395726580675031 -0.25564547518499148 0 0.1749818601367138 -0.25798590964428031 0 0.17395726580675031 -0.25564547518499148 0 0.1749818601367138 -0.25798590964428031 0 0.1801225824356335 -0.2504834356892387 0 0.1749818601367138 -0.25798590964428031 0 0.17839968282948851 -0.26552176340458172 0 0.18277568077667611 -0.26065323206262281 0 0.17839968282948851 -0.26552176340458172 0 0.18277568077667611 -0.26065323206262281 0 0.1850891539623877 -0.26927361360850333 0 0.1707520364421766 -0.27417429830292062 0 0.1749818601367138 -0.25798590964428031 0 0.17839968282948851 -0.26552176340458172 0 0.1707520364421766 -0.27417429830292062 0 0.17839968282948851 -0.26552176340458172 0 0.1850891539623877 -0.26927361360850333 0 0.1707520364421766 -0.27417429830292062 0 0.1850891539623877 -0.26927361360850333 0 0.1848623592836979 -0.28442347213708857 0 0.1848623592836979 -0.28442347213708857 0 0.1595843483164133 -0.28663375566573301 0 0.1848623592836979 -0.28442347213708857 0 0.17306146670005229 -0.3058330501087772 0 0.1595843483164133 -0.28663375566573301 0 0.19266205305411269 -0.30480619050398289 0 0.1797883204881898 -0.32285339486174902 0 0.17306146670005229 -0.3058330501087772 0 0.19266205305411269 -0.30480619050398289 0 0.1848623592836979 -0.28442347213708857 0 0.17306146670005229 -0.3058330501087772 0 0.17306146670005229 -0.3058330501087772 0 0.15749257966504471 -0.30793476596495239 0 0.1595843483164133 -0.28663375566573301 0 0.16324768849744919 -0.3227808509654494 0 0.17306146670005229 -0.3058330501087772 0 0.15749257966504471 -0.30793476596495239 0 0.1707520364421766 -0.27417429830292062 0 0.1848623592836979 -0.28442347213708857 0 0.1595843483164133 -0.28663375566573301 0 0.19023576580517551 -0.5 0 0.19709406165010651 -0.48273854098192498 0 0.17585260685159279 -0.48171830434776491 0 0.19023576580517551 -0.5 0 0.19709406165010651 -0.48273854098192498 0 0.20583479378584801 -0.49027405609152552 0 0.19709406165010651 -0.48273854098192498 0 0.17959593672388591 -0.46078441397320308 0 0.19709406165010651 -0.48273854098192498 0 0.2024573169259502 -0.46814806396696002 0 0.17959593672388591 -0.46078441397320308 0 0.19709406165010651 -0.48273854098192498 0 0.20880600986560149 -0.48071653432368128 0 0.2024573169259502 -0.46814806396696002 0 0.20880600986560149 -0.48071653432368128 0 0.2214037069148162 -0.47259249762502381 0 0.2024573169259502 -0.46814806396696002 0 0.20880600986560149 -0.48071653432368128 0 0.21755551093954889 -0.48791520515202152 0 0.2214037069148162 -0.47259249762502381 0 0.19023576580517551 -0.5 0 0.20583479378584801 -0.49027405609152552 0 0.2154826206688075 -0.5 0 0.20880600986560149 -0.48071653432368128 0 0.21755551093954889 -0.48791520515202152 0 0.20583479378584801 -0.49027405609152552 0 0.19709406165010651 -0.48273854098192498 0 0.20880600986560149 -0.48071653432368128 0 0.20583479378584801 -0.49027405609152552 0 0.21755551093954889 -0.48791520515202152 0 0.20583479378584801 -0.49027405609152552 0 0.2154826206688075 -0.5 0 0.21755551093954889 -0.48791520515202152 0 0.2154826206688075 -0.5 0 0.2349298176717296 -0.49427107609091198 0 0.2154826206688075 -0.5 0 0.24072947553243959 -0.5 0 0.2349298176717296 -0.49427107609091198 0 0.21755551093954889 -0.48791520515202152 0 0.2349298176717296 -0.49427107609091198 0 0.2214037069148162 -0.47259249762502381 0 0.24072947553243959 -0.5 0 0.2349298176717296 -0.49427107609091198 0 0.2344385166264237 -0.47054708506271109 0 0.24072947553243959 -0.5 0 0.2344385166264237 -0.47054708506271109 0 0.24072947553243959 -0.5 0 0.24935057010302611 -0.48276027571872782 0 0.2344385166264237 -0.47054708506271109 0 0.24935057010302611 -0.48276027571872782 0 0.2344385166264237 -0.47054708506271109 0 0.2461584333127726 -0.46375128764461981 0 0.2349298176717296 -0.49427107609091198 0 0.2214037069148162 -0.47259249762502381 0 0.2349298176717296 -0.49427107609091198 0 0.2344385166264237 -0.47054708506271109 0 0.2214037069148162 -0.47259249762502381 0 0.2344385166264237 -0.47054708506271109 0 0.22173930507285031 -0.45523521842178438 0 0.22814755772040771 -0.44109417012542218 0 0.2344385166264237 -0.47054708506271109 0 0.2214037069148162 -0.47259249762502381 0 0.22173930507285031 -0.45523521842178438 0 0.2344385166264237 -0.47054708506271109 0 0.22814755772040771 -0.44109417012542218 0 0.2344385166264237 -0.47054708506271109 0 0.2461584333127726 -0.46375128764461981 0 0.24372663769304459 -0.44719712808524892 0 0.25920399556126728 -0.45337920835883072 0 0.2461584333127726 -0.46375128764461981 0 0.24372663769304459 -0.44719712808524892 0 0.2344385166264237 -0.47054708506271109 0 0.24372663769304459 -0.44719712808524892 0 0.22814755772040771 -0.44109417012542218 0 0.24372663769304459 -0.44719712808524892 0 0.22814755772040771 -0.44109417012542218 0 0.2429688921692805 -0.43048247432352033 0 0.22173930507285031 -0.45523521842178438 0 0.22814755772040771 -0.44109417012542218 0 0.21717085046169529 -0.44297227241781512 0 0.22814755772040771 -0.44109417012542218 0 0.21717085046169529 -0.44297227241781512 0 0.21866018878513421 -0.42985890750838462 0 0.21717085046169529 -0.44297227241781512 0 0.20942960457218149 -0.43775914687434919 0 0.2078775961579028 -0.45091391915913548 0 0.20942960457218149 -0.43775914687434919 0 0.2078775961579028 -0.45091391915913548 0 0.19435148540098801 -0.42923534069324798 0 0.22173930507285031 -0.45523521842178438 0 0.21717085046169529 -0.44297227241781512 0 0.2078775961579028 -0.45091391915913548 0 0.2214037069148162 -0.47259249762502381 0 0.2078775961579028 -0.45091391915913548 0 0.2024573169259502 -0.46814806396696002 0 0.2214037069148162 -0.47259249762502381 0 0.2078775961579028 -0.45091391915913548 0 0.2214037069148162 -0.47259249762502381 0 0.22173930507285031 -0.45523521842178438 0 0.2078775961579028 -0.45091391915913548 0 0.2024573169259502 -0.46814806396696002 0 0.18312919294120089 -0.44813363474178453 0 0.17959593672388591 -0.46078441397320308 0 0.2078775961579028 -0.45091391915913548 0 0.2024573169259502 -0.46814806396696002 0 0.18312919294120089 -0.44813363474178453 0 0.2024573169259502 -0.46814806396696002 0 0.18312919294120089 -0.44813363474178453 0 0.2078775961579028 -0.45091391915913548 0 0.19401956973545881 -0.43743456234398459 0 0.19435148540098801 -0.42923534069324798 0 0.2078775961579028 -0.45091391915913548 0 0.19435148540098801 -0.42923534069324798 0 0.2078775961579028 -0.45091391915913548 0 0.1928622033466029 -0.4428142749228694 0 0.18312919294120089 -0.44813363474178453 0 0.1885747486893484 -0.43935615370355457 0 0.1928622033466029 -0.4428142749228694 0 0.18312919294120089 -0.44813363474178453 0 0.1885747486893484 -0.43935615370355457 0 0.1928622033466029 -0.4428142749228694 0 0.19401956973545881 -0.43743456234398459 0 0.2078775961579028 -0.45091391915913548 0 0.1928622033466029 -0.4428142749228694 0 0.19401956973545881 -0.43743456234398459 0 0.19619314154933859 -0.42512346812574681 0 0.2030999581102598 -0.42449721577006849 0 0.19435148540098801 -0.42923534069324798 0 0.19619314154933859 -0.42512346812574681 0 0.2030999581102598 -0.42449721577006849 0 0.19839788000519501 -0.41867618667133022 0 0.19183594593225989 -0.43209275094175009 0 0.19401956973545881 -0.43743456234398459 0 0.19435148540098801 -0.42923534069324798 0 0.19183594593225989 -0.43209275094175009 0 0.19046893736050521 -0.42913574557795392 0 0.19435148540098801 -0.42923534069324798 0 0.19183594593225989 -0.43209275094175009 0 0.19401956973545881 -0.43743456234398459 0 0.1890301367030657 -0.43344784443510093 0 0.1885747486893484 -0.43935615370355457 0 0.19401956973545881 -0.43743456234398459 0 0.1890301367030657 -0.43344784443510093 0 0.19183594593225989 -0.43209275094175009 0 0.1890301367030657 -0.43344784443510093 0 0.19046893736050521 -0.42913574557795392 0 0.1890301367030657 -0.43344784443510093 0 0.19046893736050521 -0.42913574557795392 0 0.18584857825686341 -0.42963723883046417 0 0.18868516834307 -0.42595580291335899 0 0.19046893736050521 -0.42913574557795392 0 0.18584857825686341 -0.42963723883046417 0 0.18868516834307 -0.42595580291335899 0 0.1919637664892386 -0.42702026376132418 0 0.19211764937013981 -0.42453895309614242 0 0.18868516834307 -0.42595580291335899 0 0.19046893736050521 -0.42913574557795392 0 0.1919637664892386 -0.42702026376132418 0 0.19619314154933859 -0.42512346812574681 0 0.19441841530535439 -0.42659260010815542 0 0.19435148540098801 -0.42923534069324798 0 0.19046893736050521 -0.42913574557795392 0 0.1919637664892386 -0.42702026376132418 0 0.19435148540098801 -0.42923534069324798 0 0.19046893736050521 -0.42913574557795392 0 0.19435148540098801 -0.42923534069324798 0 0.1919637664892386 -0.42702026376132418 0 0.19441841530535439 -0.42659260010815542 0 0.19211764937013981 -0.42453895309614242 0 0.1919637664892386 -0.42702026376132418 0 0.19441841530535439 -0.42659260010815542 0 0.19435148540098801 -0.42923534069324798 0 0.19619314154933859 -0.42512346812574681 0 0.19211764937013981 -0.42453895309614242 0 0.19118210453773329 -0.42022330116428402 0 0.19619314154933859 -0.42512346812574681 0 0.19441841530535439 -0.42659260010815542 0 0.19211764937013981 -0.42453895309614242 0 0.18868516834307 -0.42595580291335899 0 0.19211764937013981 -0.42453895309614242 0 0.19118210453773329 -0.42022330116428402 0 0.18868516834307 -0.42595580291335899 0 0.19118210453773329 -0.42022330116428402 0 0.1847008502112997 -0.42345341252977869 0 0.19118210453773329 -0.42022330116428402 0 0.19169316311355539 -0.41147970159698699 0 0.19839788000519501 -0.41867618667133022 0 0.19118210453773329 -0.42022330116428402 0 0.19169316311355539 -0.41147970159698699 0 0.18550729574324351 -0.41660787713534392 0 0.19619314154933859 -0.42512346812574681 0 0.19118210453773329 -0.42022330116428402 0 0.19839788000519501 -0.41867618667133022 0 0.19169316311355539 -0.41147970159698699 0 0.19026626007510891 -0.4000851026195878 0 0.18246092782390991 -0.4088159324623627 0 0.19169316311355539 -0.41147970159698699 0 0.19839788000519501 -0.41867618667133022 0 0.20348746026673639 -0.40680154764868481 0 0.19839788000519501 -0.41867618667133022 0 0.20789709481064331 -0.419592175851633 0 0.20348746026673639 -0.40680154764868481 0 0.2030999581102598 -0.42449721577006849 0 0.19839788000519501 -0.41867618667133022 0 0.20789709481064331 -0.419592175851633 0 0.20789709481064331 -0.419592175851633 0 0.20348746026673639 -0.40680154764868481 0 0.21637677305784561 -0.41533807435277531 0 0.20348746026673639 -0.40680154764868481 0 0.21637677305784561 -0.41533807435277531 0 0.21522213865983339 -0.40347215594628649 0 0.20789709481064331 -0.419592175851633 0 0.21637677305784561 -0.41533807435277531 0 0.21866018878513421 -0.42985890750838462 0 0.19435148540098801 -0.42923534069324798 0 0.21866018878513421 -0.42985890750838462 0 0.20942960457218149 -0.43775914687434919 0 0.19435148540098801 -0.42923534069324798 0 0.21866018878513421 -0.42985890750838462 0 0.2030999581102598 -0.42449721577006849 0 0.19435148540098801 -0.42923534069324798 0 0.21866018878513421 -0.42985890750838462 0 0.2030999581102598 -0.42449721577006849 0 0.20789709481064331 -0.419592175851633 0 0.21866018878513421 -0.42985890750838462 0 0.21717085046169529 -0.44297227241781512 0 0.20942960457218149 -0.43775914687434919 0 0.21866018878513421 -0.42985890750838462 0 0.21866018878513421 -0.42985890750838462 0 0.2429688921692805 -0.43048247432352033 0 0.231906688608671 -0.41331777255237528 0 0.21866018878513421 -0.42985890750838462 0 0.2429688921692805 -0.43048247432352033 0 0.22814755772040771 -0.44109417012542218 0 0.21866018878513421 -0.42985890750838462 0 0.2429688921692805 -0.43048247432352033 0 0.25506301757475153 -0.41075928131917461 0 0.231906688608671 -0.41331777255237528 0 0.24671603634214531 -0.39614759421264722 0 0.25506301757475153 -0.41075928131917461 0 0.2429688921692805 -0.43048247432352033 0 0.231906688608671 -0.41331777255237528 0 0.21637677305784561 -0.41533807435277531 0 0.231906688608671 -0.41331777255237528 0 0.21522213865983339 -0.40347215594628649 0 0.21637677305784561 -0.41533807435277531 0 0.21866018878513421 -0.42985890750838462 0 0.231906688608671 -0.41331777255237528 0 0.23318896265607891 -0.39071782415598472 0 0.21330263007334241 -0.3892032324079831 0 0.21522213865983339 -0.40347215594628649 0 0.23318896265607891 -0.39071782415598472 0 0.21522213865983339 -0.40347215594628649 0 0.231906688608671 -0.41331777255237528 0 0.23318896265607891 -0.39071782415598472 0 0.21522213865983339 -0.40347215594628649 0 0.231906688608671 -0.41331777255237528 0 0.23318896265607891 -0.39071782415598472 0 0.24671603634214531 -0.39614759421264722 0 0.25115578665232452 -0.37796349236568272 0 0.23318896265607891 -0.39071782415598472 0 0.25115578665232452 -0.37796349236568272 0 0.23318896265607891 -0.39071782415598472 0 0.24671603634214531 -0.39614759421264722 0 0.25115578665232452 -0.37796349236568272 0 0.23318896265607891 -0.39071782415598472 0 0.22915253402853111 -0.37722812801113559 0 0.23318896265607891 -0.39071782415598472 0 0.22915253402853111 -0.37722812801113559 0 0.21330263007334241 -0.3892032324079831 0 0.21640275415038601 -0.37203716612244458 0 0.22915253402853111 -0.37722812801113559 0 0.21330263007334241 -0.3892032324079831 0 0.21640275415038601 -0.37203716612244458 0 0.21330263007334241 -0.3892032324079831 0 0.2028700589789284 -0.37734644456953442 0 0.21330263007334241 -0.3892032324079831 0 0.2028700589789284 -0.37734644456953442 0 0.19894220522946199 -0.3902351677057691 0 0.20348746026673639 -0.40680154764868481 0 0.21330263007334241 -0.3892032324079831 0 0.19894220522946199 -0.3902351677057691 0 0.20348746026673639 -0.40680154764868481 0 0.21330263007334241 -0.3892032324079831 0 0.21522213865983339 -0.40347215594628649 0 0.20348746026673639 -0.40680154764868481 0 0.19026626007510891 -0.4000851026195878 0 0.19894220522946199 -0.3902351677057691 0 0.19169316311355539 -0.41147970159698699 0 0.20348746026673639 -0.40680154764868481 0 0.19026626007510891 -0.4000851026195878 0 0.19026626007510891 -0.4000851026195878 0 0.19894220522946199 -0.3902351677057691 0 0.18709570916170551 -0.3847079922289775 0 0.2028700589789284 -0.37734644456953442 0 0.19894220522946199 -0.3902351677057691 0 0.18709570916170551 -0.3847079922289775 0 0.19274757263903741 -0.36693741739918989 0 0.2028700589789284 -0.37734644456953442 0 0.18709570916170551 -0.3847079922289775 0 0.18709570916170551 -0.3847079922289775 0 0.1779850173463654 -0.39732177138880648 0 0.1692785057637739 -0.38485563893497082 0 0.17776772707428939 -0.37295859546435373 0 0.18709570916170551 -0.3847079922289775 0 0.1692785057637739 -0.38485563893497082 0 0.19026626007510891 -0.4000851026195878 0 0.18709570916170551 -0.3847079922289775 0 0.1779850173463654 -0.39732177138880648 0 0.19026626007510891 -0.4000851026195878 0 0.1779850173463654 -0.39732177138880648 0 0.18246092782390991 -0.4088159324623627 0 0.1779850173463654 -0.39732177138880648 0 0.17228236212485651 -0.40855977946635808 0 0.18246092782390991 -0.4088159324623627 0 0.1779850173463654 -0.39732177138880648 0 0.16530169138509551 -0.39866219627094163 0 0.1692785057637739 -0.38485563893497082 0 0.16530169138509551 -0.39866219627094163 0 0.16288155228817691 -0.40754884496188082 0 0.17228236212485651 -0.40855977946635808 0 0.1779850173463654 -0.39732177138880648 0 0.16530169138509551 -0.39866219627094163 0 0.17228236212485651 -0.40855977946635808 0 0.16530169138509551 -0.39866219627094163 0 0.15427385365589291 -0.40177737362987781 0 0.16288155228817691 -0.40754884496188082 0 0.16530169138509551 -0.39866219627094163 0 0.1692785057637739 -0.38485563893497082 0 0.1552519836393037 -0.3891799263838398 0 0.16530169138509551 -0.39866219627094163 0 0.1552519836393037 -0.3891799263838398 0 0.15427385365589291 -0.40177737362987781 0 0.17776772707428939 -0.37295859546435373 0 0.16206066441736611 -0.36984486451014609 0 0.1692785057637739 -0.38485563893497082 0 0.1692785057637739 -0.38485563893497082 0 0.15904923677045629 -0.3802696153381307 0 0.1552519836393037 -0.3891799263838398 0 0.16206066441736611 -0.36984486451014609 0 0.15904923677045629 -0.3802696153381307 0 0.14960579326138179 -0.37719803152356612 0 0.16206066441736611 -0.36984486451014609 0 0.1692785057637739 -0.38485563893497082 0 0.15904923677045629 -0.3802696153381307 0 0.15904923677045629 -0.3802696153381307 0 0.14960579326138179 -0.37719803152356612 0 0.1552519836393037 -0.3891799263838398 0 0.14960579326138179 -0.37719803152356612 0 0.1552519836393037 -0.3891799263838398 0 0.1449481327267936 -0.38447910177888389 0 0.1449481327267936 -0.38447910177888389 0 0.13603884662093599 -0.38407155801566778 0 0.14339632561203641 -0.39279807962430041 0 0.1552519836393037 -0.3891799263838398 0 0.1449481327267936 -0.38447910177888389 0 0.14339632561203641 -0.39279807962430041 0 0.13926033336125199 -0.37393801936380722 0 0.14960579326138179 -0.37719803152356612 0 0.1449481327267936 -0.38447910177888389 0 0.1256480546403197 -0.37055384632459398 0 0.13926033336125199 -0.37393801936380722 0 0.13603884662093599 -0.38407155801566778 0 0.13603884662093599 -0.38407155801566778 0 0.1251448209869527 -0.38809034706625861 0 0.14339632561203641 -0.39279807962430041 0 0.1256480546403197 -0.37055384632459398 0 0.13603884662093599 -0.38407155801566778 0 0.1251448209869527 -0.38809034706625861 0 0.13926033336125199 -0.37393801936380722 0 0.1449481327267936 -0.38447910177888389 0 0.13603884662093599 -0.38407155801566778 0 0.13603884662093599 -0.38407155801566778 0 0.1251448209869527 -0.38809034706625861 0 0.1251448209869527 -0.38809034706625861 0 0.14339632561203641 -0.39279807962430041 0 0.14447294497170241 -0.40810477629143338 0 0.1251448209869527 -0.38809034706625861 0 0.12849426416985521 -0.40415357006555919 0 0.14447294497170241 -0.40810477629143338 0 0.1251448209869527 -0.38809034706625861 0 0.14447294497170241 -0.40810477629143338 0 0.14339632561203641 -0.39279807962430041 0 0.15427385365589291 -0.40177737362987781 0 0.14447294497170241 -0.40810477629143338 0 0.1552519836393037 -0.3891799263838398 0 0.14339632561203641 -0.39279807962430041 0 0.15427385365589291 -0.40177737362987781 0 0.1445996868714447 -0.41687615995575922 0 0.14447294497170241 -0.40810477629143338 0 0.16380106895645161 -0.42811920551660892 0 0.14447294497170241 -0.40810477629143338 0 0.16380106895645161 -0.42811920551660892 0 0.15847402775917679 -0.41244375785252801 0 0.14447294497170241 -0.40810477629143338 0 0.16380106895645161 -0.42811920551660892 0 0.15427385365589291 -0.40177737362987781 0 0.14447294497170241 -0.40810477629143338 0 0.15847402775917679 -0.41244375785252801 0 0.1445996868714447 -0.41687615995575922 0 0.14447294497170241 -0.40810477629143338 0 0.13460937436437029 -0.41495825145437909 0 0.12849426416985521 -0.40415357006555919 0 0.14447294497170241 -0.40810477629143338 0 0.13460937436437029 -0.41495825145437909 0 0.1445996868714447 -0.41687615995575922 0 0.13460937436437029 -0.41495825145437909 0 0.13812950759821691 -0.42362685951565637 0 0.13460937436437029 -0.41495825145437909 0 0.12890733534198759 -0.42768867267521332 0 0.12146095529411111 -0.4126086612511678 0 0.12849426416985521 -0.40415357006555919 0 0.13460937436437029 -0.41495825145437909 0 0.12146095529411111 -0.4126086612511678 0 0.12890733534198759 -0.42768867267521332 0 0.14440163381506499 -0.43498435397727397 0 0.13113581079950301 -0.44578124227434568 0 0.13460937436437029 -0.41495825145437909 0 0.12890733534198759 -0.42768867267521332 0 0.13812950759821691 -0.42362685951565637 0 0.12890733534198759 -0.42768867267521332 0 0.13812950759821691 -0.42362685951565637 0 0.14440163381506499 -0.43498435397727397 0 0.1445996868714447 -0.41687615995575922 0 0.14440163381506499 -0.43498435397727397 0 0.1620978117976653 -0.43883028696448118 0 0.1445996868714447 -0.41687615995575922 0 0.13812950759821691 -0.42362685951565637 0 0.14440163381506499 -0.43498435397727397 0 0.1445996868714447 -0.41687615995575922 0 0.1620978117976653 -0.43883028696448118 0 0.1445996868714447 -0.41687615995575922 0 0.16380106895645161 -0.42811920551660892 0 0.1620978117976653 -0.43883028696448118 0 0.16380106895645161 -0.42811920551660892 0 0.17696277620490891 -0.43314567006619342 0 0.1731160709178533 -0.42515699983609501 0 0.16380106895645161 -0.42811920551660892 0 0.1669407189236605 -0.41666858886283881 0 0.1731160709178533 -0.42515699983609501 0 0.16380106895645161 -0.42811920551660892 0 0.15847402775917679 -0.41244375785252801 0 0.1669407189236605 -0.41666858886283881 0 0.15847402775917679 -0.41244375785252801 0 0.16288155228817691 -0.40754884496188082 0 0.1669407189236605 -0.41666858886283881 0 0.15427385365589291 -0.40177737362987781 0 0.15847402775917679 -0.41244375785252801 0 0.16288155228817691 -0.40754884496188082 0 0.16288155228817691 -0.40754884496188082 0 0.1669407189236605 -0.41666858886283881 0 0.17228236212485651 -0.40855977946635808 0 0.1669407189236605 -0.41666858886283881 0 0.17749943302971941 -0.41906703792330691 0 0.17228236212485651 -0.40855977946635808 0 0.1669407189236605 -0.41666858886283881 0 0.17749943302971941 -0.41906703792330691 0 0.1731160709178533 -0.42515699983609501 0 0.17749943302971941 -0.41906703792330691 0 0.17228236212485651 -0.40855977946635808 0 0.18246092782390991 -0.4088159324623627 0 0.19169316311355539 -0.41147970159698699 0 0.18246092782390991 -0.4088159324623627 0 0.18550729574324351 -0.41660787713534392 0 0.17749943302971941 -0.41906703792330691 0 0.18550729574324351 -0.41660787713534392 0 0.1847008502112997 -0.42345341252977869 0 0.17749943302971941 -0.41906703792330691 0 0.18246092782390991 -0.4088159324623627 0 0.18550729574324351 -0.41660787713534392 0 0.19118210453773329 -0.42022330116428402 0 0.18550729574324351 -0.41660787713534392 0 0.1847008502112997 -0.42345341252977869 0 0.17749943302971941 -0.41906703792330691 0 0.1847008502112997 -0.42345341252977869 0 0.1803510347274089 -0.42816407422570291 0 0.16380106895645161 -0.42811920551660892 0 0.17696277620490891 -0.43314567006619342 0 0.18312919294120089 -0.44813363474178453 0 0.18868516834307 -0.42595580291335899 0 0.1847008502112997 -0.42345341252977869 0 0.18584857825686341 -0.42963723883046417 0 0.1847008502112997 -0.42345341252977869 0 0.1803510347274089 -0.42816407422570291 0 0.18584857825686341 -0.42963723883046417 0 0.1890301367030657 -0.43344784443510093 0 0.18584857825686341 -0.42963723883046417 0 0.18383264072041339 -0.43495045207403371 0 0.1885747486893484 -0.43935615370355457 0 0.1890301367030657 -0.43344784443510093 0 0.18383264072041339 -0.43495045207403371 0 0.1803510347274089 -0.42816407422570291 0 0.18383264072041339 -0.43495045207403371 0 0.17696277620490891 -0.43314567006619342 0 0.1803510347274089 -0.42816407422570291 0 0.18584857825686341 -0.42963723883046417 0 0.18383264072041339 -0.43495045207403371 0 0.1803510347274089 -0.42816407422570291 0 0.17696277620490891 -0.43314567006619342 0 0.1731160709178533 -0.42515699983609501 0 0.17749943302971941 -0.41906703792330691 0 0.1803510347274089 -0.42816407422570291 0 0.1731160709178533 -0.42515699983609501 0 0.16380106895645161 -0.42811920551660892 0 0.18312919294120089 -0.44813363474178453 0 0.18312919294120089 -0.44813363474178453 0 0.17959593672388591 -0.46078441397320308 0 0.1620978117976653 -0.43883028696448118 0 0.1885747486893484 -0.43935615370355457 0 0.18383264072041339 -0.43495045207403371 0 0.18312919294120089 -0.44813363474178453 0 0.18383264072041339 -0.43495045207403371 0 0.17696277620490891 -0.43314567006619342 0 0.18312919294120089 -0.44813363474178453 0 0.17959593672388591 -0.46078441397320308 0 0.16109772601211039 -0.45442263510608938 0 0.16708597985225401 -0.46934905455872378 0 0.16109772601211039 -0.45442263510608938 0 0.15623922323667561 -0.46599450611265908 0 0.16708597985225401 -0.46934905455872378 0 0.17959593672388591 -0.46078441397320308 0 0.1620978117976653 -0.43883028696448118 0 0.17959593672388591 -0.46078441397320308 0 0.16109772601211039 -0.45442263510608938 0 0.1620978117976653 -0.43883028696448118 0 0.16380106895645161 -0.42811920551660892 0 0.18312919294120089 -0.44813363474178453 0 0.1620978117976653 -0.43883028696448118 0 0.16109772601211039 -0.45442263510608938 0 0.1620978117976653 -0.43883028696448118 0 0.15211132848919259 -0.4421453806549957 0 0.14440163381506499 -0.43498435397727397 0 0.15211132848919259 -0.4421453806549957 0 0.14954116612642529 -0.45234900552443852 0 0.14440163381506499 -0.43498435397727397 0 0.14954116612642529 -0.45234900552443852 0 0.13113581079950301 -0.44578124227434568 0 0.14440163381506499 -0.43498435397727397 0 0.1620978117976653 -0.43883028696448118 0 0.15211132848919259 -0.4421453806549957 0 0.16109772601211039 -0.45442263510608938 0 0.15211132848919259 -0.4421453806549957 0 0.14954116612642529 -0.45234900552443852 0 0.12890733534198759 -0.42768867267521332 0 0.13113581079950301 -0.44578124227434568 0 0.11515502483114411 -0.44008917964212829 0 0.14954116612642529 -0.45234900552443852 0 0.13113581079950301 -0.44578124227434568 0 0.1301262976136969 -0.46465497148009233 0 0.13113581079950301 -0.44578124227434568 0 0.1301262976136969 -0.46465497148009233 0 0.11817820890471489 -0.45568859559386249 0 0.14954116612642529 -0.45234900552443852 0 0.15623922323667561 -0.46599450611265908 0 0.1446416111021685 -0.47617450276222001 0 0.14954116612642529 -0.45234900552443852 0 0.1301262976136969 -0.46465497148009233 0 0.1446416111021685 -0.47617450276222001 0 0.14954116612642529 -0.45234900552443852 0 0.1446416111021685 -0.47617450276222001 0 0.16109772601211039 -0.45442263510608938 0 0.14954116612642529 -0.45234900552443852 0 0.15623922323667561 -0.46599450611265908 0 0.15623922323667561 -0.46599450611265908 0 0.1446416111021685 -0.47617450276222001 0 0.15899981339729169 -0.48351100691575277 0 0.1301262976136969 -0.46465497148009233 0 0.1446416111021685 -0.47617450276222001 0 0.12492161197168369 -0.4876157403123495 0 0.1446416111021685 -0.47617450276222001 0 0.13974205607791149 -0.50000000000000133 0 0.12492161197168369 -0.4876157403123495 0 0.1446416111021685 -0.47617450276222001 0 0.13974205607791149 -0.50000000000000133 0 0.15899981339729169 -0.48351100691575277 0 0.13974205607791149 -0.50000000000000133 0 0.16498891094154339 -0.5 0 0.15899981339729169 -0.48351100691575277 0 0.1446416111021685 -0.47617450276222001 0 0.13974205607791149 -0.50000000000000133 0 0.16498891094154339 -0.5 0 0.15899981339729169 -0.48351100691575277 0 0.17585260685159279 -0.48171830434776491 0 0.15899981339729169 -0.48351100691575277 0 0.16708597985225401 -0.46934905455872378 0 0.17585260685159279 -0.48171830434776491 0 0.15623922323667561 -0.46599450611265908 0 0.15899981339729169 -0.48351100691575277 0 0.16708597985225401 -0.46934905455872378 0 0.17959593672388591 -0.46078441397320308 0 0.16708597985225401 -0.46934905455872378 0 0.17585260685159279 -0.48171830434776491 0 0.19709406165010651 -0.48273854098192498 0 0.17959593672388591 -0.46078441397320308 0 0.17585260685159279 -0.48171830434776491 0 0.19023576580517551 -0.5 0 0.16498891094154339 -0.5 0 0.17585260685159279 -0.48171830434776491 0 0.066783408435701963 -0.4768066887782626 0 0.080460279653000844 -0.49999999999999889 0 0.051022644180435561 -0.5 0 0.066783408435701963 -0.4768066887782626 0 0.081016921354838164 -0.48404253885125259 0 0.080460279653000844 -0.49999999999999889 0 0.066783408435701963 -0.4768066887782626 0 0.080460279653000844 -0.49999999999999889 0 0.066783408435701963 -0.4768066887782626 0 0.081016921354838164 -0.48404253885125259 0 0.085856891324660706 -0.46822377327437092 0 0.093091497640049245 -0.49449026701725313 0 0.085856891324660706 -0.46822377327437092 0 0.093091497640049245 -0.49449026701725313 0 0.099770940714702744 -0.47786185172841422 0 0.085856891324660706 -0.46822377327437092 0 0.081016921354838164 -0.48404253885125259 0 0.093091497640049245 -0.49449026701725313 0 0.085856891324660706 -0.46822377327437092 0 0.081016921354838164 -0.48404253885125259 0 0.093091497640049245 -0.49449026701725313 0 0.080460279653000844 -0.49999999999999889 0 0.093091497640049245 -0.49449026701725313 0 0.10703240766387589 -0.48729825948620692 0 0.099770940714702744 -0.47786185172841422 0 0.093091497640049245 -0.49449026701725313 0 0.080460279653000844 -0.49999999999999889 0 0.1101011678654561 -0.5 0 0.093091497640049245 -0.49449026701725313 0 0.10703240766387589 -0.48729825948620692 0 0.1101011678654561 -0.5 0 0.13974205607791149 -0.50000000000000133 0 0.1101011678654561 -0.5 0 0.12492161197168369 -0.4876157403123495 0 0.10703240766387589 -0.48729825948620692 0 0.1101011678654561 -0.5 0 0.12492161197168369 -0.4876157403123495 0 0.1301262976136969 -0.46465497148009233 0 0.12492161197168369 -0.4876157403123495 0 0.1132582615572026 -0.47172830530390858 0 0.10703240766387589 -0.48729825948620692 0 0.12492161197168369 -0.4876157403123495 0 0.1132582615572026 -0.47172830530390858 0 0.10703240766387589 -0.48729825948620692 0 0.1132582615572026 -0.47172830530390858 0 0.099770940714702744 -0.47786185172841422 0 0.099770940714702744 -0.47786185172841422 0 0.10121564972202771 -0.45618927926883768 0 0.085856891324660706 -0.46822377327437092 0 0.1132582615572026 -0.47172830530390858 0 0.099770940714702744 -0.47786185172841422 0 0.10121564972202771 -0.45618927926883768 0 0.1132582615572026 -0.47172830530390858 0 0.10121564972202771 -0.45618927926883768 0 0.11817820890471489 -0.45568859559386249 0 0.1301262976136969 -0.46465497148009233 0 0.1132582615572026 -0.47172830530390858 0 0.11817820890471489 -0.45568859559386249 0 0.10121564972202771 -0.45618927926883768 0 0.11817820890471489 -0.45568859559386249 0 0.11515502483114411 -0.44008917964212829 0 0.13113581079950301 -0.44578124227434568 0 0.11817820890471489 -0.45568859559386249 0 0.11515502483114411 -0.44008917964212829 0 0.10121564972202771 -0.45618927926883768 0 0.11515502483114411 -0.44008917964212829 0 0.098488937863877871 -0.43855136717482862 0 0.10121564972202771 -0.45618927926883768 0 0.098488937863877871 -0.43855136717482862 0 0.07862228500927218 -0.44195727953148872 0 0.07862228500927218 -0.44195727953148872 0 0.085856891324660706 -0.46822377327437092 0 0.07862228500927218 -0.44195727953148872 0 0.085856891324660706 -0.46822377327437092 0 0.070288225352003381 -0.45911071723103142 0 0.10121564972202771 -0.45618927926883768 0 0.07862228500927218 -0.44195727953148872 0 0.085856891324660706 -0.46822377327437092 0 0.066783408435701963 -0.4768066887782626 0 0.085856891324660706 -0.46822377327437092 0 0.070288225352003381 -0.45911071723103142 0 0.066783408435701963 -0.4768066887782626 0 0.070288225352003381 -0.45911071723103142 0 0.053106537218402597 -0.45361337755652659 0 0.07862228500927218 -0.44195727953148872 0 0.070288225352003381 -0.45911071723103142 0 0.060843673340640433 -0.4350447399584052 0 0.07862228500927218 -0.44195727953148872 0 0.071387678693883586 -0.41569078578860619 0 0.060843673340640433 -0.4350447399584052 0 0.07862228500927218 -0.44195727953148872 0 0.071387678693883586 -0.41569078578860619 0 0.076138077877882446 -0.4061688580987185 0 0.051634706323347317 -0.41520811361494819 0 0.071387678693883586 -0.41569078578860619 0 0.076138077877882446 -0.4061688580987185 0 0.051634706323347317 -0.41520811361494819 0 0.076138077877882446 -0.4061688580987185 0 0.060323500816315427 -0.40030792444341651 0 0.051634706323347317 -0.41520811361494819 0 0.071387678693883586 -0.41569078578860619 0 0.085653795360171772 -0.41619656609835098 0 0.076138077877882446 -0.4061688580987185 0 0.085653795360171772 -0.41619656609835098 0 0.10064144943241771 -0.39712960258248869 0 0.076138077877882446 -0.4061688580987185 0 0.098488937863877871 -0.43855136717482862 0 0.07862228500927218 -0.44195727953148872 0 0.095633568352765763 -0.4252002853346315 0 0.07862228500927218 -0.44195727953148872 0 0.071387678693883586 -0.41569078578860619 0 0.085653795360171772 -0.41619656609835098 0 0.07862228500927218 -0.44195727953148872 0 0.085653795360171772 -0.41619656609835098 0 0.095633568352765763 -0.4252002853346315 0 0.11515502483114411 -0.44008917964212829 0 0.098488937863877871 -0.43855136717482862 0 0.110817209638292 -0.42553288509957138 0 0.098488937863877871 -0.43855136717482862 0 0.095633568352765763 -0.4252002853346315 0 0.110817209638292 -0.42553288509957138 0 0.12890733534198759 -0.42768867267521332 0 0.11515502483114411 -0.44008917964212829 0 0.110817209638292 -0.42553288509957138 0 0.12890733534198759 -0.42768867267521332 0 0.110817209638292 -0.42553288509957138 0 0.12146095529411111 -0.4126086612511678 0 0.12146095529411111 -0.4126086612511678 0 0.1052113156892051 -0.41260267389563521 0 0.1162575114947364 -0.40261166882109722 0 0.110817209638292 -0.42553288509957138 0 0.12146095529411111 -0.4126086612511678 0 0.1052113156892051 -0.41260267389563521 0 0.12849426416985521 -0.40415357006555919 0 0.12146095529411111 -0.4126086612511678 0 0.1162575114947364 -0.40261166882109722 0 0.085653795360171772 -0.41619656609835098 0 0.095633568352765763 -0.4252002853346315 0 0.1052113156892051 -0.41260267389563521 0 0.085653795360171772 -0.41619656609835098 0 0.1052113156892051 -0.41260267389563521 0 0.10064144943241771 -0.39712960258248869 0 0.095633568352765763 -0.4252002853346315 0 0.110817209638292 -0.42553288509957138 0 0.1052113156892051 -0.41260267389563521 0 0.1052113156892051 -0.41260267389563521 0 0.10064144943241771 -0.39712960258248869 0 0.1162575114947364 -0.40261166882109722 0 0.1251448209869527 -0.38809034706625861 0 0.10064144943241771 -0.39712960258248869 0 0.1162575114947364 -0.40261166882109722 0 0.1251448209869527 -0.38809034706625861 0 0.12849426416985521 -0.40415357006555919 0 0.1162575114947364 -0.40261166882109722 0 0.1251448209869527 -0.38809034706625861 0 0.10064144943241771 -0.39712960258248869 0 0.1256480546403197 -0.37055384632459398 0 0.1251448209869527 -0.38809034706625861 0 0.10576654681299411 -0.36802398691320948 0 0.1251448209869527 -0.38809034706625861 0 0.10576654681299411 -0.36802398691320948 0 0.1251448209869527 -0.38809034706625861 0 0.10064144943241771 -0.39712960258248869 0 0.10576654681299411 -0.36802398691320948 0 0.10064144943241771 -0.39712960258248869 0 0.085437769283581808 -0.37747526753121807 0 0.10576654681299411 -0.36802398691320948 0 0.10064144943241771 -0.39712960258248869 0 0.085437769283581808 -0.37747526753121807 0 0.073709838639036643 -0.39018843917974749 0 0.10064144943241771 -0.39712960258248869 0 0.076138077877882446 -0.4061688580987185 0 0.073709838639036643 -0.39018843917974749 0 0.10064144943241771 -0.39712960258248869 0 0.076138077877882446 -0.4061688580987185 0 0.073709838639036643 -0.39018843917974749 0 0.055629770349768008 -0.38830665693485977 0 0.060323500816315427 -0.40030792444341651 0 0.076138077877882446 -0.4061688580987185 0 0.073709838639036643 -0.39018843917974749 0 0.060323500816315427 -0.40030792444341651 0 0.085437769283581808 -0.37747526753121807 0 0.073709838639036643 -0.39018843917974749 0 0.064088464074254489 -0.37174232548778408 0 0.073709838639036643 -0.39018843917974749 0 0.055629770349768008 -0.38830665693485977 0 0.064088464074254489 -0.37174232548778408 0 0.055629770349768008 -0.38830665693485977 0 0.064088464074254489 -0.37174232548778408 0 0.032395457780029953 -0.37417104136646001 0 0.060323500816315427 -0.40030792444341651 0 0.046923954998749018 -0.3997799307366911 0 0.051634706323347317 -0.41520811361494819 0 0.055629770349768008 -0.38830665693485977 0 0.060323500816315427 -0.40030792444341651 0 0.046923954998749018 -0.3997799307366911 0 0.046923954998749018 -0.3997799307366911 0 0.031997647747024592 -0.40277484292221871 0 0.032395457780029953 -0.37417104136646001 0 0.046923954998749018 -0.3997799307366911 0 0.031997647747024592 -0.40277484292221871 0 0.051634706323347317 -0.41520811361494819 0 0.055629770349768008 -0.38830665693485977 0 0.046923954998749018 -0.3997799307366911 0 0.032395457780029953 -0.37417104136646001 0 0.031997647747024592 -0.40277484292221871 0 0.01098146097070357 -0.39210035529239229 0 0.032395457780029953 -0.37417104136646001 0 0.0081934150469744164 -0.38588221288854552 0 0.032123250393177358 -0.37185336942929348 0 0.0081934150469744164 -0.38588221288854552 0 0.032395457780029953 -0.37417104136646001 0 0.032123250393177358 -0.37185336942929348 0 0.017455749637491792 -0.37635386851413238 0 0.0081934150469744164 -0.38588221288854552 0 0.032123250393177358 -0.37185336942929348 0 0.0081934150469744164 -0.38588221288854552 0 0.01098146097070357 -0.39210035529239229 0 0.032395457780029953 -0.37417104136646001 0 0.01098146097070357 -0.39210035529239229 0 0.032395457780029953 -0.37417104136646001 0 0.017455749637491792 -0.37635386851413238 0 0.01119089240455344 -0.3783889171665627 0 0.0081934150469744164 -0.38588221288854552 0 0.017455749637491792 -0.37635386851413238 0 0.01119089240455344 -0.3783889171665627 0 0.01333844084782039 -0.37374318849561011 0 0.0094726638497112329 -0.37500689344768823 0 0.01119089240455344 -0.3783889171665627 0 0.01333844084782039 -0.37374318849561011 0 0.0094726638497112329 -0.37500689344768823 0 0.01119089240455344 -0.3783889171665627 0 0.0070790726612925316 -0.37962056972841351 0 0.01119089240455344 -0.3783889171665627 0 0.0081934150469744164 -0.38588221288854552 0 0.0070790726612925316 -0.37962056972841351 0 -0.0039971830888542031 -0.38487249821840858 0 0.0081934150469744164 -0.38588221288854552 0 0.0031158053046095369 -0.38217675911513038 0 0.001028188193644269 -0.37902956558509743 0 0.0031158053046095369 -0.38217675911513038 0 0.0070790726612925316 -0.37962056972841351 0 -0.0039971830888542031 -0.38487249821840858 0 0.001028188193644269 -0.37902956558509743 0 0.0031158053046095369 -0.38217675911513038 0 0.001028188193644269 -0.37902956558509743 0 0.0056061310801953134 -0.37534275854514593 0 0.00313882802842756 -0.37205462437991083 0 0.001028188193644269 -0.37902956558509743 0 0.0056061310801953134 -0.37534275854514593 0 0.0070790726612925316 -0.37962056972841351 0 0.0094726638497112329 -0.37500689344768823 0 0.0056061310801953134 -0.37534275854514593 0 0.0070790726612925316 -0.37962056972841351 0 0.0081934150469744164 -0.38588221288854552 0 0.0031158053046095369 -0.38217675911513038 0 0.0070790726612925316 -0.37962056972841351 0 -0.01043253583862286 -0.41002966921832468 0 0.01098146097070357 -0.39210035529239229 0 -0.01043253583862286 -0.41002966921832468 0 0.01098146097070357 -0.39210035529239229 0 0.0094840433177520722 -0.41414073365895121 0 0.01098146097070357 -0.39210035529239229 0 0.020761578826625209 -0.40912337443417301 0 0.0094840433177520722 -0.41414073365895121 0 -0.0157364202992284 -0.39991105634779761 0 0.0081934150469744164 -0.38588221288854552 0 0.01098146097070357 -0.39210035529239229 0 0.031997647747024592 -0.40277484292221871 0 0.01098146097070357 -0.39210035529239229 0 0.020761578826625209 -0.40912337443417301 0 0.020761578826625209 -0.40912337443417301 0 0.0094840433177520722 -0.41414073365895121 0 0.02713133476881224 -0.424247369131178 0 0.031997647747024592 -0.40277484292221871 0 0.020761578826625209 -0.40912337443417301 0 0.02713133476881224 -0.424247369131178 0 -0.01043253583862286 -0.41002966921832468 0 0.0094840433177520722 -0.41414073365895121 0 0.0026279632142770931 -0.4332866246474078 0 0.0026279632142770931 -0.4332866246474078 0 0.02713133476881224 -0.424247369131178 0 0.0094840433177520722 -0.41414073365895121 0 0.0026279632142770931 -0.4332866246474078 0 0.02713133476881224 -0.424247369131178 0 0.0026279632142770931 -0.4332866246474078 0 0.02713133476881224 -0.424247369131178 0 0.027381949177890112 -0.43574224934021372 0 0.02713133476881224 -0.424247369131178 0 0.039429666001103147 -0.43042006633479052 0 0.051634706323347317 -0.41520811361494819 0 0.02713133476881224 -0.424247369131178 0 0.027381949177890112 -0.43574224934021372 0 0.039429666001103147 -0.43042006633479052 0 0.02713133476881224 -0.424247369131178 0 0.051634706323347317 -0.41520811361494819 0 0.031997647747024592 -0.40277484292221871 0 0.02713133476881224 -0.424247369131178 0 0.051634706323347317 -0.41520811361494819 0 0.071387678693883586 -0.41569078578860619 0 0.051634706323347317 -0.41520811361494819 0 0.060843673340640433 -0.4350447399584052 0 0.039429666001103147 -0.43042006633479052 0 0.051634706323347317 -0.41520811361494819 0 0.060843673340640433 -0.4350447399584052 0 0.039429666001103147 -0.43042006633479052 0 0.060843673340640433 -0.4350447399584052 0 0.053106537218402597 -0.45361337755652659 0 0.070288225352003381 -0.45911071723103142 0 0.060843673340640433 -0.4350447399584052 0 0.053106537218402597 -0.45361337755652659 0 0.066783408435701963 -0.4768066887782626 0 0.053106537218402597 -0.45361337755652659 0 0.034278239577329707 -0.45057735617619171 0 0.020842518324046079 -0.46296716697279899 0 0.040130227095970993 -0.47598517075540159 0 0.053106537218402597 -0.45361337755652659 0 0.034278239577329707 -0.45057735617619171 0 0.040130227095970993 -0.47598517075540159 0 0.027381949177890112 -0.43574224934021372 0 0.039429666001103147 -0.43042006633479052 0 0.034278239577329707 -0.45057735617619171 0 0.039429666001103147 -0.43042006633479052 0 0.053106537218402597 -0.45361337755652659 0 0.039429666001103147 -0.43042006633479052 0 0.053106537218402597 -0.45361337755652659 0 0.034278239577329707 -0.45057735617619171 0 0.027381949177890112 -0.43574224934021372 0 0.034278239577329707 -0.45057735617619171 0 0.022498538940943471 -0.44593512601476609 0 0.0026279632142770931 -0.4332866246474078 0 0.027381949177890112 -0.43574224934021372 0 0.022498538940943471 -0.44593512601476609 0 -0.004486613093427164 -0.45108458905496601 0 0.0026279632142770931 -0.4332866246474078 0 0.0082240972755627459 -0.45228350868415063 0 0.0026279632142770931 -0.4332866246474078 0 0.022498538940943471 -0.44593512601476609 0 0.0082240972755627459 -0.45228350868415063 0 -0.00036192100802574963 -0.46814403673081412 0 0.0082240972755627459 -0.45228350868415063 0 0.020842518324046079 -0.46296716697279899 0 -0.004486613093427164 -0.45108458905496601 0 -0.00036192100802574963 -0.46814403673081412 0 0.0082240972755627459 -0.45228350868415063 0 0.022498538940943471 -0.44593512601476609 0 0.0082240972755627459 -0.45228350868415063 0 0.020842518324046079 -0.46296716697279899 0 0.034278239577329707 -0.45057735617619171 0 0.022498538940943471 -0.44593512601476609 0 0.020842518324046079 -0.46296716697279899 0 0.020842518324046079 -0.46296716697279899 0 0.014246528018841759 -0.48020998688899941 0 0.040130227095970993 -0.47598517075540159 0 -0.00036192100802574963 -0.46814403673081412 0 0.020842518324046079 -0.46296716697279899 0 0.014246528018841759 -0.48020998688899941 0 -0.00036192100802574963 -0.46814403673081412 0 -0.003546631538578648 -0.48872452402083028 0 0.014246528018841759 -0.48020998688899941 0 -0.0078526267646957248 -0.5 0 -0.003546631538578648 -0.48872452402083028 0 0.021585008707869831 -0.5 0 -0.003546631538578648 -0.48872452402083028 0 0.014246528018841759 -0.48020998688899941 0 0.021585008707869831 -0.5 0 0.014246528018841759 -0.48020998688899941 0 0.021585008707869831 -0.5 0 0.040130227095970993 -0.47598517075540159 0 0.021585008707869831 -0.5 0 0.040130227095970993 -0.47598517075540159 0 0.051022644180435561 -0.5 0 0.066783408435701963 -0.4768066887782626 0 0.040130227095970993 -0.47598517075540159 0 0.051022644180435561 -0.5 0 0.066783408435701963 -0.4768066887782626 0 0.053106537218402597 -0.45361337755652659 0 0.040130227095970993 -0.47598517075540159 0 0.083831412504760977 -0.28137969295529353 0 0.092712832738444786 -0.30130934286757061 0 0.0754194353079089 -0.29235673389873318 0 0.083831412504760977 -0.28137969295529353 0 0.092712832738444786 -0.30130934286757061 0 0.10223026872786881 -0.28432025183165599 0 0.092712832738444786 -0.30130934286757061 0 0.0754194353079089 -0.29235673389873318 0 0.070101531121692762 -0.32086972222287319 0 0.0754194353079089 -0.29235673389873318 0 0.070101531121692762 -0.32086972222287319 0 0.055785663915822861 -0.3096653707036619 0 0.083831412504760977 -0.28137969295529353 0 0.0754194353079089 -0.29235673389873318 0 0.071080969541555045 -0.27061516815493492 0 0.0754194353079089 -0.29235673389873318 0 0.071080969541555045 -0.27061516815493492 0 0.0754194353079089 -0.29235673389873318 0 0.071080969541555045 -0.27061516815493492 0 0.059967260294257321 -0.27395746159764878 0 0.071080969541555045 -0.27061516815493492 0 0.061518479924558098 -0.26063341449936489 0 0.059967260294257321 -0.27395746159764878 0 0.071080969541555045 -0.27061516815493492 0 0.061518479924558098 -0.26063341449936489 0 0.06674250377520119 -0.24887360241113651 0 0.071080969541555045 -0.27061516815493492 0 0.06674250377520119 -0.24887360241113651 0 0.071080969541555045 -0.27061516815493492 0 0.06674250377520119 -0.24887360241113651 0 0.070587916148937904 -0.24805318416950739 0 0.071080969541555045 -0.27061516815493492 0 0.086409092438403112 -0.26618671800058191 0 0.070587916148937904 -0.24805318416950739 0 0.061518479924558098 -0.26063341449936489 0 0.064665278531761308 -0.2493167781530469 0 0.06674250377520119 -0.24887360241113651 0 0.086409092438403112 -0.26618671800058191 0 0.070587916148937904 -0.24805318416950739 0 0.093403234317505301 -0.24318553893543429 0 0.086409092438403112 -0.26618671800058191 0 0.070587916148937904 -0.24805318416950739 0 0.083831412504760977 -0.28137969295529353 0 0.086409092438403112 -0.26618671800058191 0 0.10223026872786881 -0.28432025183165599 0 0.083831412504760977 -0.28137969295529353 0 0.071080969541555045 -0.27061516815493492 0 0.086409092438403112 -0.26618671800058191 0 0.086409092438403112 -0.26618671800058191 0 0.1059412268821819 -0.2676819725910134 0 0.10223026872786881 -0.28432025183165599 0 0.086409092438403112 -0.26618671800058191 0 0.10223026872786881 -0.28432025183165599 0 0.1059412268821819 -0.2676819725910134 0 0.1189076714457971 -0.27655008690831551 0 0.10223026872786881 -0.28432025183165599 0 0.086409092438403112 -0.26618671800058191 0 0.10357837029368321 -0.25090802048529931 0 0.093403234317505301 -0.24318553893543429 0 0.1059412268821819 -0.2676819725910134 0 0.10357837029368321 -0.25090802048529931 0 0.11858073150515711 -0.26044478572921442 0 0.086409092438403112 -0.26618671800058191 0 0.1059412268821819 -0.2676819725910134 0 0.10357837029368321 -0.25090802048529931 0 0.10357837029368321 -0.25090802048529931 0 0.11858073150515711 -0.26044478572921442 0 0.1158260506959591 -0.24727973739471479 0 0.11858073150515711 -0.26044478572921442 0 0.12350480426882821 -0.25139481519201218 0 0.1158260506959591 -0.24727973739471479 0 0.1059412268821819 -0.2676819725910134 0 0.11858073150515711 -0.26044478572921442 0 0.1189076714457971 -0.27655008690831551 0 0.13329429922167049 -0.26300964849405811 0 0.11858073150515711 -0.26044478572921442 0 0.1189076714457971 -0.27655008690831551 0 0.1189076714457971 -0.27655008690831551 0 0.11941913265543359 -0.28794811942699738 0 0.10223026872786881 -0.28432025183165599 0 0.10223026872786881 -0.28432025183165599 0 0.11805144501733431 -0.30245378566273012 0 0.11941913265543359 -0.28794811942699738 0 0.10223026872786881 -0.28432025183165599 0 0.11805144501733431 -0.30245378566273012 0 0.12591204424150201 -0.28300834675642689 0 0.1189076714457971 -0.27655008690831551 0 0.11941913265543359 -0.28794811942699738 0 0.13199737506607639 -0.28904593250430177 0 0.11941913265543359 -0.28794811942699738 0 0.11805144501733431 -0.30245378566273012 0 0.092712832738444786 -0.30130934286757061 0 0.10223026872786881 -0.28432025183165599 0 0.11805144501733431 -0.30245378566273012 0 0.092712832738444786 -0.30130934286757061 0 0.11805144501733431 -0.30245378566273012 0 0.096637448208008847 -0.32038309958866318 0 0.11805144501733431 -0.30245378566273012 0 0.096637448208008847 -0.32038309958866318 0 0.11805144501733431 -0.30245378566273012 0 0.1240151358346419 -0.30928910480810351 0 0.1155672338856915 -0.31921171721549491 0 0.11805144501733431 -0.30245378566273012 0 0.1240151358346419 -0.30928910480810351 0 0.13101876618517971 -0.32613136330619619 0 0.1240151358346419 -0.30928910480810351 0 0.1155672338856915 -0.31921171721549491 0 0.11805144501733431 -0.30245378566273012 0 0.1155672338856915 -0.31921171721549491 0 0.096637448208008847 -0.32038309958866318 0 0.13101876618517971 -0.32613136330619619 0 0.1155672338856915 -0.31921171721549491 0 0.10811337418329189 -0.33780123271178047 0 0.13445354178098801 -0.34527937369667239 0 0.13101876618517971 -0.32613136330619619 0 0.10811337418329189 -0.33780123271178047 0 0.1155672338856915 -0.31921171721549491 0 0.10811337418329189 -0.33780123271178047 0 0.096637448208008847 -0.32038309958866318 0 0.10811337418329189 -0.33780123271178047 0 0.1181321029238226 -0.35356822277873512 0 0.086331524387192063 -0.35799143400201511 0 0.1181321029238226 -0.35356822277873512 0 0.10576654681299411 -0.36802398691320948 0 0.086331524387192063 -0.35799143400201511 0 0.1256480546403197 -0.37055384632459398 0 0.1181321029238226 -0.35356822277873512 0 0.10576654681299411 -0.36802398691320948 0 0.13445354178098801 -0.34527937369667239 0 0.10811337418329189 -0.33780123271178047 0 0.1181321029238226 -0.35356822277873512 0 0.086331524387192063 -0.35799143400201511 0 0.075223451398682584 -0.33831241351459551 0 0.053809454589356209 -0.35624172744052768 0 0.10811337418329189 -0.33780123271178047 0 0.086331524387192063 -0.35799143400201511 0 0.075223451398682584 -0.33831241351459551 0 0.086331524387192063 -0.35799143400201511 0 0.064088464074254489 -0.37174232548778408 0 0.053809454589356209 -0.35624172744052768 0 0.085437769283581808 -0.37747526753121807 0 0.10576654681299411 -0.36802398691320948 0 0.086331524387192063 -0.35799143400201511 0 0.085437769283581808 -0.37747526753121807 0 0.086331524387192063 -0.35799143400201511 0 0.064088464074254489 -0.37174232548778408 0 0.062614463356984396 -0.33743551115998149 0 0.075223451398682584 -0.33831241351459551 0 0.053809454589356209 -0.35624172744052768 0 0.075223451398682584 -0.33831241351459551 0 0.053809454589356209 -0.35624172744052768 0 0.10811337418329189 -0.33780123271178047 0 0.096637448208008847 -0.32038309958866318 0 0.075223451398682584 -0.33831241351459551 0 0.096637448208008847 -0.32038309958866318 0 0.075223451398682584 -0.33831241351459551 0 0.070101531121692762 -0.32086972222287319 0 0.092712832738444786 -0.30130934286757061 0 0.096637448208008847 -0.32038309958866318 0 0.070101531121692762 -0.32086972222287319 0 0.096637448208008847 -0.32038309958866318 0 0.075223451398682584 -0.33831241351459551 0 0.062614463356984396 -0.33743551115998149 0 0.075223451398682584 -0.33831241351459551 0 0.070101531121692762 -0.32086972222287319 0 0.062614463356984396 -0.33743551115998149 0 0.070101531121692762 -0.32086972222287319 0 0.055785663915822861 -0.3096653707036619 0 0.062614463356984396 -0.33743551115998149 0 0.042950232167289132 -0.32973938267464009 0 0.055785663915822861 -0.3096653707036619 0 0.062614463356984396 -0.33743551115998149 0 0.055785663915822861 -0.3096653707036619 0 0.062614463356984396 -0.33743551115998149 0 0.049487684352077711 -0.3427539425431666 0 0.042950232167289132 -0.32973938267464009 0 0.049487684352077711 -0.3427539425431666 0 0.042950232167289132 -0.32973938267464009 0 0.029649009753598049 -0.34580275792085158 0 0.042950232167289132 -0.32973938267464009 0 0.029649009753598049 -0.34580275792085158 0 0.024128431233370839 -0.32830943813655222 0 0.042950232167289132 -0.32973938267464009 0 0.024128431233370839 -0.32830943813655222 0 0.033131070970212548 -0.31229792761690778 0 0.042950232167289132 -0.32973938267464009 0 0.033131070970212548 -0.31229792761690778 0 0.055785663915822861 -0.3096653707036619 0 0.064088464074254489 -0.37174232548778408 0 0.053809454589356209 -0.35624172744052768 0 0.032395457780029953 -0.37417104136646001 0 0.062614463356984396 -0.33743551115998149 0 0.049487684352077711 -0.3427539425431666 0 0.053809454589356209 -0.35624172744052768 0 0.049487684352077711 -0.3427539425431666 0 0.053809454589356209 -0.35624172744052768 0 0.038744442686643697 -0.35528877047631569 0 0.049487684352077711 -0.3427539425431666 0 0.038744442686643697 -0.35528877047631569 0 0.029649009753598049 -0.34580275792085158 0 0.038744442686643697 -0.35528877047631569 0 0.02865281434500919 -0.3597920550477392 0 0.029649009753598049 -0.34580275792085158 0 0.038744442686643697 -0.35528877047631569 0 0.032123250393177358 -0.37185336942929348 0 0.02865281434500919 -0.3597920550477392 0 0.053809454589356209 -0.35624172744052768 0 0.032395457780029953 -0.37417104136646001 0 0.053809454589356209 -0.35624172744052768 0 0.032395457780029953 -0.37417104136646001 0 0.032123250393177358 -0.37185336942929348 0 0.053809454589356209 -0.35624172744052768 0 0.038744442686643697 -0.35528877047631569 0 0.032123250393177358 -0.37185336942929348 0 0.017455749637491792 -0.37635386851413238 0 0.016964449601726859 -0.37232433089403311 0 0.019752403385946839 -0.37282758759478701 0 0.017455749637491792 -0.37635386851413238 0 0.016964449601726859 -0.37232433089403311 0 0.01333844084782039 -0.37374318849561011 0 0.016964449601726859 -0.37232433089403311 0 0.02068240255110998 -0.36987905461259413 0 0.019752403385946839 -0.37282758759478701 0 0.01724571070008038 -0.36870429004963928 0 0.02068240255110998 -0.36987905461259413 0 0.019501372776815209 -0.36565210159485068 0 0.016964449601726859 -0.37232433089403311 0 0.01724571070008038 -0.36870429004963928 0 0.01428481235490219 -0.3699132486521054 0 0.01724571070008038 -0.36870429004963928 0 0.01551626648590592 -0.36591408958949118 0 0.01428481235490219 -0.3699132486521054 0 0.016964449601726859 -0.37232433089403311 0 0.01724571070008038 -0.36870429004963928 0 0.02068240255110998 -0.36987905461259413 0 0.02068240255110998 -0.36987905461259413 0 0.022964747544339019 -0.36690916112587563 0 0.019501372776815209 -0.36565210159485068 0 0.02068240255110998 -0.36987905461259413 0 0.024586464281452891 -0.36889325728345612 0 0.022964747544339019 -0.36690916112587563 0 0.02068240255110998 -0.36987905461259413 0 0.024147973879581491 -0.37254703825302249 0 0.024586464281452891 -0.36889325728345612 0 0.017455749637491792 -0.37635386851413238 0 0.019752403385946839 -0.37282758759478701 0 0.024147973879581491 -0.37254703825302249 0 0.02068240255110998 -0.36987905461259413 0 0.019752403385946839 -0.37282758759478701 0 0.024147973879581491 -0.37254703825302249 0 0.017455749637491792 -0.37635386851413238 0 0.032123250393177358 -0.37185336942929348 0 0.024147973879581491 -0.37254703825302249 0 0.032123250393177358 -0.37185336942929348 0 0.024147973879581491 -0.37254703825302249 0 0.026967813150886269 -0.36990186561984417 0 0.032123250393177358 -0.37185336942929348 0 0.026967813150886269 -0.36990186561984417 0 0.027013564049333329 -0.36631379751360499 0 0.026967813150886269 -0.36990186561984417 0 0.024586464281452891 -0.36889325728345612 0 0.027013564049333329 -0.36631379751360499 0 0.024586464281452891 -0.36889325728345612 0 0.027013564049333329 -0.36631379751360499 0 0.022964747544339019 -0.36690916112587563 0 0.024147973879581491 -0.37254703825302249 0 0.026967813150886269 -0.36990186561984417 0 0.024586464281452891 -0.36889325728345612 0 0.032123250393177358 -0.37185336942929348 0 0.027013564049333329 -0.36631379751360499 0 0.02865281434500919 -0.3597920550477392 0 0.027013564049333329 -0.36631379751360499 0 0.023039934062983661 -0.36380759462487222 0 0.022964747544339019 -0.36690916112587563 0 0.027013564049333329 -0.36631379751360499 0 0.02865281434500919 -0.3597920550477392 0 0.023039934062983661 -0.36380759462487222 0 0.02865281434500919 -0.3597920550477392 0 0.023039934062983661 -0.36380759462487222 0 0.017874291633733511 -0.36022264255491621 0 0.023039934062983661 -0.36380759462487222 0 0.019501372776815209 -0.36565210159485068 0 0.017874291633733511 -0.36022264255491621 0 0.023039934062983661 -0.36380759462487222 0 0.022964747544339019 -0.36690916112587563 0 0.019501372776815209 -0.36565210159485068 0 0.019501372776815209 -0.36565210159485068 0 0.017874291633733511 -0.36022264255491621 0 0.01551626648590592 -0.36591408958949118 0 0.01724571070008038 -0.36870429004963928 0 0.019501372776815209 -0.36565210159485068 0 0.01551626648590592 -0.36591408958949118 0 0.029649009753598049 -0.34580275792085158 0 0.01114283036565398 -0.34816784548211488 0 0.01462173927096593 -0.33977616800948912 0 0.017874291633733511 -0.36022264255491621 0 0.029649009753598049 -0.34580275792085158 0 0.0070829174492904861 -0.35913110990713598 0 0.029649009753598049 -0.34580275792085158 0 0.01114283036565398 -0.34816784548211488 0 0.0070829174492904861 -0.35913110990713598 0 0.029649009753598049 -0.34580275792085158 0 0.0070829174492904861 -0.35913110990713598 0 0.02865281434500919 -0.3597920550477392 0 0.017874291633733511 -0.36022264255491621 0 0.029649009753598049 -0.34580275792085158 0 0.01114283036565398 -0.34816784548211488 0 0.0018820081491096379 -0.35215421146137971 0 0.0024151645633119778 -0.34330519641580892 0 -0.003767562224240786 -0.36135824039844699 0 0.0003366517691050342 -0.35702385607026987 0 0.0070829174492904861 -0.35913110990713598 0 0.01114283036565398 -0.34816784548211488 0 0.0018820081491096379 -0.35215421146137971 0 0.0070829174492904861 -0.35913110990713598 0 0.0018820081491096379 -0.35215421146137971 0 0.0003366517691050342 -0.35702385607026987 0 0.0070829174492904861 -0.35913110990713598 0 0.017874291633733511 -0.36022264255491621 0 0.0070829174492904861 -0.35913110990713598 0 0.010169099336607781 -0.36213720754745787 0 0.017874291633733511 -0.36022264255491621 0 0.012471079384208829 -0.36395488440148838 0 0.010169099336607781 -0.36213720754745787 0 0.017874291633733511 -0.36022264255491621 0 0.01551626648590592 -0.36591408958949118 0 0.012471079384208829 -0.36395488440148838 0 0.01551626648590592 -0.36591408958949118 0 0.01184403062962491 -0.36692091348220318 0 0.012471079384208829 -0.36395488440148838 0 0.01184403062962491 -0.36692091348220318 0 0.012471079384208829 -0.36395488440148838 0 0.0083360616963930774 -0.36614141755064622 0 0.0083360616963930774 -0.36614141755064622 0 0.010169099336607781 -0.36213720754745787 0 0.0056186006951306896 -0.36266545781509602 0 0.012471079384208829 -0.36395488440148838 0 0.0083360616963930774 -0.36614141755064622 0 0.010169099336607781 -0.36213720754745787 0 0.01184403062962491 -0.36692091348220318 0 0.0083360616963930774 -0.36614141755064622 0 0.0093037628248603468 -0.36825722422132923 0 0.0070829174492904861 -0.35913110990713598 0 0.010169099336607781 -0.36213720754745787 0 0.0056186006951306896 -0.36266545781509602 0 -0.003064502032246555 -0.36850324202368318 0 0.0070829174492904861 -0.35913110990713598 0 0.0056186006951306896 -0.36266545781509602 0 0.0083360616963930774 -0.36614141755064622 0 0.0056186006951306896 -0.36266545781509602 0 0.00313882802842756 -0.37205462437991083 0 0.0083360616963930774 -0.36614141755064622 0 0.0073119026679009684 -0.37100213958461931 0 0.00313882802842756 -0.37205462437991083 0 0.0056061310801953134 -0.37534275854514593 0 0.0073119026679009684 -0.37100213958461931 0 0.00313882802842756 -0.37205462437991083 0 0.0094726638497112329 -0.37500689344768823 0 0.0056061310801953134 -0.37534275854514593 0 0.0073119026679009684 -0.37100213958461931 0 0.0094726638497112329 -0.37500689344768823 0 0.0073119026679009684 -0.37100213958461931 0 0.010848962750167611 -0.37081086921632611 0 0.0094726638497112329 -0.37500689344768823 0 0.010848962750167611 -0.37081086921632611 0 0.01333844084782039 -0.37374318849561011 0 0.0083360616963930774 -0.36614141755064622 0 0.0073119026679009684 -0.37100213958461931 0 0.0093037628248603468 -0.36825722422132923 0 0.0073119026679009684 -0.37100213958461931 0 0.0093037628248603468 -0.36825722422132923 0 0.010848962750167611 -0.37081086921632611 0 0.01184403062962491 -0.36692091348220318 0 0.0093037628248603468 -0.36825722422132923 0 0.010848962750167611 -0.37081086921632611 0 0.01184403062962491 -0.36692091348220318 0 0.010848962750167611 -0.37081086921632611 0 0.01428481235490219 -0.3699132486521054 0 0.01551626648590592 -0.36591408958949118 0 0.01184403062962491 -0.36692091348220318 0 0.01428481235490219 -0.3699132486521054 0 0.016964449601726859 -0.37232433089403311 0 0.01428481235490219 -0.3699132486521054 0 0.01333844084782039 -0.37374318849561011 0 0.010848962750167611 -0.37081086921632611 0 0.01428481235490219 -0.3699132486521054 0 0.01333844084782039 -0.37374318849561011 0 0.01955142347957374 -0.3134779274594503 0 0.024128431233370839 -0.32830943813655222 0 0.033131070970212548 -0.31229792761690778 0 0.01955142347957374 -0.3134779274594503 0 0.024128431233370839 -0.32830943813655222 0 0.0094858121179082541 -0.31958908770314293 0 0.029649009753598049 -0.34580275792085158 0 0.024128431233370839 -0.32830943813655222 0 0.01462173927096593 -0.33977616800948912 0 0.024128431233370839 -0.32830943813655222 0 0.01462173927096593 -0.33977616800948912 0 0.0074847136339209579 -0.3318227770583429 0 0.01462173927096593 -0.33977616800948912 0 0.0024151645633119778 -0.34330519641580892 0 0.0074847136339209579 -0.3318227770583429 0 0.01114283036565398 -0.34816784548211488 0 0.01462173927096593 -0.33977616800948912 0 0.0024151645633119778 -0.34330519641580892 0 -0.0048247292914743766 -0.33511999492224048 0 0.0024151645633119778 -0.34330519641580892 0 0.0074847136339209579 -0.3318227770583429 0 0.024128431233370839 -0.32830943813655222 0 0.0074847136339209579 -0.3318227770583429 0 0.0094858121179082541 -0.31958908770314293 0 -0.0029681218629519289 -0.32401569713955758 0 0.0074847136339209579 -0.3318227770583429 0 0.0094858121179082541 -0.31958908770314293 0 0.01955142347957374 -0.3134779274594503 0 0.0094858121179082541 -0.31958908770314293 0 0.010386326030255169 -0.30795569284622409 0 -0.0013654571246994251 -0.31111872375839289 0 -0.0029681218629519289 -0.32401569713955758 0 0.0094858121179082541 -0.31958908770314293 0 -0.0013654571246994251 -0.31111872375839289 0 0.0094858121179082541 -0.31958908770314293 0 0.010386326030255169 -0.30795569284622409 0 -0.0013654571246994251 -0.31111872375839289 0 0.010386326030255169 -0.30795569284622409 0 0.0026705155070595862 -0.29676827545427142 0 0.010386326030255169 -0.30795569284622409 0 0.0026705155070595862 -0.29676827545427142 0 0.018003087787931998 -0.29629803975430918 0 0.0026705155070595862 -0.29676827545427142 0 0.018003087787931998 -0.29629803975430918 0 0.0034228775624346531 -0.27956024016697489 0 0.018003087787931998 -0.29629803975430918 0 0.020180409575136071 -0.27603935116750927 0 0.0034228775624346531 -0.27956024016697489 0 0.018003087787931998 -0.29629803975430918 0 0.035260730151426202 -0.29349733677869838 0 0.020180409575136071 -0.27603935116750927 0 0.018003087787931998 -0.29629803975430918 0 0.033131070970212548 -0.31229792761690778 0 0.035260730151426202 -0.29349733677869838 0 0.01955142347957374 -0.3134779274594503 0 0.018003087787931998 -0.29629803975430918 0 0.033131070970212548 -0.31229792761690778 0 0.01955142347957374 -0.3134779274594503 0 0.010386326030255169 -0.30795569284622409 0 0.018003087787931998 -0.29629803975430918 0 0.033131070970212548 -0.31229792761690778 0 0.035260730151426202 -0.29349733677869838 0 0.055785663915822861 -0.3096653707036619 0 0.035260730151426202 -0.29349733677869838 0 0.048956864474661327 -0.2818952302473422 0 0.055785663915822861 -0.3096653707036619 0 0.035260730151426202 -0.29349733677869838 0 0.048956864474661327 -0.2818952302473422 0 0.034257029196002868 -0.27282106197292599 0 0.0754194353079089 -0.29235673389873318 0 0.048956864474661327 -0.2818952302473422 0 0.059967260294257321 -0.27395746159764878 0 0.0754194353079089 -0.29235673389873318 0 0.048956864474661327 -0.2818952302473422 0 0.055785663915822861 -0.3096653707036619 0 0.048956864474661327 -0.2818952302473422 0 0.055785663915822861 -0.3096653707036619 0 0.045735291495124841 -0.25938229928326778 0 0.042128065033499709 -0.25412508979102238 0 0.064665278531761308 -0.2493167781530469 0 0.045735291495124841 -0.25938229928326778 0 0.064665278531761308 -0.2493167781530469 0 0.061518479924558098 -0.26063341449936489 0 0.059967260294257321 -0.27395746159764878 0 0.045735291495124841 -0.25938229928326778 0 0.061518479924558098 -0.26063341449936489 0 0.045735291495124841 -0.25938229928326778 0 0.064665278531761308 -0.2493167781530469 0 0.042128065033499709 -0.25412508979102238 0 0.064665278531761308 -0.2493167781530469 0 0.042128065033499709 -0.25412508979102238 0 0.0529364352365055 -0.24956374240861789 0 0.064665278531761308 -0.2493167781530469 0 0.042128065033499709 -0.25412508979102238 0 0.045611330634543187 -0.24818378644094299 0 0.0529364352365055 -0.24956374240861789 0 0.048956864474661327 -0.2818952302473422 0 0.059967260294257321 -0.27395746159764878 0 0.045735291495124841 -0.25938229928326778 0 0.048956864474661327 -0.2818952302473422 0 0.042128065033499709 -0.25412508979102238 0 0.048956864474661327 -0.2818952302473422 0 0.034257029196002868 -0.27282106197292599 0 0.042128065033499709 -0.25412508979102238 0 0.042128065033499709 -0.25412508979102238 0 0.02468574628658295 -0.25784640628077488 0 0.029307653897379979 -0.2478990629859848 0 0.048956864474661327 -0.2818952302473422 0 0.045735291495124841 -0.25938229928326778 0 0.042128065033499709 -0.25412508979102238 0 0.042128065033499709 -0.25412508979102238 0 0.02468574628658295 -0.25784640628077488 0 0.034257029196002868 -0.27282106197292599 0 0.042128065033499709 -0.25412508979102238 0 0.02468574628658295 -0.25784640628077488 0 0.02468574628658295 -0.25784640628077488 0 0.0072434275396657533 -0.26156772277052542 0 0.02468574628658295 -0.25784640628077488 0 0.020180409575136071 -0.27603935116750927 0 0.0072434275396657533 -0.26156772277052542 0 0.02468574628658295 -0.25784640628077488 0 0.014639405744140171 -0.24669891793547999 0 0.029307653897379979 -0.2478990629859848 0 0.035260730151426202 -0.29349733677869838 0 0.034257029196002868 -0.27282106197292599 0 0.020180409575136071 -0.27603935116750927 0 0.034257029196002868 -0.27282106197292599 0 0.02468574628658295 -0.25784640628077488 0 0.020180409575136071 -0.27603935116750927 0 0.020180409575136071 -0.27603935116750927 0 0.0034228775624346531 -0.27956024016697489 0 0.0072434275396657533 -0.26156772277052542 0 -0.0080584849696134705 -0.24565963204858729 0 0.0072434275396657533 -0.26156772277052542 0 0.014639405744140171 -0.24669891793547999 0 0.02468574628658295 -0.25784640628077488 0 0.0072434275396657533 -0.26156772277052542 0 0.014639405744140171 -0.24669891793547999 0 -0.0080584849696134705 -0.24565963204858729 0 0.01235453191993083 -0.22826922062572069 0 -0.0080584849696134705 -0.24565963204858729 0 0.014639405744140171 -0.24669891793547999 0 0.01235453191993083 -0.22826922062572069 0 0.01235453191993083 -0.22826922062572069 0 0.030483418011089669 -0.2275471532957532 0 0.032767548809473877 -0.2108788092028526 0 0.01235453191993083 -0.22826922062572069 0 0.032767548809473877 -0.2108788092028526 0 0.01235453191993083 -0.22826922062572069 0 0.030483418011089669 -0.2275471532957532 0 0.025498280054139049 -0.2376131337858795 0 0.014639405744140171 -0.24669891793547999 0 0.01235453191993083 -0.22826922062572069 0 0.025498280054139049 -0.2376131337858795 0 0.014639405744140171 -0.24669891793547999 0 0.025498280054139049 -0.2376131337858795 0 0.029307653897379979 -0.2478990629859848 0 -0.0093921118566575659 -0.20223372155845001 0 0.014719174085286569 -0.20053193682050621 0 -0.001470390448203369 -0.1912506934557355 0 0.014719174085286569 -0.20053193682050621 0 0.01174661507722052 -0.184640726340591 0 -0.001470390448203369 -0.1912506934557355 0 0.014719174085286569 -0.20053193682050621 0 -0.0093921118566575659 -0.20223372155845001 0 -0.001470390448203369 -0.1912506934557355 0 0.014719174085286569 -0.20053193682050621 0 -0.0047526477166800109 -0.2198201769135828 0 -0.0093921118566575659 -0.20223372155845001 0 0.014719174085286569 -0.20053193682050621 0 -0.0047526477166800109 -0.2198201769135828 0 0.01235453191993083 -0.22826922062572069 0 0.014719174085286569 -0.20053193682050621 0 0.014719174085286569 -0.20053193682050621 0 0.032767548809473877 -0.2108788092028526 0 0.014719174085286569 -0.20053193682050621 0 0.031179706897447208 -0.19937014546746001 0 0.032767548809473877 -0.2108788092028526 0 0.01235453191993083 -0.22826922062572069 0 0.014719174085286569 -0.20053193682050621 0 0.032767548809473877 -0.2108788092028526 0 0.014719174085286569 -0.20053193682050621 0 0.031179706897447208 -0.19937014546746001 0 0.030814172792464008 -0.18467049784347961 0 0.014719174085286569 -0.20053193682050621 0 0.031179706897447208 -0.19937014546746001 0 0.014719174085286569 -0.20053193682050621 0 0.030814172792464008 -0.18467049784347961 0 0.01174661507722052 -0.184640726340591 0 0.031179706897447208 -0.19937014546746001 0 0.047640239709608047 -0.1982083541144167 0 0.030814172792464008 -0.18467049784347961 0 0.031179706897447208 -0.19937014546746001 0 0.032767548809473877 -0.2108788092028526 0 0.047640239709608047 -0.1982083541144167 0 0.031179706897447208 -0.19937014546746001 0 0.047640239709608047 -0.1982083541144167 0 0.047640239709608047 -0.1982083541144167 0 0.048951650128566913 -0.18371242074851241 0 0.030814172792464008 -0.18467049784347961 0 0.032767548809473877 -0.2108788092028526 0 0.052771603801631067 -0.2223468448180414 0 0.032767548809473877 -0.2108788092028526 0 0.047531931640164699 -0.20950241187684751 0 0.052771603801631067 -0.2223468448180414 0 0.032767548809473877 -0.2108788092028526 0 0.039129847093225978 -0.22203180285176841 0 0.052771603801631067 -0.2223468448180414 0 0.032767548809473877 -0.2108788092028526 0 0.047640239709608047 -0.1982083541144167 0 0.032767548809473877 -0.2108788092028526 0 0.047531931640164699 -0.20950241187684751 0 0.047640239709608047 -0.1982083541144167 0 0.057835451604018533 -0.2042372561098586 0 0.061612703561087299 -0.22316638363516811 0 0.057835451604018533 -0.2042372561098586 0 0.052771603801631067 -0.2223468448180414 0 0.061612703561087299 -0.22316638363516811 0 0.057835451604018533 -0.2042372561098586 0 0.047531931640164699 -0.20950241187684751 0 0.052771603801631067 -0.2223468448180414 0 0.057835451604018533 -0.2042372561098586 0 0.047531931640164699 -0.20950241187684751 0 0.047640239709608047 -0.1982083541144167 0 0.047640239709608047 -0.1982083541144167 0 0.07115793448996538 -0.19654846529117989 0 0.062687398639007297 -0.1853892649056337 0 0.047640239709608047 -0.1982083541144167 0 0.07115793448996538 -0.19654846529117989 0 0.057835451604018533 -0.2042372561098586 0 0.047640239709608047 -0.1982083541144167 0 0.07115793448996538 -0.19654846529117989 0 0.047640239709608047 -0.1982083541144167 0 0.062687398639007297 -0.1853892649056337 0 0.047640239709608047 -0.1982083541144167 0 0.062687398639007297 -0.1853892649056337 0 0.048951650128566913 -0.18371242074851241 0 0.04523964255252319 -0.2379484142158467 0 0.03986776287351123 -0.2449332971490748 0 0.039496661605532488 -0.23267049946045951 0 0.04523964255252319 -0.2379484142158467 0 0.039496661605532488 -0.23267049946045951 0 0.047536158747514698 -0.2325895687419855 0 0.04523964255252319 -0.2379484142158467 0 0.03986776287351123 -0.2449332971490748 0 0.047513059394656353 -0.24411301641505709 0 0.042128065033499709 -0.25412508979102238 0 0.03986776287351123 -0.2449332971490748 0 0.042128065033499709 -0.25412508979102238 0 0.045611330634543187 -0.24818378644094299 0 0.03986776287351123 -0.2449332971490748 0 0.045611330634543187 -0.24818378644094299 0 0.03986776287351123 -0.2449332971490748 0 0.047513059394656353 -0.24411301641505709 0 0.025498280054139049 -0.2376131337858795 0 0.029307653897379979 -0.2478990629859848 0 0.03986776287351123 -0.2449332971490748 0 0.042128065033499709 -0.25412508979102238 0 0.029307653897379979 -0.2478990629859848 0 0.03986776287351123 -0.2449332971490748 0 0.025498280054139049 -0.2376131337858795 0 0.03986776287351123 -0.2449332971490748 0 0.039496661605532488 -0.23267049946045951 0 0.030483418011089669 -0.2275471532957532 0 0.039129847093225978 -0.22203180285176841 0 0.039496661605532488 -0.23267049946045951 0 0.030483418011089669 -0.2275471532957532 0 0.025498280054139049 -0.2376131337858795 0 0.039496661605532488 -0.23267049946045951 0 0.030483418011089669 -0.2275471532957532 0 0.032767548809473877 -0.2108788092028526 0 0.039129847093225978 -0.22203180285176841 0 0.039129847093225978 -0.22203180285176841 0 0.04394638097866857 -0.22760115323969329 0 0.049629524031400522 -0.2240316003406666 0 0.039496661605532488 -0.23267049946045951 0 0.04394638097866857 -0.22760115323969329 0 0.047536158747514698 -0.2325895687419855 0 0.039129847093225978 -0.22203180285176841 0 0.039496661605532488 -0.23267049946045951 0 0.04394638097866857 -0.22760115323969329 0 0.049629524031400522 -0.2240316003406666 0 0.065389955518156226 -0.24209551116047759 0 0.047536158747514698 -0.2325895687419855 0 0.049629524031400522 -0.2240316003406666 0 0.053714312131653598 -0.23750993485386451 0 0.049629524031400522 -0.2240316003406666 0 0.058304943470488119 -0.23877490189274869 0 0.053714312131653598 -0.23750993485386451 0 0.04394638097866857 -0.22760115323969329 0 0.047536158747514698 -0.2325895687419855 0 0.049629524031400522 -0.2240316003406666 0 0.049629524031400522 -0.2240316003406666 0 0.061612703561087299 -0.22316638363516811 0 0.065389955518156226 -0.24209551116047759 0 0.039129847093225978 -0.22203180285176841 0 0.052771603801631067 -0.2223468448180414 0 0.049629524031400522 -0.2240316003406666 0 0.052771603801631067 -0.2223468448180414 0 0.049629524031400522 -0.2240316003406666 0 0.061612703561087299 -0.22316638363516811 0 0.049629524031400522 -0.2240316003406666 0 0.058304943470488119 -0.23877490189274869 0 0.065389955518156226 -0.24209551116047759 0 0.058304943470488119 -0.23877490189274869 0 0.053714312131653598 -0.23750993485386451 0 0.058847626100658801 -0.2446401331386405 0 0.053714312131653598 -0.23750993485386451 0 0.053699524385772107 -0.24428651861971001 0 0.058847626100658801 -0.2446401331386405 0 0.053714312131653598 -0.23750993485386451 0 0.050309903778972737 -0.23942912802140939 0 0.053699524385772107 -0.24428651861971001 0 0.04523964255252319 -0.2379484142158467 0 0.050309903778972737 -0.23942912802140939 0 0.047513059394656353 -0.24411301641505709 0 0.047536158747514698 -0.2325895687419855 0 0.053714312131653598 -0.23750993485386451 0 0.050309903778972737 -0.23942912802140939 0 0.04523964255252319 -0.2379484142158467 0 0.047536158747514698 -0.2325895687419855 0 0.050309903778972737 -0.23942912802140939 0 0.045611330634543187 -0.24818378644094299 0 0.047513059394656353 -0.24411301641505709 0 0.0529364352365055 -0.24956374240861789 0 0.050309903778972737 -0.23942912802140939 0 0.047513059394656353 -0.24411301641505709 0 0.053699524385772107 -0.24428651861971001 0 0.047513059394656353 -0.24411301641505709 0 0.053699524385772107 -0.24428651861971001 0 0.0529364352365055 -0.24956374240861789 0 0.0529364352365055 -0.24956374240861789 0 0.057892151390355709 -0.24750605569114459 0 0.064665278531761308 -0.2493167781530469 0 0.053699524385772107 -0.24428651861971001 0 0.0529364352365055 -0.24956374240861789 0 0.057892151390355709 -0.24750605569114459 0 0.053699524385772107 -0.24428651861971001 0 0.057892151390355709 -0.24750605569114459 0 0.058847626100658801 -0.2446401331386405 0 0.058847626100658801 -0.2446401331386405 0 0.061112067098197262 -0.24709374444906221 0 0.063943299570571557 -0.24559732997009409 0 0.058304943470488119 -0.23877490189274869 0 0.058847626100658801 -0.2446401331386405 0 0.063943299570571557 -0.24559732997009409 0 0.057892151390355709 -0.24750605569114459 0 0.061112067098197262 -0.24709374444906221 0 0.064665278531761308 -0.2493167781530469 0 0.057892151390355709 -0.24750605569114459 0 0.058847626100658801 -0.2446401331386405 0 0.061112067098197262 -0.24709374444906221 0 0.064665278531761308 -0.2493167781530469 0 0.06674250377520119 -0.24887360241113651 0 0.064665278531761308 -0.2493167781530469 0 0.063943299570571557 -0.24559732997009409 0 0.06674250377520119 -0.24887360241113651 0 0.061112067098197262 -0.24709374444906221 0 0.064665278531761308 -0.2493167781530469 0 0.063943299570571557 -0.24559732997009409 0 0.06674250377520119 -0.24887360241113651 0 0.065389955518156226 -0.24209551116047759 0 0.063943299570571557 -0.24559732997009409 0 0.06674250377520119 -0.24887360241113651 0 0.065389955518156226 -0.24209551116047759 0 0.065389955518156226 -0.24209551116047759 0 0.070587916148937904 -0.24805318416950739 0 0.06674250377520119 -0.24887360241113651 0 0.065389955518156226 -0.24209551116047759 0 0.070587916148937904 -0.24805318416950739 0 0.06674250377520119 -0.24887360241113651 0 0.070587916148937904 -0.24805318416950739 0 0.065389955518156226 -0.24209551116047759 0 0.074992114415436115 -0.2363185283082827 0 0.069646947524620625 -0.23047708017682109 0 0.058304943470488119 -0.23877490189274869 0 0.063943299570571557 -0.24559732997009409 0 0.065389955518156226 -0.24209551116047759 0 0.065389955518156226 -0.24209551116047759 0 0.074992114415436115 -0.2363185283082827 0 0.070587916148937904 -0.24805318416950739 0 0.074992114415436115 -0.2363185283082827 0 0.070587916148937904 -0.24805318416950739 0 0.09320932532930519 -0.23413923441639939 0 0.070587916148937904 -0.24805318416950739 0 0.09320932532930519 -0.23413923441639939 0 0.070587916148937904 -0.24805318416950739 0 0.093403234317505301 -0.24318553893543429 0 0.09320932532930519 -0.23413923441639939 0 0.070587916148937904 -0.24805318416950739 0 0.093403234317505301 -0.24318553893543429 0 0.09320932532930519 -0.23413923441639939 0 0.08235875752941689 -0.21888118917624211 0 0.07725023432089749 -0.22811568932106641 0 0.074992114415436115 -0.2363185283082827 0 0.09320932532930519 -0.23413923441639939 0 0.07725023432089749 -0.22811568932106641 0 0.09320932532930519 -0.23413923441639939 0 0.08235875752941689 -0.21888118917624211 0 0.099732821646917741 -0.21293794134908831 0 0.08235875752941689 -0.21888118917624211 0 0.071606090613466164 -0.22184511521462411 0 0.07725023432089749 -0.22811568932106641 0 0.061612703561087299 -0.22316638363516811 0 0.065389955518156226 -0.24209551116047759 0 0.069646947524620625 -0.23047708017682109 0 0.061612703561087299 -0.22316638363516811 0 0.065389955518156226 -0.24209551116047759 0 0.071606090613466164 -0.22184511521462411 0 0.07725023432089749 -0.22811568932106641 0 0.069646947524620625 -0.23047708017682109 0 0.074992114415436115 -0.2363185283082827 0 0.07725023432089749 -0.22811568932106641 0 0.069646947524620625 -0.23047708017682109 0 0.061612703561087299 -0.22316638363516811 0 0.071606090613466164 -0.22184511521462411 0 0.069975717263974627 -0.2116561351996176 0 0.061612703561087299 -0.22316638363516811 0 0.071606090613466164 -0.22184511521462411 0 0.069646947524620625 -0.23047708017682109 0 0.057835451604018533 -0.2042372561098586 0 0.061612703561087299 -0.22316638363516811 0 0.069975717263974627 -0.2116561351996176 0 0.057835451604018533 -0.2042372561098586 0 0.069975717263974627 -0.2116561351996176 0 0.07115793448996538 -0.19654846529117989 0 0.069975717263974627 -0.2116561351996176 0 0.07115793448996538 -0.19654846529117989 0 0.082488264208015777 -0.20488398737075719 0 0.08235875752941689 -0.21888118917624211 0 0.071606090613466164 -0.22184511521462411 0 0.069975717263974627 -0.2116561351996176 0 0.07115793448996538 -0.19654846529117989 0 0.071960904493696617 -0.18665569311549091 0 0.062687398639007297 -0.1853892649056337 0 0.07115793448996538 -0.19654846529117989 0 0.082085241330237035 -0.1861506854560665 0 0.071960904493696617 -0.18665569311549091 0 0.07115793448996538 -0.19654846529117989 0 0.094675629270322817 -0.1948885764679455 0 0.082085241330237035 -0.1861506854560665 0 0.07115793448996538 -0.19654846529117989 0 0.094675629270322817 -0.1948885764679455 0 0.07115793448996538 -0.19654846529117989 0 0.082488264208015777 -0.20488398737075719 0 0.094675629270322817 -0.1948885764679455 0 0.082488264208015777 -0.20488398737075719 0 0.099732821646917741 -0.21293794134908831 0 0.094675629270322817 -0.1948885764679455 0 0.08235875752941689 -0.21888118917624211 0 0.082488264208015777 -0.20488398737075719 0 0.099732821646917741 -0.21293794134908831 0 0.082488264208015777 -0.20488398737075719 0 0.099732821646917741 -0.21293794134908831 0 0.08235875752941689 -0.21888118917624211 0 0.069975717263974627 -0.2116561351996176 0 0.082488264208015777 -0.20488398737075719 0 0.099732821646917741 -0.21293794134908831 0 0.1169545412744107 -0.22151334236615419 0 0.094675629270322817 -0.1948885764679455 0 0.1181933240506801 -0.19322868764471021 0 0.094675629270322817 -0.1948885764679455 0 0.1181933240506801 -0.19322868764471021 0 0.10847519644819061 -0.17886826302386649 0 0.099732821646917741 -0.21293794134908831 0 0.094675629270322817 -0.1948885764679455 0 0.1181933240506801 -0.19322868764471021 0 0.1181933240506801 -0.19322868764471021 0 0.13133917971832279 -0.19230084760348409 0 0.1181933240506801 -0.19322868764471021 0 0.1169545412744107 -0.22151334236615419 0 0.1181933240506801 -0.19322868764471021 0 0.1169545412744107 -0.22151334236615419 0 0.12618997707797541 -0.2063940539986841 0 0.099732821646917741 -0.21293794134908831 0 0.1181933240506801 -0.19322868764471021 0 0.1169545412744107 -0.22151334236615419 0 0.1169545412744107 -0.22151334236615419 0 0.1162185524860733 -0.2383178937013635 0 0.12350480426882821 -0.25139481519201218 0 0.1162185524860733 -0.2383178937013635 0 0.13360438743528111 -0.24792201064071129 0 0.12350480426882821 -0.25139481519201218 0 0.1158260506959591 -0.24727973739471479 0 0.1162185524860733 -0.2383178937013635 0 0.10357837029368321 -0.25090802048529931 0 0.1158260506959591 -0.24727973739471479 0 0.1162185524860733 -0.2383178937013635 0 0.1158260506959591 -0.24727973739471479 0 0.1162185524860733 -0.2383178937013635 0 0.10357837029368321 -0.25090802048529931 0 0.093403234317505301 -0.24318553893543429 0 0.1162185524860733 -0.2383178937013635 0 0.093403234317505301 -0.24318553893543429 0 0.09320932532930519 -0.23413923441639939 0 0.1162185524860733 -0.2383178937013635 0 0.093403234317505301 -0.24318553893543429 0 0.1162185524860733 -0.2383178937013635 0 0.09320932532930519 -0.23413923441639939 0 0.1169545412744107 -0.22151334236615419 0 0.09320932532930519 -0.23413923441639939 0 0.099732821646917741 -0.21293794134908831 0 0.1169545412744107 -0.22151334236615419 0 0.09320932532930519 -0.23413923441639939 0 0.1169545412744107 -0.22151334236615419 0 0.1162185524860733 -0.2383178937013635 0 0.1063914152181237 -0.15128076624366801 0 0.098238466735447533 -0.14432563427994011 0 0.095748064796177326 -0.1600671718753203 0 0.1063914152181237 -0.15128076624366801 0 0.098238466735447533 -0.14432563427994011 0 0.10864491350963471 -0.139608057317963 0 0.1063914152181237 -0.15128076624366801 0 0.10864491350963471 -0.139608057317963 0 0.11306336684038561 -0.14441383630450311 0 0.098238466735447533 -0.14432563427994011 0 0.10459593891303121 -0.12974430385464611 0 0.09350199215719629 -0.1307860368537844 0 0.10459593891303121 -0.12974430385464611 0 0.09350199215719629 -0.1307860368537844 0 0.10862980718256771 -0.1173883224177953 0 0.10459593891303121 -0.12974430385464611 0 0.10864491350963471 -0.139608057317963 0 0.1137534246247271 -0.13074843191813801 0 0.098238466735447533 -0.14432563427994011 0 0.10459593891303121 -0.12974430385464611 0 0.10864491350963471 -0.139608057317963 0 0.10864491350963471 -0.139608057317963 0 0.1147939047659868 -0.1381927468785418 0 0.1137534246247271 -0.13074843191813801 0 0.1147939047659868 -0.1381927468785418 0 0.1137534246247271 -0.13074843191813801 0 0.11831914364550319 -0.13375263959979181 0 0.1147939047659868 -0.1381927468785418 0 0.1206014790407212 -0.13824420310562791 0 0.11306336684038561 -0.14441383630450311 0 0.10459593891303121 -0.12974430385464611 0 0.1137534246247271 -0.13074843191813801 0 0.11282193077599589 -0.1222674896986846 0 0.1137534246247271 -0.13074843191813801 0 0.11951729908301741 -0.12920496892286479 0 0.11845791967191539 -0.12186934725678419 0 0.11951729908301741 -0.12920496892286479 0 0.123348828340062 -0.12687639016292321 0 0.11845791967191539 -0.12186934725678419 0 0.11951729908301741 -0.12920496892286479 0 0.1237071791328791 -0.13277803567668681 0 0.11831914364550319 -0.13375263959979181 0 0.1137534246247271 -0.13074843191813801 0 0.11951729908301741 -0.12920496892286479 0 0.11831914364550319 -0.13375263959979181 0 0.11951729908301741 -0.12920496892286479 0 0.1237071791328791 -0.13277803567668681 0 0.123348828340062 -0.12687639016292321 0 0.1147939047659868 -0.1381927468785418 0 0.1206014790407212 -0.13824420310562791 0 0.11831914364550319 -0.13375263959979181 0 0.1237071791328791 -0.13277803567668681 0 0.1206014790407212 -0.13824420310562791 0 0.11831914364550319 -0.13375263959979181 0 0.1237071791328791 -0.13277803567668681 0 0.1206014790407212 -0.13824420310562791 0 0.12556619928585611 -0.13861553452786959 0 0.1206014790407212 -0.13824420310562791 0 0.11306336684038561 -0.14441383630450311 0 0.1148851216674613 -0.15474340797671471 0 0.1206014790407212 -0.13824420310562791 0 0.1193974015457006 -0.16573644537516899 0 0.12556619928585611 -0.13861553452786959 0 0.1206014790407212 -0.13824420310562791 0 0.1148851216674613 -0.15474340797671471 0 0.1193974015457006 -0.16573644537516899 0 0.1206014790407212 -0.13824420310562791 0 0.1193974015457006 -0.16573644537516899 0 0.10864491350963471 -0.139608057317963 0 0.1147939047659868 -0.1381927468785418 0 0.11306336684038561 -0.14441383630450311 0 0.1063914152181237 -0.15128076624366801 0 0.11306336684038561 -0.14441383630450311 0 0.1148851216674613 -0.15474340797671471 0 0.1193974015457006 -0.16573644537516899 0 0.10847519644819061 -0.17886826302386649 0 0.1068810705677978 -0.16352650008242289 0 0.1063914152181237 -0.15128076624366801 0 0.1148851216674613 -0.15474340797671471 0 0.1068810705677978 -0.16352650008242289 0 0.1148851216674613 -0.15474340797671471 0 0.1193974015457006 -0.16573644537516899 0 0.1068810705677978 -0.16352650008242289 0 0.1181933240506801 -0.19322868764471021 0 0.1193974015457006 -0.16573644537516899 0 0.12553906435139259 -0.18447572242809909 0 0.1181933240506801 -0.19322868764471021 0 0.1193974015457006 -0.16573644537516899 0 0.10847519644819061 -0.17886826302386649 0 0.1181933240506801 -0.19322868764471021 0 0.1193974015457006 -0.16573644537516899 0 0.1193974015457006 -0.16573644537516899 0 0.12553906435139259 -0.18447572242809909 0 0.1286018498814277 -0.17756503021997949 0 0.094675629270322817 -0.1948885764679455 0 0.10847519644819061 -0.17886826302386649 0 0.09573569100317908 -0.17630831807000469 0 0.10847519644819061 -0.17886826302386649 0 0.09573569100317908 -0.17630831807000469 0 0.1068810705677978 -0.16352650008242289 0 0.09573569100317908 -0.17630831807000469 0 0.1068810705677978 -0.16352650008242289 0 0.095748064796177326 -0.1600671718753203 0 0.1063914152181237 -0.15128076624366801 0 0.1068810705677978 -0.16352650008242289 0 0.095748064796177326 -0.1600671718753203 0 0.095748064796177326 -0.1600671718753203 0 0.085014138756564425 -0.1708758904619484 0 0.082227606495951455 -0.1540859221139379 0 0.085014138756564425 -0.1708758904619484 0 0.070953220834706648 -0.1773858073740914 0 0.082227606495951455 -0.1540859221139379 0 0.09573569100317908 -0.17630831807000469 0 0.095748064796177326 -0.1600671718753203 0 0.085014138756564425 -0.1708758904619484 0 0.094675629270322817 -0.1948885764679455 0 0.09573569100317908 -0.17630831807000469 0 0.082085241330237035 -0.1861506854560665 0 0.09573569100317908 -0.17630831807000469 0 0.085014138756564425 -0.1708758904619484 0 0.082085241330237035 -0.1861506854560665 0 0.085014138756564425 -0.1708758904619484 0 0.082085241330237035 -0.1861506854560665 0 0.070953220834706648 -0.1773858073740914 0 0.082085241330237035 -0.1861506854560665 0 0.071960904493696617 -0.18665569311549091 0 0.070953220834706648 -0.1773858073740914 0 0.070953220834706648 -0.1773858073740914 0 0.062687398639007297 -0.1853892649056337 0 0.05752657237993225 -0.17572593286016741 0 0.071960904493696617 -0.18665569311549091 0 0.070953220834706648 -0.1773858073740914 0 0.062687398639007297 -0.1853892649056337 0 0.070953220834706648 -0.1773858073740914 0 0.082227606495951455 -0.1540859221139379 0 0.059996157498208073 -0.1595957453015539 0 0.070953220834706648 -0.1773858073740914 0 0.05752657237993225 -0.17572593286016741 0 0.059996157498208073 -0.1595957453015539 0 0.070953220834706648 -0.1773858073740914 0 0.082227606495951455 -0.1540859221139379 0 0.06962784383244916 -0.14345857258831349 0 0.082227606495951455 -0.1540859221139379 0 0.080330299274757613 -0.13380799836123261 0 0.06962784383244916 -0.14345857258831349 0 0.082227606495951455 -0.1540859221139379 0 0.059996157498208073 -0.1595957453015539 0 0.098238466735447533 -0.14432563427994011 0 0.082227606495951455 -0.1540859221139379 0 0.09350199215719629 -0.1307860368537844 0 0.082227606495951455 -0.1540859221139379 0 0.09350199215719629 -0.1307860368537844 0 0.098238466735447533 -0.14432563427994011 0 0.095748064796177326 -0.1600671718753203 0 0.082227606495951455 -0.1540859221139379 0 0.080330299274757613 -0.13380799836123261 0 0.09350199215719629 -0.1307860368537844 0 0.085986559218385633 -0.1134219703290732 0 0.082227606495951455 -0.1540859221139379 0 0.080330299274757613 -0.13380799836123261 0 0.09350199215719629 -0.1307860368537844 0 0.06962784383244916 -0.14345857258831349 0 0.070307494669805556 -0.12728748992105371 0 0.054628430121225632 -0.1411530095130345 0 0.06962784383244916 -0.14345857258831349 0 0.080330299274757613 -0.13380799836123261 0 0.070307494669805556 -0.12728748992105371 0 0.070307494669805556 -0.12728748992105371 0 0.060346030374175713 -0.1255229666477197 0 0.06795534791333474 -0.1230148981317449 0 0.070307494669805556 -0.12728748992105371 0 0.060346030374175713 -0.1255229666477197 0 0.054628430121225632 -0.1411530095130345 0 0.070307494669805556 -0.12728748992105371 0 0.054628430121225632 -0.1411530095130345 0 0.054628430121225632 -0.1411530095130345 0 0.040470477957972581 -0.13239388152596529 0 0.051534337486770727 -0.123070091027681 0 0.060346030374175713 -0.1255229666477197 0 0.054628430121225632 -0.1411530095130345 0 0.051534337486770727 -0.123070091027681 0 0.054628430121225632 -0.1411530095130345 0 0.034901732798921031 -0.15341260344342081 0 0.059996157498208073 -0.1595957453015539 0 0.06962784383244916 -0.14345857258831349 0 0.054628430121225632 -0.1411530095130345 0 0.059996157498208073 -0.1595957453015539 0 0.054628430121225632 -0.1411530095130345 0 0.034901732798921031 -0.15341260344342081 0 0.040470477957972581 -0.13239388152596529 0 0.034901732798921031 -0.15341260344342081 0 0.040470477957972581 -0.13239388152596529 0 0.0225225819549019 -0.12982929706195651 0 0.040470477957972581 -0.13239388152596529 0 0.0225225819549019 -0.12982929706195651 0 0.038765307428043627 -0.1145044065837335 0 0.062687398639007297 -0.1853892649056337 0 0.048951650128566913 -0.18371242074851241 0 0.05752657237993225 -0.17572593286016741 0 0.048951650128566913 -0.18371242074851241 0 0.05752657237993225 -0.17572593286016741 0 0.043999002476521477 -0.17052479792322339 0 0.05752657237993225 -0.17572593286016741 0 0.059996157498208073 -0.1595957453015539 0 0.043999002476521477 -0.17052479792322339 0 0.034901732798921031 -0.15341260344342081 0 0.059996157498208073 -0.1595957453015539 0 0.034901732798921031 -0.15341260344342081 0 0.043999002476521477 -0.17052479792322339 0 0.029556986361813961 -0.16642197564955419 0 0.034901732798921031 -0.15341260344342081 0 0.059996157498208073 -0.1595957453015539 0 0.043999002476521477 -0.17052479792322339 0 0.043999002476521477 -0.17052479792322339 0 0.030814172792464008 -0.18467049784347961 0 0.029556986361813961 -0.16642197564955419 0 0.048951650128566913 -0.18371242074851241 0 0.043999002476521477 -0.17052479792322339 0 0.030814172792464008 -0.18467049784347961 0 0.030814172792464008 -0.18467049784347961 0 0.01630305450845522 -0.1713697541361941 0 0.029556986361813961 -0.16642197564955419 0 0.030814172792464008 -0.18467049784347961 0 0.01630305450845522 -0.1713697541361941 0 0.01174661507722052 -0.184640726340591 0 0.01630305450845522 -0.1713697541361941 0 0.029556986361813961 -0.16642197564955419 0 0.0098073080996340274 -0.14722946158528771 0 -0.00079089347172151003 -0.17130482069219971 0 0.01630305450845522 -0.1713697541361941 0 0.0098073080996340274 -0.14722946158528771 0 -0.00079089347172151003 -0.17130482069219971 0 0.01630305450845522 -0.1713697541361941 0 0.01174661507722052 -0.184640726340591 0 -0.00079089347172151003 -0.17130482069219971 0 -0.001470390448203369 -0.1912506934557355 0 0.01174661507722052 -0.184640726340591 0 0.034901732798921031 -0.15341260344342081 0 0.0098073080996340274 -0.14722946158528771 0 0.034901732798921031 -0.15341260344342081 0 0.029556986361813961 -0.16642197564955419 0 0.0098073080996340274 -0.14722946158528771 0 0.034901732798921031 -0.15341260344342081 0 0.0225225819549019 -0.12982929706195651 0 0.0098073080996340274 -0.14722946158528771 0 0.0225225819549019 -0.12982929706195651 0 0.0098073080996340274 -0.14722946158528771 0 0.0043993043058308066 -0.13131490851844729 0 0.0225225819549019 -0.12982929706195651 0 0.0043993043058308066 -0.13131490851844729 0 0.0078016226429509046 -0.11589312772247599 0 -0.0057508377372143876 -0.11936735290759071 0 0.0043993043058308066 -0.13131490851844729 0 0.0078016226429509046 -0.11589312772247599 0 -0.0016877313628738909 -0.1047126534159272 0 -0.0057508377372143876 -0.11936735290759071 0 0.0078016226429509046 -0.11589312772247599 0 0.0078016226429509046 -0.11589312772247599 0 0.021693105050580471 -0.1111709861400112 0 0.0097105712793640348 -0.1045441563445096 0 0.0225225819549019 -0.12982929706195651 0 0.021693105050580471 -0.1111709861400112 0 0.038765307428043627 -0.1145044065837335 0 0.0225225819549019 -0.12982929706195651 0 0.0078016226429509046 -0.11589312772247599 0 0.021693105050580471 -0.1111709861400112 0 0.021693105050580471 -0.1111709861400112 0 0.01823572356083316 -0.095526706222997415 0 0.031276439437800153 -0.1005524007590991 0 0.021693105050580471 -0.1111709861400112 0 0.038765307428043627 -0.1145044065837335 0 0.031276439437800153 -0.1005524007590991 0 0.021693105050580471 -0.1111709861400112 0 0.01823572356083316 -0.095526706222997415 0 0.0097105712793640348 -0.1045441563445096 0 0.01823572356083316 -0.095526706222997415 0 0.0097105712793640348 -0.1045441563445096 0 0.0048874746098515869 -0.094744987113775284 0 -0.0016877313628738909 -0.1047126534159272 0 0.0078016226429509046 -0.11589312772247599 0 0.0097105712793640348 -0.1045441563445096 0 -0.0016877313628738909 -0.1047126534159272 0 0.0097105712793640348 -0.1045441563445096 0 0.0048874746098515869 -0.094744987113775284 0 0.01823572356083316 -0.095526706222997415 0 0.0048874746098515869 -0.094744987113775284 0 0.0090880749120619449 -0.079712998134601809 0 -0.0047025153429677627 -0.088520405322652831 0 0.0048874746098515869 -0.094744987113775284 0 0.0090880749120619449 -0.079712998134601809 0 -0.0047025153429677627 -0.088520405322652831 0 0.0090880749120619449 -0.079712998134601809 0 -0.0089718182368431348 -0.0748332195086122 0 0.0090880749120619449 -0.079712998134601809 0 0.0024170205478812878 -0.068542929743318284 0 0.0024170205478812878 -0.068542929743318284 0 9.7351971471751713e-05 -0.060723252509624827 0 0.0075476486693333567 -0.060599103563355732 0 0.0090880749120619449 -0.079712998134601809 0 0.0024170205478812878 -0.068542929743318284 0 0.01487368883979252 -0.064322223252319788 0 0.0024170205478812878 -0.068542929743318284 0 0.01487368883979252 -0.064322223252319788 0 0.0075476486693333567 -0.060599103563355732 0 0.0090880749120619449 -0.079712998134601809 0 0.027517842819352399 -0.067942764421681429 0 0.030994233842884911 -0.082959752645602111 0 0.0090880749120619449 -0.079712998134601809 0 0.027517842819352399 -0.067942764421681429 0 0.0090880749120619449 -0.079712998134601809 0 0.01487368883979252 -0.064322223252319788 0 0.027517842819352399 -0.067942764421681429 0 0.01823572356083316 -0.095526706222997415 0 0.030994233842884911 -0.082959752645602111 0 0.031276439437800153 -0.1005524007590991 0 0.0090880749120619449 -0.079712998134601809 0 0.030994233842884911 -0.082959752645602111 0 0.01823572356083316 -0.095526706222997415 0 0.0090880749120619449 -0.079712998134601809 0 0.030994233842884911 -0.082959752645602111 0 0.030994233842884911 -0.082959752645602111 0 0.052900392773708033 -0.086206507156601636 0 0.030994233842884911 -0.082959752645602111 0 0.052900392773708033 -0.086206507156601636 0 0.04587705523721472 -0.098273731500205463 0 0.030994233842884911 -0.082959752645602111 0 0.04322181135996174 -0.072218220905176031 0 0.052900392773708033 -0.086206507156601636 0 0.027517842819352399 -0.067942764421681429 0 0.04322181135996174 -0.072218220905176031 0 0.045947610726643502 -0.056172530708761867 0 0.027517842819352399 -0.067942764421681429 0 0.030994233842884911 -0.082959752645602111 0 0.04322181135996174 -0.072218220905176031 0 0.058304942086693602 -0.072447023446579523 0 0.045947610726643502 -0.056172530708761867 0 0.07146127205775829 -0.063201388264948949 0 0.04322181135996174 -0.072218220905176031 0 0.058304942086693602 -0.072447023446579523 0 0.045947610726643502 -0.056172530708761867 0 0.04322181135996174 -0.072218220905176031 0 0.058304942086693602 -0.072447023446579523 0 0.052900392773708033 -0.086206507156601636 0 0.058304942086693602 -0.072447023446579523 0 0.052900392773708033 -0.086206507156601636 0 0.074806551704531085 -0.089453261667601161 0 0.056638179653287747 -0.10827988660012509 0 0.038765307428043627 -0.1145044065837335 0 0.04587705523721472 -0.098273731500205463 0 0.052900392773708033 -0.086206507156601636 0 0.04587705523721472 -0.098273731500205463 0 0.062700028383547782 -0.097153200837865411 0 0.056638179653287747 -0.10827988660012509 0 0.04587705523721472 -0.098273731500205463 0 0.062700028383547782 -0.097153200837865411 0 0.056638179653287747 -0.10827988660012509 0 0.051534337486770727 -0.123070091027681 0 0.038765307428043627 -0.1145044065837335 0 0.056638179653287747 -0.10827988660012509 0 0.060560891346580513 -0.1180119987458233 0 0.068975548228261782 -0.1132694891728343 0 0.056638179653287747 -0.10827988660012509 0 0.060560891346580513 -0.1180119987458233 0 0.051534337486770727 -0.123070091027681 0 0.060346030374175713 -0.1255229666477197 0 0.060560891346580513 -0.1180119987458233 0 0.051534337486770727 -0.123070091027681 0 0.040470477957972581 -0.13239388152596529 0 0.051534337486770727 -0.123070091027681 0 0.038765307428043627 -0.1145044065837335 0 0.030994233842884911 -0.082959752645602111 0 0.031276439437800153 -0.1005524007590991 0 0.04587705523721472 -0.098273731500205463 0 0.038765307428043627 -0.1145044065837335 0 0.031276439437800153 -0.1005524007590991 0 0.04587705523721472 -0.098273731500205463 0 0.02966386060400961 -0.001249207495422295 0 0.023258098348783739 -0.01196334278758039 0 0.038431066285422158 -0.01431824636028042 0 0.023258098348783739 -0.01196334278758039 0 0.01092598487126514 -0.01049224220495251 0 0.016173124270734751 -0.022189260080207569 0 0.01679191874188429 0.00036989283620795388 0 0.02966386060400961 -0.001249207495422295 0 0.023258098348783739 -0.01196334278758039 0 0.01679191874188429 0.00036989283620795388 0 0.023258098348783739 -0.01196334278758039 0 0.01092598487126514 -0.01049224220495251 0 0.01679191874188429 0.00036989283620795388 0 0.00571793613220767 -0.0013933726199292439 0 0.01092598487126514 -0.01049224220495251 0 0.00571793613220767 -0.0013933726199292439 0 0.001191863774382809 -0.0090902042722187295 0 0.01092598487126514 -0.01049224220495251 0 -0.0034533735751615269 -0.0031200744777948779 0 0.00571793613220767 -0.0013933726199292439 0 0.001191863774382809 -0.0090902042722187295 0 0.001191863774382809 -0.0090902042722187295 0 0.01092598487126514 -0.01049224220495251 0 0.0042919125402528166 -0.018312964280429781 0 -0.0041712514997064359 -0.01348727575066128 0 0.001191863774382809 -0.0090902042722187295 0 0.0042919125402528166 -0.018312964280429781 0 0.0042919125402528166 -0.018312964280429781 0 0.0077096212096417231 -0.028763626775038669 0 0.016173124270734751 -0.022189260080207569 0 0.01092598487126514 -0.01049224220495251 0 0.0042919125402528166 -0.018312964280429781 0 0.016173124270734751 -0.022189260080207569 0 -0.0035256653559218852 -0.01963818636738987 0 0.0042919125402528166 -0.018312964280429781 0 5.7915888156767563e-05 -0.026155355212212461 0 0.0042919125402528166 -0.018312964280429781 0 5.7915888156767563e-05 -0.026155355212212461 0 0.0077096212096417231 -0.028763626775038669 0 5.7915888156767563e-05 -0.026155355212212461 0 0.0077096212096417231 -0.028763626775038669 0 0.0019358410081795571 -0.032695467817506943 0 0.0077096212096417231 -0.028763626775038669 0 0.016173124270734751 -0.022189260080207569 0 0.01800590083071392 -0.036745778963769599 0 0.016173124270734751 -0.022189260080207569 0 0.029390641986383938 -0.02657037322122436 0 0.01800590083071392 -0.036745778963769599 0 0.023258098348783739 -0.01196334278758039 0 0.016173124270734751 -0.022189260080207569 0 0.029390641986383938 -0.02657037322122436 0 0.023258098348783739 -0.01196334278758039 0 0.029390641986383938 -0.02657037322122436 0 0.038431066285422158 -0.01431824636028042 0 0.01800590083071392 -0.036745778963769599 0 0.023619068424162021 -0.052587518787643797 0 0.032898917747631047 -0.040602159461235188 0 0.01800590083071392 -0.036745778963769599 0 0.01185340770806855 -0.047244231143168419 0 0.023619068424162021 -0.052587518787643797 0 0.029390641986383938 -0.02657037322122436 0 0.01800590083071392 -0.036745778963769599 0 0.032898917747631047 -0.040602159461235188 0 0.0077096212096417231 -0.028763626775038669 0 0.01800590083071392 -0.036745778963769599 0 0.0067757713681517069 -0.038509226143312363 0 0.0077096212096417231 -0.028763626775038669 0 0.0067757713681517069 -0.038509226143312363 0 0.0019358410081795571 -0.032695467817506943 0 -0.0011134606268889721 -0.038751911902321259 0 0.0067757713681517069 -0.038509226143312363 0 0.0019358410081795571 -0.032695467817506943 0 0.0067757713681517069 -0.038509226143312363 0 0.0023695236378624179 -0.046215750652769019 0 0.01185340770806855 -0.047244231143168419 0 -0.0011134606268889721 -0.038751911902321259 0 0.0067757713681517069 -0.038509226143312363 0 0.0023695236378624179 -0.046215750652769019 0 0.01800590083071392 -0.036745778963769599 0 0.0067757713681517069 -0.038509226143312363 0 0.01185340770806855 -0.047244231143168419 0 0.01185340770806855 -0.047244231143168419 0 0.0057047288037620457 -0.0542649917154652 0 0.014645453183759181 -0.055142120596050573 0 0.0023695236378624179 -0.046215750652769019 0 0.01185340770806855 -0.047244231143168419 0 0.0057047288037620457 -0.0542649917154652 0 -0.0026109280900245349 -0.053392068635790643 0 0.0023695236378624179 -0.046215750652769019 0 0.0057047288037620457 -0.0542649917154652 0 -0.0026109280900245349 -0.053392068635790643 0 0.0057047288037620457 -0.0542649917154652 0 9.7351971471751713e-05 -0.060723252509624827 0 0.0057047288037620457 -0.0542649917154652 0 9.7351971471751713e-05 -0.060723252509624827 0 0.0075476486693333567 -0.060599103563355732 0 0.01487368883979252 -0.064322223252319788 0 0.0075476486693333567 -0.060599103563355732 0 0.014645453183759181 -0.055142120596050573 0 0.0057047288037620457 -0.0542649917154652 0 0.0075476486693333567 -0.060599103563355732 0 0.014645453183759181 -0.055142120596050573 0 0.01487368883979252 -0.064322223252319788 0 0.014645453183759181 -0.055142120596050573 0 0.023619068424162021 -0.052587518787643797 0 0.01487368883979252 -0.064322223252319788 0 0.027517842819352399 -0.067942764421681429 0 0.023619068424162021 -0.052587518787643797 0 0.01185340770806855 -0.047244231143168419 0 0.014645453183759181 -0.055142120596050573 0 0.023619068424162021 -0.052587518787643797 0 0.023619068424162021 -0.052587518787643797 0 0.045947610726643502 -0.056172530708761867 0 0.032898917747631047 -0.040602159461235188 0 0.027517842819352399 -0.067942764421681429 0 0.023619068424162021 -0.052587518787643797 0 0.045947610726643502 -0.056172530708761867 0 0.027517842819352399 -0.067942764421681429 0 0.045947610726643502 -0.056172530708761867 0 0.045947610726643502 -0.056172530708761867 0 0.064304667317374012 -0.042027076182099762 0 0.07146127205775829 -0.063201388264948949 0 0.04732349347368274 -0.031423372095463219 0 0.06477969358065995 -0.02494857407975723 0 0.064304667317374012 -0.042027076182099762 0 0.045947610726643502 -0.056172530708761867 0 0.04732349347368274 -0.031423372095463219 0 0.064304667317374012 -0.042027076182099762 0 0.029390641986383938 -0.02657037322122436 0 0.04732349347368274 -0.031423372095463219 0 0.032898917747631047 -0.040602159461235188 0 0.045947610726643502 -0.056172530708761867 0 0.04732349347368274 -0.031423372095463219 0 0.032898917747631047 -0.040602159461235188 0 0.029390641986383938 -0.02657037322122436 0 0.04732349347368274 -0.031423372095463219 0 0.038431066285422158 -0.01431824636028042 0 0.04732349347368274 -0.031423372095463219 0 0.05505021736965611 -0.01310517954916882 0 0.038431066285422158 -0.01431824636028042 0 0.04732349347368274 -0.031423372095463219 0 0.05505021736965611 -0.01310517954916882 0 0.06477969358065995 -0.02494857407975723 0 0.058658900776209 0.0023639840925378359 0 0.05505021736965611 -0.01310517954916882 0 0.043198558762618321 -0.00023829520029129079 0 0.05505021736965611 -0.01310517954916882 0 0.043198558762618321 -0.00023829520029129079 0 0.038431066285422158 -0.01431824636028042 0 0.02966386060400961 -0.001249207495422295 0 0.043198558762618321 -0.00023829520029129079 0 0.038431066285422158 -0.01431824636028042 0 0.094732376142176083 0.00044397642212032562 0 0.074642744570978817 -0.0065358778072650706 0 0.095188044512863779 -0.016825049499280448 0 0.05505021736965611 -0.01310517954916882 0 0.074642744570978817 -0.0065358778072650706 0 0.06477969358065995 -0.02494857407975723 0 0.058658900776209 0.0023639840925378359 0 0.05505021736965611 -0.01310517954916882 0 0.074642744570978817 -0.0065358778072650706 0 0.074642744570978817 -0.0065358778072650706 0 0.06477969358065995 -0.02494857407975723 0 0.080991787287109165 -0.028883542241872371 0 0.074642744570978817 -0.0065358778072650706 0 0.080991787287109165 -0.028883542241872371 0 0.080991787287109165 -0.028883542241872371 0 0.096207686107793552 -0.033425488806970008 0 0.095188044512863779 -0.016825049499280448 0 0.074642744570978817 -0.0065358778072650706 0 0.080991787287109165 -0.028883542241872371 0 0.095188044512863779 -0.016825049499280448 0 0.080991787287109165 -0.028883542241872371 0 0.084534585373919391 -0.048395127196001357 0 0.096207686107793552 -0.033425488806970008 0 0.080991787287109165 -0.028883542241872371 0 0.064304667317374012 -0.042027076182099762 0 0.084534585373919391 -0.048395127196001357 0 0.06477969358065995 -0.02494857407975723 0 0.080991787287109165 -0.028883542241872371 0 0.064304667317374012 -0.042027076182099762 0 0.064304667317374012 -0.042027076182099762 0 0.084534585373919391 -0.048395127196001357 0 0.07146127205775829 -0.063201388264948949 0 0.084534585373919391 -0.048395127196001357 0 0.07146127205775829 -0.063201388264948949 0 0.086639069762808107 -0.069707644719061435 0 0.084534585373919391 -0.048395127196001357 0 0.096998646318434217 -0.059802850487388599 0 0.086639069762808107 -0.069707644719061435 0 0.096998646318434217 -0.059802850487388599 0 0.10649397108496469 -0.046000926617955781 0 0.1092366375603577 -0.062679352041892691 0 0.084534585373919391 -0.048395127196001357 0 0.096998646318434217 -0.059802850487388599 0 0.10649397108496469 -0.046000926617955781 0 0.1194683363675919 -0.054596763324888928 0 0.10649397108496469 -0.046000926617955781 0 0.12842713881223961 -0.041667162734856197 0 0.1194683363675919 -0.054596763324888928 0 0.1092366375603577 -0.062679352041892691 0 0.1210632563629909 -0.066582611230742189 0 0.1194683363675919 -0.054596763324888928 0 0.10649397108496469 -0.046000926617955781 0 0.1092366375603577 -0.062679352041892691 0 0.1194683363675919 -0.054596763324888928 0 0.1210632563629909 -0.066582611230742189 0 0.13069941664593279 -0.055797858977210187 0 0.10649397108496469 -0.046000926617955781 0 0.11383004228011059 -0.02702279847974012 0 0.12842713881223961 -0.041667162734856197 0 0.096207686107793552 -0.033425488806970008 0 0.10649397108496469 -0.046000926617955781 0 0.11383004228011059 -0.02702279847974012 0 0.084534585373919391 -0.048395127196001357 0 0.096207686107793552 -0.033425488806970008 0 0.10649397108496469 -0.046000926617955781 0 0.096207686107793552 -0.033425488806970008 0 0.095188044512863779 -0.016825049499280448 0 0.11383004228011059 -0.02702279847974012 0 0.095188044512863779 -0.016825049499280448 0 0.11383004228011059 -0.02702279847974012 0 0.1104806879240797 -0.0035401757462522961 0 0.11383004228011059 -0.02702279847974012 0 0.1104806879240797 -0.0035401757462522961 0 0.12578573051774269 -0.01346059975362378 0 0.12949372161206399 0.002034182974538255 0 0.1104806879240797 -0.0035401757462522961 0 0.12578573051774269 -0.01346059975362378 0 0.094732376142176083 0.00044397642212032562 0 0.095188044512863779 -0.016825049499280448 0 0.1104806879240797 -0.0035401757462522961 0 0.091455751195569424 -0.09776205557014038 0 0.073736763009720263 -0.1036186920574048 0 0.074806551704531085 -0.089453261667601161 0 0.091455751195569424 -0.09776205557014038 0 0.085986559218385633 -0.1134219703290732 0 0.073736763009720263 -0.1036186920574048 0 0.080330299274757613 -0.13380799836123261 0 0.070307494669805556 -0.12728748992105371 0 0.085986559218385633 -0.1134219703290732 0 0.070307494669805556 -0.12728748992105371 0 0.085986559218385633 -0.1134219703290732 0 0.085986559218385633 -0.1134219703290732 0 0.06795534791333474 -0.1230148981317449 0 0.068975548228261782 -0.1132694891728343 0 0.085986559218385633 -0.1134219703290732 0 0.06795534791333474 -0.1230148981317449 0 0.070307494669805556 -0.12728748992105371 0 0.085986559218385633 -0.1134219703290732 0 0.06795534791333474 -0.1230148981317449 0 0.085986559218385633 -0.1134219703290732 0 0.068975548228261782 -0.1132694891728343 0 0.073736763009720263 -0.1036186920574048 0 0.060560891346580513 -0.1180119987458233 0 0.06795534791333474 -0.1230148981317449 0 0.068975548228261782 -0.1132694891728343 0 0.060346030374175713 -0.1255229666477197 0 0.060560891346580513 -0.1180119987458233 0 0.06795534791333474 -0.1230148981317449 0 0.056638179653287747 -0.10827988660012509 0 0.073736763009720263 -0.1036186920574048 0 0.062700028383547782 -0.097153200837865411 0 0.056638179653287747 -0.10827988660012509 0 0.068975548228261782 -0.1132694891728343 0 0.073736763009720263 -0.1036186920574048 0 0.073736763009720263 -0.1036186920574048 0 0.062700028383547782 -0.097153200837865411 0 0.074806551704531085 -0.089453261667601161 0 0.052900392773708033 -0.086206507156601636 0 0.062700028383547782 -0.097153200837865411 0 0.074806551704531085 -0.089453261667601161 0 0.052900392773708033 -0.086206507156601636 0 0.074806551704531085 -0.089453261667601161 0 0.074806551704531085 -0.089453261667601161 0 0.07146127205775829 -0.063201388264948949 0 0.086639069762808107 -0.069707644719061435 0 0.058304942086693602 -0.072447023446579523 0 0.074806551704531085 -0.089453261667601161 0 0.07146127205775829 -0.063201388264948949 0 0.086639069762808107 -0.069707644719061435 0 0.092476448648033255 -0.084167196802686875 0 0.099556914474172378 -0.073226043895741597 0 0.074806551704531085 -0.089453261667601161 0 0.086639069762808107 -0.069707644719061435 0 0.092476448648033255 -0.084167196802686875 0 0.091455751195569424 -0.09776205557014038 0 0.074806551704531085 -0.089453261667601161 0 0.092476448648033255 -0.084167196802686875 0 0.091455751195569424 -0.09776205557014038 0 0.092476448648033255 -0.084167196802686875 0 0.098531910145911644 -0.089901594412717376 0 0.1021594096438974 -0.083754238160640607 0 0.1118387007539923 -0.075866916694639075 0 0.1080360310961465 -0.093922887117401682 0 0.092476448648033255 -0.084167196802686875 0 0.098531910145911644 -0.089901594412717376 0 0.1021594096438974 -0.083754238160640607 0 0.092476448648033255 -0.084167196802686875 0 0.1021594096438974 -0.083754238160640607 0 0.099556914474172378 -0.073226043895741597 0 0.098531910145911644 -0.089901594412717376 0 0.1021594096438974 -0.083754238160640607 0 0.1080360310961465 -0.093922887117401682 0 0.096998646318434217 -0.059802850487388599 0 0.086639069762808107 -0.069707644719061435 0 0.099556914474172378 -0.073226043895741597 0 0.099556914474172378 -0.073226043895741597 0 0.1092366375603577 -0.062679352041892691 0 0.1118387007539923 -0.075866916694639075 0 0.1021594096438974 -0.083754238160640607 0 0.099556914474172378 -0.073226043895741597 0 0.1118387007539923 -0.075866916694639075 0 0.096998646318434217 -0.059802850487388599 0 0.099556914474172378 -0.073226043895741597 0 0.1092366375603577 -0.062679352041892691 0 0.1118387007539923 -0.075866916694639075 0 0.1210632563629909 -0.066582611230742189 0 0.13008550297390739 -0.074423803905730487 0 0.1092366375603577 -0.062679352041892691 0 0.1118387007539923 -0.075866916694639075 0 0.1210632563629909 -0.066582611230742189 0 0.1080360310961465 -0.093922887117401682 0 0.13452608206727679 -0.087598073620864511 0 0.13008550297390739 -0.074423803905730487 0 0.1080360310961465 -0.093922887117401682 0 0.13008550297390739 -0.074423803905730487 0 0.1118387007539923 -0.075866916694639075 0 0.1080360310961465 -0.093922887117401682 0 0.13008550297390739 -0.074423803905730487 0 0.1206542337142498 -0.1024816156058128 0 0.11025632064283129 -0.100510021974969 0 0.13452608206727679 -0.087598073620864511 0 0.11025632064283129 -0.100510021974969 0 0.1080360310961465 -0.093922887117401682 0 0.13452608206727679 -0.087598073620864511 0 0.11025632064283129 -0.100510021974969 0 0.13452608206727679 -0.087598073620864511 0 0.12361063739113751 -0.1089829458286235 0 0.1206542337142498 -0.1024816156058128 0 0.12876157111383599 -0.1019247387795295 0 0.12361063739113751 -0.1089829458286235 0 0.1206542337142498 -0.1024816156058128 0 0.11600277673680361 -0.1095044238092165 0 0.1206542337142498 -0.1024816156058128 0 0.1108006194675545 -0.1065779719214702 0 0.11600277673680361 -0.1095044238092165 0 0.1206542337142498 -0.1024816156058128 0 0.1108006194675545 -0.1065779719214702 0 0.11025632064283129 -0.100510021974969 0 0.085986559218385633 -0.1134219703290732 0 0.11025632064283129 -0.100510021974969 0 0.1080360310961465 -0.093922887117401682 0 0.091455751195569424 -0.09776205557014038 0 0.098531910145911644 -0.089901594412717376 0 0.1080360310961465 -0.093922887117401682 0 0.085986559218385633 -0.1134219703290732 0 0.11025632064283129 -0.100510021974969 0 0.1047763778184411 -0.1074861515936308 0 0.091455751195569424 -0.09776205557014038 0 0.085986559218385633 -0.1134219703290732 0 0.1080360310961465 -0.093922887117401682 0 0.085986559218385633 -0.1134219703290732 0 0.11025632064283129 -0.100510021974969 0 0.085986559218385633 -0.1134219703290732 0 0.1080360310961465 -0.093922887117401682 0 0.1108006194675545 -0.1065779719214702 0 0.11025632064283129 -0.100510021974969 0 0.1047763778184411 -0.1074861515936308 0 0.09350199215719629 -0.1307860368537844 0 0.085986559218385633 -0.1134219703290732 0 0.1047763778184411 -0.1074861515936308 0 0.09350199215719629 -0.1307860368537844 0 0.1047763778184411 -0.1074861515936308 0 0.09350199215719629 -0.1307860368537844 0 0.1047763778184411 -0.1074861515936308 0 0.10862980718256771 -0.1173883224177953 0 0.1108006194675545 -0.1065779719214702 0 0.1047763778184411 -0.1074861515936308 0 0.10862980718256771 -0.1173883224177953 0 0.10459593891303121 -0.12974430385464611 0 0.10862980718256771 -0.1173883224177953 0 0.11282193077599589 -0.1222674896986846 0 0.1137534246247271 -0.13074843191813801 0 0.11282193077599589 -0.1222674896986846 0 0.11845791967191539 -0.12186934725678419 0 0.10862980718256771 -0.1173883224177953 0 0.11282193077599589 -0.1222674896986846 0 0.11746934809364951 -0.1161487547769032 0 0.11282193077599589 -0.1222674896986846 0 0.11746934809364951 -0.1161487547769032 0 0.11845791967191539 -0.12186934725678419 0 0.10862980718256771 -0.1173883224177953 0 0.11600277673680361 -0.1095044238092165 0 0.11746934809364951 -0.1161487547769032 0 0.1108006194675545 -0.1065779719214702 0 0.10862980718256771 -0.1173883224177953 0 0.11600277673680361 -0.1095044238092165 0 0.12361063739113751 -0.1089829458286235 0 0.11746934809364951 -0.1161487547769032 0 0.12529301680347721 -0.1168799996503154 0 0.12361063739113751 -0.1089829458286235 0 0.11600277673680361 -0.1095044238092165 0 0.11746934809364951 -0.1161487547769032 0 0.11845791967191539 -0.12186934725678419 0 0.12630050298042411 -0.12245592564795341 0 0.12529301680347721 -0.1168799996503154 0 0.11746934809364951 -0.1161487547769032 0 0.11845791967191539 -0.12186934725678419 0 0.12529301680347721 -0.1168799996503154 0 0.123348828340062 -0.12687639016292321 0 0.11845791967191539 -0.12186934725678419 0 0.12630050298042411 -0.12245592564795341 0 0.12630050298042411 -0.12245592564795341 0 0.13193042709743341 -0.1213594743776511 0 0.12529301680347721 -0.1168799996503154 0 0.12630050298042411 -0.12245592564795341 0 0.13193042709743341 -0.1213594743776511 0 0.12875565592263391 -0.12809429938570999 0 0.12361063739113751 -0.1089829458286235 0 0.13265712390398529 -0.1095837942728599 0 0.12529301680347721 -0.1168799996503154 0 0.13193042709743341 -0.1213594743776511 0 0.13265712390398529 -0.1095837942728599 0 0.12529301680347721 -0.1168799996503154 0 0.13265712390398529 -0.1095837942728599 0 0.141457361289023 -0.1186638722253137 0 0.14303859478838579 -0.1067295355001987 0 0.13193042709743341 -0.1213594743776511 0 0.13265712390398529 -0.1095837942728599 0 0.141457361289023 -0.1186638722253137 0 0.13193042709743341 -0.1213594743776511 0 0.141457361289023 -0.1186638722253137 0 0.1371125260112642 -0.13100173381717989 0 0.141457361289023 -0.1186638722253137 0 0.1530641146142325 -0.1147763665519914 0 0.14303859478838579 -0.1067295355001987 0 0.141457361289023 -0.1186638722253137 0 0.1530641146142325 -0.1147763665519914 0 0.15156751390321649 -0.12848562061151469 0 0.15319377847480151 -0.10228717329999509 0 0.14356602317981609 -0.097574537371012016 0 0.15214569972204611 -0.090196114556389012 0 0.1530641146142325 -0.1147763665519914 0 0.15319377847480151 -0.10228717329999509 0 0.14303859478838579 -0.1067295355001987 0 0.14303859478838579 -0.1067295355001987 0 0.14356602317981609 -0.097574537371012016 0 0.13650987901066 -0.1006821359088929 0 0.15319377847480151 -0.10228717329999509 0 0.14303859478838579 -0.1067295355001987 0 0.14356602317981609 -0.097574537371012016 0 0.14356602317981609 -0.097574537371012016 0 0.13650987901066 -0.1006821359088929 0 0.13452608206727679 -0.087598073620864511 0 0.13650987901066 -0.1006821359088929 0 0.12876157111383599 -0.1019247387795295 0 0.13452608206727679 -0.087598073620864511 0 0.13265712390398529 -0.1095837942728599 0 0.14303859478838579 -0.1067295355001987 0 0.13650987901066 -0.1006821359088929 0 0.13265712390398529 -0.1095837942728599 0 0.13650987901066 -0.1006821359088929 0 0.12876157111383599 -0.1019247387795295 0 0.12361063739113751 -0.1089829458286235 0 0.13265712390398529 -0.1095837942728599 0 0.12876157111383599 -0.1019247387795295 0 0.1206542337142498 -0.1024816156058128 0 0.12876157111383599 -0.1019247387795295 0 0.13452608206727679 -0.087598073620864511 0 0.13452608206727679 -0.087598073620864511 0 0.13008550297390739 -0.074423803905730487 0 0.1443388869055707 -0.074093442599663717 0 0.1210632563629909 -0.066582611230742189 0 0.13008550297390739 -0.074423803905730487 0 0.1378901422382286 -0.065141886520810197 0 0.1210632563629909 -0.066582611230742189 0 0.1378901422382286 -0.065141886520810197 0 0.13069941664593279 -0.055797858977210187 0 0.13008550297390739 -0.074423803905730487 0 0.1378901422382286 -0.065141886520810197 0 0.1443388869055707 -0.074093442599663717 0 0.1378901422382286 -0.065141886520810197 0 0.1443388869055707 -0.074093442599663717 0 0.14845045667510839 -0.068947823294811042 0 0.1378901422382286 -0.065141886520810197 0 0.1482855290232265 -0.062509281753238111 0 0.14845045667510839 -0.068947823294811042 0 0.1443388869055707 -0.074093442599663717 0 0.15637456595840549 -0.072524369015058085 0 0.15879584349172199 -0.074686125266759329 0 0.1443388869055707 -0.074093442599663717 0 0.14845045667510839 -0.068947823294811042 0 0.15637456595840549 -0.072524369015058085 0 0.1482855290232265 -0.062509281753238111 0 0.15364828237331349 -0.067433824892769681 0 0.15652694385902599 -0.063157866606958074 0 0.14845045667510839 -0.068947823294811042 0 0.15364828237331349 -0.067433824892769681 0 0.15637456595840549 -0.072524369015058085 0 0.15364828237331349 -0.067433824892769681 0 0.15652694385902599 -0.063157866606958074 0 0.15817514291358711 -0.068684324294872479 0 0.15364828237331349 -0.067433824892769681 0 0.15817514291358711 -0.068684324294872479 0 0.15637456595840549 -0.072524369015058085 0 0.1482855290232265 -0.062509281753238111 0 0.14845045667510839 -0.068947823294811042 0 0.15364828237331349 -0.067433824892769681 0 0.13452608206727679 -0.087598073620864511 0 0.1443388869055707 -0.074093442599663717 0 0.15879584349172199 -0.074686125266759329 0 0.13452608206727679 -0.087598073620864511 0 0.15214569972204611 -0.090196114556389012 0 0.15879584349172199 -0.074686125266759329 0 0.14356602317981609 -0.097574537371012016 0 0.13452608206727679 -0.087598073620864511 0 0.15214569972204611 -0.090196114556389012 0 0.13452608206727679 -0.087598073620864511 0 0.15879584349172199 -0.074686125266759329 0 0.16289225264402449 -0.088052813037539521 0 0.15879584349172199 -0.074686125266759329 0 0.17664412184913261 -0.09062136060856657 0 0.15214569972204611 -0.090196114556389012 0 0.16289225264402449 -0.088052813037539521 0 0.1639833455131976 -0.096707651718443199 0 0.15879584349172199 -0.074686125266759329 0 0.17664412184913261 -0.09062136060856657 0 0.15879584349172199 -0.074686125266759329 0 0.17656367562483899 -0.076834240046349089 0 0.17664412184913261 -0.09062136060856657 0 0.15214569972204611 -0.090196114556389012 0 0.16289225264402449 -0.088052813037539521 0 0.15879584349172199 -0.074686125266759329 0 0.16289225264402449 -0.088052813037539521 0 0.17664412184913261 -0.09062136060856657 0 0.1639833455131976 -0.096707651718443199 0 0.15879584349172199 -0.074686125266759329 0 0.17656367562483899 -0.076834240046349089 0 0.177532849092917 -0.064717702240173994 0 0.15879584349172199 -0.074686125266759329 0 0.16531569216686151 -0.06494670594336184 0 0.177532849092917 -0.064717702240173994 0 0.15879584349172199 -0.074686125266759329 0 0.177532849092917 -0.064717702240173994 0 0.15652694385902599 -0.063157866606958074 0 0.15817514291358711 -0.068684324294872479 0 0.16531569216686151 -0.06494670594336184 0 0.15817514291358711 -0.068684324294872479 0 0.15879584349172199 -0.074686125266759329 0 0.16531569216686151 -0.06494670594336184 0 0.15817514291358711 -0.068684324294872479 0 0.15637456595840549 -0.072524369015058085 0 0.15879584349172199 -0.074686125266759329 0 0.15637456595840549 -0.072524369015058085 0 0.15879584349172199 -0.074686125266759329 0 0.17656367562483899 -0.076834240046349089 0 0.177532849092917 -0.064717702240173994 0 0.19328188806558419 -0.07731177206989652 0 0.17656367562483899 -0.076834240046349089 0 0.17664412184913261 -0.09062136060856657 0 0.19328188806558419 -0.07731177206989652 0 0.17664412184913261 -0.09062136060856657 0 0.17763152743943481 -0.1060068574193543 0 0.1944924002065429 -0.1065565959503742 0 0.17664412184913261 -0.09062136060856657 0 0.1944924002065429 -0.1065565959503742 0 0.17664412184913261 -0.09062136060856657 0 0.17763152743943481 -0.1060068574193543 0 0.1639833455131976 -0.096707651718443199 0 0.17763152743943481 -0.1060068574193543 0 0.1752179343679314 -0.1232214963077168 0 0.16458481497267341 -0.1084741448912044 0 0.17763152743943481 -0.1060068574193543 0 0.1752179343679314 -0.1232214963077168 0 0.1944924002065429 -0.1065565959503742 0 0.1752179343679314 -0.1232214963077168 0 0.1944924002065429 -0.1065565959503742 0 0.1530641146142325 -0.1147763665519914 0 0.1752179343679314 -0.1232214963077168 0 0.15156751390321649 -0.12848562061151469 0 0.1530641146142325 -0.1147763665519914 0 0.1752179343679314 -0.1232214963077168 0 0.16458481497267341 -0.1084741448912044 0 0.1530641146142325 -0.1147763665519914 0 0.15319377847480151 -0.10228717329999509 0 0.16458481497267341 -0.1084741448912044 0 0.15319377847480151 -0.10228717329999509 0 0.1639833455131976 -0.096707651718443199 0 0.16458481497267341 -0.1084741448912044 0 0.15319377847480151 -0.10228717329999509 0 0.15214569972204611 -0.090196114556389012 0 0.1639833455131976 -0.096707651718443199 0 0.17763152743943481 -0.1060068574193543 0 0.1639833455131976 -0.096707651718443199 0 0.16458481497267341 -0.1084741448912044 0 0.14374347907762411 0.01013166170502392 0 0.14235702862779581 -0.010108582017845339 0 0.15924746739114259 -0.01560027189112736 0 0.15701690388062359 0.0017519640960013401 0 0.14374347907762411 0.01013166170502392 0 0.15924746739114259 -0.01560027189112736 0 0.14235702862779581 -0.010108582017845339 0 0.1574287691802235 -0.01729644809382027 0 0.15924746739114259 -0.01560027189112736 0 0.14374347907762411 0.01013166170502392 0 0.15924746739114259 -0.01560027189112736 0 0.12949372161206399 0.002034182974538255 0 0.14235702862779581 -0.010108582017845339 0 0.12578573051774269 -0.01346059975362378 0 0.14235702862779581 -0.010108582017845339 0 0.12578573051774269 -0.01346059975362378 0 0.13817424048821181 -0.02648357481866696 0 0.11383004228011059 -0.02702279847974012 0 0.12578573051774269 -0.01346059975362378 0 0.13817424048821181 -0.02648357481866696 0 0.14235702862779581 -0.010108582017845339 0 0.13817424048821181 -0.02648357481866696 0 0.1574287691802235 -0.01729644809382027 0 0.13817424048821181 -0.02648357481866696 0 0.15125472287846131 -0.031155501573469049 0 0.1574287691802235 -0.01729644809382027 0 0.13817424048821181 -0.02648357481866696 0 0.1574287691802235 -0.01729644809382027 0 0.15125472287846131 -0.031155501573469049 0 0.15580954425373039 -0.037926716530881081 0 0.14451524088987511 -0.039398399500485598 0 0.15125472287846131 -0.031155501573469049 0 0.15580954425373039 -0.037926716530881081 0 0.16138224693453471 -0.028937702620992021 0 0.15580954425373039 -0.037926716530881081 0 0.14451524088987511 -0.039398399500485598 0 0.15163880722236589 -0.047234917982955572 0 0.14451524088987511 -0.039398399500485598 0 0.1417869916842418 -0.051922523362084777 0 0.15163880722236589 -0.047234917982955572 0 0.13817424048821181 -0.02648357481866696 0 0.15125472287846131 -0.031155501573469049 0 0.14451524088987511 -0.039398399500485598 0 0.11383004228011059 -0.02702279847974012 0 0.13817424048821181 -0.02648357481866696 0 0.12842713881223961 -0.041667162734856197 0 0.14451524088987511 -0.039398399500485598 0 0.12842713881223961 -0.041667162734856197 0 0.1417869916842418 -0.051922523362084777 0 0.13817424048821181 -0.02648357481866696 0 0.14451524088987511 -0.039398399500485598 0 0.12842713881223961 -0.041667162734856197 0 0.12842713881223961 -0.041667162734856197 0 0.13069941664593279 -0.055797858977210187 0 0.1417869916842418 -0.051922523362084777 0 0.1194683363675919 -0.054596763324888928 0 0.12842713881223961 -0.041667162734856197 0 0.13069941664593279 -0.055797858977210187 0 0.1378901422382286 -0.065141886520810197 0 0.13069941664593279 -0.055797858977210187 0 0.1417869916842418 -0.051922523362084777 0 0.1378901422382286 -0.065141886520810197 0 0.1482855290232265 -0.062509281753238111 0 0.1417869916842418 -0.051922523362084777 0 0.1482855290232265 -0.062509281753238111 0 0.1417869916842418 -0.051922523362084777 0 0.15083083554059001 -0.055115862924854229 0 0.1417869916842418 -0.051922523362084777 0 0.15163880722236589 -0.047234917982955572 0 0.15083083554059001 -0.055115862924854229 0 0.15163880722236589 -0.047234917982955572 0 0.15083083554059001 -0.055115862924854229 0 0.15874179243661349 -0.055243687967477507 0 0.15652694385902599 -0.063157866606958074 0 0.15083083554059001 -0.055115862924854229 0 0.15874179243661349 -0.055243687967477507 0 0.1482855290232265 -0.062509281753238111 0 0.15652694385902599 -0.063157866606958074 0 0.15083083554059001 -0.055115862924854229 0 0.16531569216686151 -0.06494670594336184 0 0.15874179243661349 -0.055243687967477507 0 0.16793267129860501 -0.055887726399702242 0 0.15652694385902599 -0.063157866606958074 0 0.16531569216686151 -0.06494670594336184 0 0.15874179243661349 -0.055243687967477507 0 0.15163880722236589 -0.047234917982955572 0 0.15874179243661349 -0.055243687967477507 0 0.1629496066103216 -0.046954267614488822 0 0.15874179243661349 -0.055243687967477507 0 0.1629496066103216 -0.046954267614488822 0 0.16793267129860501 -0.055887726399702242 0 0.1629496066103216 -0.046954267614488822 0 0.16793267129860501 -0.055887726399702242 0 0.1751234161863113 -0.047576268233009013 0 0.16531569216686151 -0.06494670594336184 0 0.177532849092917 -0.064717702240173994 0 0.16793267129860501 -0.055887726399702242 0 0.177532849092917 -0.064717702240173994 0 0.1962698546941116 -0.054749279213587992 0 0.177532849092917 -0.064717702240173994 0 0.1751234161863113 -0.047576268233009013 0 0.1962698546941116 -0.054749279213587992 0 0.177532849092917 -0.064717702240173994 0 0.16793267129860501 -0.055887726399702242 0 0.1751234161863113 -0.047576268233009013 0 0.1751234161863113 -0.047576268233009013 0 0.18968165838570189 -0.039414702669574198 0 0.1962698546941116 -0.054749279213587992 0 0.1751234161863113 -0.047576268233009013 0 0.1714968981130513 -0.027690031059151191 0 0.18553062137528001 -0.023249231438568638 0 0.1751234161863113 -0.047576268233009013 0 0.18553062137528001 -0.023249231438568638 0 0.1751234161863113 -0.047576268233009013 0 0.18553062137528001 -0.023249231438568638 0 0.18968165838570189 -0.039414702669574198 0 0.1751234161863113 -0.047576268233009013 0 0.1653523424195899 -0.037816997211704423 0 0.1714968981130513 -0.027690031059151191 0 0.1653523424195899 -0.037816997211704423 0 0.16138224693453471 -0.028937702620992021 0 0.1714968981130513 -0.027690031059151191 0 0.1629496066103216 -0.046954267614488822 0 0.1751234161863113 -0.047576268233009013 0 0.1653523424195899 -0.037816997211704423 0 0.15580954425373039 -0.037926716530881081 0 0.1629496066103216 -0.046954267614488822 0 0.1653523424195899 -0.037816997211704423 0 0.15580954425373039 -0.037926716530881081 0 0.15163880722236589 -0.047234917982955572 0 0.1629496066103216 -0.046954267614488822 0 0.15580954425373039 -0.037926716530881081 0 0.1653523424195899 -0.037816997211704423 0 0.16138224693453471 -0.028937702620992021 0 0.16617923222687581 -0.02073316153348739 0 0.1714968981130513 -0.027690031059151191 0 0.1766832978722353 -0.0081093213689735506 0 0.15125472287846131 -0.031155501573469049 0 0.16138224693453471 -0.028937702620992021 0 0.1574287691802235 -0.01729644809382027 0 0.16138224693453471 -0.028937702620992021 0 0.1574287691802235 -0.01729644809382027 0 0.16617923222687581 -0.02073316153348739 0 0.16138224693453471 -0.028937702620992021 0 0.16617923222687581 -0.02073316153348739 0 0.1714968981130513 -0.027690031059151191 0 0.1714968981130513 -0.027690031059151191 0 0.18553062137528001 -0.023249231438568638 0 0.1766832978722353 -0.0081093213689735506 0 0.19593782656424771 0.001077805355871994 0 0.18553062137528001 -0.023249231438568638 0 0.1766832978722353 -0.0081093213689735506 0 0.19593782656424771 0.001077805355871994 0 0.18341751240963211 0.00061568397150330858 0 0.1766832978722353 -0.0081093213689735506 0 0.19593782656424771 0.001077805355871994 0 0.1766832978722353 -0.0081093213689735506 0 0.17325987661650349 0.0042648455274535337 0 0.18341751240963211 0.00061568397150330858 0 0.1766832978722353 -0.0081093213689735506 0 0.1574287691802235 -0.01729644809382027 0 0.16617923222687581 -0.02073316153348739 0 0.1766832978722353 -0.0081093213689735506 0 0.17325987661650349 0.0042648455274535337 0 0.1766832978722353 -0.0081093213689735506 0 0.16460404253818639 -0.0005485413642497026 0 0.1574287691802235 -0.01729644809382027 0 0.1766832978722353 -0.0081093213689735506 0 0.15924746739114259 -0.01560027189112736 0 0.1766832978722353 -0.0081093213689735506 0 0.16460404253818639 -0.0005485413642497026 0 0.15924746739114259 -0.01560027189112736 0 0.15701690388062359 0.0017519640960013401 0 0.16460404253818639 -0.0005485413642497026 0 0.15924746739114259 -0.01560027189112736 0 0.1574287691802235 -0.01729644809382027 0 0.1766832978722353 -0.0081093213689735506 0 0.20590763576530829 0.0033268355861740722 0 0.20735475128454231 -0.0068777629920839002 0 0.22744893828151519 -0.0091251255713614941 0 0.20590763576530829 0.0033268355861740722 0 0.22744893828151519 -0.0091251255713614941 0 0.20735475128454231 -0.0068777629920839002 0 0.20990048174711651 -0.016729142574554001 0 0.22744893828151519 -0.0091251255713614941 0 0.20735475128454231 -0.0068777629920839002 0 0.2010851656157881 -0.01014334389335826 0 0.20990048174711651 -0.016729142574554001 0 0.20735475128454231 -0.0068777629920839002 0 0.19538333160442831 -0.002738630072423164 0 0.2010851656157881 -0.01014334389335826 0 0.19593782656424771 0.001077805355871994 0 0.18553062137528001 -0.023249231438568638 0 0.18553062137528001 -0.023249231438568638 0 0.19538333160442831 -0.002738630072423164 0 0.19642497237337811 -0.015860786438536511 0 0.19593782656424771 0.001077805355871994 0 0.18553062137528001 -0.023249231438568638 0 0.19538333160442831 -0.002738630072423164 0 0.20590763576530829 0.0033268355861740722 0 0.20735475128454231 -0.0068777629920839002 0 0.19538333160442831 -0.002738630072423164 0 0.2010851656157881 -0.01014334389335826 0 0.19642497237337811 -0.015860786438536511 0 0.20990048174711651 -0.016729142574554001 0 0.19538333160442831 -0.002738630072423164 0 0.2010851656157881 -0.01014334389335826 0 0.19642497237337811 -0.015860786438536511 0 0.18553062137528001 -0.023249231438568638 0 0.1990830391120543 -0.026018368262645031 0 0.18968165838570189 -0.039414702669574198 0 0.19642497237337811 -0.015860786438536511 0 0.1990830391120543 -0.026018368262645031 0 0.20990048174711651 -0.016729142574554001 0 0.18553062137528001 -0.023249231438568638 0 0.19642497237337811 -0.015860786438536511 0 0.1990830391120543 -0.026018368262645031 0 0.1990830391120543 -0.026018368262645031 0 0.20990048174711651 -0.016729142574554001 0 0.21387746167879479 -0.034837978191991817 0 0.21387746167879479 -0.034837978191991817 0 0.2180915561158204 -0.058673476670523757 0 0.21387746167879479 -0.034837978191991817 0 0.18968165838570189 -0.039414702669574198 0 0.1962698546941116 -0.054749279213587992 0 0.1990830391120543 -0.026018368262645031 0 0.21387746167879479 -0.034837978191991817 0 0.18968165838570189 -0.039414702669574198 0 0.21387746167879479 -0.034837978191991817 0 0.1962698546941116 -0.054749279213587992 0 0.2180915561158204 -0.058673476670523757 0 0.1962698546941116 -0.054749279213587992 0 0.2180915561158204 -0.058673476670523757 0 0.2091639558596444 -0.072924240797123979 0 0.21387746167879479 -0.034837978191991817 0 0.2180915561158204 -0.058673476670523757 0 0.23006518668848311 -0.051160718315772957 0 0.2180915561158204 -0.058673476670523757 0 0.23006518668848311 -0.051160718315772957 0 0.23556645458518519 -0.071043548314011246 0 0.23006518668848311 -0.051160718315772957 0 0.24164484712506901 -0.056959101199104911 0 0.23556645458518519 -0.071043548314011246 0 0.24164484712506901 -0.056959101199104911 0 0.24882725861752331 -0.059578121478965212 0 0.24164484712506901 -0.056959101199104911 0 0.24882725861752331 -0.059578121478965212 0 0.24938780400303001 -0.047352155117508059 0 0.24164484712506901 -0.056959101199104911 0 0.24938780400303001 -0.047352155117508059 0 0.23951694682058261 -0.046896674633115747 0 0.23006518668848311 -0.051160718315772957 0 0.24164484712506901 -0.056959101199104911 0 0.23951694682058261 -0.046896674633115747 0 0.23951694682058261 -0.046896674633115747 0 0.24421700669423499 -0.036990757300935741 0 0.23332224291470791 -0.038456946330762118 0 0.24938780400303001 -0.047352155117508059 0 0.23951694682058261 -0.046896674633115747 0 0.24421700669423499 -0.036990757300935741 0 0.24421700669423499 -0.036990757300935741 0 0.23332224291470791 -0.038456946330762118 0 0.23267097837905559 -0.023925579027906381 0 0.21387746167879479 -0.034837978191991817 0 0.23006518668848311 -0.051160718315772957 0 0.23332224291470791 -0.038456946330762118 0 0.21387746167879479 -0.034837978191991817 0 0.23332224291470791 -0.038456946330762118 0 0.23267097837905559 -0.023925579027906381 0 0.23006518668848311 -0.051160718315772957 0 0.23951694682058261 -0.046896674633115747 0 0.23332224291470791 -0.038456946330762118 0 0.20990048174711651 -0.016729142574554001 0 0.21387746167879479 -0.034837978191991817 0 0.23267097837905559 -0.023925579027906381 0 0.20990048174711651 -0.016729142574554001 0 0.23267097837905559 -0.023925579027906381 0 0.22744893828151519 -0.0091251255713614941 0 0.23267097837905559 -0.023925579027906381 0 0.24899024079772161 -0.0215770867288981 0 0.22744893828151519 -0.0091251255713614941 0 0.24421700669423499 -0.036990757300935741 0 0.23267097837905559 -0.023925579027906381 0 0.24899024079772161 -0.0215770867288981 0 0.25308285036203498 -0.03256940699965867 0 0.24421700669423499 -0.036990757300935741 0 0.24899024079772161 -0.0215770867288981 0 0.24899024079772161 -0.0215770867288981 0 0.22744893828151519 -0.0091251255713614941 0 0.24899024079772161 -0.0215770867288981 0 0.2444704141750727 -0.0094373062236474958 0 0.22744893828151519 -0.0091251255713614941 0 0.24899024079772161 -0.0215770867288981 0 0.2444704141750727 -0.0094373062236474958 0 0.2444704141750727 -0.0094373062236474958 0 0.22893458673431399 -0.00089655804134538761 0 0.23914767988150079 0.0048590001187119756 0 0.2444704141750727 -0.0094373062236474958 0 0.23914767988150079 0.0048590001187119756 0 0.2444704141750727 -0.0094373062236474958 0 0.22893458673431399 -0.00089655804134538761 0 0.2444704141750727 -0.0094373062236474958 0 0.22893458673431399 -0.00089655804134538761 0 0.22744893828151519 -0.0091251255713614941 0 0.21339875929355481 0.0076441901409559487 0 0.22893458673431399 -0.00089655804134538761 0 0.22744893828151519 -0.0091251255713614941 0 0.21096444890486279 -0.10904317430457849 0 0.20839902537969471 -0.094532785549715379 0 0.1944924002065429 -0.1065565959503742 0 0.21096444890486279 -0.10904317430457849 0 0.20839902537969471 -0.094532785549715379 0 0.22743649760318321 -0.1115297526587824 0 0.21096444890486279 -0.10904317430457849 0 0.21352987243003041 -0.12355356305944221 0 0.22743649760318321 -0.1115297526587824 0 0.21352987243003041 -0.12355356305944221 0 0.1944924002065429 -0.1065565959503742 0 0.21096444890486279 -0.10904317430457849 0 0.21352987243003041 -0.12355356305944221 0 0.1944924002065429 -0.1065565959503742 0 0.1752179343679314 -0.1232214963077168 0 0.1944924002065429 -0.1065565959503742 0 0.19290765242250421 -0.12572022476840269 0 0.21352987243003041 -0.12355356305944221 0 0.1944924002065429 -0.1065565959503742 0 0.19290765242250421 -0.12572022476840269 0 0.17664412184913261 -0.09062136060856657 0 0.1944924002065429 -0.1065565959503742 0 0.1935229579135003 -0.091704821078326185 0 0.20839902537969471 -0.094532785549715379 0 0.1944924002065429 -0.1065565959503742 0 0.20839902537969471 -0.094532785549715379 0 0.1944924002065429 -0.1065565959503742 0 0.1935229579135003 -0.091704821078326185 0 0.17664412184913261 -0.09062136060856657 0 0.1935229579135003 -0.091704821078326185 0 0.19328188806558419 -0.07731177206989652 0 0.20839902537969471 -0.094532785549715379 0 0.1935229579135003 -0.091704821078326185 0 0.19328188806558419 -0.07731177206989652 0 0.1962698546941116 -0.054749279213587992 0 0.19328188806558419 -0.07731177206989652 0 0.2091639558596444 -0.072924240797123979 0 0.177532849092917 -0.064717702240173994 0 0.1962698546941116 -0.054749279213587992 0 0.19328188806558419 -0.07731177206989652 0 0.2180915561158204 -0.058673476670523757 0 0.2091639558596444 -0.072924240797123979 0 0.22230565055284579 -0.082508975149055808 0 0.20839902537969471 -0.094532785549715379 0 0.2091639558596444 -0.072924240797123979 0 0.22230565055284579 -0.082508975149055808 0 0.20839902537969471 -0.094532785549715379 0 0.19328188806558419 -0.07731177206989652 0 0.2091639558596444 -0.072924240797123979 0 0.20839902537969471 -0.094532785549715379 0 0.22230565055284579 -0.082508975149055808 0 0.22230565055284579 -0.082508975149055808 0 0.23556645458518519 -0.071043548314011246 0 0.23987473258963221 -0.089432530605184413 0 0.2180915561158204 -0.058673476670523757 0 0.22230565055284579 -0.082508975149055808 0 0.23556645458518519 -0.071043548314011246 0 0.2180915561158204 -0.058673476670523757 0 0.22230565055284579 -0.082508975149055808 0 0.22230565055284579 -0.082508975149055808 0 0.23556645458518519 -0.071043548314011246 0 0.25078634396980071 -0.075245354593830374 0 0.24882725861752331 -0.059578121478965212 0 0.23556645458518519 -0.071043548314011246 0 0.24164484712506901 -0.056959101199104911 0 0.24882725861752331 -0.059578121478965212 0 0.23556645458518519 -0.071043548314011246 0 0.24882725861752331 -0.059578121478965212 0 0.23556645458518519 -0.071043548314011246 0 0.25669975304008619 -0.089885429800622307 0 0.25078634396980071 -0.075245354593830374 0 0.23987473258963221 -0.089432530605184413 0 0.25078634396980071 -0.075245354593830374 0 0.23556645458518519 -0.071043548314011246 0 0.23987473258963221 -0.089432530605184413 0 0.23987473258963221 -0.089432530605184413 0 0.24895986423086119 -0.10814680445365769 0 0.22743649760318321 -0.1115297526587824 0 0.25669975304008619 -0.089885429800622307 0 0.23987473258963221 -0.089432530605184413 0 0.24895986423086119 -0.10814680445365769 0 0.22230565055284579 -0.082508975149055808 0 0.22743649760318321 -0.1115297526587824 0 0.22230565055284579 -0.082508975149055808 0 0.23987473258963221 -0.089432530605184413 0 0.22743649760318321 -0.1115297526587824 0 0.20839902537969471 -0.094532785549715379 0 0.22230565055284579 -0.082508975149055808 0 0.22743649760318321 -0.1115297526587824 0 0.24895986423086119 -0.10814680445365769 0 0.22743649760318321 -0.1115297526587824 0 0.2442740601995684 -0.12974252718241039 0 0.22743649760318321 -0.1115297526587824 0 0.2442740601995684 -0.12974252718241039 0 0.2325673446535188 -0.1405505301685093 0 0.2442740601995684 -0.12974252718241039 0 0.24255634751865959 -0.14946887558527891 0 0.2325673446535188 -0.1405505301685093 0 0.24255634751865959 -0.14946887558527891 0 0.2325673446535188 -0.1405505301685093 0 0.23582954507630841 -0.1590019850127225 0 0.25383149558425172 -0.14596201818091509 0 0.2442740601995684 -0.12974252718241039 0 0.24255634751865959 -0.14946887558527891 0 0.25383149558425172 -0.14596201818091509 0 0.24255634751865959 -0.14946887558527891 0 0.2457441474414723 -0.15902650193771031 0 0.24255634751865959 -0.14946887558527891 0 0.2325673446535188 -0.1405505301685093 0 0.24255634751865959 -0.14946887558527891 0 0.23582954507630841 -0.1590019850127225 0 0.2457441474414723 -0.15902650193771031 0 0.2325673446535188 -0.1405505301685093 0 0.21777455516178901 -0.14704202368010569 0 0.23582954507630841 -0.1590019850127225 0 0.2325673446535188 -0.1405505301685093 0 0.23582954507630841 -0.1590019850127225 0 0.21352987243003041 -0.12355356305944221 0 0.2325673446535188 -0.1405505301685093 0 0.21352987243003041 -0.12355356305944221 0 0.22743649760318321 -0.1115297526587824 0 0.2325673446535188 -0.1405505301685093 0 0.22743649760318321 -0.1115297526587824 0 0.2325673446535188 -0.1405505301685093 0 0.21352987243003041 -0.12355356305944221 0 0.2325673446535188 -0.1405505301685093 0 0.21777455516178901 -0.14704202368010569 0 0.21352987243003041 -0.12355356305944221 0 0.21777455516178901 -0.14704202368010569 0 0.20096425806957249 -0.13804348554765611 0 0.21777455516178901 -0.14704202368010569 0 0.20096425806957249 -0.13804348554765611 0 0.20194463151290801 -0.15651878827583871 0 0.21777455516178901 -0.14704202368010569 0 0.20194463151290801 -0.15651878827583871 0 0.2198317545642893 -0.165081830530697 0 0.20096425806957249 -0.13804348554765611 0 0.20194463151290801 -0.15651878827583871 0 0.18341918449566499 -0.14383001414573909 0 0.20194463151290801 -0.15651878827583871 0 0.18341918449566499 -0.14383001414573909 0 0.18522032609526429 -0.16564530774154601 0 0.21352987243003041 -0.12355356305944221 0 0.20096425806957249 -0.13804348554765611 0 0.19290765242250421 -0.12572022476840269 0 0.20096425806957249 -0.13804348554765611 0 0.19290765242250421 -0.12572022476840269 0 0.18341918449566499 -0.14383001414573909 0 0.20158046135979321 -0.1720183828543736 0 0.18522032609526429 -0.16564530774154601 0 0.18389788247934569 -0.1859179870116138 0 0.20158046135979321 -0.1720183828543736 0 0.20224098673050939 -0.18852687472124641 0 0.18389788247934569 -0.1859179870116138 0 0.20158046135979321 -0.1720183828543736 0 0.20194463151290801 -0.15651878827583871 0 0.18522032609526429 -0.16564530774154601 0 0.20158046135979321 -0.1720183828543736 0 0.20194463151290801 -0.15651878827583871 0 0.2198317545642893 -0.165081830530697 0 0.20158046135979321 -0.1720183828543736 0 0.21691473836265529 -0.17981598739939811 0 0.2198317545642893 -0.165081830530697 0 0.20158046135979321 -0.1720183828543736 0 0.21691473836265529 -0.17981598739939811 0 0.20224098673050939 -0.18852687472124641 0 0.21691473836265529 -0.17981598739939811 0 0.2136315331754752 -0.1915906712411585 0 0.20224098673050939 -0.18852687472124641 0 0.21691473836265529 -0.17981598739939811 0 0.2363404823827166 -0.1735149084677525 0 0.22670990022838369 -0.19287367212165329 0 0.21691473836265529 -0.17981598739939811 0 0.2198317545642893 -0.165081830530697 0 0.2363404823827166 -0.1735149084677525 0 0.21777455516178901 -0.14704202368010569 0 0.2198317545642893 -0.165081830530697 0 0.23582954507630841 -0.1590019850127225 0 0.2198317545642893 -0.165081830530697 0 0.23582954507630841 -0.1590019850127225 0 0.2363404823827166 -0.1735149084677525 0 0.25504809089951319 -0.16596793489827341 0 0.2457441474414723 -0.15902650193771031 0 0.2363404823827166 -0.1735149084677525 0 0.23582954507630841 -0.1590019850127225 0 0.2457441474414723 -0.15902650193771031 0 0.2363404823827166 -0.1735149084677525 0 0.25035932680677792 -0.19167626156947479 0 0.2363404823827166 -0.1735149084677525 0 0.22670990022838369 -0.19287367212165329 0 0.25035932680677792 -0.19167626156947479 0 0.25504809089951319 -0.16596793489827341 0 0.2363404823827166 -0.1735149084677525 0 0.25035932680677792 -0.19167626156947479 0 0.22843043437170249 -0.2100366825603204 0 0.22670990022838369 -0.19287367212165329 0 0.25035932680677792 -0.19167626156947479 0 0.22843043437170249 -0.2100366825603204 0 0.24984927567372611 -0.21533511008433351 0 0.22843043437170249 -0.2100366825603204 0 0.24984927567372611 -0.21533511008433351 0 0.22843043437170249 -0.2100366825603204 0 0.2314007297958699 -0.2146683680114366 0 0.25035932680677792 -0.19167626156947479 0 0.24984927567372611 -0.21533511008433351 0 0.22843043437170249 -0.2100366825603204 0 0.22843043437170249 -0.2100366825603204 0 0.2123278170596857 -0.2235189336033005 0 0.22843043437170249 -0.2100366825603204 0 0.2314007297958699 -0.2146683680114366 0 0.2251391712982026 -0.22373483452334991 0 0.22843043437170249 -0.2100366825603204 0 0.22670990022838369 -0.19287367212165329 0 0.20866050738035241 -0.20514615072233619 0 0.21691473836265529 -0.17981598739939811 0 0.22670990022838369 -0.19287367212165329 0 0.2136315331754752 -0.1915906712411585 0 0.25560193416489979 -0.24659806198470721 0 0.25165868265973951 -0.23048189306851599 0 0.24184400614806209 -0.24158664041967859 0 0.25560193416489979 -0.24659806198470721 0 0.24795738451006311 -0.2577032562273871 0 0.24184400614806209 -0.24158664041967859 0 0.24184400614806209 -0.24158664041967859 0 0.2379480997640562 -0.2269920595752157 0 0.2288238766813975 -0.23612894300476431 0 0.25165868265973951 -0.23048189306851599 0 0.2314007297958699 -0.2146683680114366 0 0.25165868265973951 -0.23048189306851599 0 0.2314007297958699 -0.2146683680114366 0 0.2379480997640562 -0.2269920595752157 0 0.25165868265973951 -0.23048189306851599 0 0.24984927567372611 -0.21533511008433351 0 0.2314007297958699 -0.2146683680114366 0 0.25165868265973951 -0.23048189306851599 0 0.24184400614806209 -0.24158664041967859 0 0.2379480997640562 -0.2269920595752157 0 0.22843043437170249 -0.2100366825603204 0 0.2251391712982026 -0.22373483452334991 0 0.2123278170596857 -0.2235189336033005 0 0.2314007297958699 -0.2146683680114366 0 0.2379480997640562 -0.2269920595752157 0 0.23131477210800919 -0.2238856264557402 0 0.2314007297958699 -0.2146683680114366 0 0.23131477210800919 -0.2238856264557402 0 0.2251391712982026 -0.22373483452334991 0 0.2251391712982026 -0.22373483452334991 0 0.2288238766813975 -0.23612894300476431 0 0.21732477700780711 -0.2352094196163883 0 0.23131477210800919 -0.2238856264557402 0 0.2251391712982026 -0.22373483452334991 0 0.2288238766813975 -0.23612894300476431 0 0.2379480997640562 -0.2269920595752157 0 0.23131477210800919 -0.2238856264557402 0 0.2288238766813975 -0.23612894300476431 0 0.23050685115701741 -0.25438840625252512 0 0.2288238766813975 -0.23612894300476431 0 0.21408358472910211 -0.24829254544199941 0 0.23050685115701741 -0.25438840625252512 0 0.24184400614806209 -0.24158664041967859 0 0.2288238766813975 -0.23612894300476431 0 0.2288238766813975 -0.23612894300476431 0 0.21408358472910211 -0.24829254544199941 0 0.21732477700780711 -0.2352094196163883 0 0.21408358472910211 -0.24829254544199941 0 0.21732477700780711 -0.2352094196163883 0 0.19622519974765479 -0.23700118464626391 0 0.2123278170596857 -0.2235189336033005 0 0.19622519974765479 -0.23700118464626391 0 0.21732477700780711 -0.2352094196163883 0 0.2123278170596857 -0.2235189336033005 0 0.19622519974765479 -0.23700118464626391 0 0.2251391712982026 -0.22373483452334991 0 0.21732477700780711 -0.2352094196163883 0 0.2123278170596857 -0.2235189336033005 0 0.2123278170596857 -0.2235189336033005 0 0.19524045239889379 -0.2214585813895194 0 0.19622519974765479 -0.23700118464626391 0 0.19524045239889379 -0.2214585813895194 0 0.19622519974765479 -0.23700118464626391 0 0.1786639468208967 -0.22499517674962571 0 0.1973869591089423 -0.25854664610706002 0 0.1801225824356335 -0.2504834356892387 0 0.19622519974765479 -0.23700118464626391 0 0.1973869591089423 -0.25854664610706002 0 0.21408358472910211 -0.24829254544199941 0 0.19622519974765479 -0.23700118464626391 0 0.1801225824356335 -0.2504834356892387 0 0.19622519974765479 -0.23700118464626391 0 0.2136315331754752 -0.1915906712411585 0 0.20866050738035241 -0.20514615072233619 0 0.20224098673050939 -0.18852687472124641 0 0.22670990022838369 -0.19287367212165329 0 0.2136315331754752 -0.1915906712411585 0 0.20866050738035241 -0.20514615072233619 0 0.22843043437170249 -0.2100366825603204 0 0.2123278170596857 -0.2235189336033005 0 0.20866050738035241 -0.20514615072233619 0 0.22843043437170249 -0.2100366825603204 0 0.20866050738035241 -0.20514615072233619 0 0.2123278170596857 -0.2235189336033005 0 0.20866050738035241 -0.20514615072233619 0 0.1960998068429588 -0.20848908251978829 0 0.2123278170596857 -0.2235189336033005 0 0.19524045239889379 -0.2214585813895194 0 0.1960998068429588 -0.20848908251978829 0 0.20866050738035241 -0.20514615072233619 0 0.1960998068429588 -0.20848908251978829 0 0.19235270594087561 -0.19715425638937101 0 0.19524045239889379 -0.2214585813895194 0 0.1960998068429588 -0.20848908251978829 0 0.18058355032947701 -0.2065071732792971 0 0.1960998068429588 -0.20848908251978829 0 0.19235270594087561 -0.19715425638937101 0 0.18058355032947701 -0.2065071732792971 0 0.20866050738035241 -0.20514615072233619 0 0.19235270594087561 -0.19715425638937101 0 0.20224098673050939 -0.18852687472124641 0 0.19235270594087561 -0.19715425638937101 0 0.20224098673050939 -0.18852687472124641 0 0.18389788247934569 -0.1859179870116138 0 0.18058355032947701 -0.2065071732792971 0 0.16784960947632069 -0.19445123273982709 0 0.18389788247934569 -0.1859179870116138 0 0.16784960947632069 -0.19445123273982709 0 0.18389788247934569 -0.1859179870116138 0 0.19235270594087561 -0.19715425638937101 0 0.18058355032947701 -0.2065071732792971 0 0.18389788247934569 -0.1859179870116138 0 0.19524045239889379 -0.2214585813895194 0 0.18058355032947701 -0.2065071732792971 0 0.1786639468208967 -0.22499517674962571 0 0.18058355032947701 -0.2065071732792971 0 0.16857400180744789 -0.2161364336104217 0 0.1786639468208967 -0.22499517674962571 0 0.18058355032947701 -0.2065071732792971 0 0.16425972322201729 -0.20581213891196801 0 0.16857400180744789 -0.2161364336104217 0 0.16425972322201729 -0.20581213891196801 0 0.16857400180744789 -0.2161364336104217 0 0.15562114279325989 -0.21247161824508071 0 0.16425972322201729 -0.20581213891196801 0 0.15180133647329541 -0.2029844784680396 0 0.15562114279325989 -0.21247161824508071 0 0.16425972322201729 -0.20581213891196801 0 0.16784960947632069 -0.19445123273982709 0 0.15180133647329541 -0.2029844784680396 0 0.15642721869538881 -0.18937294249779851 0 0.16784960947632069 -0.19445123273982709 0 0.15180133647329541 -0.2029844784680396 0 0.18058355032947701 -0.2065071732792971 0 0.16425972322201729 -0.20581213891196801 0 0.16784960947632069 -0.19445123273982709 0 0.16784960947632069 -0.19445123273982709 0 0.15180133647329541 -0.2029844784680396 0 0.15642721869538881 -0.18937294249779851 0 0.16784960947632069 -0.19445123273982709 0 0.16159166139844169 -0.18190084769253151 0 0.1801225824356335 -0.2504834356892387 0 0.19622519974765479 -0.23700118464626391 0 0.17963068302446389 -0.2377257192996953 0 0.1801225824356335 -0.2504834356892387 0 0.16953207428116379 -0.24553721044775009 0 0.1801225824356335 -0.2504834356892387 0 0.17963068302446389 -0.2377257192996953 0 0.16953207428116379 -0.24553721044775009 0 0.19622519974765479 -0.23700118464626391 0 0.17963068302446389 -0.2377257192996953 0 0.1786639468208967 -0.22499517674962571 0 0.19524045239889379 -0.2214585813895194 0 0.1786639468208967 -0.22499517674962571 0 0.17963068302446389 -0.2377257192996953 0 0.1786639468208967 -0.22499517674962571 0 0.16208744124289959 -0.2285317721097313 0 0.1786639468208967 -0.22499517674962571 0 0.16208744124289959 -0.2285317721097313 0 0.16857400180744789 -0.2161364336104217 0 0.16208744124289959 -0.2285317721097313 0 0.15562114279325989 -0.21247161824508071 0 0.16857400180744789 -0.2161364336104217 0 0.1786639468208967 -0.22499517674962571 0 0.16208744124289959 -0.2285317721097313 0 0.16208744124289959 -0.2285317721097313 0 0.15562114279325989 -0.21247161824508071 0 0.17963068302446389 -0.2377257192996953 0 0.16208744124289959 -0.2285317721097313 0 0.16953207428116379 -0.24553721044775009 0 0.16208744124289959 -0.2285317721097313 0 0.16953207428116379 -0.24553721044775009 0 0.1422041229892243 -0.2327738755342785 0 0.16208744124289959 -0.2285317721097313 0 0.16953207428116379 -0.24553721044775009 0 0.15188635566873859 -0.25315609994904509 0 0.1422041229892243 -0.2327738755342785 0 0.13360438743528111 -0.24792201064071129 0 0.15188635566873859 -0.25315609994904509 0 0.16953207428116379 -0.24553721044775009 0 0.1422041229892243 -0.2327738755342785 0 0.16953207428116379 -0.24553721044775009 0 0.1422041229892243 -0.2327738755342785 0 0.1422041229892243 -0.2327738755342785 0 0.14741114933555999 -0.21924459225947571 0 0.13428011488398131 -0.2123009257425798 0 0.16208744124289959 -0.2285317721097313 0 0.14741114933555999 -0.21924459225947571 0 0.15562114279325989 -0.21247161824508071 0 0.16208744124289959 -0.2285317721097313 0 0.1422041229892243 -0.2327738755342785 0 0.14741114933555999 -0.21924459225947571 0 0.16208744124289959 -0.2285317721097313 0 0.1422041229892243 -0.2327738755342785 0 0.1169545412744107 -0.22151334236615419 0 0.1422041229892243 -0.2327738755342785 0 0.1169545412744107 -0.22151334236615419 0 0.1422041229892243 -0.2327738755342785 0 0.13428011488398131 -0.2123009257425798 0 0.1169545412744107 -0.22151334236615419 0 0.1162185524860733 -0.2383178937013635 0 0.1422041229892243 -0.2327738755342785 0 0.1162185524860733 -0.2383178937013635 0 0.1422041229892243 -0.2327738755342785 0 0.13360438743528111 -0.24792201064071129 0 0.1162185524860733 -0.2383178937013635 0 0.1422041229892243 -0.2327738755342785 0 0.14446728585931851 -0.1882828485776204 0 0.15180133647329541 -0.2029844784680396 0 0.14305629074414891 -0.18152816382131631 0 0.15180133647329541 -0.2029844784680396 0 0.14305629074414891 -0.18152816382131631 0 0.15096039959246649 -0.18850626305253579 0 0.15180133647329541 -0.2029844784680396 0 0.14305629074414891 -0.18152816382131631 0 0.14446728585931851 -0.1882828485776204 0 0.15180133647329541 -0.2029844784680396 0 0.13886255318721891 -0.1983119118400673 0 0.14446728585931851 -0.1882828485776204 0 0.15180133647329541 -0.2029844784680396 0 0.15642721869538881 -0.18937294249779851 0 0.15096039959246649 -0.18850626305253579 0 0.15180133647329541 -0.2029844784680396 0 0.14741114933555999 -0.21924459225947571 0 0.15180133647329541 -0.2029844784680396 0 0.13428011488398131 -0.2123009257425798 0 0.15180133647329541 -0.2029844784680396 0 0.13428011488398131 -0.2123009257425798 0 0.13886255318721891 -0.1983119118400673 0 0.14741114933555999 -0.21924459225947571 0 0.15180133647329541 -0.2029844784680396 0 0.15562114279325989 -0.21247161824508071 0 0.15180133647329541 -0.2029844784680396 0 0.15562114279325989 -0.21247161824508071 0 0.15180133647329541 -0.2029844784680396 0 0.13428011488398131 -0.2123009257425798 0 0.1169545412744107 -0.22151334236615419 0 0.13428011488398131 -0.2123009257425798 0 0.12618997707797541 -0.2063940539986841 0 0.1169545412744107 -0.22151334236615419 0 0.13428011488398131 -0.2123009257425798 0 0.13428011488398131 -0.2123009257425798 0 0.12618997707797541 -0.2063940539986841 0 0.13886255318721891 -0.1983119118400673 0 0.12618997707797541 -0.2063940539986841 0 0.13886255318721891 -0.1983119118400673 0 0.13133917971832279 -0.19230084760348409 0 0.1181933240506801 -0.19322868764471021 0 0.12618997707797541 -0.2063940539986841 0 0.13133917971832279 -0.19230084760348409 0 0.13886255318721891 -0.1983119118400673 0 0.13133917971832279 -0.19230084760348409 0 0.13616876172927639 -0.18628613504777949 0 0.14446728585931851 -0.1882828485776204 0 0.13886255318721891 -0.1983119118400673 0 0.13616876172927639 -0.18628613504777949 0 0.13133917971832279 -0.19230084760348409 0 0.12553906435139259 -0.18447572242809909 0 0.13616876172927639 -0.18628613504777949 0 0.1181933240506801 -0.19322868764471021 0 0.13133917971832279 -0.19230084760348409 0 0.12553906435139259 -0.18447572242809909 0 0.13553453684246389 -0.17636279456591711 0 0.14305629074414891 -0.18152816382131631 0 0.1343112450150025 -0.16007184917459291 0 0.12553906435139259 -0.18447572242809909 0 0.1286018498814277 -0.17756503021997949 0 0.13616876172927639 -0.18628613504777949 0 0.1286018498814277 -0.17756503021997949 0 0.13553453684246389 -0.17636279456591711 0 0.13616876172927639 -0.18628613504777949 0 0.13553453684246389 -0.17636279456591711 0 0.13616876172927639 -0.18628613504777949 0 0.14305629074414891 -0.18152816382131631 0 0.14446728585931851 -0.1882828485776204 0 0.13616876172927639 -0.18628613504777949 0 0.14305629074414891 -0.18152816382131631 0 0.14305629074414891 -0.18152816382131631 0 0.1525567524570331 -0.18013946742298881 0 0.14800129943058271 -0.16963871600925509 0 0.1525567524570331 -0.18013946742298881 0 0.14800129943058271 -0.16963871600925509 0 0.15866090245786149 -0.1702642940157669 0 0.15642721869538881 -0.18937294249779851 0 0.15096039959246649 -0.18850626305253579 0 0.1525567524570331 -0.18013946742298881 0 0.15096039959246649 -0.18850626305253579 0 0.14305629074414891 -0.18152816382131631 0 0.1525567524570331 -0.18013946742298881 0 0.14305629074414891 -0.18152816382131631 0 0.14800129943058271 -0.16963871600925509 0 0.1343112450150025 -0.16007184917459291 0 0.1525901734376047 -0.1570067244237443 0 0.14800129943058271 -0.16963871600925509 0 0.1343112450150025 -0.16007184917459291 0 0.1525901734376047 -0.1570067244237443 0 0.14800129943058271 -0.16963871600925509 0 0.15866090245786149 -0.1702642940157669 0 0.14305629074414891 -0.18152816382131631 0 0.1343112450150025 -0.16007184917459291 0 0.1193974015457006 -0.16573644537516899 0 0.1286018498814277 -0.17756503021997949 0 0.1343112450150025 -0.16007184917459291 0 0.1286018498814277 -0.17756503021997949 0 0.13553453684246389 -0.17636279456591711 0 0.1343112450150025 -0.16007184917459291 0 0.1193974015457006 -0.16573644537516899 0 0.1343112450150025 -0.16007184917459291 0 0.12556619928585611 -0.13861553452786959 0 0.1343112450150025 -0.16007184917459291 0 0.13444046604097501 -0.1413751602008293 0 0.12556619928585611 -0.13861553452786959 0 0.1343112450150025 -0.16007184917459291 0 0.12556619928585611 -0.13861553452786959 0 0.1343112450150025 -0.16007184917459291 0 0.13444046604097501 -0.1413751602008293 0 0.14507788791901169 -0.14309244685263831 0 0.13193042709743341 -0.1213594743776511 0 0.12875565592263391 -0.12809429938570999 0 0.1371125260112642 -0.13100173381717989 0 0.12875565592263391 -0.12809429938570999 0 0.1301344719737407 -0.13409423663186559 0 0.1371125260112642 -0.13100173381717989 0 0.123348828340062 -0.12687639016292321 0 0.12630050298042411 -0.12245592564795341 0 0.12875565592263391 -0.12809429938570999 0 0.1237071791328791 -0.13277803567668681 0 0.123348828340062 -0.12687639016292321 0 0.12875565592263391 -0.12809429938570999 0 0.1237071791328791 -0.13277803567668681 0 0.12875565592263391 -0.12809429938570999 0 0.1301344719737407 -0.13409423663186559 0 0.13444046604097501 -0.1413751602008293 0 0.1301344719737407 -0.13409423663186559 0 0.12556619928585611 -0.13861553452786959 0 0.1237071791328791 -0.13277803567668681 0 0.1301344719737407 -0.13409423663186559 0 0.12556619928585611 -0.13861553452786959 0 0.13444046604097501 -0.1413751602008293 0 0.1301344719737407 -0.13409423663186559 0 0.1371125260112642 -0.13100173381717989 0 0.13444046604097501 -0.1413751602008293 0 0.1371125260112642 -0.13100173381717989 0 0.14507788791901169 -0.14309244685263831 0 0.15156751390321649 -0.12848562061151469 0 0.14507788791901169 -0.14309244685263831 0 0.16251919893843531 -0.1426839067643951 0 0.141457361289023 -0.1186638722253137 0 0.1371125260112642 -0.13100173381717989 0 0.15156751390321649 -0.12848562061151469 0 0.1371125260112642 -0.13100173381717989 0 0.15156751390321649 -0.12848562061151469 0 0.14507788791901169 -0.14309244685263831 0 0.1525901734376047 -0.1570067244237443 0 0.1343112450150025 -0.16007184917459291 0 0.14507788791901169 -0.14309244685263831 0 0.1525901734376047 -0.1570067244237443 0 0.14507788791901169 -0.14309244685263831 0 0.16251919893843531 -0.1426839067643951 0 0.1525901734376047 -0.1570067244237443 0 0.16251919893843531 -0.1426839067643951 0 0.16851820186957051 -0.15952371773606819 0 0.16251919893843531 -0.1426839067643951 0 0.18341918449566499 -0.14383001414573909 0 0.16851820186957051 -0.15952371773606819 0 0.1752179343679314 -0.1232214963077168 0 0.15156751390321649 -0.12848562061151469 0 0.16251919893843531 -0.1426839067643951 0 0.1752179343679314 -0.1232214963077168 0 0.19290765242250421 -0.12572022476840269 0 0.18341918449566499 -0.14383001414573909 0 0.1752179343679314 -0.1232214963077168 0 0.16251919893843531 -0.1426839067643951 0 0.18341918449566499 -0.14383001414573909 0 0.18341918449566499 -0.14383001414573909 0 0.18522032609526429 -0.16564530774154601 0 0.16851820186957051 -0.15952371773606819 0 0.18522032609526429 -0.16564530774154601 0 0.1724638239056043 -0.1752763017862759 0 0.16851820186957051 -0.15952371773606819 0 0.18522032609526429 -0.16564530774154601 0 0.18389788247934569 -0.1859179870116138 0 0.1724638239056043 -0.1752763017862759 0 0.16784960947632069 -0.19445123273982709 0 0.18389788247934569 -0.1859179870116138 0 0.1724638239056043 -0.1752763017862759 0 0.1724638239056043 -0.1752763017862759 0 0.16159166139844169 -0.18190084769253151 0 0.15866090245786149 -0.1702642940157669 0 0.16784960947632069 -0.19445123273982709 0 0.1724638239056043 -0.1752763017862759 0 0.16159166139844169 -0.18190084769253151 0 0.15642721869538881 -0.18937294249779851 0 0.1525567524570331 -0.18013946742298881 0 0.16159166139844169 -0.18190084769253151 0 0.1525567524570331 -0.18013946742298881 0 0.16159166139844169 -0.18190084769253151 0 0.15866090245786149 -0.1702642940157669 0 0.1724638239056043 -0.1752763017862759 0 0.16851820186957051 -0.15952371773606819 0 0.15866090245786149 -0.1702642940157669 0 0.1525901734376047 -0.1570067244237443 0 0.16851820186957051 -0.15952371773606819 0 0.15866090245786149 -0.1702642940157669 0 
</DataArray>
</Points>
<Cells>
<DataArray type="UInt32" Name="connectivity" format="ascii">
0 1 2 3 4 5 6 7 8 9 10 11 12 13 14 15 16 17 18 19 20 21 22 23 24 25 26 27 28 29 30 31 32 33 34 35 36 37 38 39 40 41 42 43 44 45 46 47 48 49 50 51 52 53 54 55 56 57 58 59 60 61 62 63 64 65 66 67 68 69 70 71 72 73 74 75 76 77 78 79 80 81 82 83 84 85 86 87 88 89 90 91 92 93 94 95 96 97 98 99 100 101 102 103 104 105 106 107 108 109 110 111 112 113 114 115 116 117 118 119 120 121 122 123 124 125 126 127 128 129 130 131 132 133 134 135 136 137 138 139 140 141 142 143 144 145 146 147 148 149 150 151 152 153 154 155 156 157 158 159 160 161 162 163 164 165 166 167 168 169 170 171 172 173 174 175 176 177 178 179 180 181 182 183 184 185 186 187 188 189 190 191 192 193 194 195 196 197 198 199 200 201 202 203 204 205 206 207 208 209 210 211 212 213 214 215 216 217 218 219 220 221 222 223 224 225 226 227 228 229 230 231 232 233 234 235 236 237 238 239 240 241 242 243 244 245 246 247 248 249 250 251 252 253 254 255 256 257 258 259 260 261 262 263 264 265 266 267 268 269 270 271 272 273 274 275 276 277 278 279 280 281 282 283 284 285 286 287 288 289 290 291 292 293 294 295 296 297 298 299 300 301 302 303 304 305 306 307 308 309 310 311 312 313 314 315 316 317 318 319 320 321 322 323 324 325 326 327 328 329 330 331 332 333 334 335 336 337 338 339 340 341 342 343 344 345 346 347 348 349 350 351 352 353 354 355 356 357 358 359 360 361 362 363 364 365 366 367 368 369 370 371 372 373 374 375 376 377 378 379 380 381 382 383 384 385 386 387 388 389 390 391 392 393 394 395 396 397 398 399 400 401 402 403 404 405 406 407 408 409 410 411 412 413 414 415 416 417 418 419 420 421 422 423 424 425 426 427 428 429 430 431 432 433 434 435 436 437 438 439 440 441 442 443 444 445 446 447 448 449 450 451 452 453 454 455 456 457 458 459 460 461 462 463 464 465 466 467 468 469 470 471 472 473 474 475 476 477 478 479 480 481 482 483 484 485 486 487 488 489 490 491 492 493 494 495 496 497 498 499 500 501 502 503 504 505 506 507 508 509 510 511 512 513 514 515 516 517 518 519 520 521 522 523 524 525 526 527 528 529 530 531 532 533 534 535 536 537 538 539 540 541 542 543 544 545 546 547 548 549 550 551 552 553 554 555 556 557 558 559 560 561 562 563 564 565 566 567 568 569 570 571 572 573 574 575 576 577 578 579 580 581 582 583 584 585 586 587 588 589 590 591 592 593 594 595 596 597 598 599 600 601 602 603 604 605 606 607 608 609 610 611 612 613 614 615 616 617 618 619 620 621 622 623 624 625 626 627 628 629 630 631 632 633 634 635 636 637 638 639 640 641 642 643 644 645 646 647 648 649 650 651 652 653 654 655 656 657 658 659 660 661 662 663 664 665 666 667 668 669 670 671 672 673 674 675 676 677 678 679 680 681 682 683 684 685 686 687 688 689 690 691 692 693 694 695 696 697 698 699 700 701 702 703 704 705 706 707 708 709 710 711 712 713 714 715 716 717 718 719 720 721 722 723 724 725 726 727 728 729 730 731 732 733 734 735 736 737 738 739 740 741 742 743 744 745 746 747 748 749 750 751 752 753 754 755 756 757 758 759 760 761 762 763 764 765 766 767 768 769 770 771 772 773 774 775 776 777 778 779 780 781 782 783 784 785 786 787 788 789 790 791 792 793 794 795 796 797 798 799 800 801 802 803 804 805 806 807 808 809 810 811 812 813 814 815 816 817 818 819 820 821 822 823 824 825 826 827 828 829 830 831 832 833 834 835 836 837 838 839 840 841 842 843 844 845 846 847 848 849 850 851 852 853 854 855 856 857 858 859 860 861 862 863 864 865 866 867 868 869 870 871 872 873 874 875 876 877 878 879 880 881 882 883 884 885 886 887 888 889 890 891 892 893 894 895 896 897 898 899 900 901 902 903 904 905 906 907 908 909 910 911 912 913 914 915 916 917 918 919 920 921 922 923 924 925 926 927 928 929 930 931 932 933 934 935 936 937 938 939 940 941 942 943 944 945 946 947 948 949 950 951 952 953 954 955 956 957 958 959 960 961 962 963 964 965 966 967 968 969 970 971 972 973 974 975 976 977 978 979 980 981 982 983 984 985 986 987 988 989 990 991 992 993 994 995 996 997 998 999 1000 1001 1002 1003 1004 1005 1006 1007 1008 1009 1010 1011 1012 1013 1014 1015 1016 1017 1018 1019 1020 1021 1022 1023 1024 1025 1026 1027 1028 1029 1030 1031 1032 1033 1034 1035 1036 1037 1038 1039 1040 1041 1042 1043 1044 1045 1046 1047 1048 1049 1050 1051 1052 1053 1054 1055 1056 1057 1058 1059 1060 1061 1062 1063 1064 1065 1066 1067 1068 1069 1070 1071 1072 1073 1074 1075 1076 1077 1078 1079 1080 1081 1082 1083 1084 1085 1086 1087 1088 1089 1090 1091 1092 1093 1094 1095 1096 1097 1098 1099 1100 1101 1102 1103 1104 1105 1106 1107 1108 1109 1110 1111 1112 1113 1114 1115 1116 1117 1118 1119 1120 1121 1122 1123 1124 1125 1126 1127 1128 1129 1130 1131 1132 1133 1134 1135 1136 1137 1138 1139 1140 1141 1142 1143 1144 1145 1146 1147 1148 1149 1150 1151 1152 1153 1154 1155 1156 1157 1158 1159 1160 1161 1162 1163 1164 1165 1166 1167 1168 1169 1170 1171 1172 1173 1174 1175 1176 1177 1178 1179 1180 1181 1182 1183 1184 1185 1186 1187 1188 1189 1190 1191 1192 1193 1194 1195 1196 1197 1198 1199 1200 1201 1202 1203 1204 1205 1206 1207 1208 1209 1210 1211 1212 1213 1214 1215 1216 1217 1218 1219 1220 1221 1222 1223 1224 1225 1226 1227 1228 1229 1230 1231 1232 1233 1234 1235 1236 1237 1238 1239 1240 1241 1242 1243 1244 1245 1246 1247 1248 1249 1250 1251 1252 1253 1254 1255 1256 1257 1258 1259 1260 1261 1262 1263 1264 1265 1266 1267 1268 1269 1270 1271 1272 1273 1274 1275 1276 1277 1278 1279 1280 1281 1282 1283 1284 1285 1286 1287 1288 1289 1290 1291 1292 1293 1294 1295 1296 1297 1298 1299 1300 1301 1302 1303 1304 1305 1306 1307 1308 1309 1310 1311 1312 1313 1314 1315 1316 1317 1318 1319 1320 1321 1322 1323 1324 1325 1326 1327 1328 1329 1330 1331 1332 1333 1334 1335 1336 1337 1338 1339 1340 1341 1342 1343 1344 1345 1346 1347 1348 1349 1350 1351 1352 1353 1354 1355 1356 1357 1358 1359 1360 1361 1362 1363 1364 1365 1366 1367 1368 1369 1370 1371 1372 1373 1374 1375 1376 1377 1378 1379 1380 1381 1382 1383 1384 1385 1386 1387 1388 1389 1390 1391 1392 1393 1394 1395 1396 1397 1398 1399 1400 1401 1402 1403 1404 1405 1406 1407 1408 1409 1410 1411 1412 1413 1414 1415 1416 1417 1418 1419 1420 1421 1422 1423 1424 1425 1426 1427 1428 1429 1430 1431 1432 1433 1434 1435 1436 1437 1438 1439 1440 1441 1442 1443 1444 1445 1446 1447 1448 1449 1450 1451 1452 1453 1454 1455 1456 1457 1458 1459 1460 1461 1462 1463 1464 1465 1466 1467 1468 1469 1470 1471 1472 1473 1474 1475 1476 1477 1478 1479 1480 1481 1482 1483 1484 1485 1486 1487 1488 1489 1490 1491 1492 1493 1494 1495 1496 1497 1498 1499 1500 1501 1502 1503 1504 1505 1506 1507 1508 1509 1510 1511 1512 1513 1514 1515 1516 1517 1518 1519 1520 1521 1522 1523 1524 1525 1526 1527 1528 1529 1530 1531 1532 1533 1534 1535 1536 1537 1538 1539 1540 1541 1542 1543 1544 1545 1546 1547 1548 1549 1550 1551 1552 1553 1554 1555 1556 1557 1558 1559 1560 1561 1562 1563 1564 1565 1566 1567 1568 1569 1570 1571 1572 1573 1574 1575 1576 1577 1578 1579 1580 1581 1582 1583 1584 1585 1586 1587 1588 1589 1590 1591 1592 1593 1594 1595 1596 1597 1598 1599 1600 1601 1602 1603 1604 1605 1606 1607 1608 1609 1610 1611 1612 1613 1614 1615 1616 1617 1618 1619 1620 1621 1622 1623 1624 1625 1626 1627 1628 1629 1630 1631 1632 1633 1634 1635 1636 1637 1638 1639 1640 1641 1642 1643 1644 1645 1646 1647 1648 1649 1650 1651 1652 1653 1654 1655 1656 1657 1658 1659 1660 1661 1662 1663 1664 1665 1666 1667 1668 1669 1670 1671 1672 1673 1674 1675 1676 1677 1678 1679 1680 1681 1682 1683 1684 1685 1686 1687 1688 1689 1690 1691 1692 1693 1694 1695 1696 1697 1698 1699 1700 1701 1702 1703 1704 1705 1706 1707 1708 1709 1710 1711 1712 1713 1714 1715 1716 1717 1718 1719 1720 1721 1722 1723 1724 1725 1726 1727 1728 1729 1730 1731 1732 1733 1734 1735 1736 1737 1738 1739 1740 1741 1742 1743 1744 1745 1746 1747 1748 1749 1750 1751 1752 1753 1754 1755 1756 1757 1758 1759 1760 1761 1762 1763 1764 1765 1766 1767 1768 1769 1770 1771 1772 1773 1774 1775 1776 1777 1778 1779 1780 1781 1782 1783 1784 1785 1786 1787 1788 1789 1790 1791 1792 1793 1794 1795 1796 1797 1798 1799 1800 1801 1802 1803 1804 1805 1806 1807 1808 1809 1810 1811 1812 1813 1814 1815 1816 1817 1818 1819 1820 1821 1822 1823 1824 1825 1826 1827 1828 1829 1830 1831 1832 1833 1834 1835 1836 1837 1838 1839 1840 1841 1842 1843 1844 1845 1846 1847 1848 1849 1850 1851 1852 1853 1854 1855 1856 1857 1858 1859 1860 1861 1862 1863 1864 1865 1866 1867 1868 1869 1870 1871 1872 1873 1874 1875 1876 1877 1878 1879 1880 1881 1882 1883 1884 1885 1886 1887 1888 1889 1890 1891 1892 1893 1894 1895 1896 1897 1898 1899 1900 1901 1902 1903 1904 1905 1906 1907 1908 1909 1910 1911 1912 1913 1914 1915 1916 1917 1918 1919 1920 1921 1922 1923 1924 1925 1926 1927 1928 1929 1930 1931 1932 1933 1934 1935 1936 1937 1938 1939 1940 1941 1942 1943 1944 1945 1946 1947 1948 1949 1950 1951 1952 1953 1954 1955 1956 1957 1958 1959 1960 1961 1962 1963 1964 1965 1966 1967 1968 1969 1970 1971 1972 1973 1974 1975 1976 1977 1978 1979 1980 1981 1982 1983 1984 1985 1986 1987 1988 1989 1990 1991 1992 1993 1994 1995 1996 1997 1998 1999 2000 2001 2002 2003 2004 2005 2006 2007 2008 2009 2010 2011 2012 2013 2014 2015 2016 2017 2018 2019 2020 2021 2022 2023 2024 2025 2026 2027 2028 2029 2030 2031 2032 2033 2034 2035 2036 2037 2038 2039 2040 2041 2042 2043 2044 2045 2046 2047 2048 2049 2050 2051 2052 2053 2054 2055 2056 2057 2058 2059 2060 2061 2062 2063 2064 2065 2066 2067 2068 2069 2070 2071 2072 2073 2074 2075 2076 2077 2078 2079 2080 2081 2082 2083 2084 2085 2086 2087 2088 2089 2090 2091 2092 2093 2094 2095 2096 2097 2098 2099 2100 2101 2102 2103 2104 2105 2106 2107 2108 2109 2110 2111 2112 2113 2114 2115 2116 2117 2118 2119 2120 2121 2122 2123 2124 2125 2126 2127 2128 2129 2130 2131 2132 2133 2134 2135 2136 2137 2138 2139 2140 2141 2142 2143 2144 2145 2146 2147 2148 2149 2150 2151 2152 2153 2154 2155 2156 2157 2158 2159 2160 2161 2162 2163 2164 2165 2166 2167 2168 2169 2170 2171 2172 2173 2174 2175 2176 2177 2178 2179 2180 2181 2182 2183 2184 2185 2186 2187 2188 2189 2190 2191 2192 2193 2194 2195 2196 2197 2198 2199 2200 2201 2202 2203 2204 2205 2206 2207 2208 2209 2210 2211 2212 2213 2214 2215 2216 2217 2218 2219 2220 2221 2222 2223 2224 2225 2226 2227 2228 2229 2230 2231 2232 2233 2234 2235 2236 2237 2238 2239 2240 2241 2242 2243 2244 2245 2246 2247 2248 2249 2250 2251 2252 2253 2254 2255 2256 2257 2258 2259 2260 2261 2262 2263 2264 2265 2266 2267 2268 2269 2270 2271 2272 2273 2274 2275 2276 2277 2278 2279 2280 2281 2282 2283 2284 2285 2286 2287 2288 2289 2290 2291 2292 2293 2294 2295 2296 2297 2298 2299 2300 2301 2302 2303 2304 2305 2306 2307 2308 2309 2310 2311 2312 2313 2314 2315 2316 2317 2318 2319 2320 2321 2322 2323 2324 2325 2326 2327 2328 2329 2330 2331 2332 2333 2334 2335 2336 2337 2338 2339 2340 2341 2342 2343 2344 2345 2346 2347 2348 2349 2350 2351 2352 2353 2354 2355 2356 2357 2358 2359 2360 2361 2362 2363 2364 2365 2366 2367 2368 2369 2370 2371 2372 2373 2374 2375 2376 2377 2378 2379 2380 2381 2382 2383 2384 2385 2386 2387 2388 2389 2390 2391 2392 2393 2394 2395 2396 2397 2398 2399 2400 2401 2402 2403 2404 2405 2406 2407 2408 2409 2410 2411 2412 2413 2414 2415 2416 2417 2418 2419 2420 2421 2422 2423 2424 2425 2426 2427 2428 2429 2430 2431 2432 2433 2434 2435 2436 2437 2438 2439 2440 2441 2442 2443 2444 2445 2446 2447 2448 2449 2450 2451 2452 2453 2454 2455 2456 2457 2458 2459 2460 2461 2462 2463 2464 2465 2466 2467 2468 2469 2470 2471 2472 2473 2474 2475 2476 2477 2478 2479 2480 2481 2482 2483 2484 2485 2486 2487 2488 2489 2490 2491 2492 2493 2494 2495 2496 2497 2498 2499 2500 2501 2502 2503 2504 2505 2506 2507 2508 2509 2510 2511 2512 2513 2514 2515 2516 2517 2518 2519 2520 2521 2522 2523 2524 2525 2526 2527 2528 2529 2530 2531 2532 2533 2534 2535 2536 2537 2538 2539 2540 2541 2542 2543 2544 2545 2546 2547 2548 2549 2550 2551 2552 2553 2554 2555 2556 2557 2558 2559 2560 2561 2562 2563 2564 2565 2566 2567 2568 2569 2570 2571 2572 2573 2574 2575 2576 2577 2578 2579 2580 2581 2582 2583 2584 2585 2586 2587 2588 2589 2590 2591 2592 2593 2594 2595 2596 2597 2598 2599 2600 2601 2602 2603 2604 2605 2606 2607 2608 2609 2610 2611 2612 2613 2614 2615 2616 2617 2618 2619 2620 2621 2622 2623 2624 2625 2626 2627 2628 2629 2630 2631 2632 2633 2634 2635 2636 2637 2638 2639 2640 2641 2642 2643 2644 2645 2646 2647 2648 2649 2650 2651 2652 2653 2654 2655 2656 2657 2658 2659 2660 2661 2662 2663 2664 2665 2666 2667 2668 2669 2670 2671 2672 2673 2674 2675 2676 2677 2678 2679 2680 2681 2682 2683 2684 2685 2686 2687 2688 2689 2690 2691 2692 2693 2694 2695 2696 2697 2698 2699 2700 2701 2702 2703 2704 2705 2706 2707 2708 2709 2710 2711 2712 2713 2714 2715 2716 2717 2718 2719 2720 2721 2722 2723 2724 2725 2726 2727 2728 2729 2730 2731 2732 2733 2734 2735 2736 2737 2738 2739 2740 2741 2742 2743 2744 2745 2746 2747 2748 2749 2750 2751 2752 2753 2754 2755 2756 2757 2758 2759 2760 2761 2762 2763 2764 2765 2766 2767 2768 2769 2770 2771 2772 2773 2774 2775 2776 2777 2778 2779 2780 2781 2782 2783 2784 2785 2786 2787 2788 2789 2790 2791 2792 2793 2794 2795 2796 2797 2798 2799 2800 2801 2802 2803 2804 2805 2806 2807 2808 2809 2810 2811 2812 2813 2814 2815 2816 2817 2818 2819 2820 2821 2822 2823 2824 2825 2826 2827 2828 2829 2830 2831 2832 2833 2834 2835 2836 2837 2838 2839 2840 2841 2842 2843 2844 2845 2846 2847 2848 2849 2850 2851 2852 2853 2854 2855 2856 2857 2858 2859 2860 2861 2862 2863 2864 2865 2866 2867 2868 2869 2870 2871 2872 2873 2874 2875 2876 2877 2878 2879 2880 2881 2882 2883 2884 2885 2886 2887 2888 2889 2890 2891 2892 2893 2894 2895 2896 2897 2898 2899 2900 2901 2902 2903 2904 2905 2906 2907 2908 2909 2910 2911 2912 2913 2914 2915 2916 2917 2918 2919 2920 2921 2922 2923 2924 2925 2926 2927 2928 2929 2930 2931 2932 2933 2934 2935 2936 2937 2938 2939 2940 2941 2942 2943 2944 2945 2946 2947 2948 2949 2950 2951 2952 2953 2954 2955 2956 2957 2958 2959 2960 2961 2962 2963 2964 2965 2966 2967 2968 2969 2970 2971 2972 2973 2974 2975 2976 2977 2978 2979 2980 2981 2982 2983 2984 2985 2986 2987 2988 2989 2990 2991 2992 2993 2994 2995 2996 2997 2998 2999 3000 3001 3002 3003 3004 3005 3006 3007 3008 3009 3010 3011 3012 3013 3014 3015 3016 3017 3018 3019 3020 3021 3022 3023 3024 3025 3026 3027 3028 3029 3030 3031 3032 3033 3034 3035 3036 3037 3038 3039 3040 3041 3042 3043 3044 3045 3046 3047 3048 3049 3050 3051 3052 3053 3054 3055 3056 3057 3058 3059 3060 3061 3062 3063 3064 3065 3066 3067 3068 3069 3070 3071 3072 3073 3074 3075 3076 3077 3078 3079 3080 3081 3082 3083 3084 3085 3086 3087 3088 3089 3090 3091 3092 3093 3094 3095 3096 3097 3098 3099 3100 3101 3102 3103 3104 3105 3106 3107 3108 3109 3110 3111 3112 3113 3114 3115 3116 3117 3118 3119 3120 3121 3122 3123 3124 3125 3126 3127 3128 3129 3130 3131 3132 3133 3134 3135 3136 3137 3138 3139 3140 3141 3142 3143 3144 3145 3146 3147 3148 3149 3150 3151 3152 3153 3154 3155 3156 3157 3158 3159 3160 3161 3162 3163 3164 3165 3166 3167 3168 3169 3170 3171 3172 3173 3174 3175 3176 3177 3178 3179 3180 3181 3182 3183 3184 3185 3186 3187 3188 3189 3190 3191 3192 3193 3194 3195 3196 3197 3198 3199 3200 3201 3202 3203 3204 3205 3206 3207 3208 3209 3210 3211 3212 3213 3214 3215 3216 3217 3218 3219 3220 3221 3222 3223 3224 3225 3226 3227 3228 3229 3230 3231 3232 3233 3234 3235 3236 3237 3238 3239 3240 3241 3242 3243 3244 3245 3246 3247 3248 3249 3250 3251 3252 3253 3254 3255 3256 3257 3258 3259 3260 3261 3262 3263 3264 3265 3266 3267 3268 3269 3270 3271 3272 3273 3274 3275 3276 3277 3278 3279 3280 3281 3282 3283 3284 3285 3286 3287 3288 3289 3290 3291 3292 3293 3294 3295 3296 3297 3298 3299 3300 3301 3302 3303 3304 3305 3306 3307 3308 3309 3310 3311 3312 3313 3314 3315 3316 3317 3318 3319 3320 3321 3322 3323 3324 3325 3326 3327 3328 3329 3330 3331 3332 3333 3334 3335 3336 3337 3338 3339 3340 3341 3342 3343 3344 3345 3346 3347 3348 3349 3350 3351 3352 3353 3354 3355 3356 3357 3358 3359 3360 3361 3362 3363 3364 3365 3366 3367 3368 3369 3370 3371 3372 3373 3374 3375 3376 3377 3378 3379 3380 3381 3382 3383 3384 3385 3386 3387 3388 3389 3390 3391 3392 3393 3394 3395 3396 3397 3398 3399 3400 3401 3402 3403 3404 3405 3406 3407 3408 3409 3410 3411 3412 3413 3414 3415 3416 3417 3418 3419 3420 3421 3422 3423 3424 3425 3426 3427 3428 3429 3430 3431 3432 3433 3434 3435 3436 3437 3438 3439 3440 3441 3442 3443 3444 3445 3446 3447 3448 3449 3450 3451 3452 3453 3454 3455 3456 3457 3458 3459 3460 3461 3462 3463 3464 3465 3466 3467 3468 3469 3470 3471 3472 3473 3474 3475 3476 3477 3478 3479 3480 3481 3482 3483 3484 3485 3486 3487 3488 3489 3490 3491 3492 3493 3494 3495 3496 3497 3498 3499 3500 3501 3502 3503 3504 3505 3506 3507 3508 3509 3510 3511 3512 3513 3514 3515 3516 3517 3518 3519 3520 3521 3522 3523 3524 3525 3526 3527 3528 3529 3530 3531 3532 3533 3534 3535 3536 3537 3538 3539 3540 3541 3542 3543 3544 3545 3546 3547 3548 3549 3550 3551 3552 3553 3554 3555 3556 3557 3558 3559 3560 3561 3562 3563 3564 3565 3566 3567 3568 3569 3570 3571 3572 3573 3574 3575 3576 3577 3578 3579 3580 3581 3582 3583 3584 3585 3586 3587 3588 3589 3590 3591 3592 3593 3594 3595 3596 3597 3598 3599 3600 3601 3602 3603 3604 3605 3606 3607 3608 3609 3610 3611 3612 3613 3614 3615 3616 3617 3618 3619 3620 3621 3622 3623 3624 3625 3626 3627 3628 3629 3630 3631 3632 3633 3634 3635 3636 3637 3638 3639 3640 3641 3642 3643 3644 3645 3646 3647 3648 3649 3650 3651 3652 3653 3654 3655 3656 3657 3658 3659 3660 3661 3662 3663 3664 3665 3666 3667 3668 3669 3670 3671 3672 3673 3674 3675 3676 3677 3678 3679 3680 3681 3682 3683 3684 3685 3686 3687 3688 3689 3690 3691 3692 3693 3694 3695 3696 3697 3698 3699 3700 3701 3702 3703 3704 3705 3706 3707 3708 3709 3710 3711 3712 3713 3714 3715 3716 3717 3718 3719 3720 3721 3722 3723 3724 3725 3726 3727 3728 3729 3730 3731 3732 3733 3734 3735 3736 3737 3738 3739 3740 3741 3742 3743 3744 3745 3746 3747 3748 3749 3750 3751 3752 3753 3754 3755 3756 3757 3758 3759 3760 3761 3762 3763 3764 3765 3766 3767 3768 3769 3770 3771 3772 3773 3774 3775 3776 3777 3778 3779 3780 3781 3782 3783 3784 3785 3786 3787 3788 3789 3790 3791 3792 3793 3794 3795 3796 3797 3798 3799 3800 3801 3802 3803 3804 3805 3806 3807 3808 3809 3810 3811 3812 3813 3814 3815 3816 3817 3818 3819 3820 3821 3822 3823 3824 3825 3826 3827 3828 3829 3830 3831 3832 3833 3834 3835 3836 3837 3838 3839 3840 3841 3842 3843 3844 3845 3846 3847 3848 3849 3850 3851 3852 3853 3854 3855 3856 3857 3858 3859 3860 3861 3862 3863 3864 3865 3866 3867 3868 3869 3870 3871 3872 3873 3874 3875 3876 3877 3878 3879 3880 3881 3882 3883 3884 3885 3886 3887 3888 3889 3890 3891 3892 3893 3894 3895 3896 3897 3898 3899 3900 3901 3902 3903 3904 3905 3906 3907 3908 3909 3910 3911 3912 3913 3914 3915 3916 3917 3918 3919 3920 3921 3922 3923 3924 3925 3926 3927 3928 3929 3930 3931 3932 3933 3934 3935 3936 3937 3938 3939 3940 3941 3942 3943 3944 3945 3946 3947 3948 3949 3950 3951 3952 3953 3954 3955 3956 3957 3958 3959 3960 3961 3962 3963 3964 3965 3966 3967 3968 3969 3970 3971 3972 3973 3974 3975 3976 3977 3978 3979 3980 3981 3982 3983 3984 3985 3986 3987 3988 3989 3990 3991 3992 3993 3994 3995 3996 3997 3998 3999 4000 4001 4002 4003 4004 4005 4006 4007 4008 4009 4010 4011 4012 4013 4014 4015 4016 4017 4018 4019 4020 4021 4022 4023 4024 4025 4026 4027 4028 4029 4030 4031 4032 4033 4034 4035 4036 4037 4038 4039 4040 4041 4042 4043 4044 4045 4046 4047 4048 4049 4050 4051 4052 4053 4054 4055 4056 4057 4058 4059 4060 4061 4062 4063 4064 4065 4066 4067 4068 4069 4070 4071 4072 4073 4074 4075 4076 4077 4078 4079 4080 4081 4082 4083 4084 4085 4086 4087 4088 4089 4090 4091 4092 4093 4094 4095 4096 4097 4098 4099 4100 4101 4102 4103 4104 4105 4106 4107 4108 4109 4110 4111 4112 4113 4114 4115 4116 4117 4118 4119 4120 4121 4122 4123 4124 4125 4126 4127 4128 4129 4130 4131 4132 4133 4134 4135 4136 4137 4138 4139 4140 4141 4142 4143 4144 4145 4146 4147 4148 4149 4150 4151 4152 4153 4154 4155 4156 4157 4158 4159 4160 4161 4162 4163 4164 4165 4166 4167 4168 4169 4170 4171 4172 4173 4174 4175 4176 4177 4178 4179 4180 4181 4182 4183 4184 4185 4186 4187 4188 4189 4190 4191 4192 4193 4194 4195 4196 4197 4198 4199 4200 4201 4202 4203 4204 4205 4206 4207 4208 4209 4210 4211 4212 4213 4214 4215 4216 4217 4218 4219 4220 4221 4222 4223 4224 4225 4226 4227 4228 4229 4230 4231 4232 4233 4234 4235 4236 4237 4238 4239 4240 4241 4242 4243 4244 4245 4246 4247 4248 4249 4250 4251 4252 4253 4254 4255 4256 4257 4258 4259 4260 4261 4262 4263 4264 4265 4266 4267 4268 4269 4270 4271 4272 4273 4274 4275 4276 4277 4278 4279 4280 4281 4282 4283 4284 4285 4286 4287 4288 4289 4290 4291 4292 4293 4294 4295 4296 4297 4298 4299 4300 4301 4302 4303 4304 4305 4306 4307 4308 4309 4310 4311 4312 4313 4314 4315 4316 4317 4318 4319 4320 4321 4322 4323 4324 4325 4326 4327 4328 4329 4330 4331 4332 4333 4334 4335 4336 4337 4338 4339 4340 4341 4342 4343 4344 4345 4346 4347 4348 4349 4350 4351 4352 4353 4354 4355 4356 4357 4358 4359 4360 4361 4362 4363 4364 4365 4366 4367 4368 4369 4370 4371 4372 4373 4374 4375 4376 4377 4378 4379 4380 4381 4382 4383 4384 4385 4386 4387 4388 4389 4390 4391 4392 4393 4394 4395 4396 4397 4398 4399 4400 4401 4402 4403 4404 4405 4406 4407 4408 4409 4410 4411 4412 4413 4414 4415 4416 4417 4418 4419 4420 4421 4422 4423 4424 4425 4426 4427 4428 4429 4430 4431 4432 4433 4434 4435 4436 4437 4438 4439 4440 4441 4442 4443 4444 4445 4446 4447 4448 4449 4450 4451 4452 4453 4454 4455 4456 4457 4458 4459 4460 4461 4462 4463 4464 4465 4466 4467 4468 4469 4470 4471 4472 4473 4474 4475 4476 4477 4478 4479 4480 4481 4482 4483 4484 4485 4486 4487 4488 4489 4490 4491 4492 4493 4494 4495 4496 4497 4498 4499 4500 4501 4502 4503 4504 4505 4506 4507 4508 4509 4510 4511 4512 4513 4514 4515 4516 4517 4518 4519 4520 4521 4522 4523 4524 4525 4526 4527 4528 4529 4530 4531 4532 4533 4534 4535 4536 4537 4538 4539 4540 4541 4542 4543 4544 4545 4546 4547 4548 4549 4550 4551 4552 4553 4554 4555 4556 4557 4558 4559 4560 4561 4562 4563 4564 4565 4566 4567 4568 4569 4570 4571 4572 4573 4574 4575 4576 4577 4578 4579 4580 4581 4582 4583 4584 4585 4586 4587 4588 4589 4590 4591 4592 4593 4594 4595 4596 4597 4598 4599 4600 4601 4602 4603 4604 4605 4606 4607 4608 4609 4610 4611 4612 4613 4614 4615 4616 4617 4618 4619 4620 4621 4622 4623 4624 4625 4626 4627 4628 4629 4630 4631 4632 4633 4634 4635 4636 4637 4638 4639 4640 4641 4642 4643 4644 4645 4646 4647 4648 4649 4650 4651 4652 4653 4654 4655 4656 4657 4658 4659 4660 4661 4662 4663 4664 4665 4666 4667 4668 4669 4670 4671 4672 4673 4674 4675 4676 4677 4678 4679 4680 4681 4682 4683 4684 4685 4686 4687 4688 4689 4690 4691 4692 4693 4694 4695 4696 4697 4698 4699 4700 4701 4702 4703 4704 4705 4706 4707 4708 4709 4710 4711 4712 4713 4714 4715 4716 4717 4718 4719 4720 4721 4722 4723 4724 4725 4726 4727 4728 4729 4730 4731 4732 4733 4734 4735 4736 4737 4738 4739 4740 4741 4742 4743 4744 4745 4746 4747 4748 4749 4750 4751 4752 4753 4754 4755 4756 4757 4758 4759 4760 4761 4762 4763 4764 4765 4766 4767 4768 4769 4770 4771 4772 4773 4774 4775 4776 4777 4778 4779 4780 4781 4782 4783 4784 4785 4786 4787 4788 4789 4790 4791 4792 4793 4794 4795 4796 4797 4798 4799 4800 4801 4802 4803 4804 4805 4806 4807 4808 4809 4810 4811 4812 4813 4814 4815 4816 4817 4818 4819 4820 4821 4822 4823 4824 4825 4826 4827 4828 4829 4830 4831 4832 4833 4834 4835 4836 4837 4838 4839 4840 4841 4842 4843 4844 4845 4846 4847 4848 4849 4850 4851 4852 4853 4854 4855 4856 4857 4858 4859 4860 4861 4862 4863 4864 4865 4866 4867 4868 4869 4870 4871 4872 4873 4874 4875 4876 4877 4878 4879 4880 4881 4882 4883 4884 4885 4886 4887 4888 4889 4890 4891 4892 4893 4894 4895 4896 4897 4898 4899 4900 4901 4902 4903 4904 4905 4906 4907 4908 4909 4910 4911 4912 4913 4914 4915 4916 4917 4918 4919 4920 4921 4922 4923 4924 4925 4926 4927 4928 4929 4930 4931 4932 4933 4934 4935 4936 4937 4938 4939 4940 4941 4942 4943 4944 4945 4946 4947 4948 4949 4950 4951 4952 4953 4954 4955 4956 4957 4958 4959 4960 4961 4962 4963 4964 4965 4966 4967 4968 4969 4970 4971 4972 4973 4974 4975 4976 4977 4978 4979 4980 4981 4982 4983 4984 4985 4986 4987 4988 4989 4990 4991 4992 4993 4994 4995 4996 4997 4998 4999 5000 5001 5002 5003 5004 5005 5006 5007 5008 5009 5010 5011 5012 5013 5014 5015 5016 5017 5018 5019 5020 5021 5022 5023 5024 5025 5026 5027 5028 5029 5030 5031 5032 5033 5034 5035 5036 5037 5038 5039 5040 5041 5042 5043 5044 5045 5046 5047 5048 5049 5050 5051 5052 5053 5054 5055 5056 5057 5058 5059 5060 5061 5062 5063 5064 5065 5066 5067 5068 5069 5070 5071 5072 5073 5074 5075 5076 5077 5078 5079 5080 5081 5082 5083 5084 5085 5086 5087 5088 5089 5090 5091 5092 5093 5094 5095 5096 5097 5098 5099 5100 5101 5102 5103 5104 5105 5106 5107 5108 5109 5110 5111 5112 5113 5114 5115 5116 5117 5118 5119 5120 5121 5122 5123 5124 5125 5126 5127 5128 5129 5130 5131 5132 5133 5134 5135 5136 5137 5138 5139 5140 5141 5142 5143 5144 5145 5146 5147 5148 5149 5150 5151 5152 5153 5154 5155 5156 5157 5158 5159 5160 5161 5162 5163 5164 5165 5166 5167 5168 5169 5170 5171 5172 5173 5174 5175 5176 5177 5178 5179 5180 5181 5182 5183 5184 5185 5186 5187 5188 5189 5190 5191 5192 5193 5194 5195 5196 5197 5198 5199 5200 5201 5202 5203 5204 5205 5206 5207 5208 5209 5210 5211 5212 5213 5214 5215 5216 5217 5218 5219 5220 5221 5222 5223 5224 5225 5226 5227 5228 5229 5230 5231 5232 5233 5234 5235 5236 5237 5238 5239 5240 5241 5242 5243 5244 5245 5246 5247 5248 5249 5250 5251 5252 5253 5254 5255 5256 5257 5258 5259 5260 5261 5262 5263 5264 5265 5266 5267 5268 5269 5270 5271 5272 5273 5274 5275 5276 5277 5278 5279 5280 5281 5282 5283 5284 5285 5286 5287 5288 5289 5290 5291 5292 5293 5294 5295 5296 5297 5298 5299 5300 5301 5302 5303 5304 5305 5306 5307 5308 5309 5310 5311 5312 5313 5314 5315 5316 5317 5318 5319 5320 5321 5322 5323 5324 5325 5326 5327 5328 5329 5330 5331 5332 5333 5334 5335 5336 5337 5338 5339 5340 5341 5342 5343 5344 5345 5346 5347 5348 5349 5350 5351 5352 5353 5354 5355 5356 5357 5358 5359 5360 5361 5362 5363 5364 5365 5366 5367 5368 5369 5370 5371 5372 5373 5374 5375 5376 5377 5378 5379 5380 5381 5382 5383 5384 5385 5386 5387 5388 5389 5390 5391 5392 5393 5394 5395 5396 5397 5398 5399 5400 5401 5402 5403 5404 5405 5406 5407 5408 5409 5410 5411 5412 5413 5414 5415 5416 5417 5418 5419 5420 5421 5422 5423 5424 5425 5426 5427 5428 5429 5430 5431 5432 5433 5434 5435 5436 5437 5438 5439 5440 5441 5442 5443 5444 5445 5446 5447 5448 5449 5450 5451 5452 5453 5454 5455 5456 5457 5458 5459 5460 5461 5462 5463 5464 5465 5466 5467 5468 5469 5470 5471 5472 5473 5474 5475 5476 5477 5478 5479 5480 5481 5482 5483 5484 5485 5486 5487 5488 5489 5490 5491 5492 5493 5494 5495 5496 5497 5498 5499 5500 5501 5502 5503 5504 5505 5506 5507 5508 5509 5510 5511 5512 5513 5514 5515 5516 5517 5518 5519 5520 5521 5522 5523 5524 5525 5526 5527 5528 5529 5530 5531 5532 5533 5534 5535 5536 5537 5538 5539 5540 5541 5542 5543 5544 5545 5546 5547 5548 5549 5550 5551 5552 5553 5554 5555 5556 5557 5558 5559 5560 5561 5562 5563 5564 5565 5566 5567 5568 5569 5570 5571 5572 5573 5574 5575 5576 5577 5578 5579 5580 5581 5582 5583 5584 5585 5586 5587 5588 5589 5590 5591 5592 5593 5594 5595 5596 5597 5598 5599 5600 5601 5602 5603 5604 5605 5606 5607 5608 5609 5610 5611 5612 5613 5614 5615 5616 5617 5618 5619 5620 5621 5622 5623 5624 5625 5626 5627 5628 5629 5630 5631 5632 5633 5634 5635 5636 5637 5638 5639 5640 5641 5642 5643 5644 5645 5646 5647 5648 5649 5650 5651 5652 5653 5654 5655 5656 5657 5658 5659 5660 5661 5662 5663 5664 5665 5666 5667 5668 5669 5670 5671 5672 5673 5674 5675 5676 5677 5678 5679 5680 5681 5682 5683 5684 5685 5686 5687 5688 5689 5690 5691 5692 5693 5694 5695 5696 5697 5698 5699 5700 5701 5702 5703 5704 5705 5706 5707 5708 5709 5710 5711 5712 5713 5714 5715 5716 5717 5718 5719 5720 5721 5722 5723 5724 5725 5726 5727 5728 5729 5730 5731 5732 5733 5734 5735 5736 5737 5738 5739 5740 5741 5742 5743 5744 5745 5746 5747 5748 5749 5750 5751 5752 5753 5754 5755 5756 5757 5758 5759 5760 5761 5762 5763 5764 5765 5766 5767 5768 5769 5770 5771 5772 5773 5774 5775 5776 5777 5778 5779 5780 5781 5782 5783 5784 5785 5786 5787 5788 5789 5790 5791 5792 5793 5794 5795 5796 5797 5798 5799 5800 5801 5802 5803 5804 5805 5806 5807 5808 5809 5810 5811 5812 5813 5814 5815 5816 5817 5818 5819 5820 5821 5822 5823 5824 5825 5826 5827 5828 5829 5830 5831 5832 5833 5834 5835 5836 5837 5838 5839 5840 5841 5842 5843 5844 5845 5846 5847 5848 5849 5850 5851 5852 5853 5854 5855 5856 5857 5858 5859 5860 5861 5862 5863 5864 5865 5866 5867 5868 5869 5870 5871 5872 5873 5874 5875 5876 5877 5878 5879 5880 5881 5882 5883 5884 5885 5886 5887 5888 5889 5890 5891 5892 5893 5894 5895 5896 5897 5898 5899 5900 5901 5902 5903 5904 5905 5906 5907 5908 5909 5910 5911 5912 5913 5914 5915 5916 5917 5918 5919 5920 5921 5922 5923 5924 5925 5926 5927 5928 5929 5930 5931 5932 5933 5934 5935 5936 5937 5938 5939 5940 5941 5942 5943 5944 5945 5946 5947 5948 5949 5950 5951 5952 5953 5954 5955 5956 5957 5958 5959 5960 5961 5962 5963 5964 5965 5966 5967 5968 5969 5970 5971 5972 5973 5974 5975 5976 5977 5978 5979 5980 5981 5982 5983 5984 5985 5986 5987 5988 5989 5990 5991 5992 5993 5994 5995 5996 5997 5998 5999 6000 6001 6002 6003 6004 6005 6006 6007 6008 6009 6010 6011 6012 6013 6014 6015 6016 6017 6018 6019 6020 6021 6022 6023 6024 6025 6026 6027 6028 6029 6030 6031 6032 6033 6034 6035 6036 6037 6038 6039 6040 6041 6042 6043 6044 6045 6046 6047 6048 6049 6050 6051 6052 6053 6054 6055 6056 6057 6058 6059 6060 6061 6062 6063 6064 6065 6066 6067 6068 6069 6070 6071 6072 6073 6074 6075 6076 6077 6078 6079 6080 6081 6082 6083 6084 6085 6086 6087 6088 6089 6090 6091 6092 6093 6094 6095 6096 6097 6098 6099 6100 6101 6102 6103 6104 6105 6106 6107 6108 6109 6110 6111 6112 6113 6114 6115 6116 6117 6118 6119 6120 6121 6122 6123 6124 6125 6126 6127 6128 6129 6130 6131 6132 6133 6134 6135 6136 6137 6138 6139 6140 6141 6142 6143 6144 6145 6146 6147 6148 6149 6150 6151 6152 6153 6154 6155 6156 6157 6158 6159 6160 6161 6162 6163 6164 6165 6166 6167 6168 6169 6170 6171 6172 6173 6174 6175 6176 6177 6178 6179 6180 6181 6182 6183 6184 6185 6186 6187 6188 6189 6190 6191 6192 6193 6194 6195 6196 6197 6198 6199 6200 6201 6202 6203 6204 6205 6206 6207 6208 6209 6210 6211 6212 6213 6214 6215 6216 6217 6218 6219 6220 6221 6222 6223 6224 6225 6226 6227 6228 6229 6230 6231 6232 6233 6234 6235 6236 6237 6238 6239 6240 6241 6242 6243 6244 6245 6246 6247 6248 6249 6250 6251 6252 6253 6254 6255 6256 6257 6258 6259 6260 6261 6262 6263 6264 6265 6266 6267 6268 6269 6270 6271 6272 6273 6274 6275 6276 6277 6278 6279 6280 6281 6282 6283 6284 6285 6286 6287 6288 6289 6290 6291 6292 6293 6294 6295 6296 6297 6298 6299 6300 6301 6302 6303 6304 6305 6306 6307 6308 6309 6310 6311 6312 6313 6314 6315 6316 6317 6318 6319 6320 6321 6322 6323 6324 6325 6326 6327 6328 6329 6330 6331 6332 6333 6334 6335 6336 6337 6338 6339 6340 6341 6342 6343 6344 6345 6346 6347 6348 6349 6350 6351 6352 6353 6354 6355 6356 6357 6358 6359 6360 6361 6362 6363 6364 6365 6366 6367 6368 6369 6370 6371 6372 6373 6374 6375 6376 6377 6378 6379 6380 6381 6382 6383 6384 6385 6386 6387 6388 6389 6390 6391 6392 6393 6394 6395 6396 6397 6398 6399 6400 6401 6402 6403 6404 6405 6406 6407 6408 6409 6410 6411 6412 6413 6414 6415 6416 6417 6418 6419 6420 6421 6422 6423 6424 6425 6426 6427 6428 6429 6430 6431 6432 6433 6434 6435 6436 6437 6438 6439 6440 6441 6442 6443 6444 6445 6446 6447 6448 6449 6450 6451 6452 6453 6454 6455 6456 6457 6458 6459 6460 6461 6462 6463 6464 6465 6466 6467 6468 6469 6470 6471 6472 6473 6474 6475 6476 6477 6478 6479 6480 6481 6482 6483 6484 6485 6486 6487 6488 6489 6490 6491 6492 6493 6494 6495 6496 6497 6498 6499 6500 6501 6502 6503 6504 6505 6506 6507 6508 6509 6510 6511 6512 6513 6514 6515 6516 6517 6518 6519 6520 6521 6522 6523 6524 6525 6526 6527 6528 6529 6530 6531 6532 6533 6534 6535 6536 6537 6538 6539 6540 6541 6542 6543 6544 6545 6546 6547 6548 6549 6550 6551 6552 6553 6554 6555 6556 6557 6558 6559 6560 6561 6562 6563 6564 6565 6566 6567 6568 6569 6570 6571 6572 6573 6574 6575 6576 6577 6578 6579 6580 6581 6582 6583 6584 6585 6586 6587 6588 6589 6590 6591 6592 6593 6594 6595 6596 6597 6598 6599 6600 6601 6602 6603 6604 6605 6606 6607 6608 6609 6610 6611 6612 6613 6614 6615 6616 6617 6618 6619 6620 6621 6622 6623 6624 6625 6626 6627 6628 6629 6630 6631 6632 6633 6634 6635 6636 6637 6638 6639 6640 6641 6642 6643 6644 6645 6646 6647 6648 6649 6650 6651 6652 6653 6654 6655 6656 6657 6658 6659 6660 6661 6662 6663 6664 6665 6666 6667 6668 6669 6670 6671 6672 6673 6674 6675 6676 6677 6678 6679 6680 6681 6682 6683 6684 6685 6686 6687 6688 6689 6690 6691 6692 6693 6694 6695 6696 6697 6698 6699 6700 6701 6702 6703 6704 6705 6706 6707 6708 6709 6710 6711 6712 6713 6714 6715 6716 6717 6718 6719 6720 6721 6722 6723 6724 6725 6726 6727 6728 6729 6730 6731 6732 6733 6734 6735 6736 6737 6738 6739 6740 6741 6742 6743 6744 6745 6746 6747 6748 6749 6750 6751 6752 6753 6754 6755 6756 6757 6758 6759 6760 6761 6762 6763 6764 6765 6766 6767 6768 6769 6770 6771 6772 6773 6774 6775 6776 6777 6778 6779 6780 6781 6782 6783 6784 6785 6786 6787 6788 6789 6790 6791 6792 6793 6794 6795 6796 6797 6798 6799 6800 6801 6802 6803 6804 6805 6806 6807 6808 6809 6810 6811 6812 6813 6814 6815 6816 6817 6818 6819 6820 6821 6822 6823 6824 6825 6826 6827 6828 6829 6830 6831 6832 6833 6834 6835 6836 6837 6838 6839 6840 6841 6842 6843 6844 6845 6846 6847 6848 6849 6850 6851 6852 6853 6854 6855 6856 6857 6858 6859 6860 6861 6862 6863 6864 6865 6866 6867 6868 6869 6870 6871 6872 6873 6874 6875 6876 6877 6878 6879 6880 6881 6882 6883 6884 6885 6886 6887 6888 6889 6890 6891 6892 6893 6894 6895 6896 6897 6898 6899 6900 6901 6902 6903 6904 6905 6906 6907 6908 6909 6910 6911 6912 6913 6914 6915 6916 6917 6918 6919 6920 6921 6922 6923 6924 6925 6926 6927 6928 6929 6930 6931 6932 6933 6934 6935 6936 6937 6938 6939 6940 6941 6942 6943 6944 6945 6946 6947 6948 6949 6950 6951 6952 6953 6954 6955 6956 6957 6958 6959 6960 6961 6962 6963 6964 6965 6966 6967 6968 6969 6970 6971 6972 6973 6974 6975 6976 6977 6978 6979 6980 6981 6982 6983 6984 6985 6986 6987 6988 6989 6990 6991 6992 6993 6994 6995 6996 6997 6998 6999 7000 7001 7002 7003 7004 7005 7006 7007 7008 7009 7010 7011 7012 7013 7014 7015 7016 7017 7018 7019 7020 7021 7022 7023 7024 7025 7026 7027 7028 7029 7030 7031 7032 7033 7034 7035 7036 7037 7038 7039 7040 7041 7042 7043 7044 7045 7046 7047 7048 7049 7050 7051 7052 7053 7054 7055 7056 7057 7058 7059 7060 7061 7062 7063 7064 7065 7066 7067 7068 7069 7070 7071 7072 7073 7074 7075 7076 7077 7078 7079 7080 7081 7082 7083 7084 7085 7086 7087 7088 7089 7090 7091 7092 7093 7094 7095 7096 7097 7098 7099 7100 7101 7102 7103 7104 7105 7106 7107 7108 7109 7110 7111 7112 7113 7114 7115 7116 7117 7118 7119 7120 7121 7122 7123 7124 7125 7126 7127 7128 7129 7130 7131 7132 7133 7134 7135 7136 7137 7138 7139 7140 7141 7142 7143 7144 7145 7146 7147 7148 7149 7150 7151 7152 7153 7154 7155 7156 7157 7158 7159 7160 7161 7162 7163 7164 7165 7166 7167 7168 7169 7170 7171 7172 7173 7174 7175 7176 7177 7178 7179 7180 7181 7182 7183 7184 7185 7186 7187 7188 7189 7190 7191 7192 7193 7194 7195 7196 7197 7198 7199 7200 7201 7202 7203 7204 7205 7206 7207 7208 7209 7210 7211 7212 7213 7214 7215 7216 7217 7218 7219 7220 7221 7222 7223 7224 7225 7226 7227 7228 7229 7230 7231 7232 7233 7234 7235 7236 7237 7238 7239 7240 7241 7242 7243 7244 7245 7246 7247 7248 7249 7250 7251 7252 7253 7254 7255 7256 7257 7258 7259 7260 7261 7262 7263 7264 7265 7266 7267 7268 7269 7270 7271 7272 7273 7274 7275 7276 7277 7278 7279 7280 7281 7282 7283 7284 7285 7286 7287 7288 7289 7290 7291 7292 7293 7294 7295 7296 7297 7298 7299 7300 7301 7302 7303 7304 7305 7306 7307 7308 7309 7310 7311 7312 7313 7314 7315 7316 7317 7318 7319 7320 7321 7322 7323 7324 7325 7326 7327 7328 7329 7330 7331 7332 7333 7334 7335 7336 7337 7338 7339 7340 7341 7342 7343 7344 7345 7346 7347 7348 7349 7350 7351 7352 7353 7354 7355 7356 7357 7358 7359 7360 7361 7362 7363 7364 7365 7366 7367 7368 7369 7370 7371 7372 7373 7374 7375 7376 7377 7378 7379 7380 7381 7382 7383 7384 7385 7386 7387 7388 7389 7390 7391 7392 7393 7394 7395 7396 7397 7398 7399 7400 7401 7402 7403 7404 7405 7406 7407 7408 7409 7410 7411 7412 7413 7414 7415 7416 7417 7418 7419 7420 7421 7422 7423 7424 7425 7426 7427 7428 7429 7430 7431 7432 7433 7434 7435 7436 7437 7438 7439 7440 7441 7442 7443 7444 7445 7446 7447 7448 7449 7450 7451 7452 7453 7454 7455 7456 7457 7458 7459 7460 7461 7462 7463 7464 7465 7466 7467 7468 7469 7470 7471 7472 7473 7474 7475 7476 7477 7478 7479 7480 7481 7482 7483 7484 7485 7486 7487 7488 7489 7490 7491 7492 7493 7494 7495 7496 7497 7498 7499 7500 7501 7502 7503 7504 7505 7506 7507 7508 7509 7510 7511 7512 7513 7514 7515 7516 7517 7518 7519 7520 7521 7522 7523 7524 7525 7526 7527 7528 7529 7530 7531 7532 7533 7534 7535 7536 7537 7538 7539 7540 7541 7542 7543 7544 7545 7546 7547 7548 7549 7550 7551 7552 7553 7554 7555 7556 7557 7558 7559 7560 7561 7562 7563 7564 7565 7566 7567 7568 7569 7570 7571 7572 7573 7574 7575 7576 7577 7578 7579 7580 7581 7582 7583 7584 7585 7586 7587 7588 7589 7590 7591 7592 7593 7594 7595 7596 7597 7598 7599 7600 7601 7602 7603 7604 7605 7606 7607 7608 7609 7610 7611 7612 7613 7614 7615 7616 7617 7618 7619 7620 7621 7622 7623 7624 7625 7626 7627 7628 7629 7630 7631 7632 7633 7634 7635 7636 7637 7638 7639 7640 7641 7642 7643 7644 7645 7646 7647 7648 7649 7650 7651 7652 7653 7654 7655 7656 7657 7658 7659 7660 7661 7662 7663 7664 7665 7666 7667 7668 7669 7670 7671 7672 7673 7674 7675 7676 7677 7678 7679 7680 7681 7682 7683 7684 7685 7686 7687 7688 7689 7690 7691 7692 7693 7694 7695 7696 7697 7698 7699 7700 7701 7702 7703 7704 7705 7706 7707 7708 7709 7710 7711 7712 7713 7714 7715 7716 7717 7718 7719 7720 7721 7722 7723 7724 7725 7726 7727 7728 7729 7730 7731 7732 7733 7734 7735 7736 7737 7738 7739 7740 7741 7742 7743 7744 7745 7746 7747 7748 7749 7750 7751 7752 7753 7754 7755 7756 7757 7758 7759 7760 7761 7762 7763 7764 7765 7766 7767 7768 7769 7770 7771 7772 7773 7774 7775 7776 7777 7778 7779 7780 7781 7782 7783 7784 7785 7786 7787 7788 7789 7790 7791 7792 7793 7794 7795 7796 7797 7798 7799 7800 7801 7802 7803 7804 7805 7806 7807 7808 7809 7810 7811 7812 7813 7814 7815 7816 7817 7818 7819 7820 7821 7822 7823 7824 7825 7826 7827 7828 7829 7830 7831 7832 7833 7834 7835 7836 7837 7838 7839 7840 7841 7842 7843 7844 7845 7846 7847 7848 7849 7850 7851 7852 7853 7854 7855 7856 7857 7858 7859 7860 7861 7862 7863 7864 7865 7866 7867 7868 7869 7870 7871 7872 7873 7874 7875 7876 7877 7878 7879 7880 7881 7882 7883 7884 7885 7886 7887 7888 7889 7890 7891 7892 7893 7894 7895 7896 7897 7898 7899 7900 7901 7902 7903 7904 7905 7906 7907 7908 7909 7910 7911 7912 7913 7914 7915 7916 7917 7918 7919 7920 7921 7922 7923 7924 7925 7926 7927 7928 7929 7930 7931 7932 7933 7934 7935 7936 7937 7938 7939 7940 7941 7942 7943 7944 7945 7946 7947 7948 7949 7950 7951 7952 7953 7954 7955 7956 7957 7958 7959 7960 7961 7962 7963 7964 7965 7966 7967 7968 7969 7970 7971 7972 7973 7974 7975 7976 7977 7978 7979 7980 7981 7982 7983 7984 7985 7986 7987 7988 7989 7990 7991 7992 7993 7994 7995 7996 7997 7998 7999 8000 8001 8002 8003 8004 8005 8006 8007 8008 8009 8010 8011 8012 8013 8014 8015 8016 8017 8018 8019 8020 8021 8022 8023 8024 8025 8026 8027 8028 8029 8030 8031 8032 8033 8034 8035 8036 8037 8038 8039 8040 8041 8042 8043 8044 8045 8046 8047 8048 8049 8050 8051 8052 8053 8054 8055 8056 8057 8058 8059 8060 8061 8062 8063 8064 8065 8066 8067 8068 8069 8070 8071 8072 8073 8074 8075 8076 8077 8078 8079 8080 8081 8082 8083 8084 8085 8086 8087 8088 8089 8090 8091 8092 8093 8094 8095 8096 8097 8098 8099 8100 8101 8102 8103 8104 8105 8106 8107 8108 8109 8110 8111 8112 8113 8114 8115 8116 8117 8118 8119 8120 8121 8122 8123 8124 8125 8126 8127 8128 8129 8130 8131 8132 8133 8134 8135 8136 8137 8138 8139 8140 8141 8142 8143 8144 8145 8146 8147 8148 8149 8150 8151 8152 8153 8154 8155 8156 8157 8158 8159 8160 8161 8162 8163 8164 8165 8166 8167 8168 8169 8170 8171 8172 8173 8174 8175 8176 8177 8178 8179 8180 8181 8182 8183 8184 8185 8186 8187 8188 8189 8190 8191 8192 8193 8194 8195 8196 8197 8198 8199 8200 8201 8202 8203 8204 8205 8206 8207 8208 8209 8210 8211 8212 8213 8214 8215 8216 8217 8218 8219 8220 8221 8222 8223 8224 8225 8226 8227 8228 8229 8230 8231 8232 8233 8234 8235 8236 8237 8238 8239 8240 8241 8242 8243 8244 8245 8246 8247 8248 8249 8250 8251 8252 8253 8254 8255 8256 8257 8258 8259 8260 8261 8262 8263 8264 8265 8266 8267 8268 8269 8270 8271 8272 8273 8274 8275 8276 8277 8278 8279 8280 8281 8282 8283 8284 8285 8286 8287 8288 8289 8290 8291 8292 8293 8294 8295 8296 8297 8298 8299 8300 8301 8302 8303 8304 8305 8306 8307 8308 8309 8310 8311 8312 8313 8314 8315 8316 8317 8318 8319 8320 8321 8322 8323 8324 8325 8326 8327 8328 8329 8330 8331 8332 8333 8334 8335 8336 8337 8338 8339 8340 8341 8342 8343 8344 8345 8346 8347 8348 8349 8350 8351 8352 8353 8354 8355 8356 8357 8358 8359 8360 8361 8362 8363 8364 8365 8366 8367 8368 8369 8370 8371 8372 8373 8374 8375 8376 8377 8378 8379 8380 8381 8382 8383 8384 8385 8386 8387 8388 8389 8390 8391 8392 8393 8394 8395 8396 8397 8398 8399 8400 8401 8402 8403 8404 8405 8406 8407 8408 8409 8410 8411 8412 8413 8414 8415 8416 8417 8418 8419 8420 8421 8422 8423 8424 8425 8426 8427 8428 8429 8430 8431 8432 8433 8434 8435 8436 8437 8438 8439 8440 8441 8442 8443 8444 8445 8446 8447 8448 8449 8450 8451 8452 8453 8454 8455 8456 8457 8458 8459 8460 8461 8462 8463 8464 8465 8466 8467 8468 8469 8470 8471 8472 8473 8474 8475 8476 8477 8478 8479 8480 8481 8482 8483 8484 8485 8486 8487 8488 8489 8490 8491 8492 8493 8494 8495 8496 8497 8498 8499 8500 8501 8502 8503 8504 8505 8506 8507 8508 8509 8510 8511 8512 8513 8514 8515 8516 8517 8518 8519 8520 8521 8522 8523 8524 8525 8526 8527 8528 8529 8530 8531 8532 8533 8534 8535 8536 8537 8538 8539 8540 8541 8542 8543 8544 8545 8546 8547 8548 8549 8550 8551 8552 8553 8554 8555 8556 8557 8558 8559 8560 8561 8562 8563 8564 8565 8566 8567 8568 8569 8570 8571 8572 8573 8574 8575 8576 8577 8578 8579 8580 8581 8582 8583 8584 8585 8586 8587 8588 8589 8590 8591 8592 8593 8594 8595 8596 8597 8598 8599 8600 8601 8602 8603 8604 8605 8606 8607 8608 8609 8610 8611 8612 8613 8614 8615 8616 8617 8618 8619 8620 8621 8622 8623 8624 8625 8626 8627 8628 8629 8630 8631 8632 8633 8634 8635 8636 8637 8638 8639 8640 8641 8642 8643 8644 8645 8646 8647 8648 8649 8650 8651 8652 8653 8654 8655 8656 8657 8658 8659 8660 8661 8662 8663 8664 8665 8666 8667 8668 8669 8670 8671 8672 8673 8674 8675 8676 8677 8678 8679 8680 8681 8682 8683 8684 8685 8686 8687 8688 8689 8690 8691 8692 8693 8694 8695 8696 8697 8698 8699 8700 8701 8702 8703 8704 8705 8706 8707 8708 8709 8710 8711 8712 8713 8714 8715 8716 8717 8718 8719 8720 8721 8722 8723 8724 8725 8726 8727 8728 8729 8730 8731 8732 8733 8734 8735 8736 8737 8738 8739 8740 8741 8742 8743 8744 8745 8746 8747 8748 8749 8750 8751 8752 8753 8754 8755 8756 8757 8758 8759 8760 8761 8762 8763 8764 8765 8766 8767 8768 8769 8770 8771 8772 8773 8774 8775 8776 8777 8778 8779 8780 8781 8782 8783 8784 8785 8786 8787 8788 8789 8790 8791 8792 8793 8794 8795 8796 8797 8798 8799 8800 8801 8802 8803 8804 8805 8806 8807 8808 8809 8810 8811 8812 8813 8814 8815 8816 8817 8818 8819 8820 8821 8822 8823 8824 8825 8826 8827 8828 8829 8830 8831 8832 8833 8834 8835 8836 8837 8838 8839 8840 8841 8842 8843 8844 8845 8846 8847 8848 8849 8850 8851 8852 8853 8854 8855 8856 8857 8858 8859 8860 8861 8862 8863 8864 8865 8866 8867 8868 8869 8870 8871 8872 8873 8874 8875 8876 8877 8878 8879 8880 8881 8882 8883 8884 8885 8886 8887 8888 8889 8890 8891 8892 8893 8894 8895 8896 8897 8898 8899 8900 8901 8902 8903 8904 8905 8906 8907 8908 8909 8910 8911 8912 8913 8914 8915 8916 8917 8918 8919 8920 8921 8922 8923 8924 8925 8926 8927 8928 8929 8930 8931 8932 8933 8934 8935 8936 8937 8938 8939 8940 8941 8942 8943 8944 8945 8946 8947 8948 8949 8950 8951 8952 8953 8954 8955 8956 8957 8958 8959 8960 8961 8962 8963 8964 8965 8966 8967 8968 8969 8970 8971 8972 8973 8974 8975 8976 8977 8978 8979 8980 8981 8982 8983 8984 8985 8986 8987 8988 8989 8990 8991 8992 8993 8994 8995 8996 8997 8998 8999 9000 9001 9002 9003 9004 9005 9006 9007 9008 9009 9010 9011 9012 9013 9014 9015 9016 9017 9018 9019 9020 9021 9022 9023 9024 9025 9026 9027 9028 9029 9030 9031 9032 9033 9034 9035 9036 9037 9038 9039 9040 9041 9042 9043 9044 9045 9046 9047 9048 9049 9050 9051 9052 9053 9054 9055 9056 9057 9058 9059 9060 9061 9062 9063 9064 9065 9066 9067 9068 9069 9070 9071 9072 9073 9074 9075 9076 9077 9078 9079 9080 9081 9082 9083 9084 9085 9086 9087 9088 9089 9090 9091 9092 9093 9094 9095 9096 9097 9098 9099 9100 9101 9102 9103 9104 9105 9106 9107 9108 9109 9110 9111 9112 9113 9114 9115 9116 9117 9118 9119 9120 9121 9122 9123 9124 9125 9126 9127 9128 9129 9130 9131 9132 9133 9134 9135 9136 9137 9138 9139 9140 9141 9142 9143 9144 9145 9146 9147 9148 9149 9150 9151 9152 9153 9154 9155 9156 9157 9158 9159 9160 9161 9162 9163 9164 9165 9166 9167 9168 9169 9170 9171 9172 9173 9174 9175 9176 9177 9178 9179 9180 9181 9182 9183 9184 9185 9186 9187 9188 9189 9190 9191 9192 9193 9194 9195 9196 9197 9198 9199 9200 9201 9202 9203 9204 9205 9206 9207 9208 9209 9210 9211 9212 9213 9214 9215 9216 9217 9218 9219 9220 9221 9222 9223 9224 9225 9226 9227 9228 9229 9230 9231 9232 9233 9234 9235 9236 9237 9238 9239 9240 9241 9242 9243 9244 9245 9246 9247 9248 9249 9250 9251 9252 9253 9254 9255 9256 9257 9258 9259 9260 9261 9262 9263 9264 9265 9266 9267 9268 9269 9270 9271 9272 9273 9274 9275 9276 9277 9278 9279 9280 9281 9282 9283 9284 9285 9286 9287 9288 9289 9290 9291 9292 9293 9294 9295 9296 9297 9298 9299 9300 9301 9302 9303 9304 9305 9306 9307 9308 9309 9310 9311 9312 9313 9314 9315 9316 9317 9318 9319 9320 9321 9322 9323 9324 9325 9326 9327 9328 9329 9330 9331 9332 9333 9334 9335 9336 9337 9338 9339 9340 9341 9342 9343 9344 9345 9346 9347 9348 9349 9350 9351 9352 9353 9354 9355 9356 9357 9358 9359 9360 9361 9362 9363 9364 9365 9366 9367 9368 9369 9370 9371 9372 9373 9374 9375 9376 9377 9378 9379 9380 9381 9382 9383 9384 9385 9386 9387 9388 9389 9390 9391 9392 9393 9394 9395 9396 9397 9398 9399 9400 9401 9402 9403 9404 9405 9406 9407 9408 9409 9410 9411 9412 9413 9414 9415 9416 9417 9418 9419 9420 9421 9422 9423 9424 9425 9426 9427 9428 9429 9430 9431 9432 9433 9434 9435 9436 9437 9438 9439 9440 9441 9442 9443 9444 9445 9446 9447 9448 9449 9450 9451 9452 9453 9454 9455 9456 9457 9458 9459 9460 9461 9462 9463 9464 9465 9466 9467 9468 9469 9470 9471 9472 9473 9474 9475 9476 9477 9478 9479 9480 9481 9482 9483 9484 9485 9486 9487 9488 9489 9490 9491 9492 9493 9494 9495 9496 9497 9498 9499 9500 9501 9502 9503 9504 9505 9506 9507 9508 9509 9510 9511 9512 9513 9514 9515 9516 9517 9518 9519 9520 9521 9522 9523 9524 9525 9526 9527 9528 9529 9530 9531 9532 9533 9534 9535 9536 9537 9538 9539 9540 9541 9542 9543 9544 9545 9546 9547 9548 9549 9550 9551 9552 9553 9554 9555 9556 9557 9558 9559 9560 9561 9562 9563 9564 9565 9566 9567 9568 9569 9570 9571 9572 9573 9574 9575 9576 9577 9578 9579 9580 9581 9582 9583 9584 9585 9586 9587 9588 9589 9590 9591 9592 9593 9594 9595 9596 9597 9598 9599 9600 9601 9602 9603 9604 9605 9606 9607 9608 9609 9610 9611 9612 9613 9614 9615 9616 9617 9618 9619 9620 9621 9622 9623 9624 9625 9626 9627 9628 9629 9630 9631 9632 9633 9634 9635 9636 9637 9638 9639 9640 9641 9642 9643 9644 9645 9646 9647 9648 9649 9650 9651 9652 9653 9654 9655 9656 9657 9658 9659 9660 9661 9662 9663 9664 9665 9666 9667 9668 9669 9670 9671 9672 9673 9674 9675 9676 9677 9678 9679 9680 9681 9682 9683 9684 9685 9686 9687 9688 9689 9690 9691 9692 9693 9694 9695 9696 9697 9698 9699 9700 9701 9702 9703 9704 9705 9706 9707 9708 9709 9710 9711 9712 9713 9714 9715 9716 9717 9718 9719 9720 9721 9722 9723 9724 9725 9726 9727 9728 9729 9730 9731 9732 9733 9734 9735 9736 9737 9738 9739 9740 9741 9742 9743 9744 9745 9746 9747 9748 9749 9750 9751 9752 9753 9754 9755 9756 9757 9758 9759 9760 9761 9762 9763 9764 9765 9766 9767 9768 9769 9770 9771 9772 9773 9774 9775 9776 9777 9778 9779 9780 9781 9782 9783 9784 9785 9786 9787 9788 9789 9790 9791 9792 9793 9794 9795 9796 9797 9798 9799 9800 9801 9802 9803 9804 9805 9806 9807 9808 9809 9810 9811 9812 9813 9814 9815 9816 9817 9818 9819 9820 9821 9822 9823 9824 9825 9826 9827 9828 9829 9830 9831 9832 9833 9834 9835 9836 9837 9838 9839 9840 9841 9842 9843 9844 9845 9846 9847 9848 9849 9850 9851 9852 9853 9854 9855 9856 9857 9858 9859 9860 9861 9862 9863 9864 9865 9866 9867 9868 9869 9870 9871 9872 9873 9874 9875 9876 9877 9878 9879 9880 9881 9882 9883 9884 9885 9886 9887 9888 9889 9890 9891 9892 9893 9894 9895 9896 9897 9898 9899 9900 9901 9902 9903 9904 9905 9906 9907 9908 9909 9910 9911 9912 9913 9914 9915 9916 9917 9918 9919 9920 9921 9922 9923 9924 9925 9926 9927 9928 9929 9930 9931 9932 9933 9934 9935 9936 9937 9938 9939 9940 9941 9942 9943 9944 9945 9946 9947 9948 9949 9950 9951 9952 9953 9954 9955 9956 9957 9958 9959 9960 9961 9962 9963 9964 9965 9966 9967 9968 9969 9970 9971 9972 9973 9974 9975 9976 9977 9978 9979 9980 9981 9982 9983 9984 9985 9986 9987 9988 9989 9990 9991 9992 9993 9994 9995 9996 9997 9998 9999 10000 10001 10002 10003 10004 10005 10006 10007 10008 10009 10010 10011 10012 10013 10014 10015 10016 10017 10018 10019 10020 10021 10022 10023 10024 10025 10026 10027 10028 10029 10030 10031 10032 10033 10034 10035 10036 10037 10038 10039 10040 10041 10042 10043 10044 10045 10046 10047 10048 10049 10050 10051 10052 10053 10054 10055 10056 10057 10058 10059 10060 10061 10062 10063 10064 10065 10066 10067 10068 10069 10070 10071 10072 10073 10074 10075 10076 10077 10078 10079 10080 10081 10082 10083 10084 10085 10086 10087 10088 10089 10090 10091 10092 10093 10094 10095 10096 10097 10098 10099 10100 10101 10102 10103 10104 10105 10106 10107 10108 10109 10110 10111 10112 10113 10114 10115 10116 10117 10118 10119 10120 10121 10122 10123 10124 10125 10126 10127 10128 10129 10130 10131 10132 10133 10134 10135 10136 10137 10138 10139 10140 10141 10142 10143 10144 10145 10146 10147 10148 10149 10150 10151 10152 10153 10154 10155 10156 10157 10158 10159 10160 10161 10162 10163 10164 10165 10166 10167 10168 10169 10170 10171 10172 10173 10174 10175 10176 10177 10178 10179 10180 10181 10182 10183 10184 10185 10186 10187 10188 10189 10190 10191 10192 10193 10194 10195 10196 10197 10198 10199 10200 10201 10202 10203 10204 10205 10206 10207 10208 10209 10210 10211 10212 10213 10214 10215 10216 10217 10218 10219 10220 10221 10222 10223 10224 10225 10226 10227 10228 10229 10230 10231 10232 10233 10234 10235 10236 10237 10238 10239 10240 10241 10242 10243 10244 10245 10246 10247 10248 10249 10250 10251 10252 10253 10254 10255 10256 10257 10258 10259 10260 10261 10262 10263 10264 10265 10266 10267 10268 10269 10270 10271 10272 10273 10274 10275 10276 10277 10278 10279 10280 10281 10282 10283 10284 10285 10286 10287 10288 10289 10290 10291 10292 10293 10294 10295 10296 10297 10298 10299 10300 10301 10302 10303 10304 10305 10306 10307 10308 10309 10310 10311 10312 10313 10314 10315 10316 10317 10318 10319 10320 10321 10322 10323 10324 10325 10326 10327 10328 10329 10330 10331 10332 10333 10334 10335 10336 10337 10338 10339 10340 10341 10342 10343 10344 10345 10346 10347 10348 10349 10350 10351 10352 10353 10354 10355 10356 10357 10358 10359 10360 10361 10362 10363 10364 10365 10366 10367 10368 10369 10370 10371 10372 10373 10374 10375 10376 10377 10378 10379 10380 10381 10382 10383 10384 10385 10386 10387 10388 10389 10390 10391 10392 10393 10394 10395 10396 10397 10398 10399 10400 10401 10402 10403 10404 10405 10406 10407 10408 10409 10410 10411 10412 10413 10414 10415 10416 10417 10418 10419 10420 10421 10422 10423 10424 10425 10426 10427 10428 10429 10430 10431 10432 10433 10434 10435 10436 10437 10438 10439 10440 10441 10442 10443 10444 10445 10446 10447 10448 10449 10450 10451 10452 10453 10454 10455 10456 10457 10458 10459 10460 10461 10462 10463 10464 10465 10466 10467 10468 10469 10470 10471 10472 10473 10474 10475 10476 10477 10478 10479 10480 10481 10482 10483 10484 10485 10486 10487 10488 10489 10490 10491 10492 10493 10494 10495 10496 10497 10498 10499 10500 10501 10502 10503 10504 10505 10506 10507 10508 10509 10510 10511 10512 10513 10514 10515 10516 10517 10518 10519 10520 10521 10522 10523 10524 10525 10526 10527 10528 10529 10530 10531 10532 10533 10534 10535 10536 10537 10538 10539 10540 10541 10542 10543 10544 10545 10546 10547 10548 10549 10550 10551 10552 10553 10554 10555 10556 10557 10558 10559 10560 10561 10562 10563 10564 10565 10566 10567 10568 10569 10570 10571 10572 10573 10574 10575 10576 10577 10578 10579 10580 10581 10582 10583 10584 10585 10586 10587 10588 10589 10590 10591 10592 10593 10594 10595 10596 10597 10598 10599 10600 10601 10602 10603 10604 10605 10606 10607 10608 10609 10610 10611 10612 10613 10614 10615 10616 10617 10618 10619 10620 10621 10622 10623 10624 10625 10626 10627 10628 10629 10630 10631 10632 10633 10634 10635 10636 10637 10638 10639 10640 10641 10642 10643 10644 10645 10646 10647 10648 10649 10650 10651 10652 10653 10654 10655 10656 10657 10658 10659 10660 10661 10662 10663 10664 10665 10666 10667 10668 10669 10670 10671 10672 10673 10674 10675 10676 10677 10678 10679 10680 10681 10682 10683 10684 10685 10686 10687 10688 10689 10690 10691 10692 10693 10694 10695 10696 10697 10698 10699 10700 10701 10702 10703 10704 10705 10706 10707 10708 10709 10710 10711 10712 10713 10714 10715 10716 10717 10718 10719 10720 10721 10722 10723 10724 10725 10726 10727 10728 10729 10730 10731 10732 10733 10734 10735 10736 10737 10738 10739 10740 10741 10742 10743 10744 10745 10746 10747 10748 10749 10750 10751 10752 10753 10754 10755 10756 10757 10758 10759 10760 10761 10762 10763 10764 10765 10766 10767 10768 10769 10770 10771 10772 10773 10774 10775 10776 10777 10778 10779 10780 10781 10782 10783 10784 10785 10786 10787 10788 10789 10790 10791 10792 10793 10794 10795 10796 10797 10798 10799 10800 10801 10802 10803 10804 10805 10806 10807 10808 10809 10810 10811 10812 10813 10814 10815 10816 10817 10818 10819 10820 10821 10822 10823 10824 10825 10826 10827 10828 10829 10830 10831 10832 10833 10834 10835 10836 10837 10838 10839 10840 10841 10842 10843 10844 10845 10846 10847 10848 10849 10850 10851 10852 10853 10854 10855 10856 10857 10858 10859 10860 10861 10862 10863 10864 10865 10866 10867 10868 10869 10870 10871 10872 10873 10874 10875 10876 10877 10878 10879 10880 10881 10882 10883 10884 10885 10886 10887 10888 10889 10890 10891 10892 10893 10894 10895 10896 10897 10898 10899 10900 10901 10902 10903 10904 10905 10906 10907 10908 10909 10910 10911 10912 10913 10914 10915 10916 10917 10918 10919 10920 10921 10922 10923 10924 10925 10926 10927 10928 10929 10930 10931 10932 10933 10934 10935 10936 10937 10938 10939 10940 10941 10942 10943 10944 10945 10946 10947 10948 10949 10950 10951 10952 10953 10954 10955 10956 10957 10958 10959 10960 10961 10962 10963 10964 10965 10966 10967 10968 10969 10970 10971 10972 10973 10974 10975 10976 10977 10978 10979 10980 10981 10982 10983 10984 10985 10986 10987 10988 10989 10990 10991 10992 10993 10994 10995 10996 10997 10998 10999 11000 11001 11002 11003 11004 11005 11006 11007 11008 11009 11010 11011 11012 11013 11014 11015 11016 11017 11018 11019 11020 11021 11022 11023 11024 11025 11026 11027 11028 11029 11030 11031 11032 11033 11034 11035 11036 11037 11038 11039 11040 11041 11042 11043 11044 11045 11046 11047 11048 11049 11050 11051 11052 11053 11054 11055 11056 11057 11058 11059 11060 11061 11062 11063 11064 11065 11066 11067 11068 11069 11070 11071 11072 11073 11074 11075 11076 11077 11078 11079 11080 11081 11082 11083 11084 11085 11086 11087 11088 11089 11090 11091 11092 11093 11094 11095 11096 11097 11098 11099 11100 11101 11102 11103 11104 11105 11106 11107 11108 11109 11110 11111 11112 11113 11114 11115 11116 11117 11118 11119 11120 11121 11122 11123 11124 11125 11126 11127 11128 11129 11130 11131 11132 11133 11134 11135 11136 11137 11138 11139 11140 11141 11142 11143 11144 11145 11146 11147 11148 11149 11150 11151 11152 11153 11154 11155 11156 11157 11158 11159 11160 11161 11162 11163 11164 11165 11166 11167 11168 11169 11170 11171 11172 11173 11174 11175 11176 11177 11178 11179 11180 11181 11182 11183 11184 11185 11186 11187 11188 11189 11190 11191 11192 11193 11194 11195 11196 11197 11198 11199 11200 11201 11202 11203 11204 11205 11206 11207 11208 11209 11210 11211 11212 11213 11214 11215 11216 11217 11218 11219 11220 11221 11222 11223 11224 11225 11226 11227 11228 11229 11230 11231 11232 11233 11234 11235 11236 11237 11238 11239 11240 11241 11242 11243 11244 11245 11246 11247 11248 11249 11250 11251 11252 11253 11254 11255 11256 11257 11258 11259 11260 11261 11262 11263 11264 11265 11266 11267 11268 11269 11270 11271 11272 11273 11274 11275 11276 11277 11278 11279 11280 11281 11282 11283 11284 11285 11286 11287 11288 11289 11290 11291 11292 11293 11294 11295 11296 11297 11298 11299 11300 11301 11302 11303 11304 11305 11306 11307 11308 11309 11310 11311 11312 11313 11314 11315 11316 11317 11318 11319 11320 11321 11322 11323 11324 11325 11326 11327 11328 11329 11330 11331 11332 11333 11334 11335 11336 11337 11338 11339 11340 11341 11342 11343 11344 11345 11346 11347 11348 11349 11350 11351 11352 11353 11354 11355 11356 11357 11358 11359 11360 11361 11362 11363 11364 11365 11366 11367 11368 11369 11370 11371 11372 11373 11374 11375 11376 11377 11378 11379 11380 11381 11382 11383 11384 11385 11386 11387 11388 11389 11390 11391 11392 11393 11394 11395 11396 11397 11398 11399 11400 11401 11402 11403 11404 11405 11406 11407 11408 11409 11410 11411 11412 11413 11414 11415 11416 11417 11418 11419 11420 11421 11422 11423 11424 11425 11426 11427 11428 11429 11430 11431 11432 11433 11434 11435 11436 11437 11438 11439 11440 11441 11442 11443 11444 11445 11446 11447 11448 11449 11450 11451 11452 11453 11454 11455 11456 11457 11458 11459 11460 11461 11462 11463 11464 11465 11466 11467 11468 11469 11470 11471 11472 11473 11474 11475 11476 11477 11478 11479 11480 11481 11482 11483 11484 11485 11486 11487 11488 11489 11490 11491 11492 11493 11494 11495 11496 11497 11498 11499 11500 11501 11502 11503 11504 11505 11506 11507 11508 11509 11510 11511 11512 11513 11514 11515 11516 11517 11518 11519 11520 11521 11522 11523 11524 11525 11526 11527 11528 11529 11530 11531 11532 11533 11534 11535 11536 11537 11538 11539 11540 11541 11542 11543 11544 11545 11546 11547 11548 11549 11550 11551 11552 11553 11554 11555 11556 11557 11558 11559 11560 11561 11562 11563 11564 11565 11566 11567 11568 11569 11570 11571 11572 11573 11574 11575 11576 11577 11578 11579 11580 11581 11582 11583 11584 11585 11586 11587 11588 11589 11590 11591 11592 11593 11594 11595 11596 11597 11598 11599 11600 11601 11602 11603 11604 11605 11606 11607 11608 11609 11610 11611 11612 11613 11614 11615 11616 11617 11618 11619 11620 11621 11622 11623 11624 11625 11626 11627 11628 11629 11630 11631 11632 11633 11634 11635 11636 11637 11638 11639 11640 11641 11642 11643 11644 11645 11646 11647 11648 11649 11650 11651 11652 11653 11654 11655 11656 11657 11658 11659 11660 11661 11662 11663 11664 11665 11666 11667 11668 11669 11670 11671 11672 11673 11674 11675 11676 11677 11678 11679 11680 11681 11682 11683 11684 11685 11686 11687 11688 11689 11690 11691 11692 11693 11694 11695 11696 11697 11698 11699 11700 11701 11702 11703 11704 11705 11706 11707 11708 11709 11710 11711 11712 11713 11714 11715 11716 11717 11718 11719 11720 11721 11722 11723 11724 11725 11726 11727 11728 11729 11730 11731 11732 11733 11734 11735 11736 11737 11738 11739 11740 11741 11742 11743 11744 11745 11746 11747 11748 11749 11750 11751 11752 11753 11754 11755 11756 11757 11758 11759 11760 11761 11762 11763 11764 11765 11766 11767 11768 11769 11770 11771 11772 11773 11774 11775 11776 11777 11778 11779 11780 11781 11782 11783 11784 11785 11786 11787 11788 11789 11790 11791 11792 11793 11794 11795 11796 11797 11798 11799 11800 11801 11802 11803 11804 11805 11806 11807 11808 11809 11810 11811 11812 11813 11814 11815 11816 11817 11818 11819 11820 11821 11822 11823 11824 11825 11826 11827 11828 11829 11830 11831 11832 11833 11834 11835 11836 11837 11838 11839 11840 11841 11842 11843 11844 11845 11846 11847 11848 11849 11850 11851 11852 11853 11854 11855 11856 11857 11858 11859 11860 11861 11862 11863 11864 11865 11866 11867 11868 11869 11870 11871 11872 11873 11874 11875 11876 11877 11878 11879 11880 11881 11882 11883 11884 11885 11886 11887 11888 11889 11890 11891 11892 11893 11894 11895 11896 11897 11898 11899 11900 11901 11902 11903 11904 11905 11906 11907 11908 11909 11910 11911 11912 11913 11914 11915 11916 11917 11918 11919 11920 11921 11922 11923 11924 11925 11926 11927 11928 11929 11930 11931 11932 11933 11934 11935 11936 11937 11938 11939 11940 11941 11942 11943 11944 11945 11946 11947 11948 11949 11950 11951 11952 11953 11954 11955 11956 11957 11958 11959 11960 11961 11962 11963 11964 11965 11966 11967 11968 11969 11970 11971 11972 11973 11974 11975 11976 11977 11978 11979 11980 11981 11982 11983 11984 11985 11986 11987 11988 11989 11990 11991 11992 11993 11994 11995 11996 11997 11998 11999 12000 12001 12002 12003 12004 12005 12006 12007 12008 12009 12010 12011 12012 12013 12014 12015 12016 12017 12018 12019 12020 12021 12022 12023 12024 12025 12026 12027 12028 12029 12030 12031 12032 12033 12034 12035 12036 12037 12038 12039 12040 12041 12042 12043 12044 12045 12046 12047 12048 12049 12050 12051 12052 12053 12054 12055 12056 12057 12058 12059 12060 12061 12062 12063 12064 12065 12066 12067 12068 12069 12070 12071 12072 12073 12074 12075 12076 12077 12078 12079 12080 12081 12082 12083 12084 12085 12086 12087 12088 12089 12090 12091 12092 12093 12094 12095 12096 12097 12098 12099 12100 12101 12102 12103 12104 12105 12106 12107 12108 12109 12110 12111 12112 12113 12114 12115 12116 12117 12118 12119 12120 12121 12122 12123 12124 12125 12126 12127 12128 12129 12130 12131 12132 12133 12134 12135 12136 12137 12138 12139 12140 12141 12142 12143 12144 12145 12146 12147 12148 12149 12150 12151 12152 12153 12154 12155 12156 12157 12158 12159 12160 12161 12162 12163 12164 12165 12166 12167 12168 12169 12170 12171 12172 12173 12174 12175 12176 12177 12178 12179 12180 12181 12182 12183 12184 12185 12186 12187 12188 12189 12190 12191 12192 12193 12194 12195 12196 12197 12198 12199 12200 12201 12202 12203 12204 12205 12206 12207 12208 12209 12210 12211 12212 12213 12214 12215 12216 12217 12218 12219 12220 12221 12222 12223 12224 12225 12226 12227 12228 12229 12230 12231 12232 12233 12234 12235 12236 12237 12238 12239 12240 12241 12242 12243 12244 12245 12246 12247 12248 12249 12250 12251 12252 12253 12254 12255 12256 12257 12258 12259 12260 12261 12262 12263 12264 12265 12266 12267 12268 12269 12270 12271 12272 12273 12274 12275 12276 12277 12278 12279 12280 12281 12282 12283 12284 12285 12286 12287 12288 12289 12290 12291 12292 12293 12294 12295 12296 12297 12298 12299 12300 12301 12302 12303 12304 12305 12306 12307 12308 12309 12310 12311 12312 12313 12314 12315 12316 12317 12318 12319 12320 12321 12322 12323 12324 12325 12326 12327 12328 12329 12330 12331 12332 12333 12334 12335 12336 12337 12338 12339 12340 12341 12342 12343 12344 12345 12346 12347 12348 12349 12350 12351 12352 12353 12354 12355 12356 12357 12358 12359 12360 12361 12362 12363 12364 12365 12366 12367 12368 12369 12370 12371 12372 12373 12374 12375 12376 12377 12378 12379 12380 12381 12382 12383 12384 12385 12386 12387 12388 12389 12390 12391 12392 12393 12394 12395 12396 12397 12398 12399 12400 12401 12402 12403 12404 12405 12406 12407 12408 12409 12410 12411 12412 12413 12414 12415 12416 12417 12418 12419 12420 12421 12422 12423 12424 12425 12426 12427 12428 12429 12430 12431 12432 12433 12434 12435 12436 12437 12438 12439 12440 12441 12442 12443 12444 12445 12446 12447 12448 12449 12450 12451 12452 12453 12454 12455 12456 12457 12458 12459 12460 12461 12462 12463 12464 12465 12466 12467 12468 12469 12470 12471 12472 12473 12474 12475 12476 12477 12478 12479 12480 12481 12482 12483 12484 12485 12486 12487 12488 12489 12490 12491 12492 12493 12494 12495 12496 12497 12498 12499 12500 12501 12502 12503 12504 12505 12506 12507 12508 12509 12510 12511 12512 12513 12514 12515 12516 12517 12518 12519 12520 12521 12522 12523 12524 12525 12526 12527 12528 12529 12530 12531 12532 12533 12534 12535 12536 12537 12538 12539 12540 12541 12542 12543 12544 12545 12546 12547 12548 12549 12550 12551 12552 12553 12554 12555 12556 12557 12558 12559 12560 12561 12562 12563 12564 12565 12566 12567 12568 12569 12570 12571 12572 12573 12574 12575 12576 12577 12578 12579 12580 12581 12582 12583 12584 12585 12586 12587 12588 12589 12590 12591 12592 12593 12594 12595 12596 12597 12598 12599 12600 12601 12602 12603 12604 12605 12606 12607 12608 12609 12610 12611 12612 12613 12614 12615 12616 12617 12618 12619 12620 12621 12622 12623 12624 12625 12626 12627 12628 12629 12630 12631 12632 12633 12634 12635 12636 12637 12638 12639 12640 12641 12642 12643 12644 12645 12646 12647 12648 12649 12650 12651 12652 12653 12654 12655 12656 12657 12658 12659 12660 12661 12662 12663 12664 12665 12666 12667 12668 12669 12670 12671 12672 12673 12674 12675 12676 12677 12678 12679 12680 12681 12682 12683 12684 12685 12686 12687 12688 12689 12690 12691 12692 12693 12694 12695 12696 12697 12698 12699 12700 12701 12702 12703 12704 12705 12706 12707 12708 12709 12710 12711 12712 12713 12714 12715 12716 12717 12718 12719 12720 12721 12722 12723 12724 12725 12726 12727 12728 12729 12730 12731 12732 12733 12734 12735 12736 12737 12738 12739 12740 12741 12742 12743 12744 12745 12746 12747 12748 12749 12750 12751 12752 12753 12754 12755 12756 12757 12758 12759 12760 12761 12762 12763 12764 12765 12766 12767 12768 12769 12770 12771 12772 12773 12774 12775 12776 12777 12778 12779 12780 12781 12782 12783 12784 12785 12786 12787 12788 12789 12790 12791 12792 12793 12794 12795 12796 12797 12798 12799 12800 12801 12802 12803 12804 12805 12806 12807 12808 12809 12810 12811 12812 12813 12814 12815 12816 12817 12818 12819 12820 12821 12822 12823 12824 12825 12826 12827 12828 12829 12830 12831 12832 12833 12834 12835 12836 12837 12838 12839 12840 12841 12842 12843 12844 12845 12846 12847 12848 12849 12850 12851 12852 12853 12854 12855 12856 12857 12858 12859 12860 12861 12862 12863 12864 12865 12866 12867 12868 12869 12870 12871 12872 12873 12874 12875 12876 12877 12878 12879 12880 12881 12882 12883 12884 12885 12886 12887 12888 12889 12890 12891 12892 12893 12894 12895 12896 12897 12898 12899 12900 12901 12902 12903 12904 12905 12906 12907 12908 12909 12910 12911 12912 12913 12914 12915 12916 12917 12918 12919 12920 12921 12922 12923 12924 12925 12926 12927 12928 12929 12930 12931 12932 12933 12934 12935 12936 12937 12938 12939 12940 12941 12942 12943 12944 12945 12946 12947 12948 12949 12950 12951 12952 12953 12954 12955 12956 12957 12958 12959 12960 12961 12962 12963 12964 12965 12966 12967 12968 12969 12970 12971 12972 12973 12974 12975 12976 12977 12978 12979 12980 12981 12982 12983 12984 12985 12986 12987 12988 12989 12990 12991 12992 12993 12994 12995 12996 12997 12998 12999 13000 13001 13002 13003 13004 13005 13006 13007 13008 13009 13010 13011 13012 13013 13014 13015 13016 13017 13018 13019 13020 13021 13022 13023 13024 13025 13026 13027 13028 13029 13030 13031 13032 13033 13034 13035 13036 13037 13038 13039 13040 13041 13042 13043 13044 13045 13046 13047 13048 13049 13050 13051 13052 13053 13054 13055 13056 13057 13058 13059 13060 13061 13062 13063 13064 13065 13066 13067 13068 13069 13070 13071 13072 13073 13074 13075 13076 13077 13078 13079 13080 13081 13082 13083 13084 13085 13086 13087 13088 13089 13090 13091 13092 13093 13094 13095 13096 13097 13098 13099 13100 13101 13102 13103 13104 13105 13106 13107 13108 13109 13110 13111 13112 13113 13114 13115 13116 13117 13118 13119 13120 13121 13122 13123 13124 13125 13126 13127 13128 13129 13130 13131 13132 13133 13134 13135 13136 13137 13138 13139 13140 13141 13142 13143 13144 13145 13146 13147 13148 13149 13150 13151 13152 13153 13154 13155 13156 13157 13158 13159 13160 13161 13162 13163 13164 13165 13166 13167 13168 13169 13170 13171 13172 13173 13174 13175 13176 13177 13178 13179 13180 13181 13182 13183 13184 13185 13186 13187 13188 13189 13190 13191 13192 13193 13194 13195 13196 13197 13198 13199 13200 13201 13202 13203 13204 13205 13206 13207 13208 13209 13210 13211 13212 13213 13214 13215 13216 13217 13218 13219 13220 13221 13222 13223 13224 13225 13226 13227 13228 13229 13230 13231 13232 13233 13234 13235 13236 13237 13238 13239 13240 13241 13242 13243 13244 13245 13246 13247 13248 13249 13250 13251 13252 13253 13254 13255 13256 13257 13258 13259 13260 13261 13262 13263 13264 13265 13266 13267 13268 13269 13270 13271 13272 13273 13274 13275 13276 13277 13278 13279 13280 13281 13282 13283 13284 13285 13286 13287 13288 13289 13290 13291 13292 13293 13294 13295 13296 13297 13298 13299 13300 13301 13302 13303 13304 13305 13306 13307 13308 13309 13310 13311 13312 13313 13314 13315 13316 13317 13318 13319 13320 13321 13322 13323 13324 13325 13326 13327 13328 13329 13330 13331 13332 13333 13334 13335 13336 13337 13338 13339 13340 13341 13342 13343 13344 13345 13346 13347 13348 13349 13350 13351 13352 13353 13354 13355 13356 13357 13358 13359 13360 13361 13362 13363 13364 13365 13366 13367 13368 13369 13370 13371 13372 13373 13374 13375 13376 13377 13378 13379 13380 13381 13382 13383 13384 13385 13386 13387 13388 13389 13390 13391 13392 13393 13394 13395 13396 13397 13398 13399 13400 13401 13402 13403 13404 13405 13406 13407 13408 13409 13410 13411 13412 13413 13414 13415 13416 13417 13418 13419 13420 13421 13422 13423 13424 13425 13426 13427 13428 13429 13430 13431 13432 13433 13434 13435 13436 13437 13438 13439 13440 13441 13442 13443 13444 13445 13446 13447 13448 13449 13450 13451 13452 13453 13454 13455 13456 13457 13458 13459 13460 13461 13462 13463 13464 13465 13466 13467 13468 13469 13470 13471 13472 13473 13474 13475 13476 13477 13478 13479 13480 13481 13482 13483 13484 13485 13486 13487 13488 13489 13490 13491 13492 13493 13494 13495 13496 13497 13498 13499 13500 13501 13502 13503 13504 13505 13506 13507 13508 13509 13510 13511 13512 13513 13514 13515 13516 13517 13518 13519 13520 13521 13522 13523 13524 13525 13526 13527 13528 13529 13530 13531 13532 13533 13534 13535 13536 13537 13538 13539 13540 13541 13542 13543 13544 13545 13546 13547 13548 13549 13550 13551 13552 13553 13554 13555 13556 13557 13558 13559 13560 13561 13562 13563 13564 13565 13566 13567 13568 13569 13570 13571 13572 13573 13574 13575 13576 13577 13578 13579 13580 13581 13582 13583 13584 13585 13586 13587 13588 13589 13590 13591 13592 13593 13594 13595 13596 13597 13598 13599 13600 13601 13602 13603 13604 13605 13606 13607 13608 13609 13610 13611 13612 13613 13614 13615 13616 13617 13618 13619 13620 13621 13622 13623 13624 13625 13626 13627 13628 13629 13630 13631 13632 13633 13634 13635 13636 13637 13638 13639 13640 13641 13642 13643 13644 13645 13646 13647 13648 13649 13650 13651 13652 13653 13654 13655 13656 13657 13658 13659 13660 13661 13662 13663 13664 13665 13666 13667 13668 13669 13670 13671 13672 13673 13674 13675 13676 13677 13678 13679 13680 13681 13682 13683 13684 13685 13686 13687 13688 13689 13690 13691 13692 13693 13694 13695 13696 13697 13698 13699 13700 13701 13702 13703 13704 13705 13706 13707 13708 13709 13710 13711 13712 13713 13714 13715 13716 13717 13718 13719 13720 13721 13722 13723 13724 13725 13726 13727 13728 13729 13730 13731 13732 13733 13734 13735 13736 13737 13738 13739 13740 13741 13742 13743 13744 13745 13746 13747 13748 13749 13750 13751 13752 13753 13754 13755 13756 13757 13758 13759 13760 13761 13762 13763 13764 13765 13766 13767 13768 13769 13770 13771 13772 13773 13774 13775 13776 13777 13778 13779 13780 13781 13782 13783 13784 13785 13786 13787 13788 13789 13790 13791 13792 13793 13794 13795 13796 13797 13798 13799 13800 13801 13802 13803 13804 13805 13806 13807 13808 13809 13810 13811 13812 13813 13814 13815 13816 13817 13818 13819 13820 13821 13822 13823 13824 13825 13826 13827 13828 13829 13830 13831 13832 13833 13834 13835 13836 13837 13838 13839 13840 13841 13842 13843 13844 13845 13846 13847 13848 13849 13850 13851 13852 13853 13854 13855 13856 13857 13858 13859 13860 13861 13862 13863 13864 13865 13866 13867 13868 13869 13870 13871 13872 13873 13874 13875 13876 13877 13878 13879 13880 13881 13882 13883 13884 13885 13886 13887 13888 13889 13890 13891 13892 13893 13894 13895 13896 13897 13898 13899 13900 13901 13902 13903 13904 13905 13906 13907 13908 13909 13910 13911 13912 13913 13914 13915 13916 13917 13918 13919 13920 13921 13922 13923 13924 13925 13926 13927 13928 13929 13930 13931 13932 13933 13934 13935 13936 13937 13938 13939 13940 13941 13942 13943 13944 13945 13946 13947 13948 13949 13950 13951 13952 13953 13954 13955 13956 13957 13958 13959 13960 13961 13962 13963 13964 13965 13966 13967 13968 13969 13970 13971 13972 13973 13974 13975 13976 13977 13978 13979 13980 13981 13982 13983 13984 13985 13986 13987 13988 13989 13990 13991 13992 13993 13994 13995 13996 13997 13998 13999 14000 14001 14002 14003 14004 14005 14006 14007 14008 14009 14010 14011 14012 14013 14014 14015 14016 14017 14018 14019 14020 14021 14022 14023 14024 14025 14026 14027 14028 14029 14030 14031 14032 14033 14034 14035 14036 14037 14038 14039 14040 14041 14042 14043 14044 14045 14046 14047 14048 14049 14050 14051 14052 14053 14054 14055 14056 14057 14058 14059 14060 14061 14062 14063 14064 14065 14066 14067 14068 14069 14070 14071 14072 14073 14074 14075 14076 14077 14078 14079 14080 14081 14082 14083 14084 14085 14086 14087 14088 14089 14090 14091 14092 14093 14094 14095 14096 14097 14098 14099 14100 14101 14102 14103 14104 14105 14106 14107 14108 14109 14110 14111 14112 14113 14114 14115 14116 14117 14118 14119 14120 14121 14122 14123 14124 14125 14126 14127 14128 14129 14130 14131 14132 14133 14134 14135 14136 14137 14138 14139 14140 14141 14142 14143 14144 14145 14146 14147 14148 14149 14150 14151 14152 14153 14154 14155 14156 14157 14158 14159 14160 14161 14162 14163 14164 14165 14166 14167 14168 14169 14170 14171 14172 14173 14174 14175 14176 14177 14178 14179 14180 14181 14182 14183 14184 14185 14186 14187 14188 14189 14190 14191 14192 14193 14194 14195 14196 14197 14198 14199 14200 14201 14202 14203 14204 14205 14206 14207 14208 14209 14210 14211 14212 14213 14214 14215 14216 14217 14218 14219 14220 14221 14222 14223 14224 14225 14226 14227 14228 14229 14230 14231 14232 14233 14234 14235 14236 14237 14238 14239 14240 14241 14242 14243 14244 14245 14246 14247 14248 14249 14250 14251 14252 14253 14254 14255 14256 14257 14258 14259 14260 14261 14262 14263 14264 14265 14266 14267 14268 14269 14270 14271 14272 14273 14274 14275 14276 14277 14278 14279 14280 14281 14282 14283 14284 14285 14286 14287 14288 14289 14290 14291 14292 14293 14294 14295 14296 14297 14298 14299 14300 14301 14302 14303 14304 14305 14306 14307 14308 14309 14310 14311 14312 14313 14314 14315 14316 14317 14318 14319 14320 14321 14322 14323 14324 14325 14326 14327 14328 14329 14330 14331 14332 14333 14334 14335 14336 14337 14338 14339 14340 14341 14342 14343 14344 14345 14346 14347 14348 14349 14350 14351 14352 14353 14354 14355 14356 14357 14358 14359 14360 14361 14362 14363 14364 14365 14366 14367 14368 14369 14370 14371 14372 14373 14374 14375 14376 14377 14378 14379 14380 14381 14382 14383 14384 14385 14386 14387 14388 14389 14390 14391 14392 14393 14394 14395 14396 14397 14398 14399 14400 14401 14402 14403 14404 14405 14406 14407 14408 14409 14410 14411 14412 14413 14414 14415 14416 14417 14418 14419 14420 14421 14422 14423 14424 14425 14426 14427 14428 14429 14430 14431 14432 14433 14434 14435 14436 14437 14438 14439 14440 14441 14442 14443 14444 14445 14446 14447 14448 14449 14450 14451 14452 14453 14454 14455 14456 14457 14458 14459 14460 14461 14462 14463 14464 14465 14466 14467 14468 14469 14470 14471 14472 14473 14474 14475 14476 14477 14478 14479 14480 14481 14482 14483 14484 14485 14486 14487 14488 14489 14490 14491 14492 14493 14494 14495 14496 14497 14498 14499 14500 14501 14502 14503 14504 14505 14506 14507 14508 14509 14510 14511 14512 14513 14514 14515 14516 14517 14518 14519 14520 14521 14522 14523 14524 14525 14526 14527 14528 14529 14530 14531 14532 14533 14534 14535 14536 14537 14538 14539 14540 14541 14542 14543 14544 14545 14546 14547 14548 14549 14550 14551 14552 14553 14554 14555 14556 14557 14558 14559 14560 14561 14562 14563 14564 14565 14566 14567 14568 14569 14570 14571 14572 14573 14574 14575 14576 14577 14578 14579 14580 14581 14582 14583 14584 14585 14586 14587 14588 14589 14590 14591 14592 14593 14594 14595 14596 14597 14598 14599 14600 14601 14602 14603 14604 14605 14606 14607 14608 14609 14610 14611 14612 14613 14614 14615 14616 14617 14618 14619 14620 14621 14622 14623 14624 14625 14626 14627 14628 14629 14630 14631 14632 14633 14634 14635 14636 14637 14638 14639 14640 14641 14642 14643 14644 14645 14646 14647 14648 14649 14650 14651 14652 14653 14654 14655 14656 14657 14658 14659 14660 14661 14662 14663 14664 14665 14666 14667 14668 14669 14670 14671 14672 14673 14674 14675 14676 14677 14678 14679 14680 14681 14682 14683 14684 14685 14686 14687 14688 14689 14690 14691 14692 14693 14694 14695 14696 14697 14698 14699 14700 14701 14702 14703 14704 14705 14706 14707 14708 14709 14710 14711 14712 14713 14714 14715 14716 14717 14718 14719 14720 14721 14722 14723 14724 14725 14726 14727 14728 14729 14730 14731 14732 14733 14734 14735 14736 14737 14738 14739 14740 14741 14742 14743 14744 14745 14746 14747 14748 14749 14750 14751 14752 14753 14754 14755 14756 14757 14758 14759 14760 14761 14762 14763 14764 14765 14766 14767 14768 14769 14770 14771 14772 14773 14774 14775 14776 14777 14778 14779 14780 14781 14782 14783 14784 14785 14786 14787 14788 14789 14790 14791 14792 14793 14794 14795 14796 14797 14798 14799 14800 14801 14802 14803 14804 14805 14806 14807 14808 14809 14810 14811 14812 14813 14814 14815 14816 14817 14818 14819 14820 14821 14822 14823 14824 14825 14826 14827 14828 14829 14830 14831 14832 14833 14834 14835 14836 14837 14838 14839 14840 14841 14842 14843 14844 14845 14846 14847 14848 14849 14850 14851 14852 14853 14854 14855 14856 14857 14858 14859 14860 14861 14862 14863 14864 14865 14866 14867 14868 14869 14870 14871 14872 14873 14874 14875 14876 14877 14878 14879 14880 14881 14882 14883 14884 14885 14886 14887 14888 14889 14890 14891 14892 14893 14894 14895 14896 14897 14898 14899 14900 14901 14902 14903 14904 14905 14906 14907 14908 14909 14910 14911 14912 14913 14914 14915 14916 14917 14918 14919 14920 14921 14922 14923 14924 14925 14926 14927 14928 14929 14930 14931 14932 14933 14934 14935 14936 14937 14938 14939 14940 14941 14942 14943 14944 14945 14946 14947 14948 14949 14950 14951 14952 14953 14954 14955 14956 14957 14958 14959 14960 14961 14962 14963 14964 14965 14966 14967 14968 14969 14970 14971 14972 14973 14974 14975 14976 14977 14978 14979 14980 14981 14982 14983 14984 14985 14986 14987 14988 14989 14990 14991 14992 14993 14994 14995 14996 14997 14998 14999 15000 15001 15002 15003 15004 15005 15006 15007 15008 15009 15010 15011 15012 15013 15014 15015 15016 15017 15018 15019 15020 15021 15022 15023 15024 15025 15026 15027 15028 15029 15030 15031 15032 15033 15034 15035 15036 15037 15038 15039 15040 15041 15042 15043 15044 15045 15046 15047 15048 15049 15050 15051 15052 15053 15054 15055 15056 15057 15058 15059 15060 15061 15062 15063 15064 15065 15066 15067 15068 15069 15070 15071 15072 15073 15074 15075 15076 15077 15078 15079 15080 15081 15082 15083 15084 15085 15086 15087 15088 15089 15090 15091 15092 15093 15094 15095 15096 15097 15098 15099 15100 15101 15102 15103 15104 15105 15106 15107 15108 15109 15110 15111 15112 15113 15114 15115 15116 15117 15118 15119 15120 15121 15122 15123 15124 15125 15126 15127 15128 15129 15130 15131 15132 15133 15134 15135 15136 15137 15138 15139 15140 15141 15142 15143 15144 15145 15146 15147 15148 15149 15150 15151 15152 15153 15154 15155 15156 15157 15158 15159 15160 15161 15162 15163 15164 15165 15166 15167 15168 15169 15170 15171 15172 15173 15174 15175 15176 15177 15178 15179 15180 15181 15182 15183 15184 15185 15186 15187 15188 15189 15190 15191 15192 15193 15194 15195 15196 15197 15198 15199 15200 15201 15202 15203 15204 15205 15206 15207 15208 15209 15210 15211 15212 15213 15214 15215 15216 15217 15218 15219 15220 15221 15222 15223 15224 15225 15226 15227 15228 15229 15230 15231 15232 15233 15234 15235 15236 15237 15238 15239 15240 15241 15242 15243 15244 15245 15246 15247 15248 15249 15250 15251 15252 15253 15254 15255 15256 15257 15258 15259 15260 15261 15262 15263 15264 15265 15266 15267 15268 15269 15270 15271 15272 15273 15274 15275 15276 15277 15278 15279 15280 15281 15282 15283 15284 15285 15286 15287 15288 15289 15290 15291 15292 15293 15294 15295 15296 15297 15298 15299 15300 15301 15302 15303 15304 15305 15306 15307 15308 15309 15310 15311 15312 15313 15314 15315 15316 15317 15318 15319 15320 15321 15322 15323 15324 15325 15326 15327 15328 15329 15330 15331 15332 15333 15334 15335 15336 15337 15338 15339 15340 15341 15342 15343 15344 15345 15346 15347 15348 15349 15350 15351 15352 15353 15354 15355 15356 15357 15358 15359 15360 15361 15362 15363 15364 15365 15366 15367 15368 15369 15370 15371 15372 15373 15374 15375 15376 15377 15378 15379 15380 15381 15382 15383 15384 15385 15386 15387 15388 15389 15390 15391 15392 15393 15394 15395 15396 15397 15398 15399 15400 15401 15402 15403 15404 15405 15406 15407 15408 15409 15410 15411 15412 15413 15414 15415 15416 15417 15418 15419 15420 15421 15422 15423 15424 15425 15426 15427 15428 15429 15430 15431 15432 15433 15434 15435 15436 15437 15438 15439 15440 15441 15442 15443 15444 15445 15446 15447 15448 15449 15450 15451 15452 15453 15454 15455 15456 15457 15458 15459 15460 15461 15462 15463 15464 15465 15466 15467 15468 15469 15470 15471 15472 15473 15474 15475 15476 15477 15478 15479 15480 15481 15482 15483 15484 15485 15486 15487 15488 15489 15490 15491 15492 15493 15494 15495 15496 15497 15498 15499 15500 15501 15502 15503 15504 15505 15506 15507 15508 15509 15510 15511 15512 15513 15514 15515 15516 15517 15518 15519 15520 15521 15522 15523 15524 15525 15526 15527 15528 15529 15530 15531 15532 15533 15534 15535 15536 15537 15538 15539 15540 15541 15542 15543 15544 15545 15546 15547 15548 15549 15550 15551 15552 15553 15554 15555 15556 15557 15558 15559 15560 15561 15562 15563 15564 15565 15566 15567 15568 15569 15570 15571 15572 15573 15574 15575 15576 15577 15578 15579 15580 15581 15582 15583 15584 15585 15586 15587 15588 15589 15590 15591 15592 15593 15594 15595 15596 15597 15598 15599 15600 15601 15602 15603 15604 15605 15606 15607 15608 15609 15610 15611 15612 15613 15614 15615 15616 15617 15618 15619 15620 15621 15622 15623 15624 15625 15626 15627 15628 15629 15630 15631 15632 15633 15634 15635 15636 15637 15638 15639 15640 15641 15642 15643 15644 15645 15646 15647 15648 15649 15650 15651 15652 15653 15654 15655 15656 15657 15658 15659 15660 15661 15662 15663 15664 15665 15666 15667 15668 15669 15670 15671 15672 15673 15674 15675 15676 15677 15678 15679 15680 15681 15682 15683 15684 15685 15686 15687 15688 15689 15690 15691 15692 15693 15694 15695 15696 15697 15698 15699 15700 15701 15702 15703 15704 15705 15706 15707 15708 15709 15710 15711 15712 15713 15714 15715 15716 15717 15718 15719 15720 15721 15722 15723 15724 15725 15726 15727 15728 15729 15730 15731 15732 15733 15734 15735 15736 15737 15738 15739 15740 15741 15742 15743 15744 15745 15746 15747 15748 15749 15750 15751 15752 15753 15754 15755 15756 15757 15758 15759 15760 15761 15762 15763 15764 15765 15766 15767 15768 15769 15770 15771 15772 15773 15774 15775 15776 15777 15778 15779 15780 15781 15782 15783 15784 15785 15786 15787 15788 15789 15790 15791 15792 15793 15794 15795 15796 15797 15798 15799 15800 15801 15802 15803 15804 15805 15806 15807 15808 15809 15810 15811 15812 15813 15814 15815 15816 15817 15818 15819 15820 15821 15822 15823 15824 15825 15826 15827 15828 15829 15830 15831 15832 15833 15834 15835 15836 15837 15838 15839 15840 15841 15842 15843 15844 15845 15846 15847 15848 15849 15850 15851 15852 15853 15854 15855 15856 15857 15858 15859 15860 15861 15862 15863 15864 15865 15866 15867 15868 15869 15870 15871 15872 15873 15874 15875 15876 15877 15878 15879 15880 15881 15882 15883 15884 15885 15886 15887 15888 15889 15890 15891 15892 15893 15894 15895 15896 15897 15898 15899 15900 15901 15902 15903 15904 15905 15906 15907 15908 15909 15910 15911 15912 15913 15914 15915 15916 15917 15918 15919 15920 15921 15922 15923 15924 15925 15926 15927 15928 15929 15930 15931 15932 15933 15934 15935 15936 15937 15938 15939 15940 15941 15942 15943 15944 15945 15946 15947 15948 15949 15950 15951 15952 15953 15954 15955 15956 15957 15958 15959 15960 15961 15962 15963 15964 15965 15966 15967 15968 15969 15970 15971 15972 15973 15974 15975 15976 15977 15978 15979 15980 15981 15982 15983 15984 15985 15986 15987 15988 15989 15990 15991 15992 15993 15994 15995 15996 15997 15998 15999 16000 16001 16002 16003 16004 16005 16006 16007 16008 16009 16010 16011 16012 16013 16014 16015 16016 16017 16018 16019 16020 16021 16022 16023 16024 16025 16026 16027 16028 16029 16030 16031 16032 16033 16034 16035 16036 16037 16038 16039 16040 16041 16042 16043 16044 16045 16046 16047 16048 16049 16050 16051 16052 16053 16054 16055 16056 16057 16058 16059 16060 16061 16062 16063 16064 16065 16066 16067 16068 16069 16070 16071 16072 16073 16074 16075 16076 16077 16078 16079 16080 16081 16082 16083 16084 16085 16086 16087 16088 16089 16090 16091 16092 16093 16094 16095 16096 16097 16098 16099 16100 16101 16102 16103 16104 16105 16106 16107 16108 16109 16110 16111 16112 16113 16114 16115 16116 16117 16118 16119 16120 16121 16122 16123 16124 16125 16126 16127 16128 16129 16130 16131 16132 16133 16134 16135 16136 16137 16138 16139 16140 16141 16142 16143 16144 16145 16146 16147 16148 16149 16150 16151 16152 16153 16154 16155 16156 16157 16158 16159 16160 16161 16162 16163 16164 16165 16166 16167 16168 16169 16170 16171 16172 16173 16174 16175 16176 16177 16178 16179 16180 16181 16182 16183 16184 16185 16186 16187 16188 16189 16190 16191 16192 16193 16194 16195 16196 16197 16198 16199 16200 16201 16202 16203 16204 16205 16206 16207 16208 16209 16210 16211 16212 16213 16214 16215 16216 16217 16218 16219 16220 16221 16222 16223 16224 16225 16226 16227 16228 16229 16230 16231 16232 16233 16234 16235 16236 16237 16238 16239 16240 16241 16242 16243 16244 16245 16246 16247 16248 16249 16250 16251 16252 16253 16254 16255 16256 16257 16258 16259 16260 16261 16262 16263 16264 16265 16266 16267 16268 16269 16270 16271 16272 16273 16274 16275 16276 16277 16278 16279 16280 16281 16282 16283 16284 16285 16286 16287 16288 16289 16290 16291 16292 16293 16294 16295 16296 16297 16298 16299 16300 16301 16302 16303 16304 16305 16306 16307 16308 16309 16310 16311 16312 16313 16314 16315 16316 16317 16318 16319 16320 16321 16322 16323 16324 16325 16326 16327 16328 16329 16330 16331 16332 16333 16334 16335 16336 16337 16338 16339 16340 16341 16342 16343 16344 16345 16346 16347 16348 16349 16350 16351 16352 16353 16354 16355 16356 16357 16358 16359 16360 16361 16362 16363 16364 16365 16366 16367 16368 16369 16370 16371 16372 16373 16374 16375 16376 16377 16378 16379 16380 16381 16382 16383 16384 16385 16386 16387 16388 16389 16390 16391 16392 16393 16394 16395 16396 16397 16398 16399 16400 16401 16402 16403 16404 16405 16406 16407 16408 16409 16410 16411 16412 16413 16414 16415 16416 16417 16418 16419 16420 16421 16422 16423 16424 16425 16426 16427 16428 16429 16430 16431 16432 16433 16434 16435 16436 16437 16438 16439 16440 16441 16442 16443 16444 16445 16446 16447 16448 16449 16450 16451 16452 16453 16454 16455 16456 16457 16458 16459 16460 16461 16462 16463 16464 16465 16466 16467 16468 16469 16470 16471 16472 16473 16474 16475 16476 16477 16478 16479 16480 16481 16482 16483 16484 16485 16486 16487 16488 16489 16490 16491 16492 16493 16494 16495 16496 16497 16498 16499 16500 16501 16502 16503 16504 16505 16506 16507 16508 16509 16510 16511 16512 16513 16514 16515 16516 16517 16518 16519 16520 16521 16522 16523 16524 16525 16526 16527 16528 16529 16530 16531 16532 16533 16534 16535 16536 16537 16538 16539 16540 16541 16542 16543 16544 16545 16546 16547 16548 16549 16550 16551 16552 16553 16554 16555 16556 16557 16558 16559 16560 16561 16562 16563 16564 16565 16566 16567 16568 16569 16570 16571 16572 16573 16574 16575 16576 16577 16578 16579 16580 16581 16582 16583 16584 16585 16586 16587 16588 16589 16590 16591 16592 16593 16594 16595 16596 16597 16598 16599 16600 16601 16602 16603 16604 16605 16606 16607 16608 16609 16610 16611 16612 16613 16614 16615 16616 16617 16618 16619 16620 16621 16622 16623 16624 16625 16626 16627 16628 16629 16630 16631 16632 16633 16634 16635 16636 16637 16638 16639 16640 16641 16642 16643 16644 16645 16646 16647 16648 16649 16650 16651 16652 16653 16654 16655 16656 16657 16658 16659 16660 16661 16662 16663 16664 16665 16666 16667 16668 16669 16670 16671 16672 16673 16674 16675 16676 16677 16678 16679 16680 16681 16682 16683 16684 16685 16686 16687 16688 16689 16690 16691 16692 16693 16694 16695 16696 16697 16698 16699 16700 16701 16702 16703 16704 16705 16706 16707 16708 16709 16710 16711 16712 16713 16714 16715 16716 16717 16718 16719 16720 16721 16722 16723 16724 16725 16726 16727 16728 16729 16730 16731 16732 16733 16734 16735 16736 16737 16738 16739 16740 16741 16742 16743 16744 16745 16746 16747 16748 16749 16750 16751 16752 16753 16754 16755 16756 16757 16758 16759 16760 16761 16762 16763 16764 16765 16766 16767 16768 16769 16770 16771 16772 16773 16774 16775 16776 16777 16778 16779 16780 16781 16782 16783 16784 16785 16786 16787 16788 16789 16790 16791 16792 16793 16794 16795 16796 16797 16798 16799 16800 16801 16802 16803 16804 16805 16806 16807 16808 16809 16810 16811 16812 16813 16814 16815 16816 16817 16818 16819 16820 16821 16822 16823 16824 16825 16826 16827 16828 16829 16830 16831 16832 16833 16834 16835 16836 16837 16838 16839 16840 16841 16842 16843 16844 16845 16846 16847 16848 16849 16850 16851 16852 16853 16854 16855 16856 16857 16858 16859 16860 16861 16862 16863 16864 16865 16866 16867 16868 16869 16870 16871 16872 16873 16874 16875 16876 16877 16878 16879 16880 16881 16882 16883 16884 16885 16886 16887 16888 16889 16890 16891 16892 16893 16894 16895 16896 16897 16898 16899 16900 16901 16902 16903 16904 16905 16906 16907 16908 16909 16910 16911 16912 16913 16914 16915 16916 16917 16918 16919 16920 16921 16922 16923 16924 16925 16926 16927 16928 16929 16930 16931 16932 16933 16934 16935 16936 16937 16938 16939 16940 16941 16942 16943 16944 16945 16946 16947 16948 16949 16950 16951 16952 16953 16954 16955 16956 16957 16958 16959 16960 16961 16962 16963 16964 16965 16966 16967 16968 16969 16970 16971 16972 16973 16974 16975 16976 16977 16978 16979 16980 16981 16982 16983 16984 16985 16986 16987 16988 16989 16990 16991 16992 16993 16994 16995 16996 16997 16998 16999 17000 17001 17002 17003 17004 17005 17006 17007 17008 17009 17010 17011 17012 17013 17014 17015 17016 17017 17018 17019 17020 17021 17022 17023 17024 17025 17026 17027 17028 17029 17030 17031 17032 17033 17034 17035 17036 17037 17038 17039 17040 17041 17042 17043 17044 17045 17046 17047 17048 17049 17050 17051 17052 17053 17054 17055 17056 17057 17058 17059 17060 17061 17062 17063 17064 17065 17066 17067 17068 17069 17070 17071 17072 17073 17074 17075 17076 17077 17078 17079 17080 17081 17082 17083 17084 17085 17086 17087 17088 17089 17090 17091 17092 17093 17094 17095 17096 17097 17098 17099 17100 17101 17102 17103 17104 17105 17106 17107 17108 17109 17110 17111 17112 17113 17114 17115 17116 17117 17118 17119 17120 17121 17122 17123 17124 17125 17126 17127 17128 17129 17130 17131 17132 17133 17134 17135 17136 17137 17138 17139 17140 17141 17142 17143 17144 17145 17146 17147 17148 17149 17150 17151 17152 17153 17154 17155 17156 17157 17158 17159 17160 17161 17162 17163 17164 17165 17166 17167 17168 17169 17170 17171 17172 17173 17174 17175 17176 17177 17178 17179 17180 17181 17182 17183 17184 17185 17186 17187 17188 17189 17190 17191 17192 17193 17194 17195 17196 17197 17198 17199 17200 17201 17202 17203 17204 17205 17206 17207 17208 17209 17210 17211 17212 17213 17214 17215 17216 17217 17218 17219 17220 17221 17222 17223 17224 17225 17226 17227 17228 17229 17230 17231 17232 17233 17234 17235 17236 17237 17238 17239 17240 17241 17242 17243 17244 17245 17246 17247 17248 17249 17250 17251 17252 17253 17254 17255 17256 17257 17258 17259 17260 17261 17262 17263 17264 17265 17266 17267 17268 17269 17270 17271 17272 17273 17274 17275 17276 17277 17278 17279 17280 17281 17282 17283 17284 17285 17286 17287 17288 17289 17290 17291 17292 17293 17294 17295 17296 17297 17298 17299 17300 17301 17302 17303 17304 17305 17306 17307 17308 17309 17310 17311 17312 17313 17314 17315 17316 17317 17318 17319 17320 17321 17322 17323 17324 17325 17326 17327 17328 17329 17330 17331 17332 17333 17334 17335 17336 17337 17338 17339 17340 17341 17342 17343 17344 17345 17346 17347 17348 17349 17350 17351 17352 17353 17354 17355 17356 17357 17358 17359 17360 17361 17362 17363 17364 17365 17366 17367 17368 17369 17370 17371 17372 17373 17374 17375 17376 17377 17378 17379 17380 17381 17382 17383 17384 17385 17386 17387 17388 17389 17390 17391 17392 17393 17394 17395 17396 17397 17398 17399 17400 17401 17402 17403 17404 17405 17406 17407 17408 17409 17410 17411 17412 17413 17414 17415 17416 17417 17418 17419 17420 17421 17422 17423 17424 17425 17426 17427 17428 17429 17430 17431 17432 17433 17434 17435 17436 17437 17438 17439 17440 17441 17442 17443 17444 17445 17446 17447 17448 17449 17450 17451 17452 17453 17454 17455 17456 17457 17458 17459 17460 17461 17462 17463 17464 17465 17466 17467 17468 17469 17470 17471 17472 17473 17474 17475 17476 17477 17478 17479 17480 17481 17482 17483 17484 17485 17486 17487 17488 17489 17490 17491 17492 17493 17494 17495 17496 17497 17498 17499 17500 17501 17502 17503 17504 17505 17506 17507 17508 17509 17510 17511 17512 17513 17514 17515 17516 17517 17518 17519 17520 17521 17522 17523 17524 17525 17526 17527 17528 17529 17530 17531 17532 17533 17534 17535 17536 17537 17538 17539 17540 17541 17542 17543 17544 17545 17546 17547 17548 17549 17550 17551 17552 17553 17554 17555 17556 17557 17558 17559 17560 17561 17562 17563 17564 17565 17566 17567 17568 17569 17570 17571 17572 17573 17574 17575 17576 17577 17578 17579 17580 17581 17582 17583 17584 17585 17586 17587 17588 17589 17590 17591 17592 17593 17594 17595 17596 17597 17598 17599 17600 17601 17602 17603 17604 17605 17606 17607 17608 17609 17610 17611 17612 17613 17614 17615 17616 17617 17618 17619 17620 17621 17622 17623 17624 17625 17626 17627 17628 17629 17630 17631 17632 17633 17634 17635 17636 17637 17638 17639 17640 17641 17642 17643 17644 17645 17646 17647 17648 17649 17650 17651 17652 17653 17654 17655 17656 17657 17658 17659 17660 17661 17662 17663 17664 17665 17666 17667 17668 17669 17670 17671 17672 17673 17674 17675 17676 17677 17678 17679 17680 17681 17682 17683 17684 17685 17686 17687 17688 17689 17690 17691 17692 17693 17694 17695 17696 17697 17698 17699 17700 17701 17702 17703 17704 17705 17706 17707 17708 17709 17710 17711 17712 17713 17714 17715 17716 17717 17718 17719 17720 17721 17722 17723 17724 17725 17726 17727 17728 17729 17730 17731 17732 17733 17734 17735 17736 17737 17738 17739 17740 17741 17742 17743 17744 17745 17746 17747 17748 17749 17750 17751 17752 17753 17754 17755 17756 17757 17758 17759 17760 17761 17762 17763 17764 17765 17766 17767 17768 17769 17770 17771 17772 17773 17774 17775 17776 17777 17778 17779 17780 17781 17782 17783 17784 17785 17786 17787 17788 17789 17790 17791 17792 17793 17794 17795 17796 17797 17798 17799 17800 17801 17802 17803 17804 17805 17806 17807 17808 17809 17810 17811 17812 17813 17814 17815 17816 17817 17818 17819 17820 17821 17822 17823 17824 17825 17826 17827 17828 17829 17830 17831 17832 17833 17834 17835 17836 17837 17838 17839 17840 17841 17842 17843 17844 17845 17846 17847 17848 17849 17850 17851 17852 17853 17854 17855 17856 17857 17858 17859 17860 17861 17862 17863 17864 17865 17866 17867 17868 17869 17870 17871 17872 17873 17874 17875 17876 17877 17878 17879 17880 17881 17882 17883 17884 17885 17886 17887 17888 17889 17890 17891 17892 17893 17894 17895 17896 17897 17898 17899 17900 17901 17902 17903 17904 17905 17906 17907 17908 17909 17910 17911 17912 17913 17914 17915 17916 17917 17918 17919 17920 17921 17922 17923 17924 17925 17926 17927 17928 17929 17930 17931 17932 17933 17934 17935 17936 17937 17938 17939 17940 17941 17942 17943 17944 17945 17946 17947 17948 17949 17950 17951 17952 17953 17954 17955 17956 17957 17958 17959 17960 17961 17962 17963 17964 17965 17966 17967 17968 17969 17970 17971 17972 17973 17974 17975 17976 17977 17978 17979 17980 17981 17982 17983 17984 17985 17986 17987 17988 17989 17990 17991 17992 17993 17994 17995 17996 17997 17998 17999 18000 18001 18002 18003 18004 18005 18006 18007 18008 18009 18010 18011 18012 18013 18014 18015 18016 18017 18018 18019 18020 18021 18022 18023 18024 18025 18026 18027 18028 18029 18030 18031 18032 18033 18034 18035 18036 18037 18038 18039 18040 18041 18042 18043 18044 18045 18046 18047 18048 18049 18050 18051 18052 18053 18054 18055 18056 18057 18058 18059 18060 18061 18062 18063 18064 18065 18066 18067 18068 18069 18070 18071 18072 18073 18074 18075 18076 18077 18078 18079 18080 18081 18082 18083 18084 18085 18086 18087 18088 18089 18090 18091 18092 18093 18094 18095 18096 18097 18098 18099 18100 18101 18102 18103 18104 18105 18106 18107 18108 18109 18110 18111 18112 18113 18114 18115 18116 18117 18118 18119 18120 18121 18122 18123 18124 18125 18126 18127 18128 18129 18130 18131 18132 18133 18134 18135 18136 18137 18138 18139 18140 18141 18142 18143 18144 18145 18146 18147 18148 18149 18150 18151 18152 18153 18154 18155 18156 18157 18158 18159 18160 18161 18162 18163 18164 18165 18166 18167 18168 18169 18170 18171 18172 18173 18174 18175 18176 18177 18178 18179 18180 18181 18182 18183 18184 18185 18186 18187 18188 18189 18190 18191 18192 18193 18194 18195 18196 18197 18198 18199 18200 18201 18202 18203 18204 18205 18206 18207 18208 18209 18210 18211 18212 18213 18214 18215 18216 18217 18218 18219 18220 18221 18222 18223 18224 18225 18226 18227 18228 18229 18230 18231 18232 18233 18234 18235 18236 18237 18238 18239 18240 18241 18242 18243 18244 18245 18246 18247 18248 18249 18250 18251 18252 18253 18254 18255 18256 18257 18258 18259 18260 18261 18262 18263 18264 18265 18266 18267 18268 18269 18270 18271 18272 18273 18274 18275 18276 18277 18278 18279 18280 18281 18282 18283 18284 18285 18286 18287 18288 18289 18290 18291 18292 18293 18294 18295 18296 18297 18298 18299 18300 18301 18302 18303 18304 18305 18306 18307 18308 18309 18310 18311 18312 18313 18314 18315 18316 18317 18318 18319 18320 18321 18322 18323 18324 18325 18326 18327 18328 18329 18330 18331 18332 18333 18334 18335 18336 18337 18338 18339 18340 18341 18342 18343 18344 18345 18346 18347 18348 18349 18350 18351 18352 18353 18354 18355 18356 18357 18358 18359 18360 18361 18362 18363 18364 18365 18366 18367 18368 18369 18370 18371 18372 18373 18374 18375 18376 18377 18378 18379 18380 18381 18382 18383 18384 18385 18386 18387 18388 18389 18390 18391 18392 18393 18394 18395 18396 18397 18398 18399 18400 18401 18402 18403 18404 18405 18406 18407 18408 18409 18410 18411 18412 18413 18414 18415 18416 18417 18418 18419 18420 18421 18422 18423 18424 18425 18426 18427 18428 18429 18430 18431 18432 18433 18434 18435 18436 18437 18438 18439 18440 18441 18442 18443 18444 18445 18446 18447 18448 18449 18450 18451 18452 18453 18454 18455 18456 18457 18458 18459 18460 18461 18462 18463 18464 18465 18466 18467 18468 18469 18470 18471 18472 18473 18474 18475 18476 18477 18478 18479 18480 18481 18482 18483 18484 18485 18486 18487 18488 18489 18490 18491 18492 18493 18494 18495 18496 18497 18498 18499 18500 18501 18502 18503 18504 18505 18506 18507 18508 18509 18510 18511 18512 18513 18514 18515 18516 18517 18518 18519 18520 18521 18522 18523 18524 18525 18526 18527 18528 18529 18530 18531 18532 18533 18534 18535 18536 18537 18538 18539 18540 18541 18542 18543 18544 18545 18546 18547 18548 18549 18550 18551 18552 18553 18554 18555 18556 18557 18558 18559 18560 18561 18562 18563 18564 18565 18566 18567 18568 18569 18570 18571 18572 18573 18574 18575 18576 18577 18578 18579 18580 18581 18582 18583 18584 18585 18586 18587 18588 18589 18590 18591 18592 18593 18594 18595 18596 18597 18598 18599 18600 18601 18602 18603 18604 18605 18606 18607 18608 18609 18610 18611 18612 18613 18614 18615 18616 18617 18618 18619 18620 18621 18622 18623 18624 18625 18626 18627 18628 18629 18630 18631 18632 18633 18634 18635 18636 18637 18638 18639 18640 18641 18642 18643 18644 18645 18646 18647 18648 18649 18650 18651 18652 18653 18654 18655 18656 18657 18658 18659 18660 18661 18662 18663 18664 18665 18666 18667 18668 18669 18670 18671 18672 18673 18674 18675 18676 18677 18678 18679 18680 18681 18682 18683 18684 18685 18686 18687 18688 18689 18690 18691 18692 18693 18694 18695 18696 18697 18698 18699 18700 18701 18702 18703 18704 18705 18706 18707 18708 18709 18710 18711 18712 18713 18714 18715 18716 18717 18718 18719 18720 18721 18722 18723 18724 18725 18726 18727 18728 18729 18730 18731 18732 18733 18734 18735 18736 18737 18738 18739 18740 18741 18742 18743 18744 18745 18746 18747 18748 18749 18750 18751 18752 18753 18754 18755 18756 18757 18758 18759 18760 18761 18762 18763 18764 18765 18766 18767 18768 18769 18770 18771 18772 18773 18774 18775 18776 18777 18778 18779 18780 18781 18782 18783 18784 18785 18786 18787 18788 18789 18790 18791 18792 18793 18794 18795 18796 18797 18798 18799 18800 18801 18802 18803 18804 18805 18806 18807 18808 18809 18810 18811 18812 18813 18814 18815 18816 18817 18818 18819 18820 18821 18822 18823 18824 18825 18826 18827 18828 18829 18830 18831 18832 18833 18834 18835 18836 18837 18838 18839 18840 18841 18842 18843 18844 18845 18846 18847 18848 18849 18850 18851 18852 18853 18854 18855 18856 18857 18858 18859 18860 18861 18862 18863 18864 18865 18866 18867 18868 18869 18870 18871 18872 18873 18874 18875 18876 18877 18878 18879 18880 18881 18882 18883 18884 18885 18886 18887 18888 18889 18890 18891 18892 18893 18894 18895 18896 18897 18898 18899 18900 18901 18902 18903 18904 18905 18906 18907 18908 18909 18910 18911 18912 18913 18914 18915 18916 18917 18918 18919 18920 18921 18922 18923 18924 18925 18926 18927 18928 18929 18930 18931 18932 18933 18934 18935 18936 18937 18938 18939 18940 18941 18942 18943 18944 18945 18946 18947 18948 18949 18950 18951 18952 18953 18954 18955 18956 18957 18958 18959 18960 18961 18962 18963 18964 18965 18966 18967 18968 18969 18970 18971 18972 18973 18974 18975 18976 18977 18978 18979 18980 18981 18982 18983 18984 18985 18986 18987 18988 18989 18990 18991 18992 18993 18994 18995 18996 18997 18998 18999 19000 19001 19002 19003 19004 19005 19006 19007 19008 19009 19010 19011 19012 19013 19014 19015 19016 19017 19018 19019 19020 19021 19022 19023 19024 19025 19026 19027 19028 19029 19030 19031 19032 19033 19034 19035 19036 19037 19038 19039 19040 19041 19042 19043 19044 19045 19046 19047 19048 19049 19050 19051 19052 19053 19054 19055 19056 19057 19058 19059 19060 19061 19062 19063 19064 19065 19066 19067 19068 19069 19070 19071 19072 19073 19074 19075 19076 19077 19078 19079 19080 19081 19082 19083 19084 19085 19086 19087 19088 19089 19090 19091 19092 19093 19094 19095 19096 19097 19098 19099 19100 19101 19102 19103 19104 19105 19106 19107 19108 19109 19110 19111 19112 19113 19114 19115 19116 19117 19118 19119 19120 19121 19122 19123 19124 19125 19126 19127 19128 19129 19130 19131 19132 19133 19134 19135 19136 19137 19138 19139 19140 19141 19142 19143 19144 19145 19146 19147 19148 19149 19150 19151 19152 19153 19154 19155 19156 19157 19158 19159 19160 19161 19162 19163 19164 19165 19166 19167 19168 19169 19170 19171 19172 19173 19174 19175 19176 19177 19178 19179 19180 19181 19182 19183 19184 19185 19186 19187 19188 19189 19190 19191 19192 19193 19194 19195 19196 19197 19198 19199 19200 19201 19202 19203 19204 19205 19206 19207 19208 19209 19210 19211 19212 19213 19214 19215 19216 19217 19218 19219 19220 19221 19222 19223 19224 19225 19226 19227 19228 19229 19230 19231 19232 19233 19234 19235 19236 19237 19238 19239 19240 19241 19242 19243 19244 19245 19246 19247 19248 19249 19250 19251 19252 19253 19254 19255 19256 19257 19258 19259 19260 19261 19262 19263 19264 19265 19266 19267 19268 19269 19270 19271 19272 19273 19274 19275 19276 19277 19278 19279 19280 19281 19282 19283 19284 19285 19286 19287 19288 19289 19290 19291 19292 19293 19294 19295 19296 19297 19298 19299 19300 19301 19302 19303 19304 19305 19306 19307 19308 19309 19310 19311 19312 19313 19314 19315 19316 19317 19318 19319 19320 19321 19322 19323 19324 19325 19326 19327 19328 19329 19330 19331 19332 19333 19334 19335 19336 19337 19338 19339 19340 19341 19342 19343 19344 19345 19346 19347 19348 19349 19350 19351 19352 19353 19354 19355 19356 19357 19358 19359 19360 19361 19362 19363 19364 19365 19366 19367 19368 19369 19370 19371 19372 19373 19374 19375 19376 19377 19378 19379 19380 19381 19382 19383 19384 19385 19386 19387 19388 19389 19390 19391 19392 19393 19394 19395 19396 19397 19398 19399 19400 19401 19402 19403 19404 19405 19406 19407 19408 19409 19410 19411 19412 19413 19414 19415 19416 19417 19418 19419 19420 19421 19422 19423 19424 19425 19426 19427 19428 19429 19430 19431 19432 19433 19434 19435 19436 19437 19438 19439 19440 19441 19442 19443 19444 19445 19446 19447 19448 19449 19450 19451 19452 19453 19454 19455 19456 19457 19458 19459 19460 19461 19462 19463 19464 19465 19466 19467 19468 19469 19470 19471 19472 19473 19474 19475 19476 19477 19478 19479 19480 19481 19482 19483 19484 19485 19486 19487 19488 19489 19490 19491 19492 19493 19494 19495 19496 19497 19498 19499 19500 19501 19502 19503 19504 19505 19506 19507 19508 19509 19510 19511 19512 19513 19514 19515 19516 19517 19518 19519 19520 19521 19522 19523 19524 19525 19526 19527 19528 19529 19530 19531 19532 19533 19534 19535 19536 19537 19538 19539 19540 19541 19542 19543 19544 19545 19546 19547 19548 19549 19550 19551 19552 19553 19554 19555 19556 19557 19558 19559 19560 19561 19562 19563 19564 19565 19566 19567 19568 19569 19570 19571 19572 19573 19574 19575 19576 19577 19578 19579 19580 19581 19582 19583 19584 19585 19586 19587 19588 19589 19590 19591 19592 19593 19594 19595 19596 19597 19598 19599 19600 19601 19602 19603 19604 19605 19606 19607 19608 19609 19610 19611 19612 19613 19614 19615 19616 19617 19618 19619 19620 19621 19622 19623 19624 19625 19626 19627 19628 19629 19630 19631 19632 19633 19634 19635 19636 19637 19638 19639 19640 19641 19642 19643 19644 19645 19646 19647 19648 19649 19650 19651 19652 19653 19654 19655 19656 19657 19658 19659 19660 19661 19662 19663 19664 19665 19666 19667 19668 19669 19670 19671 19672 19673 19674 19675 19676 19677 19678 19679 19680 19681 19682 19683 19684 19685 19686 19687 19688 19689 19690 19691 19692 19693 19694 19695 19696 19697 19698 19699 19700 19701 19702 19703 19704 19705 19706 19707 19708 19709 19710 19711 19712 19713 19714 19715 19716 19717 19718 19719 19720 19721 19722 19723 19724 19725 19726 19727 19728 19729 19730 19731 19732 19733 19734 19735 19736 19737 19738 19739 19740 19741 19742 19743 19744 19745 19746 19747 19748 19749 19750 19751 19752 19753 19754 19755 19756 19757 19758 19759 19760 19761 19762 19763 19764 19765 19766 19767 19768 19769 19770 19771 19772 19773 19774 19775 19776 19777 19778 19779 19780 19781 19782 19783 19784 19785 19786 19787 19788 19789 19790 19791 19792 19793 19794 19795 19796 19797 19798 19799 19800 19801 19802 19803 19804 19805 19806 19807 19808 19809 19810 19811 19812 19813 19814 19815 19816 19817 19818 19819 19820 19821 19822 19823 19824 19825 19826 19827 19828 19829 19830 19831 19832 19833 19834 19835 19836 19837 19838 19839 19840 19841 19842 19843 19844 19845 19846 19847 19848 19849 19850 19851 19852 19853 19854 19855 19856 19857 19858 19859 19860 19861 19862 19863 19864 19865 19866 19867 19868 19869 19870 19871 19872 19873 19874 19875 19876 19877 19878 19879 19880 19881 19882 19883 19884 19885 19886 19887 19888 19889 19890 19891 19892 19893 19894 19895 19896 19897 19898 19899 19900 19901 19902 19903 19904 19905 19906 19907 19908 19909 19910 19911 19912 19913 19914 19915 19916 19917 19918 19919 19920 19921 19922 19923 19924 19925 19926 19927 19928 19929 19930 19931 19932 19933 19934 19935 19936 19937 19938 19939 19940 19941 19942 19943 19944 19945 19946 19947 19948 19949 19950 19951 19952 19953 19954 19955 19956 19957 19958 19959 19960 19961 19962 19963 19964 19965 19966 19967 19968 19969 19970 19971 19972 19973 19974 19975 19976 19977 19978 19979 19980 19981 19982 19983 19984 19985 19986 19987 19988 19989 19990 19991 19992 19993 19994 19995 19996 19997 19998 19999 20000 20001 20002 20003 20004 20005 20006 20007 20008 20009 20010 20011 20012 20013 20014 20015 20016 20017 20018 20019 20020 20021 20022 20023 20024 20025 20026 20027 20028 20029 20030 20031 20032 20033 20034 20035 20036 20037 20038 20039 20040 20041 20042 20043 20044 20045 20046 20047 20048 20049 20050 20051 20052 20053 20054 20055 20056 20057 20058 20059 20060 20061 20062 20063 20064 20065 20066 20067 20068 20069 20070 20071 20072 20073 20074 20075 20076 20077 20078 20079 20080 20081 20082 20083 20084 20085 20086 20087 20088 20089 20090 20091 20092 20093 20094 20095 20096 20097 20098 20099 20100 20101 20102 20103 20104 20105 20106 20107 20108 20109 20110 20111 20112 20113 20114 20115 20116 20117 20118 20119 20120 20121 20122 20123 20124 20125 20126 20127 20128 20129 20130 20131 20132 20133 20134 20135 20136 20137 20138 20139 20140 20141 20142 20143 20144 20145 20146 20147 20148 20149 20150 20151 20152 20153 20154 20155 20156 20157 20158 20159 20160 20161 20162 20163 20164 20165 20166 20167 20168 20169 20170 20171 20172 20173 20174 20175 20176 20177 20178 20179 20180 20181 20182 20183 20184 20185 20186 20187 20188 20189 20190 20191 20192 20193 20194 20195 20196 20197 20198 20199 20200 20201 20202 20203 20204 20205 20206 20207 20208 20209 20210 20211 20212 20213 20214 20215 20216 20217 20218 20219 20220 20221 20222 20223 20224 20225 20226 20227 20228 20229 20230 20231 20232 20233 20234 20235 20236 20237 20238 20239 20240 20241 20242 20243 20244 20245 20246 20247 20248 20249 20250 20251 20252 20253 20254 20255 20256 20257 20258 20259 20260 20261 20262 20263 20264 20265 20266 20267 20268 20269 20270 20271 20272 20273 20274 20275 20276 20277 20278 20279 20280 20281 20282 20283 20284 20285 20286 20287 20288 20289 20290 20291 20292 20293 20294 20295 20296 20297 20298 20299 20300 20301 20302 20303 20304 20305 20306 20307 20308 20309 20310 20311 20312 20313 20314 20315 20316 20317 20318 20319 20320 20321 20322 20323 20324 20325 20326 20327 20328 20329 20330 20331 20332 20333 20334 20335 20336 20337 20338 20339 20340 20341 20342 20343 20344 20345 20346 20347 20348 20349 20350 20351 20352 20353 20354 20355 20356 20357 20358 20359 20360 20361 20362 20363 20364 20365 20366 20367 20368 20369 20370 20371 20372 20373 20374 20375 20376 20377 20378 20379 20380 20381 20382 20383 20384 20385 20386 20387 20388 20389 20390 20391 20392 20393 20394 20395 20396 20397 20398 20399 20400 20401 20402 20403 20404 20405 20406 20407 20408 20409 20410 20411 20412 20413 20414 20415 20416 20417 20418 20419 20420 20421 20422 20423 20424 20425 20426 20427 20428 20429 20430 20431 20432 20433 20434 20435 20436 20437 20438 20439 20440 20441 20442 20443 20444 20445 20446 20447 20448 20449 20450 20451 20452 20453 20454 20455 20456 20457 20458 20459 20460 20461 20462 20463 20464 20465 20466 20467 20468 20469 20470 20471 20472 20473 20474 20475 20476 20477 20478 20479 20480 20481 20482 20483 20484 20485 20486 20487 20488 20489 20490 20491 20492 20493 20494 20495 20496 20497 20498 20499 20500 20501 20502 20503 20504 20505 20506 20507 20508 20509 20510 20511 20512 20513 20514 20515 20516 20517 20518 20519 20520 20521 20522 20523 20524 20525 20526 20527 20528 20529 20530 20531 20532 20533 20534 20535 20536 20537 20538 20539 20540 20541 20542 20543 20544 20545 20546 20547 20548 20549 20550 20551 20552 20553 20554 20555 20556 20557 20558 20559 20560 20561 20562 20563 20564 20565 20566 20567 20568 20569 20570 20571 20572 20573 20574 20575 20576 20577 20578 20579 20580 20581 20582 20583 20584 20585 20586 20587 20588 20589 20590 20591 20592 20593 20594 20595 20596 20597 20598 20599 20600 20601 20602 20603 20604 20605 20606 20607 20608 20609 20610 20611 20612 20613 20614 20615 20616 20617 20618 20619 20620 20621 20622 20623 20624 20625 20626 20627 20628 20629 20630 20631 20632 20633 20634 20635 20636 20637 20638 20639 20640 20641 20642 20643 20644 20645 20646 20647 20648 20649 20650 20651 20652 20653 20654 20655 20656 20657 20658 20659 20660 20661 20662 20663 20664 20665 20666 20667 20668 20669 20670 20671 20672 20673 20674 20675 20676 20677 20678 20679 20680 20681 20682 20683 20684 20685 20686 20687 20688 20689 20690 20691 20692 20693 20694 20695 20696 20697 20698 20699 20700 20701 20702 20703 20704 20705 20706 20707 20708 20709 20710 20711 20712 20713 20714 20715 20716 20717 20718 20719 20720 20721 20722 20723 20724 20725 20726 20727 20728 20729 20730 20731 20732 20733 20734 20735 20736 20737 20738 20739 20740 20741 20742 20743 20744 20745 20746 20747 20748 20749 20750 20751 20752 20753 20754 20755 20756 20757 20758 20759 20760 20761 20762 20763 20764 20765 20766 20767 20768 20769 20770 20771 20772 20773 20774 20775 20776 20777 20778 20779 20780 20781 20782 20783 20784 20785 20786 20787 20788 20789 20790 20791 20792 20793 20794 20795 20796 20797 20798 20799 20800 20801 20802 20803 20804 20805 20806 20807 20808 20809 20810 20811 20812 20813 20814 20815 20816 20817 20818 20819 20820 20821 20822 20823 20824 20825 20826 20827 20828 20829 20830 20831 20832 20833 20834 20835 20836 20837 20838 20839 20840 20841 20842 20843 20844 20845 20846 20847 20848 20849 20850 20851 20852 20853 20854 20855 20856 20857 20858 20859 20860 20861 20862 20863 20864 20865 20866 20867 20868 20869 20870 20871 20872 20873 20874 20875 20876 20877 20878 20879 20880 20881 20882 20883 20884 20885 20886 20887 20888 20889 20890 20891 20892 20893 20894 20895 20896 20897 20898 20899 20900 20901 20902 20903 20904 20905 20906 20907 20908 20909 20910 20911 20912 20913 20914 20915 20916 20917 20918 20919 20920 20921 20922 20923 20924 20925 20926 20927 20928 20929 20930 20931 20932 20933 20934 20935 20936 20937 20938 20939 20940 20941 20942 20943 20944 20945 20946 20947 20948 20949 20950 20951 20952 20953 20954 20955 20956 20957 20958 20959 20960 20961 20962 20963 20964 20965 20966 20967 20968 20969 20970 20971 20972 20973 20974 20975 20976 20977 20978 20979 20980 20981 20982 20983 20984 20985 20986 20987 20988 20989 20990 20991 20992 20993 20994 20995 20996 20997 20998 20999 21000 21001 21002 21003 21004 21005 21006 21007 21008 21009 21010 21011 21012 21013 21014 21015 21016 21017 21018 21019 21020 21021 21022 21023 21024 21025 21026 21027 21028 21029 21030 21031 21032 21033 21034 21035 21036 21037 21038 21039 21040 21041 21042 21043 21044 21045 21046 21047 21048 21049 21050 21051 21052 21053 21054 21055 21056 21057 21058 21059 21060 21061 21062 21063 21064 21065 21066 21067 21068 21069 21070 21071 21072 21073 21074 21075 21076 21077 21078 21079 21080 21081 21082 21083 21084 21085 21086 21087 21088 21089 21090 21091 21092 21093 21094 21095 21096 21097 21098 21099 21100 21101 21102 21103 21104 21105 21106 21107 21108 21109 21110 21111 21112 21113 21114 21115 21116 21117 21118 21119 21120 21121 21122 21123 21124 21125 21126 21127 21128 21129 21130 21131 21132 21133 21134 21135 21136 21137 21138 21139 21140 21141 21142 21143 21144 21145 21146 21147 21148 21149 21150 21151 21152 21153 21154 21155 21156 21157 21158 21159 21160 21161 21162 21163 21164 21165 21166 21167 21168 21169 21170 21171 21172 21173 21174 21175 21176 21177 21178 21179 21180 21181 21182 21183 21184 21185 21186 21187 21188 21189 21190 21191 21192 21193 21194 21195 21196 21197 21198 21199 21200 21201 21202 21203 21204 21205 21206 21207 21208 21209 21210 21211 21212 21213 21214 21215 21216 21217 21218 21219 21220 21221 21222 21223 21224 21225 21226 21227 21228 21229 21230 21231 21232 21233 21234 21235 21236 21237 21238 21239 21240 21241 21242 21243 21244 21245 21246 21247 21248 21249 21250 21251 21252 21253 21254 21255 21256 21257 21258 21259 21260 21261 21262 21263 21264 21265 21266 21267 21268 21269 21270 21271 21272 21273 21274 21275 21276 21277 21278 21279 21280 21281 21282 21283 21284 21285 21286 21287 21288 21289 21290 21291 21292 21293 21294 21295 21296 21297 21298 21299 21300 21301 21302 21303 21304 21305 21306 21307 21308 21309 21310 21311 21312 21313 21314 21315 21316 21317 21318 21319 21320 21321 21322 21323 21324 21325 21326 21327 21328 21329 21330 21331 21332 21333 21334 21335 21336 21337 21338 21339 21340 21341 21342 21343 21344 21345 21346 21347 21348 21349 21350 21351 21352 21353 21354 21355 21356 21357 21358 21359 21360 21361 21362 21363 21364 21365 21366 21367 21368 21369 21370 21371 21372 21373 21374 21375 21376 21377 21378 21379 21380 21381 21382 21383 21384 21385 21386 21387 21388 21389 21390 21391 21392 21393 21394 21395 21396 21397 21398 21399 21400 21401 21402 21403 21404 21405 21406 21407 21408 21409 21410 21411 21412 21413 21414 21415 21416 21417 21418 21419 21420 21421 21422 21423 21424 21425 21426 21427 21428 21429 21430 21431 21432 21433 21434 21435 21436 21437 21438 21439 21440 21441 21442 21443 21444 21445 21446 21447 21448 21449 21450 21451 21452 21453 21454 21455 21456 21457 21458 21459 21460 21461 21462 21463 21464 21465 21466 21467 21468 21469 21470 21471 21472 21473 21474 21475 21476 21477 21478 21479 21480 21481 21482 21483 21484 21485 21486 21487 21488 21489 21490 21491 21492 21493 21494 21495 21496 21497 21498 21499 21500 21501 21502 21503 21504 21505 21506 21507 21508 21509 21510 21511 21512 21513 21514 21515 21516 21517 21518 21519 21520 21521 21522 21523 21524 21525 21526 21527 21528 21529 21530 21531 21532 21533 21534 21535 21536 21537 21538 21539 21540 21541 21542 21543 21544 21545 21546 21547 21548 21549 21550 21551 21552 21553 21554 21555 21556 21557 21558 21559 21560 21561 21562 21563 21564 21565 21566 21567 21568 21569 21570 21571 21572 21573 21574 21575 21576 21577 21578 21579 21580 21581 21582 21583 21584 21585 21586 21587 21588 21589 21590 21591 21592 21593 21594 21595 21596 21597 21598 21599 21600 21601 21602 21603 21604 21605 21606 21607 21608 21609 21610 21611 21612 21613 21614 21615 21616 21617 21618 21619 21620 21621 21622 21623 21624 21625 21626 21627 21628 21629 21630 21631 21632 21633 21634 21635 21636 21637 21638 21639 21640 21641 21642 21643 21644 21645 21646 21647 21648 21649 21650 21651 21652 21653 21654 21655 21656 21657 21658 21659 21660 21661 21662 21663 21664 21665 21666 21667 21668 21669 21670 21671 21672 21673 21674 21675 21676 21677 21678 21679 21680 21681 21682 21683 21684 21685 21686 21687 21688 21689 21690 21691 21692 21693 21694 21695 21696 21697 21698 21699 21700 21701 21702 21703 21704 21705 21706 21707 21708 21709 21710 21711 21712 21713 21714 21715 21716 21717 21718 21719 21720 21721 21722 21723 21724 21725 21726 21727 21728 21729 21730 21731 21732 21733 21734 21735 21736 21737 21738 21739 21740 21741 21742 21743 21744 21745 21746 21747 21748 21749 21750 21751 21752 21753 21754 21755 21756 21757 21758 21759 21760 21761 21762 21763 21764 21765 21766 21767 21768 21769 21770 21771 21772 21773 21774 21775 21776 21777 21778 21779 21780 21781 21782 21783 21784 21785 21786 21787 21788 21789 21790 21791 21792 21793 21794 21795 21796 21797 21798 21799 21800 21801 21802 21803 21804 21805 21806 21807 21808 21809 21810 21811 21812 21813 21814 21815 21816 21817 21818 21819 21820 21821 21822 21823 21824 21825 21826 21827 21828 21829 21830 21831 21832 21833 21834 21835 21836 21837 21838 21839 21840 21841 21842 21843 21844 21845 21846 21847 21848 21849 21850 21851 21852 21853 21854 21855 21856 21857 21858 21859 21860 21861 21862 21863 21864 21865 21866 21867 21868 21869 21870 21871 21872 21873 21874 21875 21876 21877 21878 21879 21880 21881 21882 21883 21884 21885 21886 21887 21888 21889 21890 21891 21892 21893 21894 21895 21896 21897 21898 21899 21900 21901 21902 21903 21904 21905 21906 21907 21908 21909 21910 21911 21912 21913 21914 21915 21916 21917 21918 21919 21920 21921 21922 21923 21924 21925 21926 21927 21928 21929 21930 21931 21932 21933 21934 21935 21936 21937 21938 21939 21940 21941 21942 21943 21944 21945 21946 21947 21948 21949 21950 21951 21952 21953 21954 21955 21956 21957 21958 21959 21960 21961 21962 21963 21964 21965 21966 21967 21968 21969 21970 21971 21972 21973 21974 21975 21976 21977 21978 21979 21980 21981 21982 21983 21984 21985 21986 21987 21988 21989 21990 21991 21992 21993 21994 21995 21996 21997 21998 21999 22000 22001 22002 22003 22004 22005 22006 22007 22008 22009 22010 22011 22012 22013 22014 22015 22016 22017 22018 22019 22020 22021 22022 22023 22024 22025 22026 22027 22028 22029 22030 22031 22032 22033 22034 22035 22036 22037 22038 22039 22040 22041 22042 22043 22044 22045 22046 22047 22048 22049 22050 22051 22052 22053 22054 22055 22056 22057 22058 22059 22060 22061 22062 22063 22064 22065 22066 22067 22068 22069 22070 22071 22072 22073 22074 22075 22076 22077 22078 22079 22080 22081 22082 22083 22084 22085 22086 22087 22088 22089 22090 22091 22092 22093 22094 22095 22096 22097 22098 22099 22100 22101 22102 22103 22104 22105 22106 22107 22108 22109 22110 22111 22112 22113 22114 22115 22116 22117 22118 22119 22120 22121 22122 22123 22124 22125 22126 22127 22128 22129 22130 22131 22132 22133 22134 22135 22136 22137 22138 22139 22140 22141 22142 22143 22144 22145 22146 22147 22148 22149 22150 22151 22152 22153 22154 22155 22156 22157 22158 22159 22160 22161 22162 22163 22164 22165 22166 22167 22168 22169 22170 22171 22172 22173 22174 22175 22176 22177 22178 22179 22180 22181 22182 22183 22184 22185 22186 22187 22188 22189 22190 22191 22192 22193 22194 22195 22196 22197 22198 22199 22200 22201 22202 22203 22204 22205 22206 22207 22208 22209 22210 22211 22212 22213 22214 22215 22216 22217 22218 22219 22220 22221 22222 22223 22224 22225 22226 22227 22228 22229 22230 22231 22232 22233 22234 22235 22236 22237 22238 22239 22240 22241 22242 22243 22244 22245 22246 22247 22248 22249 22250 22251 22252 22253 22254 22255 22256 22257 22258 22259 22260 22261 22262 22263 22264 22265 22266 22267 22268 22269 22270 22271 22272 22273 22274 22275 22276 22277 22278 22279 22280 22281 22282 22283 22284 22285 22286 22287 22288 22289 22290 22291 22292 22293 22294 22295 22296 22297 22298 22299 22300 22301 22302 22303 22304 22305 22306 22307 22308 22309 22310 22311 22312 22313 22314 22315 22316 22317 22318 22319 22320 22321 22322 22323 22324 22325 22326 22327 22328 22329 22330 22331 22332 22333 22334 22335 22336 22337 22338 22339 22340 22341 22342 22343 22344 22345 22346 22347 22348 22349 22350 22351 22352 22353 22354 22355 22356 22357 22358 22359 22360 22361 22362 22363 22364 22365 22366 22367 22368 22369 22370 22371 22372 22373 22374 22375 22376 22377 22378 22379 22380 22381 22382 22383 22384 22385 22386 22387 22388 22389 22390 22391 22392 22393 22394 22395 22396 22397 22398 22399 22400 22401 22402 22403 22404 22405 22406 22407 22408 22409 22410 22411 22412 22413 22414 22415 22416 22417 22418 22419 22420 22421 22422 22423 22424 22425 22426 22427 22428 22429 22430 22431 22432 22433 22434 22435 22436 22437 22438 22439 22440 22441 22442 22443 22444 22445 22446 22447 22448 22449 22450 22451 22452 22453 22454 22455 22456 22457 22458 22459 22460 22461 22462 22463 22464 22465 22466 22467 22468 22469 22470 22471 22472 22473 22474 22475 22476 22477 22478 22479 22480 22481 22482 22483 22484 22485 22486 22487 22488 22489 22490 22491 22492 22493 22494 22495 22496 22497 22498 22499 22500 22501 22502 22503 22504 22505 22506 22507 22508 22509 22510 22511 22512 22513 22514 22515 22516 22517 22518 22519 22520 22521 22522 22523 22524 22525 22526 22527 22528 22529 22530 22531 22532 22533 22534 22535 22536 22537 22538 22539 22540 22541 22542 22543 22544 22545 22546 22547 22548 22549 22550 22551 22552 22553 22554 22555 22556 22557 22558 22559 22560 22561 22562 22563 22564 22565 22566 22567 22568 22569 22570 22571 22572 22573 22574 22575 22576 22577 22578 22579 22580 22581 22582 22583 22584 22585 22586 22587 22588 22589 22590 22591 22592 22593 22594 22595 22596 22597 22598 22599 22600 22601 22602 22603 22604 22605 22606 22607 22608 22609 22610 22611 22612 22613 22614 22615 22616 22617 22618 22619 22620 22621 22622 22623 22624 22625 22626 22627 22628 22629 22630 22631 22632 22633 22634 22635 22636 22637 22638 22639 22640 22641 22642 22643 22644 22645 22646 22647 22648 22649 22650 22651 22652 22653 22654 22655 22656 22657 22658 22659 22660 22661 22662 22663 22664 22665 22666 22667 22668 22669 22670 22671 22672 22673 22674 22675 22676 22677 22678 22679 22680 22681 22682 22683 22684 22685 22686 22687 22688 22689 22690 22691 22692 22693 22694 22695 22696 22697 22698 22699 22700 22701 22702 22703 22704 22705 22706 22707 22708 22709 22710 22711 22712 22713 22714 22715 22716 22717 22718 22719 22720 22721 22722 22723 22724 22725 22726 22727 22728 22729 22730 22731 22732 22733 22734 22735 22736 22737 22738 22739 22740 22741 22742 22743 22744 22745 22746 22747 22748 22749 22750 22751 22752 22753 22754 22755 22756 22757 22758 22759 22760 22761 22762 22763 22764 22765 22766 22767 22768 22769 22770 22771 22772 22773 22774 22775 22776 22777 22778 22779 22780 22781 22782 22783 22784 22785 22786 22787 22788 22789 22790 22791 22792 22793 22794 22795 22796 22797 22798 22799 22800 22801 22802 22803 22804 22805 22806 22807 22808 22809 22810 22811 22812 22813 22814 22815 22816 22817 22818 22819 22820 22821 22822 22823 22824 22825 22826 22827 22828 22829 22830 22831 22832 22833 22834 22835 22836 22837 22838 22839 22840 22841 22842 22843 22844 22845 22846 22847 22848 22849 22850 22851 22852 22853 22854 22855 22856 22857 22858 22859 22860 22861 22862 22863 22864 22865 22866 22867 22868 22869 22870 22871 22872 22873 22874 22875 22876 22877 22878 22879 22880 22881 22882 22883 22884 22885 22886 22887 22888 22889 22890 22891 22892 22893 22894 22895 22896 22897 22898 22899 22900 22901 22902 22903 22904 22905 22906 22907 22908 22909 22910 22911 22912 22913 22914 22915 22916 22917 22918 22919 22920 22921 22922 22923 22924 22925 22926 22927 22928 22929 22930 22931 22932 22933 22934 22935 22936 22937 22938 22939 22940 22941 22942 22943 22944 22945 22946 22947 22948 22949 22950 22951 22952 22953 22954 22955 22956 22957 22958 22959 22960 22961 22962 22963 22964 22965 22966 22967 22968 22969 22970 22971 22972 22973 22974 22975 22976 22977 22978 22979 22980 22981 22982 22983 22984 22985 22986 22987 22988 22989 22990 22991 22992 22993 22994 22995 22996 22997 22998 22999 23000 23001 23002 23003 23004 23005 23006 23007 23008 23009 23010 23011 23012 23013 23014 23015 23016 23017 23018 23019 23020 23021 23022 23023 23024 23025 23026 23027 23028 23029 23030 23031 23032 23033 23034 23035 23036 23037 23038 23039 23040 23041 23042 23043 23044 23045 23046 23047 23048 23049 23050 23051 23052 23053 23054 23055 23056 23057 23058 23059 23060 23061 23062 23063 23064 23065 23066 23067 23068 23069 23070 23071 23072 23073 23074 23075 23076 23077 23078 23079 23080 23081 23082 23083 23084 23085 23086 23087 23088 23089 23090 23091 23092 23093 23094 23095 23096 23097 23098 23099 23100 23101 23102 23103 23104 23105 23106 23107 23108 23109 23110 23111 23112 23113 23114 23115 23116 23117 23118 23119 23120 23121 23122 23123 23124 23125 23126 23127 23128 23129 23130 23131 23132 23133 23134 23135 23136 23137 23138 23139 23140 23141 23142 23143 23144 23145 23146 23147 23148 23149 23150 23151 23152 23153 23154 23155 23156 23157 23158 23159 23160 23161 23162 23163 23164 23165 23166 23167 23168 23169 23170 23171 23172 23173 23174 23175 23176 23177 23178 23179 23180 23181 23182 23183 23184 23185 23186 23187 23188 23189 23190 23191 23192 23193 23194 23195 23196 23197 23198 23199 23200 23201 23202 23203 23204 23205 23206 23207 23208 23209 23210 23211 23212 23213 23214 23215 23216 23217 23218 23219 23220 23221 23222 23223 23224 23225 23226 23227 23228 23229 23230 23231 23232 23233 23234 23235 23236 23237 23238 23239 23240 23241 23242 23243 23244 23245 23246 23247 23248 23249 23250 23251 23252 23253 23254 23255 23256 23257 23258 23259 23260 23261 23262 23263 23264 23265 23266 23267 23268 23269 23270 23271 23272 23273 23274 23275 23276 23277 23278 23279 23280 23281 23282 23283 23284 23285 23286 23287 23288 23289 23290 23291 23292 23293 23294 23295 23296 23297 23298 23299 23300 23301 23302 23303 23304 23305 23306 23307 23308 23309 23310 23311 23312 23313 23314 23315 23316 23317 23318 23319 23320 23321 23322 23323 23324 23325 23326 23327 23328 23329 23330 23331 23332 23333 23334 23335 23336 23337 23338 23339 23340 23341 23342 23343 23344 23345 23346 23347 23348 23349 23350 23351 23352 23353 23354 23355 23356 23357 23358 23359 23360 23361 23362 23363 23364 23365 23366 23367 23368 23369 23370 23371 23372 23373 23374 23375 23376 23377 23378 23379 23380 23381 23382 23383 23384 23385 23386 23387 23388 23389 23390 23391 23392 23393 23394 23395 23396 23397 23398 23399 23400 23401 23402 23403 23404 23405 23406 23407 23408 23409 23410 23411 23412 23413 23414 23415 23416 23417 23418 23419 23420 23421 23422 23423 23424 23425 23426 23427 23428 23429 23430 23431 23432 23433 23434 23435 23436 23437 23438 23439 23440 23441 23442 23443 23444 23445 23446 23447 23448 23449 23450 23451 23452 23453 23454 23455 23456 23457 23458 23459 23460 23461 23462 23463 23464 23465 23466 23467 23468 23469 23470 23471 23472 23473 23474 23475 23476 23477 23478 23479 23480 23481 23482 23483 23484 23485 23486 23487 23488 23489 23490 23491 23492 23493 23494 23495 23496 23497 23498 23499 23500 23501 23502 23503 23504 23505 23506 23507 23508 23509 23510 23511 23512 23513 23514 23515 23516 23517 23518 23519 23520 23521 23522 23523 23524 23525 23526 23527 23528 23529 23530 23531 23532 23533 23534 23535 23536 23537 23538 23539 23540 23541 23542 23543 23544 23545 23546 23547 23548 23549 23550 23551 23552 23553 23554 23555 23556 23557 23558 23559 23560 23561 23562 23563 23564 23565 23566 23567 23568 23569 23570 23571 23572 23573 23574 23575 23576 23577 23578 23579 23580 23581 23582 23583 23584 23585 23586 23587 23588 23589 23590 23591 23592 23593 23594 23595 23596 23597 23598 23599 23600 23601 23602 23603 23604 23605 23606 23607 23608 23609 23610 23611 23612 23613 23614 23615 23616 23617 23618 23619 23620 23621 23622 23623 23624 23625 23626 23627 23628 23629 23630 23631 23632 23633 23634 23635 23636 23637 23638 23639 23640 23641 23642 23643 23644 23645 23646 23647 23648 23649 23650 23651 23652 23653 23654 23655 23656 23657 23658 23659 23660 23661 23662 23663 23664 23665 23666 23667 23668 23669 23670 23671 23672 23673 23674 23675 23676 23677 23678 23679 23680 23681 23682 23683 23684 23685 23686 23687 23688 23689 23690 23691 23692 23693 23694 23695 23696 23697 23698 23699 23700 23701 23702 23703 23704 23705 23706 23707 23708 23709 23710 23711 23712 23713 23714 23715 23716 23717 23718 23719 23720 23721 23722 23723 23724 23725 23726 23727 23728 23729 23730 23731 23732 23733 23734 23735 23736 23737 23738 23739 23740 23741 23742 23743 23744 23745 23746 23747 23748 23749 23750 23751 23752 23753 23754 23755 23756 23757 23758 23759 23760 23761 23762 23763 23764 23765 23766 23767 23768 23769 23770 23771 23772 23773 23774 23775 23776 23777 23778 23779 23780 23781 23782 23783 23784 23785 23786 23787 23788 23789 23790 23791 23792 23793 23794 23795 23796 23797 23798 23799 23800 23801 23802 23803 23804 23805 23806 23807 23808 23809 23810 23811 23812 23813 23814 23815 23816 23817 23818 23819 23820 23821 23822 23823 23824 23825 23826 23827 23828 23829 23830 23831 23832 23833 23834 23835 23836 23837 23838 23839 23840 23841 23842 23843 23844 23845 23846 23847 23848 23849 23850 23851 23852 23853 23854 23855 23856 23857 23858 23859 23860 23861 23862 23863 23864 23865 23866 23867 23868 23869 23870 23871 23872 23873 23874 23875 23876 23877 23878 23879 23880 23881 23882 23883 23884 23885 23886 23887 23888 23889 23890 23891 23892 23893 23894 23895 23896 23897 23898 23899 23900 23901 23902 23903 23904 23905 23906 23907 23908 23909 23910 23911 23912 23913 23914 23915 23916 23917 23918 23919 23920 23921 23922 23923 23924 23925 23926 23927 23928 23929 23930 23931 23932 23933 23934 23935 23936 23937 23938 23939 23940 23941 23942 23943 23944 23945 23946 23947 23948 23949 23950 23951 23952 23953 23954 23955 23956 23957 23958 23959 23960 23961 23962 23963 23964 23965 23966 23967 23968 23969 23970 23971 23972 23973 23974 23975 23976 23977 23978 23979 23980 23981 23982 23983 23984 23985 23986 23987 23988 23989 23990 23991 23992 23993 23994 23995 23996 23997 23998 23999 24000 24001 24002 24003 24004 24005 24006 24007 24008 24009 24010 24011 24012 24013 24014 24015 24016 24017 24018 24019 24020 24021 24022 24023 24024 24025 24026 24027 24028 24029 24030 24031 24032 24033 24034 24035 24036 24037 24038 24039 24040 24041 24042 24043 24044 24045 24046 24047 24048 24049 24050 24051 24052 24053 24054 24055 24056 24057 24058 24059 24060 24061 24062 24063 24064 24065 24066 24067 24068 24069 24070 24071 24072 24073 24074 24075 24076 24077 24078 24079 24080 24081 24082 24083 24084 24085 24086 24087 24088 24089 24090 24091 24092 24093 24094 24095 24096 24097 24098 24099 24100 24101 24102 24103 24104 24105 24106 24107 24108 24109 24110 24111 24112 24113 24114 24115 24116 24117 24118 24119 24120 24121 24122 24123 24124 24125 24126 24127 24128 24129 24130 24131 24132 24133 24134 24135 24136 24137 24138 24139 24140 24141 24142 24143 24144 24145 24146 24147 24148 24149 24150 24151 24152 24153 24154 24155 24156 24157 24158 24159 24160 24161 24162 24163 24164 24165 24166 24167 24168 24169 24170 24171 24172 24173 24174 24175 24176 24177 24178 24179 24180 24181 24182 24183 24184 24185 24186 24187 24188 24189 24190 24191 24192 24193 24194 24195 24196 24197 24198 24199 24200 24201 24202 24203 24204 24205 24206 24207 24208 24209 24210 24211 24212 24213 24214 24215 24216 24217 24218 24219 24220 24221 24222 24223 24224 24225 24226 24227 24228 24229 24230 24231 24232 24233 24234 24235 24236 24237 24238 24239 24240 24241 24242 24243 24244 24245 24246 24247 24248 24249 24250 24251 24252 24253 24254 24255 24256 24257 24258 24259 24260 24261 24262 24263 24264 24265 24266 24267 24268 24269 24270 24271 24272 24273 24274 24275 24276 24277 24278 24279 24280 24281 24282 24283 24284 24285 24286 24287 24288 24289 24290 24291 24292 24293 24294 24295 24296 24297 24298 24299 24300 24301 24302 24303 24304 24305 24306 24307 24308 24309 24310 24311 24312 24313 24314 24315 24316 24317 24318 24319 24320 24321 24322 24323 24324 24325 24326 24327 24328 24329 24330 24331 24332 24333 24334 24335 24336 24337 24338 24339 24340 24341 24342 24343 24344 24345 24346 24347 24348 24349 24350 24351 24352 24353 24354 24355 24356 24357 24358 24359 24360 24361 24362 24363 24364 24365 24366 24367 24368 24369 24370 24371 24372 24373 24374 24375 24376 24377 24378 24379 24380 24381 24382 24383 24384 24385 24386 24387 24388 24389 24390 24391 24392 24393 24394 24395 24396 24397 24398 24399 24400 24401 24402 24403 24404 24405 24406 24407 24408 24409 24410 24411 24412 24413 24414 24415 24416 24417 24418 24419 24420 24421 24422 24423 24424 24425 24426 24427 24428 24429 24430 24431 24432 24433 24434 24435 24436 24437 24438 24439 24440 24441 24442 24443 24444 24445 24446 24447 24448 24449 24450 24451 24452 24453 24454 24455 24456 24457 24458 24459 24460 24461 24462 24463 24464 24465 24466 24467 24468 24469 24470 24471 24472 24473 24474 24475 24476 24477 24478 24479 24480 24481 24482 24483 24484 24485 24486 24487 24488 24489 24490 24491 24492 24493 24494 24495 24496 24497 24498 24499 24500 24501 24502 24503 24504 24505 24506 24507 24508 24509 24510 24511 24512 24513 24514 24515 24516 24517 24518 24519 24520 24521 24522 24523 24524 24525 24526 24527 24528 24529 24530 24531 24532 24533 24534 24535 24536 24537 24538 24539 24540 24541 24542 24543 24544 24545 24546 24547 24548 24549 24550 24551 24552 24553 24554 24555 24556 24557 24558 24559 24560 24561 24562 24563 24564 24565 24566 24567 24568 24569 24570 24571 24572 24573 24574 24575 24576 24577 24578 24579 24580 24581 24582 24583 24584 24585 24586 24587 24588 24589 24590 24591 24592 24593 24594 24595 24596 24597 24598 24599 24600 24601 24602 24603 24604 24605 24606 24607 24608 24609 24610 24611 24612 24613 24614 24615 24616 24617 24618 24619 24620 24621 24622 24623 24624 24625 24626 24627 24628 24629 24630 24631 24632 24633 24634 24635 24636 24637 24638 24639 24640 24641 24642 24643 24644 24645 24646 24647 24648 24649 24650 24651 24652 24653 24654 24655 24656 24657 24658 24659 24660 24661 24662 24663 24664 24665 24666 24667 24668 24669 24670 24671 24672 24673 24674 24675 24676 24677 24678 24679 24680 24681 24682 24683 24684 24685 24686 24687 24688 24689 24690 24691 24692 24693 24694 24695 24696 24697 24698 24699 24700 24701 24702 24703 24704 24705 24706 24707 24708 24709 24710 24711 24712 24713 24714 24715 24716 24717 24718 24719 24720 24721 24722 24723 24724 24725 24726 24727 24728 24729 24730 24731 24732 24733 24734 24735 24736 24737 24738 24739 24740 24741 24742 24743 24744 24745 24746 24747 24748 24749 24750 24751 24752 24753 24754 24755 24756 24757 24758 24759 24760 24761 24762 24763 24764 24765 24766 24767 24768 24769 24770 24771 24772 24773 24774 24775 24776 24777 24778 24779 24780 24781 24782 24783 24784 24785 24786 24787 24788 24789 24790 24791 24792 24793 24794 24795 24796 24797 24798 24799 24800 24801 24802 24803 24804 24805 24806 24807 24808 24809 24810 24811 24812 24813 24814 24815 24816 24817 24818 24819 24820 24821 24822 24823 24824 24825 24826 24827 24828 24829 24830 24831 24832 24833 24834 24835 24836 24837 24838 24839 24840 24841 24842 24843 24844 24845 24846 24847 24848 24849 24850 24851 24852 24853 24854 24855 24856 24857 24858 24859 24860 24861 24862 24863 24864 24865 24866 24867 24868 24869 24870 24871 24872 24873 24874 24875 24876 24877 24878 24879 24880 24881 24882 24883 24884 24885 24886 24887 24888 24889 24890 24891 24892 24893 24894 24895 24896 24897 24898 24899 24900 24901 24902 24903 24904 24905 24906 24907 24908 24909 24910 24911 24912 24913 24914 24915 24916 24917 24918 24919 24920 24921 24922 24923 24924 24925 24926 24927 24928 24929 24930 24931 24932 24933 24934 24935 24936 24937 24938 24939 24940 24941 24942 24943 24944 24945 24946 24947 24948 24949 24950 24951 24952 24953 24954 24955 24956 24957 24958 24959 24960 24961 24962 24963 24964 24965 24966 24967 24968 24969 24970 24971 24972 24973 24974 24975 24976 24977 24978 24979 24980 24981 24982 24983 24984 24985 24986 24987 24988 24989 24990 24991 24992 24993 24994 24995 24996 24997 24998 24999 25000 25001 25002 25003 25004 25005 25006 25007 25008 25009 25010 25011 25012 25013 25014 25015 25016 25017 25018 25019 25020 25021 25022 25023 25024 25025 25026 25027 25028 25029 25030 25031 25032 25033 25034 25035 25036 25037 25038 25039 25040 25041 25042 25043 25044 25045 25046 25047 25048 25049 25050 25051 25052 25053 25054 25055 25056 25057 25058 25059 25060 25061 25062 25063 25064 25065 25066 25067 25068 25069 25070 25071 25072 25073 25074 25075 25076 25077 25078 25079 25080 25081 25082 25083 25084 25085 25086 25087 25088 25089 25090 25091 25092 25093 25094 25095 25096 25097 25098 25099 25100 25101 25102 25103 25104 25105 25106 25107 25108 25109 25110 25111 25112 25113 25114 25115 25116 25117 25118 25119 25120 25121 25122 25123 25124 25125 25126 25127 25128 25129 25130 25131 25132 25133 25134 25135 25136 25137 25138 25139 25140 25141 25142 25143 25144 25145 25146 25147 25148 25149 25150 25151 25152 25153 25154 25155 25156 25157 25158 25159 25160 25161 25162 25163 25164 25165 25166 25167 25168 25169 25170 25171 25172 25173 25174 25175 25176 25177 25178 25179 25180 25181 25182 25183 25184 25185 25186 25187 25188 25189 25190 25191 25192 25193 25194 25195 25196 25197 25198 25199 25200 25201 25202 25203 25204 25205 25206 25207 25208 25209 25210 25211 25212 25213 25214 25215 25216 25217 25218 25219 25220 25221 25222 25223 25224 25225 25226 25227 25228 25229 25230 25231 25232 25233 25234 25235 25236 25237 25238 25239 25240 25241 25242 25243 25244 25245 25246 25247 25248 25249 25250 25251 25252 25253 25254 25255 25256 25257 25258 25259 25260 25261 25262 25263 25264 25265 25266 25267 25268 25269 25270 25271 25272 25273 25274 25275 25276 25277 25278 25279 25280 25281 25282 25283 25284 25285 25286 25287 25288 25289 25290 25291 25292 25293 25294 25295 25296 25297 25298 25299 25300 25301 25302 25303 25304 25305 25306 25307 25308 25309 25310 25311 25312 25313 25314 25315 25316 25317 25318 25319 25320 25321 25322 25323 25324 25325 25326 25327 25328 25329 25330 25331 25332 25333 25334 25335 25336 25337 25338 25339 25340 25341 25342 25343 25344 25345 25346 25347 25348 25349 25350 25351 25352 25353 25354 25355 25356 25357 25358 25359 25360 25361 25362 25363 25364 25365 25366 25367 25368 25369 25370 25371 25372 25373 25374 25375 25376 25377 25378 25379 25380 25381 25382 25383 25384 25385 25386 25387 25388 25389 25390 25391 25392 25393 25394 25395 25396 25397 25398 25399 25400 25401 25402 25403 25404 25405 25406 25407 25408 25409 25410 25411 25412 25413 25414 25415 25416 25417 25418 25419 25420 25421 25422 25423 25424 25425 25426 25427 25428 25429 25430 25431 25432 25433 25434 25435 25436 25437 25438 25439 25440 25441 25442 25443 25444 25445 25446 25447 25448 25449 25450 25451 25452 25453 25454 25455 25456 25457 25458 25459 25460 25461 25462 25463 25464 25465 25466 25467 25468 25469 25470 25471 25472 25473 25474 25475 25476 25477 25478 25479 25480 25481 25482 25483 25484 25485 25486 25487 25488 25489 25490 25491 25492 25493 25494 25495 25496 25497 25498 25499 25500 25501 25502 25503 25504 25505 25506 25507 25508 25509 25510 25511 25512 25513 25514 25515 25516 25517 25518 25519 25520 25521 25522 25523 25524 25525 25526 25527 25528 25529 25530 25531 25532 25533 25534 25535 25536 25537 25538 25539 25540 25541 25542 25543 25544 25545 25546 25547 25548 25549 25550 25551 25552 25553 25554 25555 25556 25557 25558 25559 25560 25561 25562 25563 25564 25565 25566 25567 25568 25569 25570 25571 25572 25573 25574 25575 25576 25577 25578 25579 25580 25581 25582 25583 25584 25585 25586 25587 25588 25589 25590 25591 25592 25593 25594 25595 25596 25597 25598 25599 25600 25601 25602 25603 25604 25605 25606 25607 25608 25609 25610 25611 25612 25613 25614 25615 25616 25617 25618 25619 25620 25621 25622 25623 25624 25625 25626 25627 25628 25629 25630 25631 25632 25633 25634 25635 25636 25637 25638 25639 25640 25641 25642 25643 25644 25645 25646 25647 25648 25649 25650 25651 25652 25653 25654 25655 25656 25657 25658 25659 25660 25661 25662 25663 25664 25665 25666 25667 25668 25669 25670 25671 25672 25673 25674 25675 25676 25677 25678 25679 25680 25681 25682 25683 25684 25685 25686 25687 25688 25689 25690 25691 25692 25693 25694 25695 25696 25697 25698 25699 25700 25701 25702 25703 25704 25705 25706 25707 25708 25709 25710 25711 25712 25713 25714 25715 25716 25717 25718 25719 25720 25721 25722 25723 25724 25725 25726 25727 25728 25729 25730 25731 25732 25733 25734 25735 25736 25737 25738 25739 25740 25741 25742 25743 25744 25745 25746 25747 25748 25749 25750 25751 25752 25753 25754 25755 25756 25757 25758 25759 25760 25761 25762 25763 25764 25765 25766 25767 25768 25769 25770 25771 25772 25773 25774 25775 25776 25777 25778 25779 25780 25781 25782 25783 25784 25785 25786 25787 25788 25789 25790 25791 25792 25793 25794 25795 25796 25797 25798 25799 25800 25801 25802 25803 25804 25805 25806 25807 25808 25809 25810 25811 25812 25813 25814 25815 25816 25817 25818 25819 25820 25821 25822 25823 25824 25825 25826 25827 25828 25829 25830 25831 25832 25833 25834 25835 25836 25837 25838 25839 25840 25841 25842 25843 25844 25845 25846 25847 25848 25849 25850 25851 25852 25853 25854 25855 25856 25857 25858 25859 25860 25861 25862 25863 25864 25865 25866 25867 25868 25869 25870 25871 25872 25873 25874 25875 25876 25877 25878 25879 25880 25881 25882 25883 25884 25885 25886 25887 25888 25889 25890 25891 25892 25893 25894 25895 25896 25897 25898 25899 25900 25901 25902 25903 25904 25905 25906 25907 25908 25909 25910 25911 25912 25913 25914 25915 25916 25917 25918 25919 25920 25921 25922 25923 25924 25925 25926 25927 25928 25929 25930 25931 25932 25933 25934 25935 25936 25937 25938 25939 25940 25941 25942 25943 25944 25945 25946 25947 25948 25949 25950 25951 25952 25953 25954 25955 25956 25957 25958 25959 25960 25961 25962 25963 25964 25965 25966 25967 25968 25969 25970 25971 25972 25973 25974 25975 25976 25977 25978 25979 25980 25981 25982 25983 25984 25985 25986 25987 25988 25989 25990 25991 25992 25993 25994 25995 25996 25997 25998 25999 26000 26001 26002 26003 26004 26005 26006 26007 26008 26009 26010 26011 26012 26013 26014 26015 26016 26017 26018 26019 26020 26021 26022 26023 26024 26025 26026 26027 26028 26029 26030 26031 26032 26033 26034 26035 26036 26037 26038 26039 26040 26041 26042 26043 26044 26045 26046 26047 26048 26049 26050 26051 26052 26053 26054 26055 26056 26057 26058 26059 26060 26061 26062 26063 26064 26065 26066 26067 26068 26069 26070 26071 26072 26073 26074 26075 26076 26077 26078 26079 26080 26081 26082 26083 26084 26085 26086 26087 26088 26089 26090 26091 26092 26093 26094 26095 26096 26097 26098 26099 26100 26101 26102 26103 26104 26105 26106 26107 26108 26109 26110 26111 26112 26113 26114 26115 26116 26117 26118 26119 26120 26121 26122 26123 26124 26125 26126 26127 26128 26129 26130 26131 26132 26133 26134 26135 26136 26137 26138 26139 26140 26141 26142 26143 26144 26145 26146 26147 26148 26149 26150 26151 26152 26153 26154 26155 26156 26157 26158 26159 26160 26161 26162 26163 26164 26165 26166 26167 26168 26169 26170 26171 26172 26173 26174 26175 26176 26177 26178 26179 26180 26181 26182 26183 26184 26185 26186 26187 26188 26189 26190 26191 26192 26193 26194 26195 26196 26197 26198 26199 26200 26201 26202 26203 26204 26205 26206 26207 26208 26209 26210 26211 26212 26213 26214 26215 26216 26217 26218 26219 26220 26221 26222 26223 26224 26225 26226 26227 26228 26229 26230 26231 26232 26233 26234 26235 26236 26237 26238 26239 26240 26241 26242 26243 26244 26245 26246 26247 26248 26249 26250 26251 26252 26253 26254 26255 26256 26257 26258 26259 26260 26261 26262 26263 26264 26265 26266 26267 26268 26269 26270 26271 26272 26273 26274 26275 26276 26277 26278 26279 26280 26281 26282 26283 26284 26285 26286 26287 26288 26289 26290 26291 26292 26293 26294 26295 26296 26297 26298 26299 26300 26301 26302 26303 26304 26305 26306 26307 26308 26309 26310 26311 26312 26313 26314 26315 26316 26317 26318 26319 26320 26321 26322 26323 26324 26325 26326 26327 26328 26329 26330 26331 26332 26333 26334 26335 26336 26337 26338 26339 26340 26341 26342 26343 26344 26345 26346 26347 26348 26349 26350 26351 26352 26353 26354 26355 26356 26357 26358 26359 26360 26361 26362 26363 26364 26365 26366 26367 26368 26369 26370 26371 26372 26373 26374 26375 26376 26377 26378 26379 26380 26381 26382 26383 26384 26385 26386 26387 26388 26389 26390 26391 26392 26393 26394 26395 26396 26397 26398 26399 26400 26401 26402 26403 26404 26405 26406 26407 26408 26409 26410 26411 26412 26413 26414 26415 26416 26417 26418 26419 26420 26421 26422 26423 26424 26425 26426 26427 26428 26429 26430 26431 26432 26433 26434 26435 26436 26437 26438 26439 26440 26441 26442 26443 26444 26445 26446 26447 26448 26449 26450 26451 26452 26453 26454 26455 26456 26457 26458 26459 26460 26461 26462 26463 26464 26465 26466 26467 26468 26469 26470 26471 26472 26473 26474 26475 26476 26477 26478 26479 26480 26481 26482 26483 26484 26485 26486 26487 26488 26489 26490 26491 26492 26493 26494 26495 26496 26497 26498 26499 26500 26501 26502 26503 26504 26505 26506 26507 26508 26509 26510 26511 26512 26513 26514 26515 26516 26517 26518 26519 26520 26521 26522 26523 26524 26525 26526 26527 26528 26529 26530 26531 26532 26533 26534 26535 26536 26537 26538 26539 26540 26541 26542 26543 26544 26545 26546 26547 26548 26549 26550 26551 26552 26553 26554 26555 26556 26557 26558 26559 26560 26561 26562 26563 26564 26565 26566 26567 26568 26569 26570 26571 26572 26573 26574 26575 26576 26577 26578 26579 26580 26581 26582 26583 26584 26585 26586 26587 26588 26589 26590 26591 26592 26593 26594 26595 26596 26597 26598 26599 26600 26601 26602 26603 26604 26605 26606 26607 26608 26609 26610 26611 26612 26613 26614 26615 26616 26617 26618 26619 26620 26621 26622 26623 26624 26625 26626 26627 26628 26629 26630 26631 26632 26633 26634 26635 26636 26637 26638 26639 26640 26641 26642 26643 26644 26645 26646 26647 26648 26649 26650 26651 26652 26653 26654 26655 26656 26657 26658 26659 26660 26661 26662 26663 26664 26665 26666 26667 26668 26669 26670 26671 26672 26673 26674 26675 26676 26677 26678 26679 26680 26681 26682 26683 26684 26685 26686 26687 26688 26689 26690 26691 26692 26693 26694 26695 26696 26697 26698 26699 26700 26701 26702 26703 26704 26705 26706 26707 26708 26709 26710 26711 26712 26713 26714 26715 26716 26717 26718 26719 26720 26721 26722 26723 26724 26725 26726 26727 26728 26729 26730 26731 26732 26733 26734 26735 26736 26737 26738 26739 26740 26741 26742 26743 26744 26745 26746 26747 26748 26749 26750 26751 26752 26753 26754 26755 26756 26757 26758 26759 26760 26761 26762 26763 26764 26765 26766 26767 26768 26769 26770 26771 26772 26773 26774 26775 26776 26777 26778 26779 26780 26781 26782 26783 26784 26785 26786 26787 26788 26789 26790 26791 26792 26793 26794 26795 26796 26797 26798 26799 26800 26801 26802 26803 26804 26805 26806 26807 26808 26809 26810 26811 26812 26813 26814 26815 26816 26817 26818 26819 26820 26821 26822 26823 26824 26825 26826 26827 26828 26829 26830 26831 26832 26833 26834 26835 26836 26837 26838 26839 26840 26841 26842 26843 26844 26845 26846 26847 26848 26849 26850 26851 26852 26853 26854 26855 26856 26857 26858 26859 26860 26861 26862 26863 26864 26865 26866 26867 26868 26869 26870 26871 26872 26873 26874 26875 26876 26877 26878 26879 26880 26881 26882 26883 26884 26885 26886 26887 26888 26889 26890 26891 26892 26893 26894 26895 26896 26897 26898 26899 26900 26901 26902 26903 26904 26905 26906 26907 26908 26909 26910 26911 26912 26913 26914 26915 26916 26917 26918 26919 26920 26921 26922 26923 26924 26925 26926 26927 26928 26929 26930 26931 26932 26933 26934 26935 26936 26937 26938 26939 26940 26941 26942 26943 26944 26945 26946 26947 26948 26949 26950 26951 26952 26953 26954 26955 26956 26957 26958 26959 26960 26961 26962 26963 26964 26965 26966 26967 26968 26969 26970 26971 26972 26973 26974 26975 26976 26977 26978 26979 26980 26981 26982 26983 26984 26985 26986 26987 26988 26989 26990 26991 26992 26993 26994 26995 26996 26997 26998 26999 27000 27001 27002 27003 27004 27005 27006 27007 27008 27009 27010 27011 27012 27013 27014 27015 27016 27017 27018 27019 27020 27021 27022 27023 27024 27025 27026 27027 27028 27029 27030 27031 27032 27033 27034 27035 27036 27037 27038 27039 27040 27041 27042 27043 27044 27045 27046 27047 27048 27049 27050 27051 27052 27053 27054 27055 27056 27057 27058 27059 27060 27061 27062 27063 27064 27065 27066 27067 27068 27069 27070 27071 27072 27073 27074 27075 27076 27077 27078 27079 27080 27081 27082 27083 27084 27085 27086 27087 27088 27089 27090 27091 27092 27093 27094 27095 27096 27097 27098 27099 27100 27101 27102 27103 27104 27105 27106 27107 27108 27109 27110 27111 27112 27113 27114 27115 27116 27117 27118 27119 27120 27121 27122 27123 27124 27125 27126 27127 27128 27129 27130 27131 27132 27133 27134 27135 27136 27137 27138 27139 27140 27141 27142 27143 27144 27145 27146 27147 27148 27149 27150 27151 27152 27153 27154 27155 27156 27157 27158 27159 27160 27161 27162 27163 27164 27165 27166 27167 27168 27169 27170 27171 27172 27173 27174 27175 27176 27177 27178 27179 27180 27181 27182 27183 27184 27185 27186 27187 27188 27189 27190 27191 27192 27193 27194 27195 27196 27197 27198 27199 27200 27201 27202 27203 27204 27205 27206 27207 27208 27209 27210 27211 27212 27213 27214 27215 27216 27217 27218 27219 27220 27221 27222 27223 27224 27225 27226 27227 27228 27229 27230 27231 27232 27233 27234 27235 27236 27237 27238 27239 27240 27241 27242 27243 27244 27245 27246 27247 27248 27249 27250 27251 27252 27253 27254 27255 27256 27257 27258 27259 27260 27261 27262 27263 27264 27265 27266 27267 27268 27269 27270 27271 27272 27273 27274 27275 27276 27277 27278 27279 27280 27281 27282 27283 27284 27285 27286 27287 27288 27289 27290 27291 27292 27293 27294 27295 27296 27297 27298 27299 27300 27301 27302 27303 27304 27305 27306 27307 27308 27309 27310 27311 27312 27313 27314 27315 27316 27317 27318 27319 27320 27321 27322 27323 27324 27325 27326 27327 27328 27329 27330 27331 27332 27333 27334 27335 27336 27337 27338 27339 27340 27341 27342 27343 27344 27345 27346 27347 27348 27349 27350 27351 27352 27353 27354 27355 27356 27357 27358 27359 27360 27361 27362 27363 27364 27365 27366 27367 27368 27369 27370 27371 27372 27373 27374 27375 27376 27377 27378 27379 27380 27381 27382 27383 27384 27385 27386 27387 27388 27389 27390 27391 27392 27393 27394 27395 27396 27397 27398 27399 27400 27401 27402 27403 27404 27405 27406 27407 27408 27409 27410 27411 27412 27413 27414 27415 27416 27417 27418 27419 27420 27421 27422 27423 27424 27425 27426 27427 27428 27429 27430 27431 27432 27433 27434 27435 27436 27437 27438 27439 27440 27441 27442 27443 27444 27445 27446 27447 27448 27449 27450 27451 27452 27453 27454 27455 27456 27457 27458 27459 27460 27461 27462 27463 27464 27465 27466 27467 27468 27469 27470 27471 27472 27473 27474 27475 27476 27477 27478 27479 27480 27481 27482 27483 27484 27485 27486 27487 27488 27489 27490 27491 27492 27493 27494 27495 27496 27497 27498 27499 27500 27501 27502 27503 27504 27505 27506 27507 27508 27509 27510 27511 27512 27513 27514 27515 27516 27517 27518 27519 27520 27521 27522 27523 27524 27525 27526 27527 27528 27529 27530 27531 27532 27533 27534 27535 27536 27537 27538 27539 27540 27541 27542 27543 27544 27545 27546 27547 27548 27549 27550 27551 27552 27553 27554 27555 27556 27557 27558 27559 27560 27561 27562 27563 27564 27565 27566 27567 27568 27569 27570 27571 27572 27573 27574 27575 27576 27577 27578 27579 27580 27581 27582 27583 27584 27585 27586 27587 27588 27589 27590 27591 27592 27593 27594 27595 27596 27597 27598 27599 27600 27601 27602 27603 27604 27605 27606 27607 27608 27609 27610 27611 27612 27613 27614 27615 27616 27617 27618 27619 27620 27621 27622 27623 27624 27625 27626 27627 27628 27629 27630 27631 27632 27633 27634 27635 27636 27637 27638 27639 27640 27641 27642 27643 27644 27645 27646 27647 27648 27649 27650 27651 27652 27653 27654 27655 27656 27657 27658 27659 27660 27661 27662 27663 27664 27665 27666 27667 27668 27669 27670 27671 27672 27673 27674 27675 27676 27677 27678 27679 27680 27681 27682 27683 27684 27685 27686 27687 27688 27689 27690 27691 27692 27693 27694 27695 27696 27697 27698 27699 27700 27701 27702 27703 27704 27705 27706 27707 27708 27709 27710 27711 27712 27713 27714 27715 27716 27717 27718 27719 27720 27721 27722 27723 27724 27725 27726 27727 27728 27729 27730 27731 27732 27733 27734 27735 27736 27737 27738 27739 27740 27741 27742 27743 27744 27745 27746 27747 27748 27749 27750 27751 27752 27753 27754 27755 27756 27757 27758 27759 27760 27761 27762 27763 27764 27765 27766 27767 27768 27769 27770 27771 27772 27773 27774 27775 27776 27777 27778 27779 27780 27781 27782 27783 27784 27785 27786 27787 27788 27789 27790 27791 27792 27793 27794 27795 27796 27797 27798 27799 27800 27801 27802 27803 27804 27805 27806 27807 27808 27809 27810 27811 27812 27813 27814 27815 27816 27817 27818 27819 27820 27821 27822 27823 27824 27825 27826 27827 27828 27829 27830 27831 27832 27833 27834 27835 27836 27837 27838 27839 27840 27841 27842 27843 27844 27845 27846 27847 27848 27849 27850 27851 27852 27853 27854 27855 27856 27857 27858 27859 27860 27861 27862 27863 27864 27865 27866 27867 27868 27869 27870 27871 27872 27873 27874 27875 27876 27877 27878 27879 27880 27881 27882 27883 27884 27885 27886 27887 27888 27889 27890 27891 27892 27893 27894 27895 27896 27897 27898 27899 27900 27901 27902 27903 27904 27905 27906 27907 27908 27909 27910 27911 27912 27913 27914 27915 27916 27917 27918 27919 27920 27921 27922 27923 27924 27925 27926 27927 27928 27929 27930 27931 27932 27933 27934 27935 27936 27937 27938 27939 27940 27941 27942 27943 27944 27945 27946 27947 27948 27949 27950 27951 27952 27953 27954 27955 27956 27957 27958 27959 27960 27961 27962 27963 27964 27965 27966 27967 27968 27969 27970 27971 27972 27973 27974 27975 27976 27977 27978 27979 27980 27981 27982 27983 27984 27985 27986 27987 27988 27989 27990 27991 27992 27993 27994 27995 27996 27997 27998 27999 28000 28001 28002 28003 28004 28005 28006 28007 28008 28009 28010 28011 28012 28013 28014 28015 28016 28017 28018 28019 28020 28021 28022 28023 28024 28025 28026 28027 28028 28029 28030 28031 28032 28033 28034 28035 28036 28037 28038 28039 28040 28041 28042 28043 28044 28045 28046 28047 28048 28049 28050 28051 28052 28053 28054 28055 28056 28057 28058 28059 28060 28061 28062 28063 28064 28065 28066 28067 28068 28069 28070 28071 28072 28073 28074 28075 28076 28077 28078 28079 28080 28081 28082 28083 28084 28085 28086 28087 28088 28089 28090 28091 28092 28093 28094 28095 28096 28097 28098 28099 28100 28101 28102 28103 28104 28105 28106 28107 28108 28109 28110 28111 28112 28113 28114 28115 28116 28117 28118 28119 28120 28121 28122 28123 28124 28125 28126 28127 28128 28129 28130 28131 28132 28133 28134 28135 28136 28137 28138 28139 28140 28141 28142 28143 28144 28145 28146 28147 28148 28149 28150 28151 28152 28153 28154 28155 28156 28157 28158 28159 28160 28161 28162 28163 28164 28165 28166 28167 28168 28169 28170 28171 28172 28173 28174 28175 28176 28177 28178 28179 28180 28181 28182 28183 28184 28185 28186 28187 28188 28189 28190 28191 28192 28193 28194 28195 28196 28197 28198 28199 28200 28201 28202 28203 28204 28205 28206 28207 28208 28209 28210 28211 28212 28213 28214 28215 28216 28217 28218 28219 28220 28221 28222 28223 28224 28225 28226 28227 28228 28229 28230 28231 28232 28233 28234 28235 28236 28237 28238 28239 28240 28241 28242 28243 28244 28245 28246 28247 28248 28249 28250 28251 28252 28253 28254 28255 28256 28257 28258 28259 28260 28261 28262 28263 28264 28265 28266 28267 28268 28269 28270 28271 28272 28273 28274 28275 28276 28277 28278 28279 28280 28281 28282 28283 28284 28285 28286 28287 28288 28289 28290 28291 28292 28293 28294 28295 28296 28297 28298 28299 28300 28301 28302 28303 28304 28305 28306 28307 28308 28309 28310 28311 28312 28313 28314 28315 28316 28317 28318 28319 28320 28321 28322 28323 28324 28325 28326 28327 28328 28329 28330 28331 28332 28333 28334 28335 28336 28337 28338 28339 28340 28341 28342 28343 28344 28345 28346 28347 28348 28349 28350 28351 28352 28353 28354 28355 28356 28357 28358 28359 28360 28361 28362 28363 28364 28365 28366 28367 28368 28369 28370 28371 28372 28373 28374 28375 28376 28377 28378 28379 28380 28381 28382 28383 28384 28385 28386 28387 28388 28389 28390 28391 28392 28393 28394 28395 28396 28397 28398 28399 28400 28401 28402 28403 28404 28405 28406 28407 28408 28409 28410 28411 28412 28413 28414 28415 28416 28417 28418 28419 28420 28421 28422 28423 28424 28425 28426 28427 28428 28429 28430 28431 28432 28433 28434 28435 28436 28437 28438 28439 28440 28441 28442 28443 28444 28445 28446 28447 28448 28449 28450 28451 28452 28453 28454 28455 28456 28457 28458 28459 28460 28461 28462 28463 28464 28465 28466 28467 28468 28469 28470 28471 28472 28473 28474 28475 28476 28477 28478 28479 28480 28481 28482 28483 28484 28485 28486 28487 28488 28489 28490 28491 28492 28493 28494 28495 28496 28497 28498 28499 28500 28501 28502 28503 28504 28505 28506 28507 28508 28509 28510 28511 28512 28513 28514 28515 28516 28517 28518 28519 28520 28521 28522 28523 28524 28525 28526 28527 28528 28529 28530 28531 28532 28533 28534 28535 28536 28537 28538 28539 28540 28541 28542 28543 28544 28545 28546 28547 28548 28549 28550 28551 28552 28553 28554 28555 28556 28557 28558 28559 28560 28561 28562 28563 28564 28565 28566 28567 28568 28569 28570 28571 28572 28573 28574 28575 28576 28577 28578 28579 28580 28581 28582 28583 28584 28585 28586 28587 28588 28589 28590 28591 28592 28593 28594 28595 28596 28597 28598 28599 28600 28601 28602 28603 28604 28605 28606 28607 28608 28609 28610 28611 28612 28613 28614 28615 28616 28617 28618 28619 28620 28621 28622 28623 28624 28625 28626 28627 28628 28629 28630 28631 28632 28633 28634 28635 28636 28637 28638 28639 28640 28641 28642 28643 28644 28645 28646 28647 28648 28649 28650 28651 28652 28653 28654 28655 28656 28657 28658 28659 28660 28661 28662 28663 28664 28665 28666 28667 28668 28669 28670 28671 28672 28673 28674 28675 28676 28677 28678 28679 28680 28681 28682 28683 28684 28685 28686 28687 28688 28689 28690 28691 28692 28693 28694 28695 28696 28697 28698 28699 28700 28701 28702 28703 28704 28705 28706 28707 28708 28709 28710 28711 28712 28713 28714 28715 28716 28717 28718 28719 28720 28721 28722 28723 28724 28725 28726 28727 28728 28729 28730 28731 28732 28733 28734 28735 28736 28737 28738 28739 28740 28741 28742 28743 28744 28745 28746 28747 28748 28749 28750 28751 28752 28753 28754 28755 28756 28757 28758 28759 28760 28761 28762 28763 28764 28765 28766 28767 28768 28769 28770 28771 28772 28773 28774 28775 28776 28777 28778 28779 28780 28781 28782 28783 28784 28785 28786 28787 28788 28789 28790 28791 28792 28793 28794 28795 28796 28797 28798 28799 28800 28801 28802 28803 28804 28805 28806 28807 28808 28809 28810 28811 28812 28813 28814 28815 28816 28817 28818 28819 28820 28821 28822 28823 28824 28825 28826 28827 28828 28829 28830 28831 28832 28833 28834 28835 28836 28837 28838 28839 28840 28841 28842 28843 28844 28845 28846 28847 28848 28849 28850 28851 28852 28853 28854 28855 28856 28857 28858 28859 28860 28861 28862 28863 28864 28865 28866 28867 28868 28869 28870 28871 28872 28873 28874 28875 28876 28877 28878 28879 28880 28881 28882 28883 28884 28885 28886 28887 28888 28889 28890 28891 28892 28893 28894 28895 28896 28897 28898 28899 28900 28901 28902 28903 28904 28905 28906 28907 28908 28909 28910 28911 28912 28913 28914 28915 28916 28917 28918 28919 28920 28921 28922 28923 28924 28925 28926 28927 28928 28929 28930 28931 28932 28933 28934 28935 28936 28937 28938 28939 28940 28941 28942 28943 28944 28945 28946 28947 28948 28949 28950 28951 28952 28953 28954 28955 28956 28957 28958 28959 28960 28961 28962 28963 28964 28965 28966 28967 28968 28969 28970 28971 28972 28973 28974 28975 28976 28977 28978 28979 28980 28981 28982 28983 28984 28985 28986 28987 28988 28989 28990 28991 28992 28993 28994 28995 28996 28997 28998 28999 29000 29001 29002 29003 29004 29005 29006 29007 29008 29009 29010 29011 29012 29013 29014 29015 29016 29017 29018 29019 29020 29021 29022 29023 29024 29025 29026 29027 29028 29029 29030 29031 29032 29033 29034 29035 29036 29037 29038 29039 29040 29041 29042 29043 29044 29045 29046 29047 29048 29049 29050 29051 29052 29053 29054 29055 29056 29057 29058 29059 29060 29061 29062 29063 29064 29065 29066 29067 29068 29069 29070 29071 29072 29073 29074 29075 29076 29077 29078 29079 29080 29081 29082 29083 29084 29085 29086 29087 29088 29089 29090 29091 29092 29093 29094 29095 29096 29097 29098 29099 29100 29101 29102 29103 29104 29105 29106 29107 29108 29109 29110 29111 29112 29113 29114 29115 29116 29117 29118 29119 29120 29121 29122 29123 29124 29125 29126 29127 29128 29129 29130 29131 29132 29133 29134 29135 29136 29137 29138 29139 29140 29141 29142 29143 29144 29145 29146 29147 29148 29149 29150 29151 29152 29153 29154 29155 29156 29157 29158 29159 29160 29161 29162 29163 29164 29165 29166 29167 29168 29169 29170 29171 29172 29173 29174 29175 29176 29177 29178 29179 29180 29181 29182 29183 29184 29185 29186 29187 29188 29189 29190 29191 29192 29193 29194 29195 29196 29197 29198 29199 29200 29201 29202 29203 29204 29205 29206 29207 29208 29209 29210 29211 29212 29213 29214 29215 29216 29217 29218 29219 29220 29221 29222 29223 29224 29225 29226 29227 29228 29229 29230 29231 29232 29233 29234 29235 29236 29237 29238 29239 29240 29241 29242 29243 29244 29245 29246 29247 29248 29249 29250 29251 29252 29253 29254 29255 29256 29257 29258 29259 29260 29261 29262 29263 29264 29265 29266 29267 29268 29269 29270 29271 29272 29273 29274 29275 29276 29277 29278 29279 29280 29281 29282 29283 29284 29285 29286 29287 29288 29289 29290 29291 29292 29293 29294 29295 29296 29297 29298 29299 29300 29301 29302 29303 29304 29305 29306 29307 29308 29309 29310 29311 29312 29313 29314 29315 29316 29317 29318 29319 29320 29321 29322 29323 29324 29325 29326 29327 29328 29329 29330 29331 29332 29333 29334 29335 29336 29337 29338 29339 29340 29341 29342 29343 29344 29345 29346 29347 29348 29349 29350 29351 29352 29353 29354 29355 29356 29357 29358 29359 29360 29361 29362 29363 29364 29365 29366 29367 29368 29369 29370 29371 29372 29373 29374 29375 29376 29377 29378 29379 29380 29381 29382 29383 29384 29385 29386 29387 29388 29389 29390 29391 29392 29393 29394 29395 29396 29397 29398 29399 29400 29401 29402 29403 29404 29405 29406 29407 29408 29409 29410 29411 29412 29413 29414 29415 29416 29417 29418 29419 29420 29421 29422 29423 29424 29425 29426 29427 29428 29429 29430 29431 29432 29433 29434 29435 29436 29437 29438 29439 29440 29441 29442 29443 29444 29445 29446 29447 29448 29449 29450 29451 29452 29453 29454 29455 29456 29457 29458 29459 29460 29461 29462 29463 29464 29465 29466 29467 29468 29469 29470 29471 29472 29473 29474 29475 29476 29477 29478 29479 29480 29481 29482 29483 29484 29485 29486 29487 29488 29489 29490 29491 29492 29493 29494 29495 29496 29497 29498 29499 29500 29501 29502 29503 29504 29505 29506 29507 29508 29509 29510 29511 29512 29513 29514 29515 29516 29517 29518 29519 29520 29521 29522 29523 29524 29525 29526 29527 29528 29529 29530 29531 29532 29533 29534 29535 29536 29537 29538 29539 29540 29541 29542 29543 29544 29545 29546 29547 29548 29549 29550 29551 29552 29553 29554 29555 29556 29557 29558 29559 29560 29561 29562 29563 29564 29565 29566 29567 29568 29569 29570 29571 29572 29573 29574 29575 29576 29577 29578 29579 29580 29581 29582 29583 29584 29585 29586 29587 29588 29589 29590 29591 29592 29593 29594 29595 29596 29597 29598 29599 29600 29601 29602 29603 29604 29605 29606 29607 29608 29609 29610 29611 29612 29613 29614 29615 29616 29617 29618 29619 29620 29621 29622 29623 29624 29625 29626 29627 29628 29629 29630 29631 29632 29633 29634 29635 29636 29637 29638 29639 29640 29641 29642 29643 29644 29645 29646 29647 29648 29649 29650 29651 29652 29653 29654 29655 29656 29657 29658 29659 29660 29661 29662 29663 29664 29665 29666 29667 29668 29669 29670 29671 29672 29673 29674 29675 29676 29677 29678 29679 29680 29681 29682 29683 29684 29685 29686 29687 29688 29689 29690 29691 29692 29693 29694 29695 29696 29697 29698 29699 29700 29701 29702 29703 29704 29705 29706 29707 29708 29709 29710 29711 29712 29713 29714 29715 29716 29717 29718 29719 29720 29721 29722 29723 29724 29725 29726 29727 29728 29729 29730 29731 29732 29733 29734 29735 29736 29737 29738 29739 29740 29741 29742 29743 29744 29745 29746 29747 29748 29749 29750 29751 29752 29753 29754 29755 29756 29757 29758 29759 29760 29761 29762 29763 29764 29765 29766 29767 29768 29769 29770 29771 29772 29773 29774 29775 29776 29777 29778 29779 29780 29781 29782 29783 29784 29785 29786 29787 29788 29789 29790 29791 29792 29793 29794 29795 29796 29797 29798 29799 29800 29801 29802 29803 29804 29805 29806 29807 29808 29809 29810 29811 29812 29813 29814 29815 29816 29817 29818 29819 29820 29821 29822 29823 29824 29825 29826 29827 29828 29829 29830 29831 29832 29833 29834 29835 29836 29837 29838 29839 29840 29841 29842 29843 29844 29845 29846 29847 29848 29849 29850 29851 29852 29853 29854 29855 29856 29857 29858 29859 29860 29861 29862 29863 29864 29865 29866 29867 29868 29869 29870 29871 29872 29873 29874 29875 29876 29877 29878 29879 29880 29881 29882 29883 29884 29885 29886 29887 29888 29889 29890 29891 29892 29893 29894 29895 29896 29897 29898 29899 29900 29901 29902 29903 29904 29905 29906 29907 29908 29909 29910 29911 29912 29913 29914 29915 29916 29917 29918 29919 29920 29921 29922 29923 29924 29925 29926 29927 29928 29929 29930 29931 29932 29933 29934 29935 29936 29937 29938 29939 29940 29941 29942 29943 29944 29945 29946 29947 29948 29949 29950 29951 29952 29953 29954 29955 29956 29957 29958 29959 29960 29961 29962 29963 29964 29965 29966 29967 29968 29969 29970 29971 29972 29973 29974 29975 29976 29977 29978 29979 29980 29981 29982 29983 29984 29985 29986 29987 29988 29989 29990 29991 29992 29993 29994 29995 29996 29997 29998 29999 30000 30001 30002 30003 30004 30005 30006 30007 30008 30009 30010 30011 30012 30013 30014 30015 30016 30017 30018 30019 30020 30021 30022 30023 30024 30025 30026 30027 30028 30029 30030 30031 30032 30033 30034 30035 30036 30037 30038 30039 30040 30041 30042 30043 30044 30045 30046 30047 30048 30049 30050 30051 30052 30053 30054 30055 30056 30057 30058 30059 30060 30061 30062 30063 30064 30065 30066 30067 30068 30069 30070 30071 30072 30073 30074 30075 30076 30077 30078 30079 30080 30081 30082 30083 30084 30085 30086 30087 30088 30089 30090 30091 30092 30093 30094 30095 30096 30097 30098 30099 30100 30101 30102 30103 30104 30105 30106 30107 30108 30109 30110 30111 30112 30113 30114 30115 30116 30117 30118 30119 30120 30121 30122 30123 30124 30125 30126 30127 30128 30129 30130 30131 30132 30133 30134 30135 30136 30137 30138 30139 30140 30141 30142 30143 30144 30145 30146 30147 30148 30149 30150 30151 30152 30153 30154 30155 30156 30157 30158 30159 30160 30161 30162 30163 30164 30165 30166 30167 30168 30169 30170 30171 30172 30173 30174 30175 30176 30177 30178 30179 30180 30181 30182 30183 30184 30185 30186 30187 30188 30189 30190 30191 30192 30193 30194 30195 30196 30197 30198 30199 30200 30201 30202 30203 30204 30205 30206 30207 30208 30209 30210 30211 30212 30213 30214 30215 30216 30217 30218 30219 30220 30221 30222 30223 30224 30225 30226 30227 30228 30229 30230 30231 30232 30233 30234 30235 30236 30237 30238 30239 30240 30241 30242 30243 30244 30245 30246 30247 30248 30249 30250 30251 30252 30253 30254 30255 30256 30257 30258 30259 30260 30261 30262 30263 30264 30265 30266 30267 30268 30269 30270 30271 30272 30273 30274 30275 30276 30277 30278 30279 30280 30281 30282 30283 30284 30285 30286 30287 30288 30289 30290 30291 30292 30293 30294 30295 30296 30297 30298 30299 30300 30301 30302 30303 30304 30305 30306 30307 30308 30309 30310 30311 30312 30313 30314 30315 30316 30317 30318 30319 30320 30321 30322 30323 30324 30325 30326 30327 30328 30329 30330 30331 30332 30333 30334 30335 30336 30337 30338 30339 30340 30341 30342 30343 30344 30345 30346 30347 30348 30349 30350 30351 30352 30353 30354 30355 30356 30357 30358 30359 30360 30361 30362 30363 30364 30365 30366 30367 30368 30369 30370 30371 30372 30373 30374 30375 30376 30377 30378 30379 30380 30381 30382 30383 30384 30385 30386 30387 30388 30389 30390 30391 30392 30393 30394 30395 30396 30397 30398 30399 30400 30401 30402 30403 30404 30405 30406 30407 30408 30409 30410 30411 30412 30413 30414 30415 30416 30417 30418 30419 30420 30421 30422 30423 30424 30425 30426 30427 30428 30429 30430 30431 30432 30433 30434 30435 30436 30437 30438 30439 30440 30441 30442 30443 30444 30445 30446 30447 30448 30449 30450 30451 30452 30453 30454 30455 30456 30457 30458 30459 30460 30461 30462 30463 30464 30465 30466 30467 30468 30469 30470 30471 30472 30473 30474 30475 30476 30477 30478 30479 30480 30481 30482 30483 30484 30485 30486 30487 30488 30489 30490 30491 30492 30493 30494 30495 30496 30497 30498 30499 30500 30501 30502 30503 30504 30505 30506 30507 30508 30509 30510 30511 30512 30513 30514 30515 30516 30517 30518 30519 30520 30521 30522 30523 30524 30525 30526 30527 30528 30529 30530 30531 30532 30533 30534 30535 30536 30537 30538 30539 30540 30541 30542 30543 30544 30545 30546 30547 30548 30549 30550 30551 30552 30553 30554 30555 30556 30557 30558 30559 30560 30561 30562 30563 30564 30565 30566 30567 30568 30569 30570 30571 30572 30573 30574 30575 30576 30577 30578 30579 30580 30581 30582 30583 30584 30585 30586 30587 30588 30589 30590 30591 30592 30593 30594 30595 30596 30597 30598 30599 30600 30601 30602 30603 30604 30605 30606 30607 30608 30609 30610 30611 30612 30613 30614 30615 30616 30617 30618 30619 30620 30621 30622 30623 30624 30625 30626 30627 30628 30629 30630 30631 30632 30633 30634 30635 30636 30637 30638 30639 30640 30641 30642 30643 30644 30645 30646 30647 30648 30649 30650 30651 30652 30653 30654 30655 30656 30657 30658 30659 30660 30661 30662 30663 30664 30665 30666 30667 30668 30669 30670 30671 30672 30673 30674 30675 30676 30677 30678 30679 30680 30681 30682 30683 30684 30685 30686 30687 30688 30689 30690 30691 30692 30693 30694 30695 30696 30697 30698 30699 30700 30701 30702 30703 30704 30705 30706 30707 30708 30709 30710 30711 30712 30713 30714 30715 30716 30717 30718 30719 30720 30721 30722 30723 30724 30725 30726 30727 30728 30729 30730 30731 30732 30733 30734 30735 30736 30737 30738 30739 30740 30741 30742 30743 30744 30745 30746 30747 30748 30749 30750 30751 30752 30753 30754 30755 30756 30757 30758 30759 30760 30761 30762 30763 30764 30765 30766 30767 30768 30769 30770 30771 30772 30773 30774 30775 30776 30777 30778 30779 30780 30781 30782 30783 30784 30785 30786 30787 30788 30789 30790 30791 30792 30793 30794 30795 30796 30797 30798 30799 30800 30801 30802 30803 30804 30805 30806 30807 30808 30809 30810 30811 30812 30813 30814 30815 30816 30817 30818 30819 30820 30821 30822 30823 30824 30825 30826 30827 30828 30829 30830 30831 30832 30833 30834 30835 30836 30837 30838 30839 30840 30841 30842 30843 30844 30845 30846 30847 30848 30849 30850 30851 30852 30853 30854 30855 30856 30857 30858 30859 30860 30861 30862 30863 30864 30865 30866 30867 30868 30869 30870 30871 30872 30873 30874 30875 30876 30877 30878 30879 30880 30881 30882 30883 30884 30885 30886 30887 30888 30889 30890 30891 30892 30893 30894 30895 30896 30897 30898 30899 30900 30901 30902 30903 30904 30905 30906 30907 30908 30909 30910 30911 30912 30913 30914 30915 30916 30917 30918 30919 30920 30921 30922 30923 30924 30925 30926 30927 30928 30929 30930 30931 30932 30933 30934 30935 30936 30937 30938 30939 30940 30941 30942 30943 30944 30945 30946 30947 30948 30949 30950 30951 30952 30953 30954 30955 30956 30957 30958 30959 30960 30961 30962 30963 30964 30965 30966 30967 30968 30969 30970 30971 30972 30973 30974 30975 30976 30977 30978 30979 30980 30981 30982 30983 30984 30985 30986 30987 30988 30989 30990 30991 30992 30993 30994 30995 30996 30997 30998 30999 31000 31001 31002 31003 31004 31005 31006 31007 31008 31009 31010 31011 31012 31013 31014 31015 31016 31017 31018 31019 31020 31021 31022 31023 31024 31025 31026 31027 31028 31029 31030 31031 31032 31033 31034 31035 31036 31037 31038 31039 31040 31041 31042 31043 31044 31045 31046 31047 31048 31049 31050 31051 31052 31053 31054 31055 31056 31057 31058 31059 31060 31061 31062 31063 31064 31065 31066 31067 31068 31069 31070 31071 31072 31073 31074 
</DataArray>
<DataArray type="UInt32" Name="offsets" format="ascii">
3 6 9 11 13 16 19 22 25 28 31 34 37 40 43 46 49 52 55 58 61 64 67 70 73 76 79 82 85 88 91 94 97 100 103 106 109 112 114 117 120 123 126 129 132 135 137 140 143 146 149 152 155 157 160 163 166 169 172 175 178 180 183 186 188 191 194 197 200 203 206 209 211 214 216 219 222 224 227 230 233 236 239 242 245 248 250 253 256 259 262 265 268 271 273 276 279 282 285 288 291 294 296 299 302 304 307 310 313 315 318 321 324 327 330 333 335 338 341 344 347 350 353 356 359 362 365 368 371 374 377 380 383 385 388 391 394 397 400 403 406 409 412 415 418 421 424 427 430 433 436 439 441 444 447 449 452 455 458 461 464 466 469 472 475 478 480 483 486 489 492 495 498 501 504 507 510 513 516 519 521 524 526 529 532 535 538 541 544 546 549 552 555 558 561 563 566 569 572 575 578 581 584 587 590 593 596 599 602 605 608 611 614 617 620 623 626 629 632 635 638 641 643 646 649 652 655 658 661 664 667 670 673 675 678 681 684 687 690 693 695 698 701 704 706 709 712 715 718 721 724 727 730 732 734 737 740 743 746 749 752 754 757 760 763 766 769 772 775 778 781 784 787 790 793 796 799 802 805 808 811 814 817 820 823 826 829 832 835 837 840 842 845 848 851 854 856 859 862 865 868 871 874 877 879 882 885 888 891 893 896 899 902 905 907 910 913 916 918 921 924 927 930 933 936 939 942 945 948 951 954 957 960 963 966 968 971 974 977 980 983 986 989 992 995 997 1000 1003 1006 1009 1012 1015 1017 1020 1023 1026 1029 1032 1035 1038 1041 1044 1047 1049 1052 1055 1058 1061 1064 1067 1070 1073 1076 1079 1082 1085 1088 1091 1094 1097 1100 1103 1106 1109 1112 1115 1117 1120 1122 1125 1128 1131 1134 1137 1139 1142 1145 1148 1151 1154 1157 1159 1162 1165 1168 1171 1174 1177 1180 1183 1185 1188 1191 1194 1197 1200 1202 1205 1207 1209 1212 1215 1218 1221 1224 1227 1230 1232 1235 1238 1241 1244 1247 1250 1253 1256 1259 1262 1265 1268 1271 1274 1277 1280 1283 1286 1289 1292 1294 1297 1300 1303 1306 1309 1312 1315 1318 1321 1324 1327 1330 1333 1336 1339 1342 1345 1348 1351 1354 1357 1360 1363 1366 1369 1371 1374 1377 1380 1383 1386 1388 1391 1394 1397 1400 1403 1406 1409 1411 1414 1417 1420 1423 1426 1429 1432 1435 1438 1441 1444 1447 1449 1452 1455 1458 1461 1464 1467 1470 1473 1476 1479 1482 1485 1488 1491 1494 1497 1500 1503 1506 1509 1512 1515 1518 1521 1524 1527 1530 1533 1536 1538 1541 1544 1547 1549 1552 1555 1558 1560 1562 1565 1568 1571 1574 1577 1580 1582 1585 1588 1591 1594 1596 1599 1602 1605 1608 1611 1614 1616 1619 1622 1625 1628 1631 1634 1637 1639 1642 1645 1648 1651 1654 1657 1660 1663 1666 1669 1672 1675 1677 1680 1682 1685 1688 1691 1693 1695 1698 1700 1703 1706 1709 1712 1714 1717 1720 1723 1726 1729 1732 1735 1738 1740 1742 1745 1748 1751 1754 1756 1759 1762 1765 1768 1771 1774 1777 1780 1783 1786 1789 1791 1794 1797 1800 1802 1805 1808 1811 1814 1817 1820 1823 1826 1829 1832 1835 1838 1841 1844 1847 1850 1853 1856 1859 1862 1865 1868 1870 1873 1876 1879 1882 1885 1887 1890 1892 1895 1898 1901 1903 1906 1908 1911 1913 1916 1919 1921 1923 1926 1929 1932 1935 1938 1941 1944 1947 1949 1952 1955 1958 1961 1964 1966 1968 1971 1974 1977 1980 1983 1986 1989 1992 1995 1998 2001 2004 2007 2010 2013 2016 2019 2021 2024 2026 2029 2032 2034 2037 2039 2042 2045 2048 2050 2052 2054 2057 2060 2063 2066 2069 2072 2074 2077 2079 2082 2085 2088 2091 2094 2097 2100 2103 2106 2109 2111 2114 2117 2120 2123 2126 2129 2131 2134 2137 2140 2142 2145 2148 2151 2154 2157 2160 2163 2166 2169 2172 2175 2178 2180 2183 2186 2189 2192 2195 2198 2201 2204 2207 2210 2213 2216 2219 2222 2225 2228 2231 2234 2236 2239 2242 2245 2247 2250 2253 2256 2259 2262 2265 2268 2271 2274 2277 2280 2283 2286 2289 2292 2295 2298 2301 2304 2307 2309 2312 2315 2318 2321 2324 2327 2329 2332 2334 2337 2340 2343 2346 2349 2352 2355 2357 2359 2362 2365 2368 2371 2374 2377 2380 2383 2386 2389 2392 2395 2398 2401 2404 2407 2410 2413 2416 2419 2422 2425 2428 2431 2434 2437 2440 2443 2446 2449 2452 2455 2457 2460 2463 2465 2468 2471 2474 2477 2480 2483 2486 2489 2492 2495 2498 2501 2504 2507 2510 2512 2515 2518 2521 2523 2526 2529 2532 2535 2538 2541 2544 2547 2550 2553 2555 2558 2561 2564 2567 2570 2573 2576 2579 2582 2585 2588 2591 2594 2597 2600 2603 2606 2609 2612 2615 2618 2621 2623 2626 2629 2632 2635 2638 2641 2644 2647 2650 2653 2656 2659 2662 2665 2668 2671 2674 2677 2680 2683 2686 2689 2692 2695 2698 2701 2704 2707 2710 2713 2716 2719 2722 2725 2728 2731 2734 2737 2740 2743 2746 2749 2752 2755 2758 2761 2764 2767 2770 2773 2776 2779 2782 2785 2788 2791 2794 2797 2800 2803 2805 2808 2811 2814 2817 2819 2822 2825 2828 2831 2834 2837 2840 2843 2846 2849 2852 2855 2858 2861 2864 2867 2870 2872 2875 2878 2880 2883 2886 2889 2892 2895 2898 2901 2904 2907 2910 2913 2916 2919 2922 2924 2927 2930 2933 2936 2939 2942 2944 2947 2950 2953 2956 2958 2961 2963 2966 2969 2972 2975 2978 2981 2984 2987 2990 2993 2996 2999 3001 3004 3006 3008 3011 3014 3017 3020 3022 3025 3028 3031 3034 3037 3039 3042 3044 3047 3050 3053 3056 3058 3060 3063 3066 3069 3072 3074 3077 3080 3083 3086 3089 3092 3095 3098 3101 3104 3107 3109 3112 3114 3117 3120 3123 3126 3129 3132 3135 3137 3139 3142 3145 3148 3151 3154 3157 3160 3163 3166 3169 3171 3174 3177 3180 3183 3186 3189 3192 3195 3198 3200 3203 3205 3208 3211 3214 3217 3220 3223 3226 3229 3231 3234 3237 3239 3242 3245 3248 3251 3254 3257 3260 3263 3266 3268 3271 3274 3277 3280 3283 3286 3289 3292 3295 3298 3301 3304 3307 3310 3313 3316 3319 3322 3325 3328 3331 3334 3337 3340 3343 3346 3349 3352 3355 3358 3361 3364 3367 3370 3373 3376 3379 3382 3384 3386 3389 3392 3395 3398 3401 3404 3407 3410 3413 3415 3418 3421 3424 3427 3430 3433 3436 3438 3441 3443 3446 3449 3452 3455 3458 3461 3464 3466 3469 3472 3475 3478 3481 3484 3486 3489 3492 3495 3497 3500 3503 3506 3509 3511 3514 3517 3520 3522 3525 3528 3530 3533 3535 3538 3541 3544 3547 3550 3553 3556 3558 3561 3564 3567 3570 3573 3576 3579 3582 3585 3588 3591 3593 3596 3599 3602 3605 3608 3611 3613 3616 3619 3622 3625 3627 3630 3633 3635 3638 3640 3643 3646 3649 3652 3654 3657 3659 3662 3664 3667 3670 3673 3675 3678 3681 3684 3687 3690 3692 3695 3698 3700 3703 3706 3709 3712 3715 3718 3720 3723 3726 3728 3731 3734 3736 3738 3740 3743 3746 3749 3751 3754 3757 3760 3763 3766 3768 3771 3774 3777 3780 3783 3785 3788 3791 3794 3797 3800 3803 3806 3809 3812 3815 3818 3821 3824 3827 3830 3833 3836 3839 3842 3845 3848 3851 3854 3857 3860 3863 3866 3869 3872 3875 3878 3881 3884 3887 3890 3893 3896 3899 3902 3904 3907 3910 3913 3916 3919 3922 3925 3927 3930 3933 3935 3937 3940 3943 3946 3949 3952 3955 3958 3961 3964 3967 3970 3973 3976 3979 3982 3985 3988 3991 3993 3996 3999 4002 4005 4008 4011 4013 4016 4019 4022 4025 4028 4031 4034 4036 4039 4042 4045 4048 4051 4054 4057 4060 4062 4065 4068 4070 4073 4075 4078 4080 4082 4085 4088 4091 4094 4096 4098 4101 4103 4106 4108 4111 4114 4117 4120 4122 4125 4127 4130 4133 4136 4139 4141 4144 4147 4150 4153 4156 4159 4162 4165 4168 4170 4173 4176 4178 4180 4183 4186 4188 4191 4194 4197 4199 4202 4204 4207 4210 4213 4215 4218 4220 4223 4226 4229 4232 4235 4238 4241 4244 4247 4250 4253 4256 4259 4262 4265 4268 4271 4274 4277 4280 4283 4286 4289 4292 4295 4298 4301 4304 4307 4310 4313 4316 4319 4322 4325 4328 4331 4334 4337 4340 4343 4346 4349 4352 4355 4358 4361 4364 4367 4370 4373 4376 4379 4382 4385 4388 4391 4394 4397 4400 4403 4406 4409 4412 4415 4418 4420 4423 4426 4429 4432 4435 4438 4441 4444 4447 4450 4453 4456 4459 4462 4465 4468 4471 4474 4477 4480 4483 4486 4489 4492 4495 4498 4501 4504 4507 4510 4513 4516 4519 4522 4525 4528 4531 4534 4537 4540 4543 4546 4549 4552 4555 4558 4561 4564 4567 4570 4573 4576 4579 4582 4585 4588 4591 4594 4597 4600 4603 4606 4609 4612 4615 4618 4621 4624 4627 4630 4633 4636 4639 4642 4645 4648 4651 4654 4657 4660 4663 4666 4669 4672 4675 4678 4680 4683 4686 4689 4692 4694 4697 4700 4703 4706 4709 4712 4714 4717 4720 4723 4726 4729 4732 4734 4737 4740 4743 4746 4748 4751 4754 4757 4759 4762 4765 4768 4771 4774 4776 4779 4781 4784 4786 4789 4792 4795 4798 4801 4804 4807 4810 4813 4816 4819 4822 4825 4828 4831 4833 4836 4839 4842 4845 4847 4850 4853 4856 4859 4862 4865 4868 4871 4874 4877 4880 4883 4886 4889 4892 4895 4898 4901 4904 4907 4910 4913 4916 4918 4921 4924 4927 4930 4933 4936 4939 4942 4945 4948 4950 4953 4955 4958 4961 4963 4966 4968 4970 4973 4975 4978 4981 4984 4987 4990 4992 4994 4997 4999 5002 5005 5008 5011 5013 5016 5019 5022 5025 5028 5031 5033 5036 5039 5042 5045 5048 5051 5054 5057 5060 5063 5066 5069 5072 5075 5077 5080 5083 5085 5088 5091 5094 5096 5099 5101 5104 5107 5110 5113 5116 5118 5121 5124 5127 5130 5132 5135 5138 5141 5144 5147 5149 5152 5155 5158 5161 5164 5167 5170 5173 5175 5178 5181 5184 5187 5189 5192 5195 5198 5201 5203 5206 5209 5212 5215 5218 5221 5224 5227 5229 5232 5235 5237 5240 5243 5246 5249 5252 5254 5257 5260 5262 5265 5268 5271 5274 5277 5280 5283 5286 5289 5292 5295 5298 5301 5304 5307 5309 5312 5315 5318 5320 5322 5325 5328 5331 5334 5337 5340 5343 5345 5348 5351 5354 5357 5359 5362 5364 5367 5370 5372 5375 5378 5380 5382 5385 5387 5390 5393 5395 5398 5401 5403 5406 5409 5412 5415 5418 5421 5424 5427 5429 5431 5433 5436 5439 5442 5444 5447 5450 5452 5455 5458 5461 5464 5467 5469 5472 5475 5477 5480 5482 5484 5487 5490 5492 5495 5498 5501 5504 5507 5509 5512 5515 5518 5520 5523 5526 5528 5531 5533 5535 5537 5539 5542 5545 5548 5551 5554 5556 5559 5561 5564 5566 5568 5571 5574 5577 5579 5582 5585 5588 5591 5594 5597 5600 5602 5605 5608 5611 5614 5617 5619 5622 5624 5626 5629 5632 5635 5637 5639 5642 5645 5648 5651 5654 5657 5660 5663 5666 5669 5672 5675 5678 5681 5684 5687 5690 5693 5696 5698 5701 5703 5705 5707 5710 5713 5716 5719 5722 5724 5727 5730 5733 5736 5739 5742 5745 5748 5751 5754 5756 5759 5762 5765 5768 5771 5774 5777 5779 5782 5784 5787 5790 5793 5796 5799 5802 5805 5808 5810 5813 5815 5818 5821 5824 5827 5830 5833 5836 5839 5841 5844 5847 5850 5853 5856 5859 5862 5865 5868 5871 5874 5877 5880 5883 5885 5888 5891 5894 5897 5900 5903 5906 5908 5911 5914 5916 5919 5922 5925 5928 5931 5934 5937 5940 5943 5946 5949 5952 5955 5958 5961 5964 5967 5970 5973 5976 5979 5982 5985 5988 5991 5993 5996 5999 6002 6005 6008 6011 6014 6017 6020 6023 6025 6028 6030 6033 6036 6039 6042 6045 6048 6051 6054 6057 6060 6063 6066 6069 6072 6075 6078 6081 6084 6086 6089 6092 6095 6098 6101 6103 6106 6109 6112 6115 6118 6121 6124 6127 6130 6133 6136 6139 6142 6144 6147 6149 6152 6155 6157 6159 6162 6164 6167 6170 6172 6175 6177 6180 6183 6185 6188 6191 6194 6197 6200 6203 6205 6207 6210 6212 6215 6218 6220 6223 6226 6229 6231 6234 6237 6239 6242 6245 6248 6251 6254 6257 6260 6263 6265 6268 6271 6274 6276 6279 6282 6285 6288 6291 6294 6297 6300 6303 6306 6309 6312 6314 6317 6319 6322 6325 6328 6331 6334 6336 6339 6342 6345 6348 6351 6354 6357 6360 6363 6366 6369 6372 6375 6378 6381 6384 6387 6390 6393 6396 6398 6401 6404 6407 6410 6413 6416 6419 6422 6424 6427 6430 6433 6436 6439 6442 6445 6448 6451 6453 6456 6459 6462 6465 6468 6471 6474 6477 6480 6482 6485 6487 6490 6493 6495 6498 6501 6503 6506 6508 6510 6513 6515 6518 6521 6524 6527 6530 6533 6535 6537 6540 6543 6546 6549 6552 6555 6558 6561 6564 6567 6570 6573 6576 6579 6581 6584 6587 6590 6593 6596 6599 6602 6605 6608 6611 6614 6616 6619 6622 6624 6627 6630 6633 6636 6639 6641 6644 6647 6649 6652 6655 6658 6661 6664 6667 6670 6673 6676 6679 6682 6684 6687 6690 6693 6696 6699 6701 6704 6707 6709 6712 6715 6718 6721 6723 6726 6729 6732 6735 6738 6741 6744 6747 6750 6753 6756 6759 6761 6764 6767 6770 6773 6776 6779 6782 6785 6788 6791 6793 6796 6799 6802 6805 6808 6811 6814 6817 6820 6823 6825 6828 6831 6833 6836 6839 6842 6845 6848 6851 6854 6857 6860 6863 6866 6869 6872 6875 6878 6881 6884 6886 6889 6891 6894 6897 6900 6902 6905 6907 6910 6913 6916 6919 6922 6925 6928 6931 6934 6937 6940 6942 6945 6948 6950 6953 6956 6958 6961 6964 6967 6970 6973 6976 6979 6981 6984 6986 6989 6992 6995 6998 7001 7004 7007 7010 7013 7016 7019 7022 7025 7028 7031 7034 7037 7040 7043 7045 7047 7050 7053 7056 7059 7062 7065 7067 7069 7072 7075 7078 7081 7084 7087 7090 7093 7096 7099 7101 7104 7107 7109 7111 7114 7117 7119 7122 7125 7127 7130 7133 7135 7138 7140 7143 7145 7148 7151 7154 7157 7160 7162 7165 7168 7171 7174 7177 7180 7183 7186 7188 7191 7194 7197 7200 7203 7206 7209 7212 7215 7218 7221 7224 7227 7230 7232 7235 7238 7241 7244 7246 7249 7252 7255 7258 7261 7264 7267 7270 7273 7276 7278 7281 7284 7287 7290 7293 7295 7298 7300 7303 7305 7307 7310 7313 7316 7318 7321 7324 7327 7329 7332 7335 7338 7341 7343 7346 7349 7352 7355 7358 7361 7363 7366 7369 7371 7374 7377 7380 7383 7386 7389 7392 7395 7398 7401 7404 7407 7409 7412 7415 7418 7420 7423 7426 7429 7432 7435 7438 7441 7444 7447 7449 7452 7455 7457 7460 7462 7465 7467 7470 7473 7476 7479 7482 7485 7488 7490 7493 7495 7498 7501 7504 7507 7510 7513 7515 7518 7521 7524 7526 7529 7532 7535 7538 7541 7544 7547 7550 7553 7556 7559 7562 7565 7568 7571 7574 7577 7580 7583 7586 7589 7592 7594 7597 7600 7603 7606 7609 7612 7614 7617 7620 7623 7626 7629 7631 7634 7636 7639 7642 7645 7648 7651 7654 7657 7660 7663 7665 7668 7671 7674 7677 7680 7682 7685 7688 7691 7694 7697 7700 7703 7706 7709 7712 7715 7718 7721 7724 7727 7730 7732 7735 7738 7741 7744 7746 7749 7752 7755 7758 7761 7764 7767 7770 7773 7775 7778 7781 7784 7787 7790 7793 7796 7799 7802 7805 7807 7810 7813 7816 7819 7822 7825 7828 7831 7834 7837 7840 7843 7846 7849 7852 7855 7858 7861 7864 7866 7869 7872 7874 7877 7880 7882 7885 7887 7890 7893 7896 7899 7902 7904 7907 7910 7913 7916 7919 7922 7925 7928 7931 7934 7937 7940 7943 7946 7949 7952 7954 7957 7960 7963 7966 7969 7972 7974 7977 7980 7983 7986 7989 7992 7994 7997 8000 8003 8006 8008 8011 8014 8017 8020 8023 8026 8028 8031 8034 8037 8040 8042 8045 8048 8051 8054 8057 8060 8063 8066 8069 8072 8075 8078 8081 8084 8087 8090 8093 8096 8098 8101 8104 8107 8110 8113 8116 8119 8122 8125 8128 8131 8134 8136 8138 8140 8143 8146 8149 8152 8155 8157 8160 8163 8166 8169 8172 8175 8177 8180 8183 8186 8188 8190 8193 8196 8199 8202 8205 8207 8210 8213 8216 8219 8221 8224 8227 8230 8233 8236 8239 8242 8244 8247 8250 8252 8255 8257 8260 8263 8266 8269 8272 8275 8278 8280 8283 8286 8289 8292 8295 8297 8300 8303 8306 8309 8312 8314 8316 8319 8322 8325 8328 8331 8334 8337 8340 8342 8345 8348 8351 8354 8357 8360 8363 8366 8369 8372 8375 8378 8381 8384 8387 8390 8393 8396 8399 8402 8405 8407 8410 8413 8416 8419 8422 8425 8428 8431 8434 8436 8439 8442 8445 8448 8451 8454 8457 8460 8463 8466 8469 8472 8475 8478 8481 8483 8486 8489 8492 8495 8498 8501 8504 8507 8510 8513 8516 8519 8522 8525 8528 8531 8534 8537 8540 8543 8546 8549 8552 8555 8558 8561 8564 8567 8570 8573 8576 8579 8582 8585 8587 8589 8592 8595 8598 8601 8604 8607 8610 8613 8616 8619 8621 8623 8626 8629 8632 8635 8637 8640 8643 8646 8649 8651 8654 8657 8660 8663 8666 8669 8671 8674 8677 8680 8683 8686 8689 8692 8694 8696 8699 8702 8705 8708 8710 8712 8715 8718 8721 8724 8727 8730 8733 8736 8738 8741 8744 8747 8750 8753 8756 8759 8762 8764 8767 8770 8773 8775 8778 8781 8784 8787 8789 8792 8795 8798 8801 8804 8806 8809 8812 8815 8818 8821 8824 8827 8830 8833 8836 8839 8842 8844 8847 8849 8852 8855 8858 8860 8863 8866 8868 8871 8874 8877 8879 8882 8884 8887 8890 8893 8896 8899 8902 8905 8908 8911 8914 8917 8920 8923 8926 8929 8932 8935 8938 8941 8944 8947 8949 8952 8955 8958 8961 8964 8966 8969 8972 8975 8978 8981 8984 8987 8990 8993 8995 8998 9001 9004 9007 9010 9013 9016 9019 9022 9025 9027 9030 9033 9036 9039 9041 9044 9047 9050 9053 9056 9059 9062 9065 9068 9071 9074 9077 9080 9083 9086 9089 9092 9095 9098 9100 9103 9106 9108 9111 9114 9116 9119 9121 9124 9127 9129 9132 9135 9137 9140 9143 9146 9149 9152 9155 9157 9160 9163 9166 9169 9172 9175 9178 9181 9184 9187 9189 9192 9195 9198 9201 9203 9206 9209 9212 9215 9218 9221 9224 9226 9229 9232 9235 9238 9241 9244 9246 9249 9252 9255 9258 9261 9264 9267 9270 9272 9275 9278 9281 9283 9286 9289 9292 9295 9298 9301 9303 9306 9309 9312 9315 9318 9321 9324 9327 9330 9333 9336 9338 9341 9344 9347 9350 9353 9356 9358 9361 9364 9367 9369 9372 9375 9378 9381 9383 9386 9388 9391 9393 9396 9399 9402 9405 9408 9411 9414 9417 9420 9423 9426 9429 9432 9435 9437 9440 9443 9446 9448 9451 9454 9457 9460 9463 9466 9469 9472 9475 9478 9481 9484 9487 9490 9493 9496 9499 9502 9505 9508 9511 9513 9516 9519 9522 9525 9528 9531 9534 9537 9540 9543 9546 9549 9551 9554 9557 9560 9562 9565 9568 9571 9574 9577 9579 9582 9584 9587 9590 9593 9595 9598 9601 9604 9607 9610 9613 9615 9618 9620 9623 9626 9629 9631 9633 9636 9639 9642 9645 9648 9651 9654 9657 9660 9663 9665 9667 9669 9672 9675 9678 9681 9683 9685 9687 9690 9693 9695 9697 9700 9703 9705 9708 9711 9714 9717 9720 9723 9725 9728 9731 9734 9737 9740 9743 9745 9748 9751 9754 9757 9760 9763 9765 9768 9771 9773 9776 9779 9782 9785 9788 9791 9794 9797 9800 9803 9805 9808 9811 9814 9817 9820 9823 9826 9829 9832 9835 9838 9841 9844 9846 9849 9852 9855 9858 9861 9864 9867 9869 9872 9875 9878 9880 9883 9886 9889 9892 9894 9897 9900 9903 9906 9909 9912 9915 9918 9920 9923 9925 9928 9931 9934 9936 9939 9941 9944 9947 9950 9953 9956 9959 9962 9965 9967 9970 9973 9976 9978 9980 9983 9986 9989 9992 9995 9997 9999 10002 10005 10008 10011 10014 10017 10020 10023 10025 10027 10030 10033 10036 10039 10042 10045 10048 10050 10053 10056 10059 10062 10065 10068 10071 10074 10076 10079 10082 10084 10087 10090 10093 10095 10098 10101 10104 10107 10109 10112 10115 10118 10121 10124 10127 10130 10133 10136 10139 10142 10144 10147 10150 10153 10156 10159 10162 10164 10167 10169 10172 10175 10177 10180 10183 10186 10189 10192 10195 10198 10200 10203 10206 10209 10212 10215 10218 10221 10223 10226 10228 10231 10233 10236 10239 10242 10244 10247 10250 10253 10256 10258 10260 10263 10266 10269 10271 10274 10277 10280 10282 10285 10288 10291 10293 10296 10299 10302 10305 10308 10311 10314 10317 10320 10323 10326 10329 10332 10335 10338 10341 10344 10347 10350 10353 10356 10359 10362 10365 10368 10371 10374 10377 10380 10383 10386 10388 10391 10394 10397 10400 10403 10406 10409 10412 10415 10418 10421 10424 10427 10430 10433 10436 10439 10442 10445 10448 10451 10454 10457 10460 10463 10466 10469 10472 10475 10477 10480 10483 10486 10489 10491 10493 10496 10499 10502 10505 10508 10511 10513 10516 10519 10522 10525 10528 10531 10534 10537 10540 10542 10545 10548 10551 10554 10557 10560 10563 10566 10569 10572 10575 10578 10581 10583 10586 10589 10592 10595 10598 10601 10604 10607 10610 10613 10616 10619 10622 10625 10628 10631 10634 10637 10639 10642 10645 10648 10650 10652 10655 10658 10660 10663 10666 10669 10671 10674 10677 10680 10682 10684 10687 10690 10693 10696 10698 10701 10704 10706 10708 10711 10714 10716 10719 10722 10725 10728 10731 10734 10737 10740 10743 10746 10749 10752 10755 10757 10760 10762 10765 10768 10771 10774 10777 10779 10782 10784 10787 10790 10793 10796 10799 10802 10805 10808 10811 10814 10817 10820 10823 10826 10829 10832 10835 10838 10841 10844 10846 10849 10852 10855 10858 10861 10864 10867 10870 10873 10876 10879 10882 10885 10888 10891 10894 10897 10900 10903 10906 10909 10912 10915 10918 10921 10924 10927 10929 10932 10935 10938 10941 10943 10946 10949 10952 10955 10958 10960 10963 10966 10969 10972 10975 10978 10981 10984 10986 10989 10992 10995 10998 11001 11004 11007 11010 11012 11015 11018 11021 11024 11026 11029 11032 11035 11038 11040 11043 11046 11049 11052 11055 11058 11060 11063 11066 11069 11071 11074 11077 11080 11083 11086 11088 11090 11093 11095 11098 11101 11103 11106 11109 11112 11115 11118 11121 11123 11126 11129 11132 11135 11138 11140 11143 11146 11149 11152 11155 11158 11161 11164 11167 11170 11173 11176 11179 11182 11185 11188 11191 11194 11197 11200 11203 11206 11208 11210 11213 11216 11219 11221 11224 11227 11230 11233 11236 11239 11241 11243 11246 11249 11252 11255 11258 11261 11264 11267 11270 11273 11276 11279 11282 11285 11288 11291 11294 11297 11300 11303 11306 11309 11312 11315 11318 11320 11323 11326 11329 11332 11335 11338 11341 11344 11347 11350 11353 11356 11359 11362 11365 11367 11370 11373 11376 11378 11381 11384 11387 11390 11393 11396 11399 11402 11405 11408 11410 11413 11416 11419 11422 11424 11427 11429 11432 11435 11437 11440 11443 11446 11449 11452 11455 11458 11461 11464 11467 11470 11473 11476 11479 11482 11484 11487 11490 11493 11496 11499 11502 11505 11508 11511 11514 11517 11520 11523 11526 11529 11532 11535 11538 11540 11543 11546 11549 11552 11555 11558 11560 11563 11566 11569 11572 11575 11578 11581 11584 11587 11590 11593 11596 11599 11602 11605 11608 11611 11614 11617 11620 11623 11626 11629 11631 11634 11637 11640 11643 11646 11649 11652 11655 11658 11660 11663 11666 11669 11672 11675 11677 11680 11683 11686 11688 11691 11694 11697 11700 11703 11706 11709 11712 11714 11717 11719 11722 11725 11728 11731 11734 11737 11740 11743 11745 11748 11750 11752 11754 11757 11760 11762 11765 11768 11770 11773 11776 11779 11782 11784 11786 11789 11792 11795 11798 11800 11802 11805 11807 11810 11813 11815 11818 11820 11823 11826 11829 11832 11835 11838 11841 11843 11845 11848 11850 11853 11856 11858 11861 11864 11866 11869 11872 11875 11878 11881 11884 11887 11890 11893 11895 11898 11901 11904 11906 11909 11912 11915 11918 11921 11924 11926 11929 11932 11935 11938 11940 11943 11946 11949 11952 11955 11958 11961 11964 11966 11969 11972 11975 11978 11981 11984 11987 11990 11993 11996 11999 12002 12005 12008 12011 12014 12017 12020 12023 12026 12029 12032 12035 12038 12041 12044 12047 12050 12053 12056 12058 12061 12064 12067 12070 12073 12076 12079 12082 12085 12088 12091 12094 12097 12100 12103 12106 12109 12112 12115 12118 12120 12123 12126 12128 12131 12134 12136 12139 12141 12144 12146 12149 12151 12153 12155 12158 12161 12164 12167 12170 12173 12175 12178 12180 12183 12186 12189 12192 12195 12197 12200 12202 12205 12207 12210 12213 12215 12218 12220 12222 12225 12227 12230 12233 12236 12238 12240 12242 12245 12248 12251 12253 12255 12258 12261 12263 12266 12268 12271 12274 12277 12280 12282 12285 12287 12290 12293 12296 12299 12302 12305 12308 12311 12314 12317 12320 12323 12326 12329 12332 12335 12338 12341 12344 12347 12350 12353 12355 12358 12361 12364 12367 12370 12373 12376 12379 12382 12385 12387 12390 12393 12396 12399 12402 12404 12407 12410 12413 12415 12418 12420 12423 12426 12428 12431 12434 12436 12438 12440 12443 12446 12449 12452 12455 12458 12461 12464 12467 12470 12473 12476 12479 12482 12485 12488 12491 12494 12497 12499 12501 12504 12507 12510 12513 12515 12518 12521 12523 12526 12529 12532 12535 12538 12540 12543 12546 12549 12552 12555 12558 12561 12563 12566 12569 12571 12574 12577 12580 12583 12586 12589 12592 12595 12598 12601 12604 12607 12610 12613 12616 12618 12621 12624 12627 12630 12633 12636 12639 12642 12644 12647 12650 12653 12656 12659 12662 12665 12668 12671 12673 12676 12679 12682 12685 12688 12691 12694 12697 12700 12703 12706 12709 12712 12715 12718 12721 12723 12726 12729 12732 12735 12738 12741 12743 12746 12749 12752 12754 12756 12759 12762 12765 12768 12770 12773 12776 12778 12781 12784 12787 12789 12792 12795 12798 12801 12804 12807 12810 12813 12816 12819 12822 12825 12828 12831 12834 12836 12839 12842 12845 12848 12851 12854 12857 12860 12863 12866 12869 12872 12875 12878 12881 12884 12887 12890 12893 12896 12899 12902 12905 12908 12911 12914 12916 12919 12922 12925 12927 12930 12932 12935 12938 12941 12944 12946 12949 12952 12955 12958 12961 12964 12967 12970 12973 12976 12979 12982 12985 12988 12991 12994 12997 13000 13003 13005 13008 13011 13014 13017 13019 13022 13025 13028 13031 13034 13037 13040 13042 13045 13048 13051 13054 13057 13060 13063 13066 13068 13071 13074 13077 13080 13083 13086 13089 13092 13095 13098 13101 13104 13107 13110 13112 13115 13118 13121 13124 13127 13129 13131 13134 13137 13139 13142 13145 13148 13150 13153 13155 13158 13161 13163 13166 13168 13171 13174 13177 13179 13181 13184 13186 13188 13190 13193 13196 13199 13202 13205 13208 13210 13213 13216 13219 13222 13225 13228 13231 13234 13237 13240 13243 13246 13249 13252 13254 13257 13260 13263 13265 13268 13271 13274 13277 13280 13283 13286 13289 13291 13294 13297 13299 13302 13304 13307 13310 13313 13316 13319 13322 13325 13327 13330 13332 13335 13338 13341 13344 13347 13350 13353 13356 13359 13362 13365 13368 13371 13374 13377 13380 13383 13386 13389 13392 13395 13398 13401 13404 13407 13410 13413 13416 13419 13422 13425 13428 13431 13434 13437 13440 13443 13446 13449 13452 13455 13458 13461 13463 13465 13468 13471 13474 13477 13480 13482 13485 13488 13491 13494 13497 13500 13502 13505 13507 13510 13513 13515 13518 13521 13524 13526 13529 13531 13534 13537 13540 13543 13546 13549 13552 13555 13558 13561 13564 13567 13570 13573 13576 13579 13582 13585 13588 13591 13594 13597 13600 13603 13606 13609 13612 13615 13618 13621 13624 13626 13628 13631 13633 13636 13639 13642 13645 13648 13650 13653 13656 13658 13660 13662 13665 13668 13671 13673 13676 13678 13680 13683 13686 13689 13692 13695 13697 13700 13702 13705 13707 13710 13713 13715 13718 13720 13722 13725 13727 13730 13733 13735 13738 13741 13743 13745 13748 13751 13753 13756 13759 13762 13764 13767 13770 13773 13776 13779 13782 13785 13788 13791 13794 13797 13800 13803 13806 13808 13811 13814 13817 13820 13822 13825 13828 13831 13833 13836 13839 13841 13844 13847 13850 13853 13856 13859 13862 13865 13868 13871 13873 13876 13879 13882 13884 13887 13890 13893 13895 13898 13901 13904 13907 13909 13912 13914 13917 13920 13922 13925 13928 13931 13934 13937 13939 13942 13945 13948 13951 13954 13957 13960 13963 13966 13969 13972 13975 13977 13980 13983 13986 13989 13992 13995 13998 14001 14004 14007 14010 14013 14016 14018 14020 14023 14026 14028 14031 14034 14036 14038 14041 14043 14045 14048 14051 14054 14057 14060 14063 14066 14069 14072 14074 14077 14080 14083 14085 14088 14090 14092 14095 14098 14100 14103 14106 14109 14111 14114 14117 14120 14122 14125 14128 14131 14134 14137 14140 14143 14146 14149 14151 14154 14157 14160 14163 14166 14169 14172 14174 14177 14180 14183 14186 14188 14190 14192 14195 14197 14200 14203 14206 14208 14211 14214 14217 14220 14223 14225 14228 14231 14234 14236 14239 14241 14244 14247 14250 14253 14256 14259 14261 14264 14266 14269 14272 14275 14278 14281 14284 14287 14289 14292 14294 14297 14299 14302 14305 14308 14311 14314 14317 14320 14322 14325 14328 14330 14333 14336 14339 14342 14345 14348 14351 14354 14356 14359 14362 14364 14367 14370 14373 14376 14379 14381 14384 14387 14390 14392 14395 14398 14401 14404 14407 14410 14413 14416 14419 14422 14425 14428 14431 14434 14436 14439 14442 14444 14447 14450 14453 14456 14458 14461 14464 14467 14469 14472 14474 14477 14480 14483 14486 14489 14492 14495 14498 14501 14504 14507 14510 14513 14516 14519 14522 14525 14528 14530 14533 14536 14539 14542 14545 14548 14551 14554 14557 14560 14563 14566 14569 14571 14574 14577 14580 14583 14586 14589 14592 14595 14598 14601 14604 14607 14610 14613 14616 14619 14622 14625 14628 14630 14633 14635 14638 14641 14643 14646 14648 14651 14654 14657 14659 14661 14664 14667 14669 14672 14675 14678 14681 14683 14686 14689 14692 14694 14697 14700 14702 14705 14708 14711 14714 14716 14719 14722 14725 14728 14731 14734 14737 14740 14743 14746 14749 14752 14755 14758 14761 14764 14767 14770 14773 14776 14779 14782 14785 14788 14791 14794 14796 14799 14802 14805 14808 14811 14813 14816 14819 14821 14824 14827 14830 14833 14836 14839 14842 14844 14846 14849 14852 14855 14857 14860 14863 14866 14868 14871 14874 14876 14879 14882 14885 14888 14890 14892 14894 14897 14900 14903 14906 14908 14910 14913 14915 14918 14920 14922 14924 14926 14929 14931 14934 14937 14940 14943 14946 14948 14951 14954 14957 14959 14962 14965 14968 14971 14974 14977 14980 14983 14986 14989 14992 14994 14997 15000 15003 15006 15008 15011 15013 15016 15019 15022 15025 15027 15030 15033 15036 15039 15042 15044 15047 15050 15053 15055 15058 15061 15063 15066 15069 15072 15075 15077 15080 15083 15085 15088 15091 15093 15096 15099 15102 15105 15108 15111 15114 15117 15120 15123 15126 15129 15132 15135 15138 15141 15143 15146 15149 15152 15155 15158 15161 15164 15167 15170 15173 15176 15179 15181 15183 15185 15188 15191 15194 15197 15200 15202 15204 15207 15210 15213 15216 15219 15222 15224 15226 15228 15231 15234 15237 15240 15242 15245 15248 15251 15254 15256 15259 15261 15264 15267 15270 15273 15275 15278 15281 15284 15287 15290 15293 15296 15299 15302 15305 15308 15311 15314 15317 15320 15323 15326 15329 15332 15335 15338 15341 15344 15347 15350 15352 15355 15358 15361 15363 15366 15369 15371 15374 15376 15379 15382 15385 15388 15390 15392 15395 15397 15400 15402 15405 15408 15411 15414 15416 15419 15421 15424 15427 15430 15432 15435 15438 15441 15444 15447 15450 15453 15456 15459 15462 15465 15468 15470 15473 15476 15478 15481 15484 15487 15489 15492 15494 15497 15500 15503 15506 15509 15511 15514 15517 15520 15523 15526 15529 15532 15535 15538 15541 15544 15547 15550 15553 15556 15559 15561 15564 15567 15570 15573 15575 15578 15581 15584 15587 15590 15593 15596 15599 15602 15605 15608 15611 15614 15617 15620 15623 15626 15629 15631 15634 15637 15640 15643 15646 15648 15651 15654 15656 15659 15662 15664 15667 15670 15673 15676 15678 15681 15683 15686 15689 15692 15695 15698 15701 15704 15707 15710 15713 15716 15719 15722 15724 15727 15730 15733 15736 15739 15741 15744 15747 15750 15753 15756 15759 15762 15765 15768 15771 15774 15777 15780 15782 15785 15788 15791 15793 15796 15798 15801 15804 15807 15809 15812 15815 15818 15821 15824 15827 15830 15833 15836 15839 15842 15845 15848 15850 15853 15856 15859 15862 15865 15868 15871 15874 15877 15880 15883 15886 15889 15892 15895 15898 15901 15903 15905 15908 15911 15913 15916 15919 15922 15925 15927 15930 15933 15936 15938 15940 15943 15946 15948 15951 15954 15957 15960 15963 15966 15969 15972 15975 15978 15981 15984 15986 15989 15991 15994 15997 15999 16001 16003 16006 16009 16011 16014 16017 16020 16023 16026 16028 16031 16033 16036 16038 16041 16043 16046 16049 16052 16055 16058 16060 16063 16065 16068 16071 16074 16077 16079 16082 16085 16087 16089 16091 16094 16097 16099 16102 16105 16108 16111 16114 16116 16119 16122 16125 16128 16131 16134 16137 16140 16143 16146 16149 16151 16153 16156 16158 16161 16164 16167 16169 16172 16175 16178 16180 16182 16185 16188 16190 16193 16195 16198 16201 16204 16206 16209 16212 16215 16218 16221 16223 16225 16228 16230 16233 16236 16239 16242 16245 16248 16251 16254 16257 16260 16263 16266 16268 16271 16274 16277 16279 16282 16285 16288 16291 16294 16297 16300 16303 16306 16309 16311 16314 16317 16320 16323 16326 16329 16332 16335 16338 16341 16343 16346 16349 16352 16355 16358 16361 16364 16367 16369 16372 16374 16377 16380 16383 16386 16388 16390 16393 16396 16398 16401 16404 16406 16409 16411 16414 16417 16420 16423 16426 16428 16431 16434 16437 16440 16443 16446 16449 16452 16454 16457 16460 16463 16466 16468 16471 16473 16475 16478 16481 16484 16487 16490 16493 16495 16498 16500 16503 16506 16509 16512 16514 16517 16519 16522 16524 16527 16530 16533 16535 16538 16541 16544 16547 16550 16552 16554 16556 16559 16561 16564 16567 16570 16573 16576 16578 16581 16584 16587 16590 16593 16596 16599 16602 16605 16608 16611 16614 16617 16620 16623 16626 16629 16632 16635 16638 16641 16643 16646 16649 16652 16655 16658 16661 16664 16666 16669 16672 16674 16677 16680 16683 16686 16689 16692 16695 16698 16701 16703 16706 16709 16712 16715 16718 16721 16723 16726 16729 16732 16734 16737 16740 16743 16746 16749 16752 16755 16758 16760 16763 16766 16769 16771 16774 16777 16780 16783 16786 16789 16791 16794 16796 16799 16802 16804 16807 16810 16813 16815 16818 16821 16824 16827 16830 16832 16835 16837 16840 16842 16844 16847 16850 16853 16855 16858 16861 16863 16865 16868 16870 16873 16875 16878 16881 16884 16886 16889 16892 16895 16898 16901 16904 16906 16909 16912 16915 16918 16921 16923 16925 16928 16931 16934 16937 16940 16943 16946 16948 16951 16953 16956 16958 16961 16964 16967 16969 16972 16975 16978 16981 16984 16987 16989 16992 16994 16997 17000 17003 17005 17008 17011 17014 17017 17020 17023 17026 17029 17032 17035 17038 17040 17043 17046 17049 17052 17055 17058 17061 17064 17067 17070 17073 17076 17079 17081 17084 17087 17089 17092 17095 17098 17101 17104 17107 17110 17113 17116 17119 17122 17125 17128 17131 17133 17136 17139 17142 17145 17147 17150 17153 17156 17159 17162 17165 17168 17171 17174 17177 17180 17182 17185 17188 17191 17194 17197 17200 17203 17206 17208 17210 17213 17216 17219 17222 17225 17228 17230 17233 17236 17238 17241 17244 17247 17250 17253 17256 17259 17262 17265 17268 17271 17274 17277 17280 17283 17286 17289 17292 17295 17298 17301 17304 17306 17309 17311 17314 17317 17320 17323 17326 17329 17332 17335 17338 17341 17344 17347 17349 17352 17355 17358 17361 17364 17367 17370 17373 17376 17379 17382 17385 17388 17391 17394 17397 17400 17403 17406 17409 17411 17414 17417 17420 17422 17425 17428 17431 17434 17437 17439 17442 17445 17448 17451 17453 17456 17459 17462 17464 17467 17470 17473 17475 17478 17480 17483 17485 17487 17490 17493 17496 17499 17502 17505 17508 17510 17512 17515 17517 17519 17521 17524 17526 17528 17530 17533 17536 17539 17542 17545 17548 17551 17554 17557 17560 17563 17566 17569 17572 17574 17577 17580 17583 17585 17588 17591 17594 17597 17599 17602 17605 17607 17609 17612 17614 17617 17620 17623 17626 17628 17630 17632 17635 17638 17641 17644 17647 17650 17653 17656 17658 17661 17664 17667 17670 17673 17676 17678 17681 17684 17687 17690 17693 17695 17698 17700 17703 17705 17708 17711 17714 17717 17720 17722 17725 17728 17730 17733 17736 17739 17742 17744 17747 17750 17752 17755 17758 17761 17764 17767 17770 17773 17775 17778 17780 17783 17785 17788 17790 17793 17796 17798 17801 17804 17807 17810 17813 17815 17817 17820 17823 17826 17829 17832 17834 17837 17840 17842 17845 17848 17851 17854 17857 17859 17862 17865 17868 17871 17874 17877 17880 17883 17885 17888 17891 17894 17897 17900 17902 17905 17908 17911 17914 17917 17920 17922 17925 17928 17931 17934 17937 17939 17942 17945 17948 17951 17954 17957 17960 17963 17966 17969 17972 17975 17978 17981 17984 17987 17989 17992 17995 17997 18000 18003 18005 18008 18010 18013 18016 18019 18022 18025 18028 18031 18034 18036 18039 18042 18045 18047 18049 18052 18054 18057 18059 18062 18064 18067 18070 18073 18075 18078 18081 18084 18087 18089 18091 18094 18097 18100 18103 18105 18108 18111 18114 18117 18120 18123 18125 18128 18130 18132 18135 18138 18141 18143 18146 18149 18152 18155 18158 18160 18162 18165 18167 18169 18172 18174 18177 18180 18182 18185 18187 18190 18193 18196 18198 18201 18204 18207 18210 18213 18216 18219 18222 18225 18228 18231 18234 18237 18239 18242 18244 18246 18249 18252 18254 18257 18260 18263 18265 18268 18271 18274 18277 18280 18282 18284 18287 18289 18292 18295 18298 18300 18303 18306 18309 18311 18314 18317 18320 18322 18325 18328 18330 18333 18336 18338 18341 18344 18347 18350 18353 18356 18359 18362 18365 18367 18370 18373 18376 18379 18382 18385 18388 18391 18394 18396 18399 18402 18405 18407 18409 18412 18415 18418 18421 18424 18427 18430 18433 18436 18439 18441 18444 18447 18449 18451 18453 18456 18459 18462 18465 18468 18471 18474 18477 18480 18483 18486 18489 18492 18495 18497 18500 18503 18506 18509 18511 18514 18516 18519 18521 18524 18527 18530 18533 18536 18539 18542 18545 18548 18551 18554 18557 18560 18563 18566 18569 18572 18575 18578 18581 18584 18587 18590 18593 18596 18599 18602 18605 18608 18611 18614 18617 18619 18622 18625 18628 18631 18634 18637 18640 18643 18646 18649 18652 18654 18657 18660 18663 18666 18669 18672 18675 18678 18681 18684 18687 18689 18692 18695 18698 18701 18703 18706 18709 18712 18714 18717 18720 18723 18725 18728 18730 18733 18735 18737 18740 18743 18746 18749 18752 18755 18758 18761 18764 18767 18770 18773 18776 18779 18781 18784 18787 18790 18793 18796 18799 18802 18805 18807 18809 18812 18815 18818 18821 18824 18827 18829 18832 18835 18838 18841 18844 18847 18849 18851 18854 18857 18859 18861 18864 18867 18870 18873 18876 18878 18881 18884 18887 18890 18893 18895 18898 18900 18903 18906 18909 18912 18915 18917 18920 18922 18925 18927 18930 18933 18936 18939 18942 18945 18947 18949 18951 18954 18956 18959 18961 18964 18967 18970 18973 18975 18978 18981 18984 18987 18990 18993 18995 18998 19001 19004 19007 19010 19013 19016 19019 19022 19025 19028 19031 19034 19036 19039 19042 19045 19048 19051 19053 19056 19059 19062 19065 19068 19071 19073 19076 19079 19081 19083 19086 19089 19092 19095 19098 19101 19104 19107 19110 19113 19115 19118 19121 19124 19127 19130 19133 19136 19139 19142 19145 19148 19151 19154 19156 19159 19162 19165 19168 19171 19174 19177 19179 19182 19185 19188 19191 19193 19195 19197 19200 19202 19205 19208 19211 19213 19216 19219 19221 19224 19227 19230 19233 19236 19239 19242 19245 19247 19250 19253 19255 19258 19261 19264 19267 19269 19272 19275 19278 19281 19284 19287 19290 19292 19295 19297 19300 19302 19305 19308 19311 19313 19315 19318 19321 19324 19326 19329 19331 19334 19337 19340 19342 19345 19348 19351 19353 19356 19359 19362 19365 19368 19370 19373 19376 19379 19382 19385 19388 19390 19392 19395 19398 19400 19403 19406 19409 19412 19414 19416 19419 19422 19424 19427 19429 19432 19435 19437 19439 19442 19445 19448 19451 19454 19456 19459 19462 19465 19468 19471 19474 19476 19479 19481 19484 19487 19490 19493 19496 19499 19502 19505 19508 19511 19514 19517 19520 19523 19526 19528 19531 19533 19536 19539 19542 19545 19548 19551 19553 19556 19558 19561 19563 19566 19569 19572 19574 19576 19579 19582 19585 19588 19591 19594 19597 19600 19603 19606 19608 19611 19614 19617 19620 19623 19626 19629 19632 19635 19638 19641 19644 19647 19650 19653 19656 19659 19662 19665 19668 19671 19674 19677 19680 19683 19686 19689 19692 19695 19698 19701 19704 19707 19710 19713 19716 19719 19722 19725 19728 19731 19734 19737 19740 19743 19746 19749 19752 19755 19758 19761 19764 19767 19770 19773 19776 19779 19782 19785 19788 19791 19794 19797 19800 19803 19806 19809 19811 19813 19816 19819 19822 19825 19828 19831 19834 19837 19839 19842 19845 19847 19850 19853 19855 19858 19861 19864 19867 19870 19873 19875 19878 19881 19883 19886 19889 19892 19895 19898 19901 19904 19907 19910 19913 19915 19918 19921 19924 19927 19930 19933 19936 19939 19941 19944 19947 19950 19953 19956 19959 19962 19965 19968 19971 19974 19977 19979 19982 19985 19988 19991 19994 19997 20000 20003 20006 20008 20011 20014 20017 20019 20022 20025 20028 20031 20034 20037 20040 20043 20045 20048 20051 20054 20057 20060 20063 20066 20069 20072 20075 20078 20081 20084 20087 20090 20093 20096 20099 20102 20105 20108 20111 20113 20116 20119 20122 20125 20128 20131 20134 20137 20140 20143 20146 20149 20151 20153 20156 20158 20161 20164 20167 20170 20173 20176 20179 20182 20184 20187 20190 20193 20196 20199 20202 20205 20208 20211 20214 20217 20220 20223 20226 20229 20232 20235 20238 20241 20243 20246 20249 20252 20255 20258 20261 20263 20266 20269 20272 20275 20278 20281 20284 20287 20289 20292 20295 20298 20301 20304 20307 20310 20313 20316 20319 20322 20325 20327 20330 20332 20335 20338 20341 20343 20346 20349 20352 20355 20358 20361 20364 20366 20369 20372 20375 20378 20381 20384 20387 20390 20393 20396 20399 20401 20404 20407 20410 20413 20416 20418 20421 20424 20426 20429 20432 20435 20438 20441 20444 20447 20450 20452 20455 20458 20461 20464 20467 20470 20473 20476 20479 20481 20484 20486 20489 20492 20495 20498 20501 20504 20507 20510 20513 20516 20519 20522 20525 20528 20531 20534 20536 20538 20541 20544 20547 20550 20553 20556 20558 20561 20563 20566 20569 20572 20575 20578 20581 20584 20587 20590 20592 20595 20598 20601 20604 20607 20610 20613 20616 20618 20621 20624 20627 20630 20632 20634 20637 20640 20643 20646 20649 20652 20655 20658 20661 20664 20667 20670 20673 20676 20679 20682 20685 20688 20691 20694 20697 20700 20702 20705 20708 20711 20713 20716 20719 20722 20725 20728 20731 20734 20737 20739 20742 20745 20748 20751 20753 20756 20759 20762 20764 20767 20770 20773 20776 20779 20782 20784 20787 20790 20793 20796 20799 20802 20805 20808 20811 20814 20817 20820 20823 20826 20828 20831 20834 20837 20840 20843 20846 20849 20852 20854 20857 20860 20863 20865 20868 20871 20874 20877 20879 20882 20885 20888 20891 20894 20897 20900 20903 20906 20909 20912 20914 20916 20919 20921 20924 20927 20929 20932 20935 20938 20941 20944 20947 20950 20953 20956 20959 20962 20965 20968 20971 20974 20977 20980 20983 20986 20989 20992 20995 20998 21000 21003 21006 21009 21012 21015 21018 21021 21024 21027 21030 21033 21036 21039 21042 21045 21048 21051 21054 21057 21060 21063 21066 21069 21072 21075 21078 21081 21084 21087 21090 21093 21096 21099 21102 21105 21108 21111 21114 21117 21120 21123 21126 21129 21132 21135 21138 21141 21144 21147 21150 21153 21155 21158 21161 21164 21167 21170 21173 21176 21179 21182 21184 21187 21190 21193 21196 21199 21202 21205 21208 21211 21213 21216 21219 21222 21225 21228 21231 21234 21237 21240 21243 21246 21248 21250 21253 21256 21259 21262 21265 21267 21270 21272 21275 21278 21280 21283 21286 21288 21291 21294 21297 21300 21303 21306 21309 21312 21315 21318 21320 21323 21326 21329 21332 21335 21338 21341 21344 21347 21350 21353 21356 21359 21362 21365 21368 21371 21374 21377 21380 21383 21386 21389 21392 21395 21398 21401 21403 21405 21408 21410 21412 21415 21418 21421 21424 21427 21430 21433 21436 21439 21442 21445 21448 21451 21454 21457 21460 21463 21465 21468 21470 21473 21475 21478 21481 21484 21487 21490 21493 21496 21498 21500 21503 21505 21508 21511 21514 21517 21520 21523 21526 21529 21531 21534 21537 21540 21543 21546 21549 21552 21555 21558 21561 21563 21566 21569 21572 21575 21578 21581 21584 21587 21590 21593 21596 21599 21602 21604 21607 21610 21613 21616 21619 21622 21625 21627 21630 21633 21635 21638 21641 21644 21647 21650 21653 21656 21658 21661 21663 21666 21669 21671 21674 21677 21680 21683 21685 21688 21691 21694 21697 21700 21703 21706 21709 21712 21715 21718 21721 21724 21727 21729 21732 21734 21736 21739 21742 21744 21747 21750 21753 21756 21758 21761 21764 21767 21770 21773 21776 21779 21782 21784 21787 21789 21792 21795 21798 21801 21804 21807 21810 21813 21816 21818 21821 21824 21826 21829 21832 21834 21837 21840 21843 21846 21849 21852 21854 21856 21859 21862 21864 21867 21869 21872 21875 21878 21881 21884 21887 21890 21893 21896 21899 21902 21905 21907 21910 21913 21916 21919 21921 21924 21927 21930 21933 21936 21939 21942 21945 21948 21951 21954 21957 21960 21963 21966 21969 21972 21975 21978 21981 21983 21986 21989 21992 21994 21997 22000 22003 22006 22008 22011 22014 22016 22019 22022 22024 22026 22029 22032 22035 22038 22041 22044 22047 22050 22053 22056 22059 22062 22065 22068 22071 22074 22077 22079 22082 22085 22088 22091 22094 22097 22100 22103 22106 22108 22111 22113 22116 22119 22121 22123 22126 22129 22132 22135 22138 22141 22144 22146 22149 22152 22155 22157 22160 22163 22166 22168 22171 22173 22175 22178 22181 22184 22187 22190 22193 22196 22199 22202 22205 22208 22211 22214 22217 22220 22222 22225 22228 22231 22234 22237 22240 22242 22245 22248 22250 22253 22256 22259 22261 22264 22267 22270 22273 22276 22279 22282 22285 22288 22291 22294 22297 22300 22303 22306 22309 22312 22315 22318 22321 22324 22327 22330 22333 22336 22339 22342 22345 22348 22351 22354 22356 22359 22362 22365 22368 22371 22374 22376 22379 22382 22385 22388 22391 22394 22397 22400 22403 22406 22409 22412 22414 22417 22419 22422 22425 22428 22431 22434 22437 22440 22443 22446 22449 22452 22455 22458 22461 22464 22466 22469 22472 22475 22478 22481 22484 22487 22490 22493 22496 22499 22502 22505 22508 22511 22514 22517 22520 22523 22526 22529 22532 22535 22537 22540 22543 22546 22549 22552 22555 22558 22561 22564 22567 22570 22573 22576 22579 22582 22585 22588 22591 22594 22597 22600 22603 22606 22609 22612 22615 22618 22621 22624 22627 22630 22633 22635 22638 22641 22644 22647 22650 22653 22656 22658 22661 22664 22667 22670 22672 22675 22678 22681 22684 22687 22689 22692 22695 22698 22701 22704 22707 22710 22713 22716 22718 22721 22723 22726 22729 22732 22735 22738 22741 22744 22747 22750 22753 22756 22759 22762 22764 22767 22770 22772 22775 22777 22780 22782 22785 22788 22791 22794 22797 22800 22803 22806 22809 22812 22815 22818 22821 22824 22827 22830 22833 22836 22839 22842 22845 22848 22851 22854 22857 22860 22863 22866 22869 22872 22875 22877 22880 22883 22886 22889 22892 22895 22898 22901 22904 22907 22910 22913 22916 22919 22922 22925 22928 22931 22934 22937 22940 22942 22945 22948 22951 22954 22957 22960 22962 22965 22968 22970 22973 22976 22979 22982 22984 22987 22990 22993 22996 22999 23001 23004 23007 23010 23013 23016 23019 23022 23025 23028 23031 23034 23037 23040 23043 23046 23049 23052 23055 23058 23060 23063 23066 23068 23071 23074 23077 23080 23083 23086 23089 23092 23094 23097 23100 23103 23105 23108 23111 23114 23117 23120 23123 23125 23127 23129 23132 23135 23138 23141 23144 23147 23150 23153 23156 23159 23162 23165 23167 23170 23173 23176 23179 23182 23185 23188 23191 23194 23197 23200 23203 23206 23209 23212 23215 23218 23221 23224 23227 23230 23233 23236 23239 23242 23245 23248 23251 23254 23257 23259 23262 23265 23268 23271 23274 23277 23280 23283 23286 23289 23292 23294 23297 23300 23303 23305 23307 23310 23313 23316 23319 23322 23324 23326 23328 23331 23334 23336 23339 23342 23344 23347 23350 23353 23356 23359 23362 23365 23368 23371 23374 23377 23380 23382 23385 23388 23391 23394 23397 23400 23403 23406 23409 23412 23415 23418 23421 23424 23427 23430 23432 23435 23438 23441 23444 23447 23450 23452 23455 23458 23461 23464 23467 23470 23472 23474 23477 23479 23481 23484 23487 23490 23493 23496 23499 23502 23505 23508 23511 23513 23516 23518 23520 23522 23525 23528 23531 23534 23537 23540 23543 23546 23549 23551 23554 23557 23560 23563 23566 23569 23572 23575 23577 23580 23583 23586 23589 23592 23594 23597 23600 23603 23606 23609 23612 23615 23618 23621 23624 23627 23630 23633 23636 23639 23642 23645 23648 23651 23654 23657 23660 23663 23666 23669 23671 23674 23677 23680 23683 23686 23689 23692 23695 23698 23701 23704 23707 23710 23713 23715 23718 23721 23724 23726 23729 23731 23733 23736 23739 23741 23744 23747 23750 23753 23756 23759 23762 23765 23768 23771 23774 23777 23780 23783 23786 23789 23792 23794 23797 23800 23803 23806 23809 23811 23814 23817 23820 23822 23825 23827 23830 23833 23836 23839 23842 23845 23847 23849 23852 23855 23858 23860 23862 23865 23868 23871 23873 23875 23878 23881 23884 23887 23890 23892 23894 23897 23899 23902 23905 23908 23911 23914 23917 23920 23923 23926 23928 23931 23934 23937 23940 23943 23946 23949 23952 23955 23958 23961 23964 23966 23968 23971 23974 23977 23980 23983 23986 23988 23991 23994 23997 24000 24002 24005 24008 24011 24014 24017 24019 24022 24025 24028 24031 24034 24037 24040 24043 24046 24049 24051 24054 24057 24059 24062 24065 24067 24070 24073 24076 24079 24082 24085 24088 24090 24093 24096 24099 24101 24104 24107 24110 24113 24116 24119 24122 24125 24128 24131 24134 24137 24140 24143 24145 24147 24150 24153 24156 24159 24161 24164 24167 24170 24173 24176 24179 24182 24185 24188 24191 24193 24196 24199 24201 24204 24207 24209 24211 24214 24217 24220 24223 24226 24228 24230 24233 24235 24238 24241 24244 24247 24250 24253 24255 24258 24261 24264 24266 24268 24271 24274 24276 24279 24282 24285 24287 24290 24293 24296 24298 24301 24303 24306 24309 24311 24313 24316 24319 24321 24323 24326 24329 24332 24335 24338 24341 24344 24347 24349 24352 24354 24357 24359 24362 24364 24367 24370 24373 24376 24379 24382 24385 24388 24391 24394 24397 24400 24403 24406 24408 24411 24414 24417 24420 24422 24425 24428 24431 24433 24436 24439 24442 24444 24447 24450 24453 24456 24459 24461 24464 24467 24470 24473 24475 24478 24481 24484 24487 24490 24492 24495 24498 24501 24504 24506 24509 24512 24515 24518 24521 24523 24526 24529 24532 24535 24538 24541 24544 24547 24550 24553 24556 24558 24561 24564 24567 24569 24572 24575 24578 24581 24584 24587 24590 24593 24596 24598 24601 24604 24607 24610 24612 24615 24618 24620 24623 24626 24629 24632 24635 24638 24641 24644 24647 24650 24653 24656 24659 24662 24665 24668 24671 24674 24677 24680 24682 24685 24688 24691 24694 24697 24699 24702 24705 24708 24711 24714 24717 24720 24723 24726 24729 24732 24735 24738 24741 24743 24746 24749 24752 24755 24758 24761 24763 24766 24769 24772 24775 24778 24781 24784 24786 24788 24791 24794 24797 24800 24802 24805 24807 24810 24813 24816 24819 24822 24825 24828 24830 24833 24836 24839 24842 24844 24847 24850 24853 24856 24859 24862 24865 24868 24871 24874 24877 24880 24882 24885 24888 24891 24894 24897 24900 24903 24906 24909 24912 24915 24918 24921 24924 24927 24930 24933 24936 24939 24942 24945 24948 24951 24954 24957 24960 24963 24966 24969 24972 24975 24978 24981 24984 24987 24990 24993 24996 24999 25002 25005 25008 25011 25014 25017 25020 25023 25026 25029 25032 25035 25038 25041 25044 25047 25050 25053 25056 25059 25062 25065 25068 25071 25074 25077 25080 25083 25086 25089 25092 25095 25098 25100 25103 25105 25108 25111 25114 25117 25119 25122 25125 25127 25130 25133 25135 25138 25141 25144 25147 25149 25152 25155 25158 25161 25164 25167 25170 25173 25176 25179 25182 25185 25188 25191 25194 25197 25200 25203 25206 25209 25212 25215 25217 25220 25223 25226 25228 25231 25234 25237 25240 25242 25245 25248 25251 25254 25257 25260 25262 25265 25268 25271 25274 25277 25280 25283 25286 25289 25292 25295 25298 25301 25304 25307 25310 25313 25316 25319 25322 25325 25328 25331 25334 25337 25340 25343 25346 25349 25352 25355 25358 25361 25364 25367 25369 25372 25375 25377 25380 25383 25386 25388 25391 25394 25397 25400 25403 25406 25408 25411 25414 25417 25420 25423 25426 25429 25431 25434 25437 25440 25443 25446 25449 25452 25455 25458 25461 25463 25466 25469 25472 25475 25477 25479 25482 25485 25488 25491 25494 25497 25499 25502 25504 25507 25509 25512 25515 25518 25521 25524 25527 25530 25533 25535 25537 25540 25543 25546 25549 25552 25555 25558 25561 25564 25567 25570 25573 25576 25579 25582 25585 25588 25591 25594 25597 25600 25603 25606 25609 25612 25615 25618 25621 25624 25627 25630 25633 25636 25639 25642 25645 25648 25651 25654 25657 25660 25663 25666 25669 25672 25675 25678 25681 25684 25687 25690 25693 25696 25699 25702 25705 25708 25710 25713 25716 25719 25722 25725 25728 25731 25734 25736 25739 25742 25744 25747 25749 25752 25754 25757 25760 25763 25766 25769 25772 25775 25777 25780 25783 25786 25789 25792 25794 25797 25800 25803 25806 25808 25811 25814 25817 25820 25823 25826 25829 25832 25835 25838 25840 25843 25846 25849 25852 25855 25858 25861 25864 25867 25870 25873 25876 25878 25881 25884 25886 25889 25891 25894 25897 25900 25903 25905 25908 25911 25914 25917 25919 25922 25925 25927 25930 25933 25936 25938 25940 25943 25946 25949 25952 25955 25958 25961 25964 25966 25969 25972 25975 25978 25981 25984 25986 25989 25991 25993 25996 25999 26001 26003 26006 26008 26011 26014 26016 26019 26022 26025 26028 26030 26033 26036 26039 26042 26045 26047 26050 26053 26056 26059 26062 26065 26068 26071 26074 26077 26080 26083 26086 26089 26092 26094 26096 26099 26101 26104 26107 26109 26112 26115 26118 26121 26123 26126 26129 26132 26135 26138 26141 26144 26146 26149 26152 26155 26158 26161 26164 26166 26169 26172 26175 26178 26180 26183 26185 26188 26191 26194 26197 26200 26203 26206 26208 26210 26213 26216 26219 26222 26225 26228 26231 26234 26237 26240 26243 26245 26248 26251 26254 26257 26260 26263 26265 26268 26270 26273 26276 26279 26282 26284 26286 26289 26292 26295 26298 26300 26303 26305 26308 26311 26314 26317 26320 26323 26325 26327 26330 26332 26334 26337 26340 26343 26346 26349 26352 26355 26357 26360 26363 26366 26369 26372 26375 26378 26381 26384 26387 26389 26392 26395 26398 26401 26404 26407 26410 26413 26416 26418 26421 26424 26427 26430 26433 26436 26439 26442 26445 26448 26451 26454 26457 26460 26463 26465 26468 26471 26474 26477 26480 26483 26486 26489 26491 26494 26497 26499 26501 26504 26507 26510 26513 26516 26519 26522 26524 26527 26530 26533 26536 26538 26541 26544 26547 26550 26553 26556 26558 26560 26563 26566 26569 26572 26575 26578 26581 26584 26586 26589 26592 26595 26598 26600 26603 26606 26609 26611 26614 26617 26620 26622 26625 26627 26629 26632 26635 26638 26640 26643 26646 26649 26651 26654 26656 26658 26660 26663 26666 26669 26671 26673 26675 26678 26681 26683 26685 26688 26690 26693 26696 26699 26702 26704 26707 26710 26712 26715 26718 26721 26723 26726 26729 26731 26733 26736 26739 26742 26745 26748 26751 26754 26757 26760 26763 26766 26769 26772 26775 26777 26780 26782 26785 26788 26791 26794 26797 26800 26802 26805 26807 26809 26812 26815 26817 26820 26823 26825 26828 26830 26833 26835 26838 26841 26844 26846 26849 26851 26854 26856 26859 26861 26864 26867 26870 26872 26875 26878 26881 26884 26887 26890 26892 26895 26897 26900 26903 26905 26908 26911 26914 26917 26920 26923 26926 26928 26931 26933 26936 26939 26942 26945 26948 26951 26954 26957 26960 26963 26966 26968 26971 26974 26977 26980 26983 26986 26989 26992 26995 26998 27001 27004 27007 27010 27012 27015 27018 27021 27024 27027 27030 27033 27036 27039 27042 27045 27048 27051 27054 27057 27060 27063 27066 27069 27072 27075 27078 27081 27084 27087 27090 27093 27096 27099 27102 27105 27108 27111 27114 27117 27120 27123 27126 27129 27132 27135 27138 27141 27144 27147 27150 27153 27156 27159 27162 27165 27168 27171 27174 27177 27180 27183 27186 27188 27191 27194 27196 27198 27201 27204 27207 27210 27213 27216 27219 27222 27225 27228 27231 27234 27236 27239 27242 27245 27248 27251 27253 27255 27258 27261 27264 27266 27268 27271 27274 27277 27280 27283 27286 27288 27291 27294 27297 27300 27303 27306 27309 27312 27314 27317 27320 27323 27326 27329 27332 27335 27338 27341 27344 27347 27350 27352 27355 27358 27360 27363 27366 27369 27371 27374 27377 27380 27383 27386 27389 27392 27395 27398 27401 27403 27406 27409 27412 27414 27417 27419 27422 27425 27428 27431 27434 27437 27440 27443 27446 27449 27452 27455 27458 27461 27464 27467 27470 27472 27475 27478 27481 27484 27487 27490 27493 27496 27499 27502 27505 27508 27511 27514 27517 27520 27522 27525 27528 27531 27534 27537 27539 27542 27545 27548 27551 27554 27557 27559 27562 27565 27567 27570 27573 27576 27579 27582 27585 27588 27591 27594 27597 27600 27603 27606 27609 27612 27615 27618 27621 27624 27627 27630 27633 27636 27639 27642 27645 27648 27651 27654 27657 27660 27663 27666 27669 27672 27675 27678 27680 27683 27686 27688 27691 27694 27697 27700 27702 27705 27708 27711 27714 27717 27720 27723 27726 27729 27732 27735 27737 27740 27743 27746 27749 27752 27755 27758 27761 27764 27767 27770 27773 27776 27779 27782 27785 27788 27791 27794 27797 27800 27803 27806 27809 27811 27814 27817 27820 27823 27826 27828 27831 27834 27837 27840 27843 27846 27849 27852 27855 27858 27861 27864 27866 27869 27872 27875 27878 27881 27884 27886 27889 27892 27895 27898 27901 27904 27907 27910 27912 27915 27917 27920 27923 27926 27929 27932 27935 27938 27941 27944 27947 27950 27953 27956 27959 27962 27965 27968 27971 27974 27976 27979 27982 27985 27988 27991 27994 27996 27998 28001 28004 28007 28010 28013 28016 28019 28022 28025 28028 28031 28034 28037 28040 28043 28046 28049 28052 28055 28058 28060 28063 28065 28068 28071 28074 28077 28079 28082 28085 28088 28091 28094 28097 28100 28103 28106 28109 28112 28114 28117 28120 28123 28125 28128 28131 28134 28137 28140 28143 28146 28149 28152 28155 28158 28161 28163 28166 28169 28172 28175 28178 28181 28184 28186 28189 28192 28195 28198 28200 28203 28206 28209 28212 28215 28217 28220 28223 28226 28228 28231 28234 28237 28240 28243 28246 28249 28252 28255 28258 28261 28264 28267 28270 28273 28276 28279 28282 28285 28288 28291 28294 28297 28299 28302 28305 28308 28310 28313 28316 28319 28322 28324 28327 28330 28333 28335 28338 28341 28344 28347 28350 28353 28356 28359 28362 28364 28367 28370 28373 28376 28379 28381 28384 28386 28389 28392 28395 28398 28401 28404 28407 28410 28413 28416 28419 28422 28425 28428 28431 28433 28436 28439 28442 28444 28447 28450 28453 28455 28458 28461 28464 28467 28470 28473 28476 28479 28482 28485 28488 28490 28493 28496 28499 28502 28505 28508 28511 28514 28517 28520 28523 28526 28529 28532 28535 28538 28541 28544 28547 28550 28553 28556 28559 28562 28565 28568 28571 28574 28577 28580 28583 28585 28588 28591 28594 28597 28600 28603 28606 28609 28612 28615 28618 28621 28624 28627 28630 28633 28636 28639 28642 28645 28648 28651 28654 28657 28660 28663 28666 28669 28672 28675 28678 28681 28684 28687 28690 28693 28696 28699 28702 28705 28708 28711 28714 28717 28720 28723 28726 28729 28732 28735 28738 28741 28744 28746 28749 28751 28754 28757 28759 28762 28765 28768 28770 28773 28776 28779 28781 28784 28786 28789 28792 28795 28798 28801 28804 28807 28809 28812 28815 28817 28820 28823 28826 28828 28831 28833 28836 28839 28842 28844 28847 28850 28853 28855 28858 28861 28864 28866 28869 28871 28874 28877 28879 28882 28884 28887 28890 28893 28896 28898 28901 28903 28906 28909 28912 28915 28917 28920 28923 28926 28929 28932 28935 28938 28941 28944 28947 28950 28952 28955 28958 28961 28964 28967 28970 28973 28976 28979 28982 28985 28988 28991 28994 28997 29000 29003 29006 29009 29012 29015 29018 29021 29023 29026 29029 29031 29034 29036 29039 29041 29044 29047 29050 29053 29055 29058 29060 29063 29066 29069 29072 29075 29077 29080 29083 29086 29089 29092 29095 29098 29101 29104 29107 29110 29112 29115 29118 29121 29123 29126 29128 29130 29133 29136 29138 29140 29143 29146 29148 29151 29154 29157 29159 29162 29165 29167 29169 29172 29175 29178 29181 29184 29187 29190 29193 29196 29199 29202 29205 29208 29211 29214 29217 29220 29223 29226 29229 29232 29235 29238 29241 29243 29246 29249 29252 29255 29258 29261 29264 29266 29269 29272 29275 29278 29281 29284 29287 29290 29293 29296 29299 29302 29305 29308 29311 29314 29316 29319 29322 29325 29327 29330 29333 29336 29339 29342 29345 29348 29350 29353 29356 29359 29362 29365 29368 29371 29374 29377 29380 29382 29385 29388 29391 29394 29397 29400 29403 29406 29409 29412 29414 29417 29420 29423 29426 29429 29432 29435 29438 29441 29444 29447 29450 29453 29456 29459 29462 29465 29467 29470 29473 29476 29479 29482 29484 29487 29490 29492 29495 29497 29500 29503 29506 29509 29512 29515 29518 29521 29524 29527 29530 29533 29536 29539 29542 29545 29548 29551 29554 29557 29560 29563 29566 29569 29572 29575 29578 29581 29584 29587 29590 29593 29596 29599 29602 29605 29608 29611 29614 29617 29620 29623 29626 29629 29632 29635 29638 29641 29644 29647 29650 29653 29656 29659 29662 29665 29668 29670 29673 29676 29679 29682 29685 29688 29691 29694 29697 29700 29703 29706 29709 29712 29715 29717 29720 29723 29726 29729 29732 29735 29738 29741 29744 29747 29750 29753 29756 29759 29762 29765 29768 29771 29774 29777 29780 29783 29786 29789 29792 29794 29797 29799 29802 29805 29808 29811 29814 29817 29820 29823 29825 29828 29831 29834 29837 29840 29843 29846 29849 29852 29855 29858 29861 29864 29867 29870 29873 29876 29878 29881 29884 29887 29889 29892 29895 29898 29901 29904 29907 29910 29913 29915 29917 29920 29923 29925 29928 29931 29934 29937 29940 29943 29946 29949 29952 29955 29958 29961 29964 29967 29970 29973 29976 29979 29982 29985 29988 29991 29994 29997 30000 30003 30006 30009 30012 30015 30018 30021 30024 30027 30030 30033 30036 30039 30042 30045 30048 30051 30054 30057 30060 30063 30066 30069 30071 30074 30077 30079 30082 30085 30088 30091 30094 30096 30099 30102 30105 30107 30110 30113 30116 30118 30121 30124 30127 30129 30132 30135 30138 30141 30144 30147 30150 30153 30156 30158 30161 30164 30167 30170 30173 30175 30178 30181 30184 30187 30190 30193 30196 30199 30202 30205 30208 30211 30214 30217 30220 30223 30226 30229 30232 30235 30238 30241 30244 30246 30249 30252 30255 30258 30260 30263 30266 30269 30272 30275 30278 30281 30284 30287 30290 30293 30296 30299 30302 30304 30307 30310 30313 30316 30319 30322 30324 30327 30329 30332 30335 30338 30340 30343 30346 30349 30352 30355 30358 30361 30364 30367 30369 30372 30375 30378 30381 30384 30387 30390 30392 30395 30398 30401 30404 30407 30410 30413 30416 30419 30422 30425 30428 30431 30434 30436 30439 30441 30443 30445 30448 30451 30454 30457 30460 30463 30465 30468 30471 30474 30477 30479 30482 30485 30488 30491 30494 30497 30500 30503 30505 30508 30511 30513 30515 30518 30521 30523 30526 30529 30532 30535 30537 30540 30543 30546 30549 30552 30555 30558 30561 30563 30566 30569 30571 30573 30576 30578 30581 30584 30587 30590 30593 30596 30599 30602 30605 30608 30611 30614 30617 30620 30623 30626 30629 30632 30635 30638 30641 30644 30647 30650 30652 30654 30657 30660 30662 30665 30668 30671 30674 30677 30680 30682 30685 30688 30691 30694 30697 30700 30703 30706 30709 30712 30715 30718 30721 30723 30726 30729 30732 30735 30738 30741 30743 30746 30749 30752 30754 30757 30760 30763 30766 30769 30772 30775 30778 30780 30783 30786 30789 30792 30795 30798 30801 30804 30807 30809 30812 30815 30817 30820 30823 30825 30828 30830 30833 30836 30838 30841 30844 30846 30849 30852 30854 30857 30860 30863 30865 30867 30870 30873 30876 30878 30881 30883 30886 30889 30891 30894 30897 30900 30903 30905 30907 30910 30912 30915 30918 30921 30924 30927 30930 30933 30936 30939 30942 30945 30948 30951 30954 30957 30960 30963 30966 30969 30971 30974 30977 30980 30983 30985 30988 30991 30994 30997 31000 31003 31006 31009 31012 31015 31018 31021 31024 31027 31030 31033 31036 31039 31042 31045 31048 31051 31054 31057 31060 31063 31066 31069 31072 31075 
</DataArray>
<DataArray type="UInt32" Name="types" format="ascii">
5 5 5 3 3 5 5 5 5 5 5 5 5 5 5 5 5 5 5 5 5 5 5 5 5 5 5 5 5 5 5 5 5 5 5 5 5 5 3 5 5 5 5 5 5 5 3 5 5 5 5 5 5 3 5 5 5 5 5 5 5 3 5 5 3 5 5 5 5 5 5 5 3 5 3 5 5 3 5 5 5 5 5 5 5 5 3 5 5 5 5 5 5 5 3 5 5 5 5 5 5 5 3 5 5 3 5 5 5 3 5 5 5 5 5 5 3 5 5 5 5 5 5 5 5 5 5 5 5 5 5 5 5 3 5 5 5 5 5 5 5 5 5 5 5 5 5 5 5 5 5 5 3 5 5 3 5 5 5 5 5 3 5 5 5 5 3 5 5 5 5 5 5 5 5 5 5 5 5 5 3 5 3 5 5 5 5 5 5 3 5 5 5 5 5 3 5 5 5 5 5 5 5 5 5 5 5 5 5 5 5 5 5 5 5 5 5 5 5 5 5 5 3 5 5 5 5 5 5 5 5 5 5 3 5 5 5 5 5 5 3 5 5 5 3 5 5 5 5 5 5 5 5 3 3 5 5 5 5 5 5 3 5 5 5 5 5 5 5 5 5 5 5 5 5 5 5 5 5 5 5 5 5 5 5 5 5 5 5 3 5 3 5 5 5 5 3 5 5 5 5 5 5 5 3 5 5 5 5 3 5 5 5 5 3 5 5 5 3 5 5 5 5 5 5 5 5 5 5 5 5 5 5 5 5 3 5 5 5 5 5 5 5 5 5 3 5 5 5 5 5 5 3 5 5 5 5 5 5 5 5 5 5 3 5 5 5 5 5 5 5 5 5 5 5 5 5 5 5 5 5 5 5 5 5 5 3 5 3 5 5 5 5 5 3 5 5 5 5 5 5 3 5 5 5 5 5 5 5 5 3 5 5 5 5 5 3 5 3 3 5 5 5 5 5 5 5 3 5 5 5 5 5 5 5 5 5 5 5 5 5 5 5 5 5 5 5 5 3 5 5 5 5 5 5 5 5 5 5 5 5 5 5 5 5 5 5 5 5 5 5 5 5 5 3 5 5 5 5 5 3 5 5 5 5 5 5 5 3 5 5 5 5 5 5 5 5 5 5 5 5 3 5 5 5 5 5 5 5 5 5 5 5 5 5 5 5 5 5 5 5 5 5 5 5 5 5 5 5 5 5 3 5 5 5 3 5 5 5 3 3 5 5 5 5 5 5 3 5 5 5 5 3 5 5 5 5 5 5 3 5 5 5 5 5 5 5 3 5 5 5 5 5 5 5 5 5 5 5 5 3 5 3 5 5 5 3 3 5 3 5 5 5 5 3 5 5 5 5 5 5 5 5 3 3 5 5 5 5 3 5 5 5 5 5 5 5 5 5 5 5 3 5 5 5 3 5 5 5 5 5 5 5 5 5 5 5 5 5 5 5 5 5 5 5 5 5 5 3 5 5 5 5 5 3 5 3 5 5 5 3 5 3 5 3 5 5 3 3 5 5 5 5 5 5 5 5 3 5 5 5 5 5 3 3 5 5 5 5 5 5 5 5 5 5 5 5 5 5 5 5 5 3 5 3 5 5 3 5 3 5 5 5 3 3 3 5 5 5 5 5 5 3 5 3 5 5 5 5 5 5 5 5 5 5 3 5 5 5 5 5 5 3 5 5 5 3 5 5 5 5 5 5 5 5 5 5 5 5 3 5 5 5 5 5 5 5 5 5 5 5 5 5 5 5 5 5 5 3 5 5 5 3 5 5 5 5 5 5 5 5 5 5 5 5 5 5 5 5 5 5 5 5 3 5 5 5 5 5 5 3 5 3 5 5 5 5 5 5 5 3 3 5 5 5 5 5 5 5 5 5 5 5 5 5 5 5 5 5 5 5 5 5 5 5 5 5 5 5 5 5 5 5 5 3 5 5 3 5 5 5 5 5 5 5 5 5 5 5 5 5 5 5 3 5 5 5 3 5 5 5 5 5 5 5 5 5 5 3 5 5 5 5 5 5 5 5 5 5 5 5 5 5 5 5 5 5 5 5 5 5 3 5 5 5 5 5 5 5 5 5 5 5 5 5 5 5 5 5 5 5 5 5 5 5 5 5 5 5 5 5 5 5 5 5 5 5 5 5 5 5 5 5 5 5 5 5 5 5 5 5 5 5 5 5 5 5 5 5 5 5 5 3 5 5 5 5 3 5 5 5 5 5 5 5 5 5 5 5 5 5 5 5 5 5 3 5 5 3 5 5 5 5 5 5 5 5 5 5 5 5 5 5 3 5 5 5 5 5 5 3 5 5 5 5 3 5 3 5 5 5 5 5 5 5 5 5 5 5 5 3 5 3 3 5 5 5 5 3 5 5 5 5 5 3 5 3 5 5 5 5 3 3 5 5 5 5 3 5 5 5 5 5 5 5 5 5 5 5 3 5 3 5 5 5 5 5 5 5 3 3 5 5 5 5 5 5 5 5 5 5 3 5 5 5 5 5 5 5 5 5 3 5 3 5 5 5 5 5 5 5 5 3 5 5 3 5 5 5 5 5 5 5 5 5 3 5 5 5 5 5 5 5 5 5 5 5 5 5 5 5 5 5 5 5 5 5 5 5 5 5 5 5 5 5 5 5 5 5 5 5 5 5 5 3 3 5 5 5 5 5 5 5 5 5 3 5 5 5 5 5 5 5 3 5 3 5 5 5 5 5 5 5 3 5 5 5 5 5 5 3 5 5 5 3 5 5 5 5 3 5 5 5 3 5 5 3 5 3 5 5 5 5 5 5 5 3 5 5 5 5 5 5 5 5 5 5 5 3 5 5 5 5 5 5 3 5 5 5 5 3 5 5 3 5 3 5 5 5 5 3 5 3 5 3 5 5 5 3 5 5 5 5 5 3 5 5 3 5 5 5 5 5 5 3 5 5 3 5 5 3 3 3 5 5 5 3 5 5 5 5 5 3 5 5 5 5 5 3 5 5 5 5 5 5 5 5 5 5 5 5 5 5 5 5 5 5 5 5 5 5 5 5 5 5 5 5 5 5 5 5 5 5 5 5 5 5 5 3 5 5 5 5 5 5 5 3 5 5 3 3 5 5 5 5 5 5 5 5 5 5 5 5 5 5 5 5 5 5 3 5 5 5 5 5 5 3 5 5 5 5 5 5 5 3 5 5 5 5 5 5 5 5 3 5 5 3 5 3 5 3 3 5 5 5 5 3 3 5 3 5 3 5 5 5 5 3 5 3 5 5 5 5 3 5 5 5 5 5 5 5 5 5 3 5 5 3 3 5 5 3 5 5 5 3 5 3 5 5 5 3 5 3 5 5 5 5 5 5 5 5 5 5 5 5 5 5 5 5 5 5 5 5 5 5 5 5 5 5 5 5 5 5 5 5 5 5 5 5 5 5 5 5 5 5 5 5 5 5 5 5 5 5 5 5 5 5 5 5 5 5 5 5 5 5 5 5 5 5 3 5 5 5 5 5 5 5 5 5 5 5 5 5 5 5 5 5 5 5 5 5 5 5 5 5 5 5 5 5 5 5 5 5 5 5 5 5 5 5 5 5 5 5 5 5 5 5 5 5 5 5 5 5 5 5 5 5 5 5 5 5 5 5 5 5 5 5 5 5 5 5 5 5 5 5 5 5 5 5 5 5 5 5 5 5 5 3 5 5 5 5 3 5 5 5 5 5 5 3 5 5 5 5 5 5 3 5 5 5 5 3 5 5 5 3 5 5 5 5 5 3 5 3 5 3 5 5 5 5 5 5 5 5 5 5 5 5 5 5 5 3 5 5 5 5 3 5 5 5 5 5 5 5 5 5 5 5 5 5 5 5 5 5 5 5 5 5 5 5 3 5 5 5 5 5 5 5 5 5 5 3 5 3 5 5 3 5 3 3 5 3 5 5 5 5 5 3 3 5 3 5 5 5 5 3 5 5 5 5 5 5 3 5 5 5 5 5 5 5 5 5 5 5 5 5 5 3 5 5 3 5 5 5 3 5 3 5 5 5 5 5 3 5 5 5 5 3 5 5 5 5 5 3 5 5 5 5 5 5 5 5 3 5 5 5 5 3 5 5 5 5 3 5 5 5 5 5 5 5 5 3 5 5 3 5 5 5 5 5 3 5 5 3 5 5 5 5 5 5 5 5 5 5 5 5 5 5 5 3 5 5 5 3 3 5 5 5 5 5 5 5 3 5 5 5 5 3 5 3 5 5 3 5 5 3 3 5 3 5 5 3 5 5 3 5 5 5 5 5 5 5 5 3 3 3 5 5 5 3 5 5 3 5 5 5 5 5 3 5 5 3 5 3 3 5 5 3 5 5 5 5 5 3 5 5 5 3 5 5 3 5 3 3 3 3 5 5 5 5 5 3 5 3 5 3 3 5 5 5 3 5 5 5 5 5 5 5 3 5 5 5 5 5 3 5 3 3 5 5 5 3 3 5 5 5 5 5 5 5 5 5 5 5 5 5 5 5 5 5 5 5 3 5 3 3 3 5 5 5 5 5 3 5 5 5 5 5 5 5 5 5 5 3 5 5 5 5 5 5 5 3 5 3 5 5 5 5 5 5 5 5 3 5 3 5 5 5 5 5 5 5 5 3 5 5 5 5 5 5 5 5 5 5 5 5 5 5 3 5 5 5 5 5 5 5 3 5 5 3 5 5 5 5 5 5 5 5 5 5 5 5 5 5 5 5 5 5 5 5 5 5 5 5 5 3 5 5 5 5 5 5 5 5 5 5 3 5 3 5 5 5 5 5 5 5 5 5 5 5 5 5 5 5 5 5 5 3 5 5 5 5 5 3 5 5 5 5 5 5 5 5 5 5 5 5 5 3 5 3 5 5 3 3 5 3 5 5 3 5 3 5 5 3 5 5 5 5 5 5 3 3 5 3 5 5 3 5 5 5 3 5 5 3 5 5 5 5 5 5 5 5 3 5 5 5 3 5 5 5 5 5 5 5 5 5 5 5 5 3 5 3 5 5 5 5 5 3 5 5 5 5 5 5 5 5 5 5 5 5 5 5 5 5 5 5 5 5 3 5 5 5 5 5 5 5 5 3 5 5 5 5 5 5 5 5 5 3 5 5 5 5 5 5 5 5 5 3 5 3 5 5 3 5 5 3 5 3 3 5 3 5 5 5 5 5 5 3 3 5 5 5 5 5 5 5 5 5 5 5 5 5 5 3 5 5 5 5 5 5 5 5 5 5 5 3 5 5 3 5 5 5 5 5 3 5 5 3 5 5 5 5 5 5 5 5 5 5 5 3 5 5 5 5 5 3 5 5 3 5 5 5 5 3 5 5 5 5 5 5 5 5 5 5 5 5 3 5 5 5 5 5 5 5 5 5 5 3 5 5 5 5 5 5 5 5 5 5 3 5 5 3 5 5 5 5 5 5 5 5 5 5 5 5 5 5 5 5 5 3 5 3 5 5 5 3 5 3 5 5 5 5 5 5 5 5 5 5 5 3 5 5 3 5 5 3 5 5 5 5 5 5 5 3 5 3 5 5 5 5 5 5 5 5 5 5 5 5 5 5 5 5 5 5 5 3 3 5 5 5 5 5 5 3 3 5 5 5 5 5 5 5 5 5 5 3 5 5 3 3 5 5 3 5 5 3 5 5 3 5 3 5 3 5 5 5 5 5 3 5 5 5 5 5 5 5 5 3 5 5 5 5 5 5 5 5 5 5 5 5 5 5 3 5 5 5 5 3 5 5 5 5 5 5 5 5 5 5 3 5 5 5 5 5 3 5 3 5 3 3 5 5 5 3 5 5 5 3 5 5 5 5 3 5 5 5 5 5 5 3 5 5 3 5 5 5 5 5 5 5 5 5 5 5 5 3 5 5 5 3 5 5 5 5 5 5 5 5 5 3 5 5 3 5 3 5 3 5 5 5 5 5 5 5 3 5 3 5 5 5 5 5 5 3 5 5 5 3 5 5 5 5 5 5 5 5 5 5 5 5 5 5 5 5 5 5 5 5 5 5 3 5 5 5 5 5 5 3 5 5 5 5 5 3 5 3 5 5 5 5 5 5 5 5 5 3 5 5 5 5 5 3 5 5 5 5 5 5 5 5 5 5 5 5 5 5 5 5 3 5 5 5 5 3 5 5 5 5 5 5 5 5 5 3 5 5 5 5 5 5 5 5 5 5 3 5 5 5 5 5 5 5 5 5 5 5 5 5 5 5 5 5 5 5 3 5 5 3 5 5 3 5 3 5 5 5 5 5 3 5 5 5 5 5 5 5 5 5 5 5 5 5 5 5 5 3 5 5 5 5 5 5 3 5 5 5 5 5 5 3 5 5 5 5 3 5 5 5 5 5 5 3 5 5 5 5 3 5 5 5 5 5 5 5 5 5 5 5 5 5 5 5 5 5 5 3 5 5 5 5 5 5 5 5 5 5 5 5 3 3 3 5 5 5 5 5 3 5 5 5 5 5 5 3 5 5 5 3 3 5 5 5 5 5 3 5 5 5 5 3 5 5 5 5 5 5 5 3 5 5 3 5 3 5 5 5 5 5 5 5 3 5 5 5 5 5 3 5 5 5 5 5 3 3 5 5 5 5 5 5 5 5 3 5 5 5 5 5 5 5 5 5 5 5 5 5 5 5 5 5 5 5 5 5 3 5 5 5 5 5 5 5 5 5 3 5 5 5 5 5 5 5 5 5 5 5 5 5 5 5 3 5 5 5 5 5 5 5 5 5 5 5 5 5 5 5 5 5 5 5 5 5 5 5 5 5 5 5 5 5 5 5 5 5 5 3 3 5 5 5 5 5 5 5 5 5 5 3 3 5 5 5 5 3 5 5 5 5 3 5 5 5 5 5 5 3 5 5 5 5 5 5 5 3 3 5 5 5 5 3 3 5 5 5 5 5 5 5 5 3 5 5 5 5 5 5 5 5 3 5 5 5 3 5 5 5 5 3 5 5 5 5 5 3 5 5 5 5 5 5 5 5 5 5 5 5 3 5 3 5 5 5 3 5 5 3 5 5 5 3 5 3 5 5 5 5 5 5 5 5 5 5 5 5 5 5 5 5 5 5 5 5 5 3 5 5 5 5 5 3 5 5 5 5 5 5 5 5 5 3 5 5 5 5 5 5 5 5 5 5 3 5 5 5 5 3 5 5 5 5 5 5 5 5 5 5 5 5 5 5 5 5 5 5 5 3 5 5 3 5 5 3 5 3 5 5 3 5 5 3 5 5 5 5 5 5 3 5 5 5 5 5 5 5 5 5 5 3 5 5 5 5 3 5 5 5 5 5 5 5 3 5 5 5 5 5 5 3 5 5 5 5 5 5 5 5 3 5 5 5 3 5 5 5 5 5 5 3 5 5 5 5 5 5 5 5 5 5 5 3 5 5 5 5 5 5 3 5 5 5 3 5 5 5 5 3 5 3 5 3 5 5 5 5 5 5 5 5 5 5 5 5 5 5 3 5 5 5 3 5 5 5 5 5 5 5 5 5 5 5 5 5 5 5 5 5 5 5 5 5 3 5 5 5 5 5 5 5 5 5 5 5 5 3 5 5 5 3 5 5 5 5 5 3 5 3 5 5 5 3 5 5 5 5 5 5 3 5 3 5 5 5 3 3 5 5 5 5 5 5 5 5 5 5 3 3 3 5 5 5 5 3 3 3 5 5 3 3 5 5 3 5 5 5 5 5 5 3 5 5 5 5 5 5 3 5 5 5 5 5 5 3 5 5 3 5 5 5 5 5 5 5 5 5 5 3 5 5 5 5 5 5 5 5 5 5 5 5 5 3 5 5 5 5 5 5 5 3 5 5 5 3 5 5 5 5 3 5 5 5 5 5 5 5 5 3 5 3 5 5 5 3 5 3 5 5 5 5 5 5 5 5 3 5 5 5 3 3 5 5 5 5 5 3 3 5 5 5 5 5 5 5 5 3 3 5 5 5 5 5 5 5 3 5 5 5 5 5 5 5 5 3 5 5 3 5 5 5 3 5 5 5 5 3 5 5 5 5 5 5 5 5 5 5 5 3 5 5 5 5 5 5 3 5 3 5 5 3 5 5 5 5 5 5 5 3 5 5 5 5 5 5 5 3 5 3 5 3 5 5 5 3 5 5 5 5 3 3 5 5 5 3 5 5 5 3 5 5 5 3 5 5 5 5 5 5 5 5 5 5 5 5 5 5 5 5 5 5 5 5 5 5 5 5 5 5 5 5 5 5 5 3 5 5 5 5 5 5 5 5 5 5 5 5 5 5 5 5 5 5 5 5 5 5 5 5 5 5 5 5 5 3 5 5 5 5 3 3 5 5 5 5 5 5 3 5 5 5 5 5 5 5 5 5 3 5 5 5 5 5 5 5 5 5 5 5 5 5 3 5 5 5 5 5 5 5 5 5 5 5 5 5 5 5 5 5 5 3 5 5 5 3 3 5 5 3 5 5 5 3 5 5 5 3 3 5 5 5 5 3 5 5 3 3 5 5 3 5 5 5 5 5 5 5 5 5 5 5 5 5 3 5 3 5 5 5 5 5 3 5 3 5 5 5 5 5 5 5 5 5 5 5 5 5 5 5 5 5 5 5 5 3 5 5 5 5 5 5 5 5 5 5 5 5 5 5 5 5 5 5 5 5 5 5 5 5 5 5 5 3 5 5 5 5 3 5 5 5 5 5 3 5 5 5 5 5 5 5 5 3 5 5 5 5 5 5 5 5 3 5 5 5 5 3 5 5 5 5 3 5 5 5 5 5 5 3 5 5 5 3 5 5 5 5 5 3 3 5 3 5 5 3 5 5 5 5 5 5 3 5 5 5 5 5 3 5 5 5 5 5 5 5 5 5 5 5 5 5 5 5 5 5 5 5 5 5 5 3 3 5 5 5 3 5 5 5 5 5 5 3 3 5 5 5 5 5 5 5 5 5 5 5 5 5 5 5 5 5 5 5 5 5 5 5 5 5 3 5 5 5 5 5 5 5 5 5 5 5 5 5 5 5 3 5 5 5 3 5 5 5 5 5 5 5 5 5 5 3 5 5 5 5 3 5 3 5 5 3 5 5 5 5 5 5 5 5 5 5 5 5 5 5 5 3 5 5 5 5 5 5 5 5 5 5 5 5 5 5 5 5 5 5 3 5 5 5 5 5 5 3 5 5 5 5 5 5 5 5 5 5 5 5 5 5 5 5 5 5 5 5 5 5 5 3 5 5 5 5 5 5 5 5 5 3 5 5 5 5 5 3 5 5 5 3 5 5 5 5 5 5 5 5 3 5 3 5 5 5 5 5 5 5 5 3 5 3 3 3 5 5 3 5 5 3 5 5 5 5 3 3 5 5 5 5 3 3 5 3 5 5 3 5 3 5 5 5 5 5 5 5 3 3 5 3 5 5 3 5 5 3 5 5 5 5 5 5 5 5 5 3 5 5 5 3 5 5 5 5 5 5 3 5 5 5 5 3 5 5 5 5 5 5 5 5 3 5 5 5 5 5 5 5 5 5 5 5 5 5 5 5 5 5 5 5 5 5 5 5 5 5 5 5 5 5 5 3 5 5 5 5 5 5 5 5 5 5 5 5 5 5 5 5 5 5 5 5 3 5 5 3 5 5 3 5 3 5 3 5 3 3 3 5 5 5 5 5 5 3 5 3 5 5 5 5 5 3 5 3 5 3 5 5 3 5 3 3 5 3 5 5 5 3 3 3 5 5 5 3 3 5 5 3 5 3 5 5 5 5 3 5 3 5 5 5 5 5 5 5 5 5 5 5 5 5 5 5 5 5 5 5 5 5 5 3 5 5 5 5 5 5 5 5 5 5 3 5 5 5 5 5 3 5 5 5 3 5 3 5 5 3 5 5 3 3 3 5 5 5 5 5 5 5 5 5 5 5 5 5 5 5 5 5 5 5 3 3 5 5 5 5 3 5 5 3 5 5 5 5 5 3 5 5 5 5 5 5 5 3 5 5 3 5 5 5 5 5 5 5 5 5 5 5 5 5 5 5 3 5 5 5 5 5 5 5 5 3 5 5 5 5 5 5 5 5 5 3 5 5 5 5 5 5 5 5 5 5 5 5 5 5 5 5 3 5 5 5 5 5 5 3 5 5 5 3 3 5 5 5 5 3 5 5 3 5 5 5 3 5 5 5 5 5 5 5 5 5 5 5 5 5 5 5 3 5 5 5 5 5 5 5 5 5 5 5 5 5 5 5 5 5 5 5 5 5 5 5 5 5 5 3 5 5 5 3 5 3 5 5 5 5 3 5 5 5 5 5 5 5 5 5 5 5 5 5 5 5 5 5 5 5 3 5 5 5 5 3 5 5 5 5 5 5 5 3 5 5 5 5 5 5 5 5 3 5 5 5 5 5 5 5 5 5 5 5 5 5 5 3 5 5 5 5 5 3 3 5 5 3 5 5 5 3 5 3 5 5 3 5 3 5 5 5 3 3 5 3 3 3 5 5 5 5 5 5 3 5 5 5 5 5 5 5 5 5 5 5 5 5 5 3 5 5 5 3 5 5 5 5 5 5 5 5 3 5 5 3 5 3 5 5 5 5 5 5 5 3 5 3 5 5 5 5 5 5 5 5 5 5 5 5 5 5 5 5 5 5 5 5 5 5 5 5 5 5 5 5 5 5 5 5 5 5 5 5 5 5 5 5 5 5 5 3 3 5 5 5 5 5 3 5 5 5 5 5 5 3 5 3 5 5 3 5 5 5 3 5 3 5 5 5 5 5 5 5 5 5 5 5 5 5 5 5 5 5 5 5 5 5 5 5 5 5 5 5 5 5 5 5 3 3 5 3 5 5 5 5 5 3 5 5 3 3 3 5 5 5 3 5 3 3 5 5 5 5 5 3 5 3 5 3 5 5 3 5 3 3 5 3 5 5 3 5 5 3 3 5 5 3 5 5 5 3 5 5 5 5 5 5 5 5 5 5 5 5 5 5 3 5 5 5 5 3 5 5 5 3 5 5 3 5 5 5 5 5 5 5 5 5 5 3 5 5 5 3 5 5 5 3 5 5 5 5 3 5 3 5 5 3 5 5 5 5 5 3 5 5 5 5 5 5 5 5 5 5 5 5 3 5 5 5 5 5 5 5 5 5 5 5 5 5 3 3 5 5 3 5 5 3 3 5 3 3 5 5 5 5 5 5 5 5 5 3 5 5 5 3 5 3 3 5 5 3 5 5 5 3 5 5 5 3 5 5 5 5 5 5 5 5 5 3 5 5 5 5 5 5 5 3 5 5 5 5 3 3 3 5 3 5 5 5 3 5 5 5 5 5 3 5 5 5 3 5 3 5 5 5 5 5 5 3 5 3 5 5 5 5 5 5 5 3 5 3 5 3 5 5 5 5 5 5 5 3 5 5 3 5 5 5 5 5 5 5 5 3 5 5 3 5 5 5 5 5 3 5 5 5 3 5 5 5 5 5 5 5 5 5 5 5 5 5 5 3 5 5 3 5 5 5 5 3 5 5 5 3 5 3 5 5 5 5 5 5 5 5 5 5 5 5 5 5 5 5 5 5 3 5 5 5 5 5 5 5 5 5 5 5 5 5 3 5 5 5 5 5 5 5 5 5 5 5 5 5 5 5 5 5 5 5 3 5 3 5 5 3 5 3 5 5 5 3 3 5 5 3 5 5 5 5 3 5 5 5 3 5 5 3 5 5 5 5 3 5 5 5 5 5 5 5 5 5 5 5 5 5 5 5 5 5 5 5 5 5 5 5 5 5 5 3 5 5 5 5 5 3 5 5 3 5 5 5 5 5 5 5 3 3 5 5 5 3 5 5 5 3 5 5 3 5 5 5 5 3 3 3 5 5 5 5 3 3 5 3 5 3 3 3 3 5 3 5 5 5 5 5 3 5 5 5 3 5 5 5 5 5 5 5 5 5 5 5 3 5 5 5 5 3 5 3 5 5 5 5 3 5 5 5 5 5 3 5 5 5 3 5 5 3 5 5 5 5 3 5 5 3 5 5 3 5 5 5 5 5 5 5 5 5 5 5 5 5 5 5 5 3 5 5 5 5 5 5 5 5 5 5 5 5 3 3 3 5 5 5 5 5 3 3 5 5 5 5 5 5 3 3 3 5 5 5 5 3 5 5 5 5 3 5 3 5 5 5 5 3 5 5 5 5 5 5 5 5 5 5 5 5 5 5 5 5 5 5 5 5 5 5 5 5 5 3 5 5 5 3 5 5 3 5 3 5 5 5 5 3 3 5 3 5 3 5 5 5 5 3 5 3 5 5 5 3 5 5 5 5 5 5 5 5 5 5 5 5 3 5 5 3 5 5 5 3 5 3 5 5 5 5 5 3 5 5 5 5 5 5 5 5 5 5 5 5 5 5 5 5 3 5 5 5 5 3 5 5 5 5 5 5 5 5 5 5 5 5 5 5 5 5 5 5 3 5 5 5 5 5 3 5 5 3 5 5 3 5 5 5 5 3 5 3 5 5 5 5 5 5 5 5 5 5 5 5 5 3 5 5 5 5 5 3 5 5 5 5 5 5 5 5 5 5 5 5 5 3 5 5 5 3 5 3 5 5 5 3 5 5 5 5 5 5 5 5 5 5 5 5 5 3 5 5 5 5 5 5 5 5 5 5 5 5 5 5 5 5 5 3 3 5 5 3 5 5 5 5 3 5 5 5 3 3 5 5 3 5 5 5 5 5 5 5 5 5 5 5 5 3 5 3 5 5 3 3 3 5 5 3 5 5 5 5 5 3 5 3 5 3 5 3 5 5 5 5 5 3 5 3 5 5 5 5 3 5 5 3 3 3 5 5 3 5 5 5 5 5 3 5 5 5 5 5 5 5 5 5 5 5 3 3 5 3 5 5 5 3 5 5 5 3 3 5 5 3 5 3 5 5 5 3 5 5 5 5 5 3 3 5 3 5 5 5 5 5 5 5 5 5 5 5 5 3 5 5 5 3 5 5 5 5 5 5 5 5 5 5 3 5 5 5 5 5 5 5 5 5 5 3 5 5 5 5 5 5 5 5 3 5 3 5 5 5 5 3 3 5 5 3 5 5 3 5 3 5 5 5 5 5 3 5 5 5 5 5 5 5 5 3 5 5 5 5 3 5 3 3 5 5 5 5 5 5 3 5 3 5 5 5 5 3 5 3 5 3 5 5 5 3 5 5 5 5 5 3 3 3 5 3 5 5 5 5 5 3 5 5 5 5 5 5 5 5 5 5 5 5 5 5 5 5 5 5 5 5 5 3 5 5 5 5 5 5 5 3 5 5 3 5 5 5 5 5 5 5 5 5 3 5 5 5 5 5 5 3 5 5 5 3 5 5 5 5 5 5 5 5 3 5 5 5 3 5 5 5 5 5 5 3 5 3 5 5 3 5 5 5 3 5 5 5 5 5 3 5 3 5 3 3 5 5 5 3 5 5 3 3 5 3 5 3 5 5 5 3 5 5 5 5 5 5 3 5 5 5 5 5 3 3 5 5 5 5 5 5 5 3 5 3 5 3 5 5 5 3 5 5 5 5 5 5 3 5 3 5 5 5 3 5 5 5 5 5 5 5 5 5 5 5 3 5 5 5 5 5 5 5 5 5 5 5 5 5 3 5 5 3 5 5 5 5 5 5 5 5 5 5 5 5 5 5 3 5 5 5 5 3 5 5 5 5 5 5 5 5 5 5 5 3 5 5 5 5 5 5 5 5 3 3 5 5 5 5 5 5 3 5 5 3 5 5 5 5 5 5 5 5 5 5 5 5 5 5 5 5 5 5 5 5 5 5 3 5 3 5 5 5 5 5 5 5 5 5 5 5 5 3 5 5 5 5 5 5 5 5 5 5 5 5 5 5 5 5 5 5 5 5 3 5 5 5 3 5 5 5 5 5 3 5 5 5 5 3 5 5 5 3 5 5 5 3 5 3 5 3 3 5 5 5 5 5 5 5 3 3 5 3 3 3 5 3 3 3 5 5 5 5 5 5 5 5 5 5 5 5 5 5 3 5 5 5 3 5 5 5 5 3 5 5 3 3 5 3 5 5 5 5 3 3 3 5 5 5 5 5 5 5 5 3 5 5 5 5 5 5 3 5 5 5 5 5 3 5 3 5 3 5 5 5 5 5 3 5 5 3 5 5 5 5 3 5 5 3 5 5 5 5 5 5 5 3 5 3 5 3 5 3 5 5 3 5 5 5 5 5 3 3 5 5 5 5 5 3 5 5 3 5 5 5 5 5 3 5 5 5 5 5 5 5 5 3 5 5 5 5 5 3 5 5 5 5 5 5 3 5 5 5 5 5 3 5 5 5 5 5 5 5 5 5 5 5 5 5 5 5 5 3 5 5 3 5 5 3 5 3 5 5 5 5 5 5 5 5 3 5 5 5 3 3 5 3 5 3 5 3 5 5 5 3 5 5 5 5 3 3 5 5 5 5 3 5 5 5 5 5 5 3 5 3 3 5 5 5 3 5 5 5 5 5 3 3 5 3 3 5 3 5 5 3 5 3 5 5 5 3 5 5 5 5 5 5 5 5 5 5 5 5 5 3 5 3 3 5 5 3 5 5 5 3 5 5 5 5 5 3 3 5 3 5 5 5 3 5 5 5 3 5 5 5 3 5 5 3 5 5 3 5 5 5 5 5 5 5 5 5 3 5 5 5 5 5 5 5 5 5 3 5 5 5 3 3 5 5 5 5 5 5 5 5 5 5 3 5 5 3 3 3 5 5 5 5 5 5 5 5 5 5 5 5 5 5 3 5 5 5 5 3 5 3 5 3 5 5 5 5 5 5 5 5 5 5 5 5 5 5 5 5 5 5 5 5 5 5 5 5 5 5 5 5 5 5 5 5 3 5 5 5 5 5 5 5 5 5 5 5 3 5 5 5 5 5 5 5 5 5 5 5 3 5 5 5 5 3 5 5 5 3 5 5 5 3 5 3 5 3 3 5 5 5 5 5 5 5 5 5 5 5 5 5 5 3 5 5 5 5 5 5 5 5 3 3 5 5 5 5 5 5 3 5 5 5 5 5 5 3 3 5 5 3 3 5 5 5 5 5 3 5 5 5 5 5 3 5 3 5 5 5 5 5 3 5 3 5 3 5 5 5 5 5 5 3 3 3 5 3 5 3 5 5 5 5 3 5 5 5 5 5 5 3 5 5 5 5 5 5 5 5 5 5 5 5 5 3 5 5 5 5 5 3 5 5 5 5 5 5 3 5 5 3 3 5 5 5 5 5 5 5 5 5 5 3 5 5 5 5 5 5 5 5 5 5 5 5 5 3 5 5 5 5 5 5 5 3 5 5 5 5 3 3 3 5 3 5 5 5 3 5 5 3 5 5 5 5 5 5 5 5 3 5 5 3 5 5 5 5 3 5 5 5 5 5 5 5 3 5 3 5 3 5 5 5 3 3 5 5 5 3 5 3 5 5 5 3 5 5 5 3 5 5 5 5 5 3 5 5 5 5 5 5 3 3 5 5 3 5 5 5 5 3 3 5 5 3 5 3 5 5 3 3 5 5 5 5 5 3 5 5 5 5 5 5 3 5 3 5 5 5 5 5 5 5 5 5 5 5 5 5 5 5 3 5 3 5 5 5 5 5 5 3 5 3 5 3 5 5 5 3 3 5 5 5 5 5 5 5 5 5 5 3 5 5 5 5 5 5 5 5 5 5 5 5 5 5 5 5 5 5 5 5 5 5 5 5 5 5 5 5 5 5 5 5 5 5 5 5 5 5 5 5 5 5 5 5 5 5 5 5 5 5 5 5 5 5 5 5 5 5 5 5 5 5 5 5 5 5 5 3 3 5 5 5 5 5 5 5 5 3 5 5 3 5 5 3 5 5 5 5 5 5 3 5 5 3 5 5 5 5 5 5 5 5 5 5 3 5 5 5 5 5 5 5 5 3 5 5 5 5 5 5 5 5 5 5 5 5 3 5 5 5 5 5 5 5 5 5 3 5 5 5 3 5 5 5 5 5 5 5 5 3 5 5 5 5 5 5 5 5 5 5 5 5 5 5 5 5 5 5 5 5 5 5 3 5 5 5 5 5 5 5 5 5 5 5 5 3 3 5 3 5 5 5 5 5 5 5 5 3 5 5 5 5 5 5 5 5 5 5 5 5 5 5 5 5 5 5 5 3 5 5 5 5 5 5 3 5 5 5 5 5 5 5 5 3 5 5 5 5 5 5 5 5 5 5 5 5 3 5 3 5 5 5 3 5 5 5 5 5 5 5 3 5 5 5 5 5 5 5 5 5 5 5 3 5 5 5 5 5 3 5 5 3 5 5 5 5 5 5 5 5 3 5 5 5 5 5 5 5 5 5 3 5 3 5 5 5 5 5 5 5 5 5 5 5 5 5 5 5 5 3 3 5 5 5 5 5 5 3 5 3 5 5 5 5 5 5 5 5 5 3 5 5 5 5 5 5 5 5 3 5 5 5 5 3 3 5 5 5 5 5 5 5 5 5 5 5 5 5 5 5 5 5 5 5 5 5 5 3 5 5 5 3 5 5 5 5 5 5 5 5 3 5 5 5 5 3 5 5 5 3 5 5 5 5 5 5 3 5 5 5 5 5 5 5 5 5 5 5 5 5 5 3 5 5 5 5 5 5 5 5 3 5 5 5 3 5 5 5 5 3 5 5 5 5 5 5 5 5 5 5 5 3 3 5 3 5 5 3 5 5 5 5 5 5 5 5 5 5 5 5 5 5 5 5 5 5 5 5 5 5 5 3 5 5 5 5 5 5 5 5 5 5 5 5 5 5 5 5 5 5 5 5 5 5 5 5 5 5 5 5 5 5 5 5 5 5 5 5 5 5 5 5 5 5 5 5 5 5 5 5 5 5 5 3 5 5 5 5 5 5 5 5 5 3 5 5 5 5 5 5 5 5 5 3 5 5 5 5 5 5 5 5 5 5 5 3 3 5 5 5 5 5 3 5 3 5 5 3 5 5 3 5 5 5 5 5 5 5 5 5 5 3 5 5 5 5 5 5 5 5 5 5 5 5 5 5 5 5 5 5 5 5 5 5 5 5 5 5 5 3 3 5 3 3 5 5 5 5 5 5 5 5 5 5 5 5 5 5 5 5 5 3 5 3 5 3 5 5 5 5 5 5 5 3 3 5 3 5 5 5 5 5 5 5 5 3 5 5 5 5 5 5 5 5 5 5 3 5 5 5 5 5 5 5 5 5 5 5 5 5 3 5 5 5 5 5 5 5 3 5 5 3 5 5 5 5 5 5 5 3 5 3 5 5 3 5 5 5 5 3 5 5 5 5 5 5 5 5 5 5 5 5 5 5 3 5 3 3 5 5 3 5 5 5 5 3 5 5 5 5 5 5 5 5 3 5 3 5 5 5 5 5 5 5 5 5 3 5 5 3 5 5 3 5 5 5 5 5 5 3 3 5 5 3 5 3 5 5 5 5 5 5 5 5 5 5 5 5 3 5 5 5 5 3 5 5 5 5 5 5 5 5 5 5 5 5 5 5 5 5 5 5 5 5 3 5 5 5 3 5 5 5 5 3 5 5 3 5 5 3 3 5 5 5 5 5 5 5 5 5 5 5 5 5 5 5 5 5 3 5 5 5 5 5 5 5 5 5 3 5 3 5 5 3 3 5 5 5 5 5 5 5 3 5 5 5 3 5 5 5 3 5 3 3 5 5 5 5 5 5 5 5 5 5 5 5 5 5 5 3 5 5 5 5 5 5 3 5 5 3 5 5 5 3 5 5 5 5 5 5 5 5 5 5 5 5 5 5 5 5 5 5 5 5 5 5 5 5 5 5 5 5 5 5 5 3 5 5 5 5 5 5 3 5 5 5 5 5 5 5 5 5 5 5 5 3 5 3 5 5 5 5 5 5 5 5 5 5 5 5 5 5 5 3 5 5 5 5 5 5 5 5 5 5 5 5 5 5 5 5 5 5 5 5 5 5 5 3 5 5 5 5 5 5 5 5 5 5 5 5 5 5 5 5 5 5 5 5 5 5 5 5 5 5 5 5 5 5 5 5 3 5 5 5 5 5 5 5 3 5 5 5 5 3 5 5 5 5 5 3 5 5 5 5 5 5 5 5 5 3 5 3 5 5 5 5 5 5 5 5 5 5 5 5 5 3 5 5 3 5 3 5 3 5 5 5 5 5 5 5 5 5 5 5 5 5 5 5 5 5 5 5 5 5 5 5 5 5 5 5 5 5 5 5 3 5 5 5 5 5 5 5 5 5 5 5 5 5 5 5 5 5 5 5 5 5 3 5 5 5 5 5 5 3 5 5 3 5 5 5 5 3 5 5 5 5 5 3 5 5 5 5 5 5 5 5 5 5 5 5 5 5 5 5 5 5 5 3 5 5 3 5 5 5 5 5 5 5 5 3 5 5 5 3 5 5 5 5 5 5 3 3 3 5 5 5 5 5 5 5 5 5 5 5 5 3 5 5 5 5 5 5 5 5 5 5 5 5 5 5 5 5 5 5 5 5 5 5 5 5 5 5 5 5 5 5 3 5 5 5 5 5 5 5 5 5 5 5 3 5 5 5 3 3 5 5 5 5 5 3 3 3 5 5 3 5 5 3 5 5 5 5 5 5 5 5 5 5 5 5 3 5 5 5 5 5 5 5 5 5 5 5 5 5 5 5 5 3 5 5 5 5 5 5 3 5 5 5 5 5 5 3 3 5 3 3 5 5 5 5 5 5 5 5 5 5 3 5 3 3 3 5 5 5 5 5 5 5 5 5 3 5 5 5 5 5 5 5 5 3 5 5 5 5 5 3 5 5 5 5 5 5 5 5 5 5 5 5 5 5 5 5 5 5 5 5 5 5 5 5 5 3 5 5 5 5 5 5 5 5 5 5 5 5 5 5 3 5 5 5 3 5 3 3 5 5 3 5 5 5 5 5 5 5 5 5 5 5 5 5 5 5 5 5 3 5 5 5 5 5 3 5 5 5 3 5 3 5 5 5 5 5 5 3 3 5 5 5 3 3 5 5 5 3 3 5 5 5 5 5 3 3 5 3 5 5 5 5 5 5 5 5 5 3 5 5 5 5 5 5 5 5 5 5 5 5 3 3 5 5 5 5 5 5 3 5 5 5 5 3 5 5 5 5 5 3 5 5 5 5 5 5 5 5 5 5 3 5 5 3 5 5 3 5 5 5 5 5 5 5 3 5 5 5 3 5 5 5 5 5 5 5 5 5 5 5 5 5 5 3 3 5 5 5 5 3 5 5 5 5 5 5 5 5 5 5 3 5 5 3 5 5 3 3 5 5 5 5 5 3 3 5 3 5 5 5 5 5 5 3 5 5 5 3 3 5 5 3 5 5 5 3 5 5 5 3 5 3 5 5 3 3 5 5 3 3 5 5 5 5 5 5 5 5 3 5 3 5 3 5 3 5 5 5 5 5 5 5 5 5 5 5 5 5 5 3 5 5 5 5 3 5 5 5 3 5 5 5 3 5 5 5 5 5 3 5 5 5 5 3 5 5 5 5 5 3 5 5 5 5 3 5 5 5 5 5 3 5 5 5 5 5 5 5 5 5 5 5 3 5 5 5 3 5 5 5 5 5 5 5 5 5 3 5 5 5 5 3 5 5 3 5 5 5 5 5 5 5 5 5 5 5 5 5 5 5 5 5 5 5 5 3 5 5 5 5 5 3 5 5 5 5 5 5 5 5 5 5 5 5 5 5 3 5 5 5 5 5 5 3 5 5 5 5 5 5 5 3 3 5 5 5 5 3 5 3 5 5 5 5 5 5 5 3 5 5 5 5 3 5 5 5 5 5 5 5 5 5 5 5 5 3 5 5 5 5 5 5 5 5 5 5 5 5 5 5 5 5 5 5 5 5 5 5 5 5 5 5 5 5 5 5 5 5 5 5 5 5 5 5 5 5 5 5 5 5 5 5 5 5 5 5 5 5 5 5 5 5 5 5 5 5 5 5 5 5 5 5 5 5 5 5 5 5 3 5 3 5 5 5 5 3 5 5 3 5 5 3 5 5 5 5 3 5 5 5 5 5 5 5 5 5 5 5 5 5 5 5 5 5 5 5 5 5 5 3 5 5 5 3 5 5 5 5 3 5 5 5 5 5 5 3 5 5 5 5 5 5 5 5 5 5 5 5 5 5 5 5 5 5 5 5 5 5 5 5 5 5 5 5 5 5 5 5 5 5 5 3 5 5 3 5 5 5 3 5 5 5 5 5 5 3 5 5 5 5 5 5 5 3 5 5 5 5 5 5 5 5 5 5 3 5 5 5 5 3 3 5 5 5 5 5 5 3 5 3 5 3 5 5 5 5 5 5 5 5 3 3 5 5 5 5 5 5 5 5 5 5 5 5 5 5 5 5 5 5 5 5 5 5 5 5 5 5 5 5 5 5 5 5 5 5 5 5 5 5 5 5 5 5 5 5 5 5 5 5 5 5 5 5 5 5 5 5 5 3 5 5 5 5 5 5 5 5 3 5 5 3 5 3 5 3 5 5 5 5 5 5 5 3 5 5 5 5 5 3 5 5 5 5 3 5 5 5 5 5 5 5 5 5 5 3 5 5 5 5 5 5 5 5 5 5 5 5 3 5 5 3 5 3 5 5 5 5 3 5 5 5 5 3 5 5 3 5 5 5 3 3 5 5 5 5 5 5 5 5 3 5 5 5 5 5 5 3 5 3 3 5 5 3 3 5 3 5 5 3 5 5 5 5 3 5 5 5 5 5 3 5 5 5 5 5 5 5 5 5 5 5 5 5 5 5 3 3 5 3 5 5 3 5 5 5 5 3 5 5 5 5 5 5 5 3 5 5 5 5 5 5 3 5 5 5 5 3 5 3 5 5 5 5 5 5 5 3 3 5 5 5 5 5 5 5 5 5 5 5 3 5 5 5 5 5 5 3 5 3 5 5 5 5 3 3 5 5 5 5 3 5 3 5 5 5 5 5 5 3 3 5 3 3 5 5 5 5 5 5 5 3 5 5 5 5 5 5 5 5 5 5 3 5 5 5 5 5 5 5 5 5 3 5 5 5 5 5 5 5 5 5 5 5 5 5 5 5 3 5 5 5 5 5 5 5 5 3 5 5 3 3 5 5 5 5 5 5 5 3 5 5 5 5 3 5 5 5 5 5 5 3 3 5 5 5 5 5 5 5 5 3 5 5 5 5 3 5 5 5 3 5 5 5 3 5 3 3 5 5 5 3 5 5 5 3 5 3 3 3 5 5 5 3 3 3 5 5 3 3 5 3 5 5 5 5 3 5 5 3 5 5 5 3 5 5 3 3 5 5 5 5 5 5 5 5 5 5 5 5 5 5 3 5 3 5 5 5 5 5 5 3 5 3 3 5 5 3 5 5 3 5 3 5 3 5 5 5 3 5 3 5 3 5 3 5 5 5 3 5 5 5 5 5 5 3 5 3 5 5 3 5 5 5 5 5 5 5 3 5 3 5 5 5 5 5 5 5 5 5 5 5 3 5 5 5 5 5 5 5 5 5 5 5 5 5 5 3 5 5 5 5 5 5 5 5 5 5 5 5 5 5 5 5 5 5 5 5 5 5 5 5 5 5 5 5 5 5 5 5 5 5 5 5 5 5 5 5 5 5 5 5 5 5 5 5 5 5 5 5 5 5 5 5 5 5 3 5 5 3 3 5 5 5 5 5 5 5 5 5 5 5 5 3 5 5 5 5 5 3 3 5 5 5 3 3 5 5 5 5 5 5 3 5 5 5 5 5 5 5 5 3 5 5 5 5 5 5 5 5 5 5 5 5 3 5 5 3 5 5 5 3 5 5 5 5 5 5 5 5 5 5 3 5 5 5 3 5 3 5 5 5 5 5 5 5 5 5 5 5 5 5 5 5 5 5 3 5 5 5 5 5 5 5 5 5 5 5 5 5 5 5 5 3 5 5 5 5 5 3 5 5 5 5 5 5 3 5 5 3 5 5 5 5 5 5 5 5 5 5 5 5 5 5 5 5 5 5 5 5 5 5 5 5 5 5 5 5 5 5 5 5 5 5 5 5 5 3 5 5 3 5 5 5 5 3 5 5 5 5 5 5 5 5 5 5 5 3 5 5 5 5 5 5 5 5 5 5 5 5 5 5 5 5 5 5 5 5 5 5 5 5 3 5 5 5 5 5 3 5 5 5 5 5 5 5 5 5 5 5 5 3 5 5 5 5 5 5 3 5 5 5 5 5 5 5 5 3 5 3 5 5 5 5 5 5 5 5 5 5 5 5 5 5 5 5 5 5 5 3 5 5 5 5 5 5 3 3 5 5 5 5 5 5 5 5 5 5 5 5 5 5 5 5 5 5 5 5 3 5 3 5 5 5 5 3 5 5 5 5 5 5 5 5 5 5 5 3 5 5 5 3 5 5 5 5 5 5 5 5 5 5 5 5 3 5 5 5 5 5 5 5 3 5 5 5 5 3 5 5 5 5 5 3 5 5 5 3 5 5 5 5 5 5 5 5 5 5 5 5 5 5 5 5 5 5 5 5 5 5 5 3 5 5 5 3 5 5 5 5 3 5 5 5 3 5 5 5 5 5 5 5 5 5 3 5 5 5 5 5 3 5 3 5 5 5 5 5 5 5 5 5 5 5 5 5 5 5 3 5 5 5 3 5 5 5 3 5 5 5 5 5 5 5 5 5 5 5 3 5 5 5 5 5 5 5 5 5 5 5 5 5 5 5 5 5 5 5 5 5 5 5 5 5 5 5 5 5 5 5 3 5 5 5 5 5 5 5 5 5 5 5 5 5 5 5 5 5 5 5 5 5 5 5 5 5 5 5 5 5 5 5 5 5 5 5 5 5 5 5 5 5 5 5 5 5 5 5 5 5 5 5 5 5 3 5 3 5 5 3 5 5 5 3 5 5 5 3 5 3 5 5 5 5 5 5 5 3 5 5 3 5 5 5 3 5 3 5 5 5 3 5 5 5 3 5 5 5 3 5 3 5 5 3 5 3 5 5 5 5 3 5 3 5 5 5 5 3 5 5 5 5 5 5 5 5 5 5 5 3 5 5 5 5 5 5 5 5 5 5 5 5 5 5 5 5 5 5 5 5 5 5 5 3 5 5 3 5 3 5 3 5 5 5 5 3 5 3 5 5 5 5 5 3 5 5 5 5 5 5 5 5 5 5 5 3 5 5 5 3 5 3 3 5 5 3 3 5 5 3 5 5 5 3 5 5 3 3 5 5 5 5 5 5 5 5 5 5 5 5 5 5 5 5 5 5 5 5 5 5 5 5 3 5 5 5 5 5 5 5 3 5 5 5 5 5 5 5 5 5 5 5 5 5 5 5 5 3 5 5 5 3 5 5 5 5 5 5 5 3 5 5 5 5 5 5 5 5 5 5 3 5 5 5 5 5 5 5 5 5 5 3 5 5 5 5 5 5 5 5 5 5 5 5 5 5 5 5 5 3 5 5 5 5 5 3 5 5 3 5 3 5 5 5 5 5 5 5 5 5 5 5 5 5 5 5 5 5 5 5 5 5 5 5 5 5 5 5 5 5 5 5 5 5 5 5 5 5 5 5 5 5 5 5 5 5 5 5 5 5 5 5 5 5 5 5 5 5 3 5 5 5 5 5 5 5 5 5 5 5 5 5 5 5 3 5 5 5 5 5 5 5 5 5 5 5 5 5 5 5 5 5 5 5 5 5 5 5 5 5 3 5 3 5 5 5 5 5 5 5 5 3 5 5 5 5 5 5 5 5 5 5 5 5 5 5 5 5 5 3 5 5 5 3 5 5 5 5 5 5 5 5 3 3 5 5 3 5 5 5 5 5 5 5 5 5 5 5 5 5 5 5 5 5 5 5 5 5 5 5 5 5 5 5 5 5 5 5 5 5 5 5 5 5 5 5 5 5 5 5 5 5 5 5 5 3 5 5 3 5 5 5 5 5 3 5 5 5 3 5 5 5 3 5 5 5 3 5 5 5 5 5 5 5 5 5 3 5 5 5 5 5 3 5 5 5 5 5 5 5 5 5 5 5 5 5 5 5 5 5 5 5 5 5 5 5 3 5 5 5 5 3 5 5 5 5 5 5 5 5 5 5 5 5 5 5 3 5 5 5 5 5 5 3 5 3 5 5 5 3 5 5 5 5 5 5 5 5 5 3 5 5 5 5 5 5 5 3 5 5 5 5 5 5 5 5 5 5 5 5 5 5 3 5 3 3 3 5 5 5 5 5 5 3 5 5 5 5 3 5 5 5 5 5 5 5 5 3 5 5 3 3 5 5 3 5 5 5 5 3 5 5 5 5 5 5 5 5 3 5 5 3 3 5 3 5 5 5 5 5 5 5 5 5 5 5 5 5 5 5 5 5 5 5 5 5 5 5 5 3 3 5 5 3 5 5 5 5 5 5 3 5 5 5 5 5 5 5 5 5 5 5 5 5 3 5 5 5 5 5 5 3 5 5 5 3 5 5 5 5 5 5 5 5 3 5 5 5 5 5 5 5 5 5 3 5 5 3 5 5 3 5 3 5 5 3 5 5 3 5 5 3 5 5 5 3 3 5 5 5 3 5 3 5 5 3 5 5 5 5 3 3 5 3 5 5 5 5 5 5 5 5 5 5 5 5 5 5 5 5 5 5 5 3 5 5 5 5 3 5 5 5 5 5 5 5 5 5 5 5 5 5 5 5 5 5 5 5 5 5 5 5 5 5 5 5 5 5 5 
</DataArray>
</Cells>
<PointData Scalars="" Vectors="displacement," Tensors="">
<DataArray type="Float64" Name="displacement" NumberOfComponents="3" format="ascii">
-0.024999133854695748 -0.02499783298561643 0 -0.024638717832313674 -0.023946310731777786 0 -0.023096875172720757 -0.024535015057499741 0 -0.024999133854695748 -0.02499783298561643 0 -0.023096875172720757 -0.024535015057499741 0 -0.021122837857735461 -0.02499764937679692 0 -0.024999133854695748 -0.02499783298561643 0 -0.024638717832313674 -0.023946310731777786 0 -0.024998630551673937 -0.022420458689368122 0 -0.024026551999399948 -0.023613914430576005 0 -0.023245201069342639 -0.024340887402889443 0 -0.024026551999399948 -0.023613914430576005 0 -0.024999668916474725 -0.022416982170721918 0 -0.023425263053020746 -0.023274309815768095 0 -0.023770386249877113 -0.023163933201436487 0 -0.022976525917995285 -0.023759939798996928 0 -0.023770386249877113 -0.023163933201436487 0 -0.022479750117850895 -0.023956911144865714 0 -0.023441173918102118 -0.024140865105649563 0 -0.023425263053020746 -0.023274309815768095 0 -0.023770386249877113 -0.023163933201436487 0 -0.024997529518389627 -0.022413561788271717 0 -0.023770386249877113 -0.023163933201436487 0 -0.024997529518389627 -0.022413561788271717 0 -0.025000417374571416 -0.021525620586115683 0 -0.022479750117850895 -0.023956911144865714 0 -0.021228336294598842 -0.024511960279854618 0 -0.021918007304756827 -0.024423480413335304 0 -0.022479750117850895 -0.023956911144865714 0 -0.022049923761397361 -0.024428253704036357 0 -0.021228336294598842 -0.024511960279854618 0 -0.023770386249877113 -0.023163933201436487 0 -0.022479750117850895 -0.023956911144865714 0 -0.022976525917995285 -0.023759939798996928 0 -0.022479750117850895 -0.023956911144865714 0 -0.022976525917995285 -0.023759939798996928 0 -0.022049923761397361 -0.024428253704036357 0 -0.022049923761397361 -0.024428253704036357 0 -0.023096875172720757 -0.024535015057499741 0 -0.021122837857735461 -0.02499764937679692 0 -0.022976525917995285 -0.023759939798996928 0 -0.022049923761397361 -0.024428253704036357 0 -0.023096875172720757 -0.024535015057499741 0 -0.023425263053020746 -0.023274309815768095 0 -0.022976525917995285 -0.023759939798996928 0 -0.023096875172720757 -0.024535015057499741 0 -0.022049923761397361 -0.024428253704036357 0 -0.021122837857735461 -0.02499764937679692 0 -0.020916827530640211 -0.024710322486310009 0 -0.021122837857735461 -0.02499764937679692 0 -0.019969922420347626 -0.024937736022717871 0 -0.020916827530640211 -0.024710322486310009 0 -0.021122837857735461 -0.02499764937679692 0 -0.019969922420347626 -0.024937736022717871 0 -0.018260129265307054 -0.024998856055236836 0 -0.019969922420347626 -0.024937736022717871 0 -0.019208504910150134 -0.025014631431765102 0 -0.018260129265307054 -0.024998856055236836 0 -0.019969922420347626 -0.024937736022717871 0 -0.020217669664550918 -0.024807462875616009 0 -0.019208504910150134 -0.025014631431765102 0 -0.020217669664550918 -0.024807462875616009 0 -0.019208504910150134 -0.025014631431765102 0 -0.0198420709220886 -0.024819938695539879 0 -0.022049923761397361 -0.024428253704036357 0 -0.020916827530640211 -0.024710322486310009 0 -0.021228336294598842 -0.024511960279854618 0 -0.019969922420347626 -0.024937736022717871 0 -0.020217669664550918 -0.024807462875616009 0 -0.020916827530640211 -0.024710322486310009 0 -0.020217669664550918 -0.024807462875616009 0 -0.020916827530640211 -0.024710322486310009 0 -0.021228336294598842 -0.024511960279854618 0 -0.020217669664550918 -0.024807462875616009 0 -0.020485792884075316 -0.024722509214011645 0 -0.0198420709220886 -0.024819938695539879 0 -0.020217669664550918 -0.024807462875616009 0 -0.021228336294598842 -0.024511960279854618 0 -0.020485792884075316 -0.024722509214011645 0 -0.021228336294598842 -0.024511960279854618 0 -0.020955894752851874 -0.024670630363143573 0 -0.020485792884075316 -0.024722509214011645 0 -0.021228336294598842 -0.024511960279854618 0 -0.020955894752851874 -0.024670630363143573 0 -0.021918007304756827 -0.024423480413335304 0 -0.020485792884075316 -0.024722509214011645 0 -0.020467204780532319 -0.024688508945817932 0 -0.0198420709220886 -0.024819938695539879 0 -0.020955894752851874 -0.024670630363143573 0 -0.020485792884075316 -0.024722509214011645 0 -0.020467204780532319 -0.024688508945817932 0 -0.020467204780532319 -0.024688508945817932 0 -0.02008735108530894 -0.024710692428891328 0 -0.0198420709220886 -0.024819938695539879 0 -0.020467204780532319 -0.024688508945817932 0 -0.02008735108530894 -0.024710692428891328 0 -0.020396338123727136 -0.024576235571540678 0 -0.02008735108530894 -0.024710692428891328 0 -0.019783350157808913 -0.024717942224564773 0 -0.019970875613736581 -0.0247306614127023 0 -0.02008735108530894 -0.024710692428891328 0 -0.020396338123727136 -0.024576235571540678 0 -0.019970875613736581 -0.0247306614127023 0 -0.020396338123727136 -0.024576235571540678 0 -0.021480878418661403 -0.02357907034775529 0 -0.02070493306249711 -0.024474488538293135 0 -0.020955894752851874 -0.024670630363143573 0 -0.020396338123727136 -0.024576235571540678 0 -0.021801123109065585 -0.025065912443291847 0 -0.020955894752851874 -0.024670630363143573 0 -0.020467204780532319 -0.024688508945817932 0 -0.020396338123727136 -0.024576235571540678 0 -0.020589657805624741 -0.02445103197261354 0 -0.0220638038167284 -0.02368969441346741 0 -0.020396338123727136 -0.024576235571540678 0 -0.021480878418661403 -0.02357907034775529 0 -0.022196241436901552 -0.022344869639877429 0 -0.019208504910150134 -0.025014631431765102 0 -0.019240816222897465 -0.024859211627242143 0 -0.0198420709220886 -0.024819938695539879 0 -0.02008735108530894 -0.024710692428891328 0 -0.0198420709220886 -0.024819938695539879 0 -0.019783350157808913 -0.024717942224564773 0 -0.0198420709220886 -0.024819938695539879 0 -0.019460489594079068 -0.024696902057529693 0 -0.019783350157808913 -0.024717942224564773 0 -0.019240816222897465 -0.024859211627242143 0 -0.0198420709220886 -0.024819938695539879 0 -0.019460489594079068 -0.024696902057529693 0 -0.019460489594079068 -0.024696902057529693 0 -0.019783350157808913 -0.024717942224564773 0 -0.019724372203262328 -0.024642026234449717 0 -0.019783350157808913 -0.024717942224564773 0 -0.019724372203262328 -0.024642026234449717 0 -0.019970875613736581 -0.0247306614127023 0 -0.019886387981024857 -0.023867013051580552 0 -0.019737361299283569 -0.023832222727459305 0 -0.019724372203262328 -0.024642026234449717 0 -0.019471925724869266 -0.024573490134468124 0 -0.019807651155653968 -0.024498281333171595 0 -0.019460489594079068 -0.024696902057529693 0 -0.019724372203262328 -0.024642026234449717 0 -0.019471925724869266 -0.024573490134468124 0 -0.019460489594079068 -0.024696902057529693 0 -0.019471925724869266 -0.024573490134468124 0 -0.019314965618189076 -0.024511433913453756 0 -0.021480878418661403 -0.02357907034775529 0 -0.021181061817563185 -0.024938494850643401 0 -0.02070493306249711 -0.024474488538293135 0 -0.019455591497429158 -0.024685233839359576 0 -0.019970875613736581 -0.0247306614127023 0 -0.01978195655121355 -0.02460938235377752 0 -0.021181061817563185 -0.024938494850643401 0 -0.02070493306249711 -0.024474488538293135 0 -0.019970875613736581 -0.0247306614127023 0 -0.020360879819773532 -0.024809240412358862 0 -0.019949290947920417 -0.024704156195640797 0 -0.019724372203262328 -0.024642026234449717 0 -0.019970875613736581 -0.0247306614127023 0 -0.01978195655121355 -0.02460938235377752 0 -0.020396338123727136 -0.024576235571540678 0 -0.02070493306249711 -0.024474488538293135 0 -0.019970875613736581 -0.0247306614127023 0 -0.019724372203262328 -0.024642026234449717 0 -0.01978195655121355 -0.02460938235377752 0 -0.019807651155653968 -0.024498281333171595 0 -0.01978195655121355 -0.02460938235377752 0 -0.019807651155653968 -0.024498281333171595 0 -0.019205834973616196 -0.024049284943992982 0 -0.019455591497429158 -0.024685233839359576 0 -0.01978195655121355 -0.02460938235377752 0 -0.019205834973616196 -0.024049284943992982 0 -0.019455591497429158 -0.024685233839359576 0 -0.018593415593170081 -0.024310608939546976 0 -0.019205834973616196 -0.024049284943992982 0 -0.021181061817563185 -0.024938494850643401 0 -0.022801920447256228 -0.024964780506624595 0 -0.022659462125471295 -0.025478442899662546 0 -0.020360879819773532 -0.024809240412358862 0 -0.020219554124408887 -0.025042805395834006 0 -0.021480878418661403 -0.02357907034775529 0 -0.022639876294805992 -0.022993526176159278 0 -0.022838928694002135 -0.023347102192673431 0 -0.021480878418661403 -0.02357907034775529 0 -0.021181061817563185 -0.024938494850643401 0 -0.022801920447256228 -0.024964780506624595 0 -0.021413326251040983 -0.023313298604893506 0 -0.023011470245667281 -0.024724696347631043 0 -0.023284412323378158 -0.023035914017676198 0 -0.024059262724996609 -0.022471908792115487 0 -0.023320917288896292 -0.022463881212569998 0 -0.022639876294805992 -0.022993526176159278 0 -0.023284412323378158 -0.023035914017676198 0 -0.023320917288896292 -0.022463881212569998 0 -0.022639876294805992 -0.022993526176159278 0 -0.022838928694002135 -0.023347102192673431 0 -0.023284412323378158 -0.023035914017676198 0 -0.022838928694002135 -0.023347102192673431 0 -0.023284412323378158 -0.023035914017676198 0 -0.023464427850215339 -0.023457856014928457 0 -0.023284412323378158 -0.023035914017676198 0 -0.023464427850215339 -0.023457856014928457 0 -0.02384039957575778 -0.023234373285820821 0 -0.018593415593170081 -0.024310608939546976 0 -0.017577993400164877 -0.023457107863899172 0 -0.019205834973616196 -0.024049284943992982 0 -0.022801920447256228 -0.024964780506624595 0 -0.022659462125471295 -0.025478442899662546 0 -0.023814304970087578 -0.025884144786795193 0 -0.023011470245667281 -0.024724696347631043 0 -0.023460371735014102 -0.021807034843899991 0 -0.022838928694002135 -0.023347102192673431 0 -0.023464427850215339 -0.023457856014928457 0 -0.023902160138270023 -0.024267633359956159 0 -0.020219554124408887 -0.025042805395834006 0 -0.023460371735014102 -0.021807034843899991 0 -0.018593415593170081 -0.024310608939546976 0 -0.017577993400164877 -0.023457107863899172 0 -0.017343602718560461 -0.023424807614019487 0 -0.023464427850215339 -0.023457856014928457 0 -0.02384039957575778 -0.023234373285820821 0 -0.023902160138270023 -0.024267633359956159 0 -0.025341591322826717 -0.021179659902631699 0 -0.023460371735014102 -0.021807034843899991 0 -0.024758516834370196 -0.022909717270163214 0 -0.02384039957575778 -0.023234373285820821 0 -0.023902160138270023 -0.024267633359956159 0 -0.025730907903896864 -0.019095040245805238 0 -0.025613368174002928 -0.019718199879625704 0 -0.02621908893995582 -0.018711813989207921 0 -0.025934694683102083 -0.018816881694099143 0 -0.025730907903896864 -0.019095040245805238 0 -0.025739960743807053 -0.018679516086189684 0 -0.025934694683102083 -0.018816881694099143 0 -0.025730907903896864 -0.019095040245805238 0 -0.02621908893995582 -0.018711813989207921 0 -0.025730907903896864 -0.019095040245805238 0 -0.025382383462701042 -0.018639998922495783 0 -0.025739960743807053 -0.018679516086189684 0 -0.025730907903896864 -0.019095040245805238 0 -0.025000029341599325 -0.019311159198661037 0 -0.025382383462701042 -0.018639998922495783 0 -0.025730907903896864 -0.019095040245805238 0 -0.025000029341599325 -0.019311159198661037 0 -0.025613368174002928 -0.019718199879625704 0 -0.025000029341599325 -0.019311159198661037 0 -0.025613368174002928 -0.019718199879625704 0 -0.024999972437042897 -0.020724148506730364 0 -0.025341591322826717 -0.021179659902631699 0 -0.024999826296032153 -0.020725011672697795 0 -0.024758516834370196 -0.022909717270163214 0 -0.024059262724996609 -0.022471908792115487 0 -0.024638408088193536 -0.021390120237991653 0 -0.023284412323378158 -0.023035914017676198 0 -0.02384039957575778 -0.023234373285820821 0 -0.024059262724996609 -0.022471908792115487 0 -0.024758516834370196 -0.022909717270163214 0 -0.02384039957575778 -0.023234373285820821 0 -0.024059262724996609 -0.022471908792115487 0 -0.024059262724996609 -0.022471908792115487 0 -0.024080246438519914 -0.021210799401862535 0 -0.023320917288896292 -0.022463881212569998 0 -0.024059262724996609 -0.022471908792115487 0 -0.024638408088193536 -0.021390120237991653 0 -0.024080246438519914 -0.021210799401862535 0 -0.024638408088193536 -0.021390120237991653 0 -0.024999789635973324 -0.020729773515239192 0 -0.025000072419803118 -0.021514998890114278 0 -0.024758516834370196 -0.022909717270163214 0 -0.024638408088193536 -0.021390120237991653 0 -0.024999789635973324 -0.020729773515239192 0 -0.024999345951271977 -0.02151953334166443 0 -0.023651730364822987 -0.022683300318727666 0 -0.024638408088193536 -0.021390120237991653 0 -0.025000072419803118 -0.021514998890114278 0 -0.024080246438519914 -0.021210799401862535 0 -0.023770386249877113 -0.023163933201436487 0 -0.025000417374571416 -0.021525620586115683 0 -0.023441173918102118 -0.024140865105649563 0 -0.022479750117850895 -0.023956911144865714 0 -0.023441173918102118 -0.024140865105649563 0 -0.021918007304756827 -0.024423480413335304 0 -0.023441173918102118 -0.024140865105649563 0 -0.021918007304756827 -0.024423480413335304 0 -0.021801123109065585 -0.025065912443291847 0 -0.020955894752851874 -0.024670630363143573 0 -0.021918007304756827 -0.024423480413335304 0 -0.021801123109065585 -0.025065912443291847 0 -0.021480878418661403 -0.02357907034775529 0 -0.022639876294805992 -0.022993526176159278 0 -0.022196241436901552 -0.022344869639877429 0 -0.022639876294805992 -0.022993526176159278 0 -0.022196241436901552 -0.022344869639877429 0 -0.023320917288896292 -0.022463881212569998 0 -0.023651730364822987 -0.022683300318727666 0 -0.0220638038167284 -0.02368969441346741 0 -0.024080246438519914 -0.021210799401862535 0 -0.022196241436901552 -0.022344869639877429 0 -0.023320917288896292 -0.022463881212569998 0 -0.012666230195322965 -0.027138134402594868 0 -0.013150481393525513 -0.02812582001950455 0 -0.012073410200032775 -0.027755398982283967 0 -0.01559856477726332 -0.026063204686764173 0 -0.015821920443209576 -0.026400025593823838 0 -0.012666230195322965 -0.027138134402594868 0 -0.013610143971225577 -0.027131439979729534 0 -0.013150481393525513 -0.02812582001950455 0 -0.012666230195322965 -0.027138134402594868 0 -0.013610143971225577 -0.027131439979729534 0 -0.01304489144593883 -0.025986056877488371 0 -0.013610143971225577 -0.027131439979729534 0 -0.01304489144593883 -0.025986056877488371 0 -0.014087724735662199 -0.026085950591296019 0 -0.01559856477726332 -0.026063204686764173 0 -0.015235382143919096 -0.02554795366416476 0 -0.012666230195322965 -0.027138134402594868 0 -0.01304489144593883 -0.025986056877488371 0 -0.01201486991331613 -0.026281975798158188 0 -0.01304489144593883 -0.025986056877488371 0 -0.013178591518509584 -0.024999936982033975 0 -0.011767562129053699 -0.024999911131803734 0 -0.01304489144593883 -0.025986056877488371 0 -0.013178591518509584 -0.024999936982033975 0 -0.014087724735662199 -0.026085950591296019 0 -0.013178591518509584 -0.024999936982033975 0 -0.014087724735662199 -0.026085950591296019 0 -0.014589531989089445 -0.024999951069553078 0 -0.016379220568974309 -0.025231787473033923 0 -0.014596853826061743 -0.02499918035613222 0 -0.016686285929428592 -0.025266662448590653 0 -0.016379220568974309 -0.025231787473033923 0 -0.017335190009535029 -0.025145298246715686 0 -0.016686285929428592 -0.025266662448590653 0 -0.015235382143919096 -0.02554795366416476 0 -0.014590140210567095 -0.024999858446676675 0 -0.017582207396463996 -0.025098220657535024 0 -0.017335190009535029 -0.025145298246715686 0 -0.017798885521840474 -0.024914824374266602 0 -0.017582207396463996 -0.025098220657535024 0 -0.016379220568974309 -0.025231787473033923 0 -0.017335190009535029 -0.025145298246715686 0 -0.017335190009535029 -0.025145298246715686 0 -0.017798885521840474 -0.024914824374266602 0 -0.018285875072515681 -0.024802421095244095 0 -0.017582207396463996 -0.025098220657535024 0 -0.017798885521840474 -0.024914824374266602 0 -0.018489247332262371 -0.024753002990829213 0 -0.014596853826061743 -0.02499918035613222 0 -0.016686285929428592 -0.025266662448590653 0 -0.018260129265307054 -0.024998856055236836 0 -0.017335190009535029 -0.025145298246715686 0 -0.017919204732593882 -0.025162626919325214 0 -0.018285875072515681 -0.024802421095244095 0 -0.017919204732593882 -0.025162626919325214 0 -0.018683329825263422 -0.0249550726446701 0 -0.018285875072515681 -0.024802421095244095 0 -0.017335190009535029 -0.025145298246715686 0 -0.017919204732593882 -0.025162626919325214 0 -0.016686285929428592 -0.025266662448590653 0 -0.017919204732593882 -0.025162626919325214 0 -0.016686285929428592 -0.025266662448590653 0 -0.018260129265307054 -0.024998856055236836 0 -0.019208504910150134 -0.025014631431765102 0 -0.017919204732593882 -0.025162626919325214 0 -0.018260129265307054 -0.024998856055236836 0 -0.019208504910150134 -0.025014631431765102 0 -0.017919204732593882 -0.025162626919325214 0 -0.018683329825263422 -0.0249550726446701 0 -0.019240816222897465 -0.024859211627242143 0 -0.018683329825263422 -0.0249550726446701 0 -0.019004587685979457 -0.024694136491838669 0 -0.019208504910150134 -0.025014631431765102 0 -0.019240816222897465 -0.024859211627242143 0 -0.018683329825263422 -0.0249550726446701 0 -0.018683329825263422 -0.0249550726446701 0 -0.019004587685979457 -0.024694136491838669 0 -0.018285875072515681 -0.024802421095244095 0 -0.019240816222897465 -0.024859211627242143 0 -0.019460489594079068 -0.024696902057529693 0 -0.019004587685979457 -0.024694136491838669 0 -0.019460489594079068 -0.024696902057529693 0 -0.019004587685979457 -0.024694136491838669 0 -0.019314965618189076 -0.024511433913453756 0 -0.019886387981024857 -0.023867013051580552 0 -0.019653449816543517 -0.023902116854846212 0 -0.019471925724869266 -0.024573490134468124 0 -0.019314965618189076 -0.024511433913453756 0 -0.019556195922772749 -0.023911145478374893 0 -0.019314965618189076 -0.024511433913453756 0 -0.019556195922772749 -0.023911145478374893 0 -0.019038986766648985 -0.02438521522744741 0 -0.019556195922772749 -0.023911145478374893 0 -0.019038986766648985 -0.02438521522744741 0 -0.019216332368703421 -0.02407340495375981 0 -0.019004587685979457 -0.024694136491838669 0 -0.019314965618189076 -0.024511433913453756 0 -0.019038986766648985 -0.02438521522744741 0 -0.019038986766648985 -0.02438521522744741 0 -0.018701757568803195 -0.024346270709023548 0 -0.018285875072515681 -0.024802421095244095 0 -0.019038986766648985 -0.02438521522744741 0 -0.019216332368703421 -0.02407340495375981 0 -0.018701757568803195 -0.024346270709023548 0 -0.018958137393195892 -0.024136848134222042 0 -0.018701757568803195 -0.024346270709023548 0 -0.0187551308279033 -0.024167529784596967 0 -0.018958137393195892 -0.024136848134222042 0 -0.0187551308279033 -0.024167529784596967 0 -0.018909725163366586 -0.024178605522738598 0 -0.019216332368703421 -0.02407340495375981 0 -0.018958137393195892 -0.024136848134222042 0 -0.018701757568803195 -0.024346270709023548 0 -0.018701757568803195 -0.024346270709023548 0 -0.018285875072515681 -0.024802421095244095 0 -0.018253680198263605 -0.024546216044196698 0 -0.019004587685979457 -0.024694136491838669 0 -0.019038986766648985 -0.02438521522744741 0 -0.018285875072515681 -0.024802421095244095 0 -0.017798885521840474 -0.024914824374266602 0 -0.018285875072515681 -0.024802421095244095 0 -0.018253680198263605 -0.024546216044196698 0 -0.017798885521840474 -0.024914824374266602 0 -0.018253680198263605 -0.024546216044196698 0 -0.018489247332262371 -0.024753002990829213 0 -0.018253680198263605 -0.024546216044196698 0 -0.018533610641197417 -0.024200868826893353 0 -0.01865389852929606 -0.024303866893028311 0 -0.018253680198263605 -0.024546216044196698 0 -0.01865389852929606 -0.024303866893028311 0 -0.018489247332262371 -0.024753002990829213 0 -0.018701757568803195 -0.024346270709023548 0 -0.018253680198263605 -0.024546216044196698 0 -0.018533610641197417 -0.024200868826893353 0 -0.018701757568803195 -0.024346270709023548 0 -0.0187551308279033 -0.024167529784596967 0 -0.018533610641197417 -0.024200868826893353 0 -0.0187551308279033 -0.024167529784596967 0 -0.01862360432129968 -0.024123739570796443 0 -0.018909725163366586 -0.024178605522738598 0 -0.019125379431224436 -0.023664345925721302 0 -0.01909633157241852 -0.023485794257993634 0 -0.0187551308279033 -0.024167529784596967 0 -0.01862360432129968 -0.024123739570796443 0 -0.018533610641197417 -0.024200868826893353 0 -0.019466560189304778 -0.023106849462434399 0 -0.018956422523718465 -0.023852082355680714 0 -0.019279312190930976 -0.023240929668192852 0 -0.019125379431224436 -0.023664345925721302 0 -0.0190295936151442 -0.023847548285485892 0 -0.019466560189304778 -0.023106849462434399 0 -0.019279312190930976 -0.023240929668192852 0 -0.019513586482645472 -0.023024719126074535 0 -0.018533610641197417 -0.024200868826893353 0 -0.018956422523718465 -0.023852082355680714 0 -0.01865389852929606 -0.024303866893028311 0 -0.01862360432129968 -0.024123739570796443 0 -0.018533610641197417 -0.024200868826893353 0 -0.018956422523718465 -0.023852082355680714 0 -0.018956422523718465 -0.023852082355680714 0 -0.019207670611454022 -0.024088532507139594 0 -0.01865389852929606 -0.024303866893028311 0 -0.018956422523718465 -0.023852082355680714 0 -0.019279312190930976 -0.023240929668192852 0 -0.019441450735082629 -0.023321429729701401 0 -0.015934808023565811 -0.026740304434095103 0 -0.015956972393418575 -0.026467929800854696 0 -0.012398790167315574 -0.029725425007522652 0 -0.012723526141468315 -0.028984237364087822 0 -0.012105060453530844 -0.029142287783018205 0 -0.018956422523718465 -0.023852082355680714 0 -0.019441450735082629 -0.023321429729701401 0 -0.019207670611454022 -0.024088532507139594 0 -0.012723526141468315 -0.028984237364087822 0 -0.012323612418373507 -0.028468466119710028 0 -0.013150481393525513 -0.02812582001950455 0 -0.012723526141468315 -0.028984237364087822 0 -0.012323612418373507 -0.028468466119710028 0 -0.012105060453530844 -0.029142287783018205 0 -0.015956972393418575 -0.026467929800854696 0 -0.015821920443209576 -0.026400025593823838 0 -0.019207670611454022 -0.024088532507139594 0 -0.01865389852929606 -0.024303866893028311 0 -0.018489247332262371 -0.024753002990829213 0 -0.012323612418373507 -0.028468466119710028 0 -0.013150481393525513 -0.02812582001950455 0 -0.012073410200032775 -0.027755398982283967 0 -0.01910107549217134 -0.023538841632039828 0 -0.019474373929653132 -0.023439975021748747 0 -0.019268259194988313 -0.023249058466928887 0 -0.01910107549217134 -0.023538841632039828 0 -0.019384117117805584 -0.023676353177569318 0 -0.019474373929653132 -0.023439975021748747 0 -0.01910107549217134 -0.023538841632039828 0 -0.019384117117805584 -0.023676353177569318 0 -0.019190620089329483 -0.023821800260728061 0 -0.019384117117805584 -0.023676353177569318 0 -0.019621175138294915 -0.023633226177461199 0 -0.019474373929653132 -0.023439975021748747 0 -0.019621175138294915 -0.023633226177461199 0 -0.019474373929653132 -0.023439975021748747 0 -0.019752920002427576 -0.023404755439149244 0 -0.019474373929653132 -0.023439975021748747 0 -0.019689205590110739 -0.023047851086652901 0 -0.019752920002427576 -0.023404755439149244 0 -0.019474373929653132 -0.023439975021748747 0 -0.019689205590110739 -0.023047851086652901 0 -0.019268259194988313 -0.023249058466928887 0 -0.019689205590110739 -0.023047851086652901 0 -0.019268259194988313 -0.023249058466928887 0 -0.019324988018842006 -0.022918644630741968 0 -0.01910107549217134 -0.023538841632039828 0 -0.019268259194988313 -0.023249058466928887 0 -0.018794092141229114 -0.023241621278112426 0 -0.019268259194988313 -0.023249058466928887 0 -0.019324988018842006 -0.022918644630741968 0 -0.018794092141229114 -0.023241621278112426 0 -0.019324988018842006 -0.022918644630741968 0 -0.018915316204601216 -0.022700691776588015 0 -0.018794092141229114 -0.023241621278112426 0 -0.020396997541069745 -0.022484018388366153 0 -0.01537832723729874 -0.02579934974713621 0 -0.019324988018842006 -0.022918644630741968 0 -0.019656302018282262 -0.022612649858197175 0 -0.018915316204601216 -0.022700691776588015 0 -0.015934808023565811 -0.026740304434095103 0 -0.01537832723729874 -0.02579934974713621 0 -0.019441450735082629 -0.023321429729701401 0 -0.019290759730169554 -0.023196861403234969 0 -0.019409087359075802 -0.023233175277103217 0 -0.019279312190930976 -0.023240929668192852 0 -0.019290759730169554 -0.023196861403234969 0 -0.019513586482645472 -0.023024719126074535 0 -0.019279312190930976 -0.023240929668192852 0 -0.019441450735082629 -0.023321429729701401 0 -0.019290759730169554 -0.023196861403234969 0 -0.019689205590110739 -0.023047851086652901 0 -0.019324988018842006 -0.022918644630741968 0 -0.019656302018282262 -0.022612649858197175 0 -0.019656302018282262 -0.022612649858197175 0 -0.020289503608135685 -0.022745989043461937 0 -0.020069201105252604 -0.02300686653219406 0 -0.019689205590110739 -0.023047851086652901 0 -0.019656302018282262 -0.022612649858197175 0 -0.020069201105252604 -0.02300686653219406 0 -0.020396997541069745 -0.022484018388366153 0 -0.019884814003113028 -0.02274893881843439 0 -0.019290759730169554 -0.023196861403234969 0 -0.019912555478366858 -0.022746148744244615 0 -0.020361513507861723 -0.022584943864725725 0 -0.019656302018282262 -0.022612649858197175 0 -0.020361513507861723 -0.022584943864725725 0 -0.020289503608135685 -0.022745989043461937 0 -0.019290759730169554 -0.023196861403234969 0 -0.019513586482645472 -0.023024719126074535 0 -0.019912555478366858 -0.022746148744244615 0 -0.019466560189304778 -0.023106849462434399 0 -0.019513586482645472 -0.023024719126074535 0 -0.019912555478366858 -0.022746148744244615 0 -0.019466560189304778 -0.023106849462434399 0 -0.019912555478366858 -0.022746148744244615 0 -0.019748696249421969 -0.022816040253687501 0 -0.020094891889648046 -0.022635137095498914 0 -0.020442595771058548 -0.022485255218174145 0 -0.019912555478366858 -0.022746148744244615 0 -0.020361513507861723 -0.022584943864725725 0 -0.021172285439682973 -0.022113536427939211 0 -0.019912555478366858 -0.022746148744244615 0 -0.019748696249421969 -0.022816040253687501 0 -0.019740902167475601 -0.022734200441879127 0 -0.020361513507861723 -0.022584943864725725 0 -0.020786949656503635 -0.022535835961213047 0 -0.021172285439682973 -0.022113536427939211 0 -0.020361513507861723 -0.022584943864725725 0 -0.020786949656503635 -0.022535835961213047 0 -0.020289503608135685 -0.022745989043461937 0 -0.020289503608135685 -0.022745989043461937 0 -0.020552535406302828 -0.022933285307700595 0 -0.020069201105252604 -0.02300686653219406 0 -0.020786949656503635 -0.022535835961213047 0 -0.020289503608135685 -0.022745989043461937 0 -0.020552535406302828 -0.022933285307700595 0 -0.020552535406302828 -0.022933285307700595 0 -0.020702892360733059 -0.023513455508319896 0 -0.020358961412488673 -0.023211886018072156 0 -0.020702892360733059 -0.023513455508319896 0 -0.020358961412488673 -0.023211886018072156 0 -0.020163015287066498 -0.023405355006176489 0 -0.020552535406302828 -0.022933285307700595 0 -0.020358961412488673 -0.023211886018072156 0 -0.020069201105252604 -0.02300686653219406 0 -0.019689205590110739 -0.023047851086652901 0 -0.020069201105252604 -0.02300686653219406 0 -0.019915812995348999 -0.023234938501318893 0 -0.019689205590110739 -0.023047851086652901 0 -0.019915812995348999 -0.023234938501318893 0 -0.019752920002427576 -0.023404755439149244 0 -0.019915812995348999 -0.023234938501318893 0 -0.019752920002427576 -0.023404755439149244 0 -0.019930705278374171 -0.023448925166730299 0 -0.019915812995348999 -0.023234938501318893 0 -0.020163015287066498 -0.023405355006176489 0 -0.019930705278374171 -0.023448925166730299 0 -0.020358961412488673 -0.023211886018072156 0 -0.020069201105252604 -0.02300686653219406 0 -0.020163015287066498 -0.023405355006176489 0 -0.020069201105252604 -0.02300686653219406 0 -0.019915812995348999 -0.023234938501318893 0 -0.020163015287066498 -0.023405355006176489 0 -0.020163015287066498 -0.023405355006176489 0 -0.020019928566319928 -0.023574872971212749 0 -0.019930705278374171 -0.023448925166730299 0 -0.020163015287066498 -0.023405355006176489 0 -0.020019928566319928 -0.023574872971212749 0 -0.020157169841246363 -0.023714434692132778 0 -0.019752920002427576 -0.023404755439149244 0 -0.019930705278374171 -0.023448925166730299 0 -0.019859397508838278 -0.023624233658797591 0 -0.020019928566319928 -0.023574872971212749 0 -0.019930705278374171 -0.023448925166730299 0 -0.019859397508838278 -0.023624233658797591 0 -0.019859397508838278 -0.023624233658797591 0 -0.019977079725065919 -0.023682483323598121 0 -0.01987772724191909 -0.023810972635152639 0 -0.019621175138294915 -0.023633226177461199 0 -0.019859397508838278 -0.023624233658797591 0 -0.01973543211326793 -0.023789178436641696 0 -0.019621175138294915 -0.023633226177461199 0 -0.019752920002427576 -0.023404755439149244 0 -0.019859397508838278 -0.023624233658797591 0 -0.020019928566319928 -0.023574872971212749 0 -0.019977079725065919 -0.023682483323598121 0 -0.020157169841246363 -0.023714434692132778 0 -0.020019928566319928 -0.023574872971212749 0 -0.019859397508838278 -0.023624233658797591 0 -0.019977079725065919 -0.023682483323598121 0 -0.020702892360733059 -0.023513455508319896 0 -0.020157169841246363 -0.023714434692132778 0 -0.020181372304063229 -0.023751588668757886 0 -0.023079028347670644 -0.021485324766065805 0 -0.023031241534702075 -0.020775622745631949 0 -0.023760304529238604 -0.020604575397403936 0 -0.021860744633632176 -0.022494926821719115 0 -0.022203478518378537 -0.021915918704059928 0 -0.020702892360733059 -0.023513455508319896 0 -0.020163015287066498 -0.023405355006176489 0 -0.020157169841246363 -0.023714434692132778 0 -0.023079028347670644 -0.021485324766065805 0 -0.022422507728088785 -0.0211124658181162 0 -0.023031241534702075 -0.020775622745631949 0 -0.022422507728088785 -0.0211124658181162 0 -0.023031241534702075 -0.020775622745631949 0 -0.022623425796714232 -0.020382358458331515 0 -0.022422507728088785 -0.0211124658181162 0 -0.022200419745874833 -0.020558546012454233 0 -0.022623425796714232 -0.020382358458331515 0 -0.022422507728088785 -0.0211124658181162 0 -0.022082941517275734 -0.021188309790428878 0 -0.022200419745874833 -0.020558546012454233 0 -0.022422507728088785 -0.0211124658181162 0 -0.022082941517275734 -0.021188309790428878 0 -0.022146234577569798 -0.021603449972123118 0 -0.022146234577569798 -0.021603449972123118 0 -0.022109964545694926 -0.021945367600004075 0 -0.021856169804178222 -0.021699408523779995 0 -0.022082941517275734 -0.021188309790428878 0 -0.022146234577569798 -0.021603449972123118 0 -0.021856169804178222 -0.021699408523779995 0 -0.022422507728088785 -0.0211124658181162 0 -0.022146234577569798 -0.021603449972123118 0 -0.022269977892802727 -0.021745648209848159 0 -0.022146234577569798 -0.021603449972123118 0 -0.022109964545694926 -0.021945367600004075 0 -0.022269977892802727 -0.021745648209848159 0 -0.021860744633632176 -0.022494926821719115 0 -0.021904003126202821 -0.022344994660432011 0 -0.023079028347670644 -0.021485324766065805 0 -0.022422507728088785 -0.0211124658181162 0 -0.022269977892802727 -0.021745648209848159 0 -0.022109964545694926 -0.021945367600004075 0 -0.022269977892802727 -0.021745648209848159 0 -0.021841051453403204 -0.022403496686372319 0 -0.023079028347670644 -0.021485324766065805 0 -0.022269977892802727 -0.021745648209848159 0 -0.021841051453403204 -0.022403496686372319 0 -0.020552535406302828 -0.022933285307700595 0 -0.020702892360733059 -0.023513455508319896 0 -0.021841051453403204 -0.022403496686372319 0 -0.021841051453403204 -0.022403496686372319 0 -0.021172285439682973 -0.022113536427939211 0 -0.022121625367092713 -0.022185850306003788 0 -0.020786949656503635 -0.022535835961213047 0 -0.020552535406302828 -0.022933285307700595 0 -0.021841051453403204 -0.022403496686372319 0 -0.020442595771058548 -0.022485255218174145 0 -0.020972138052077899 -0.022801445217089895 0 -0.020786949656503635 -0.022535835961213047 0 -0.021841051453403204 -0.022403496686372319 0 -0.021172285439682973 -0.022113536427939211 0 -0.019748696249421969 -0.022816040253687501 0 -0.019740902167475601 -0.022734200441879127 0 -0.019655210203015163 -0.022699241699421606 0 -0.018909725163366586 -0.024178605522738598 0 -0.01916430435457981 -0.024059170955444145 0 -0.019327535603808264 -0.02404096269404904 0 -0.01909633157241852 -0.023485794257993634 0 -0.020972138052077899 -0.022801445217089895 0 -0.019216332368703421 -0.02407340495375981 0 -0.018958137393195892 -0.024136848134222042 0 -0.01916430435457981 -0.024059170955444145 0 -0.018958137393195892 -0.024136848134222042 0 -0.018909725163366586 -0.024178605522738598 0 -0.01916430435457981 -0.024059170955444145 0 -0.019216332368703421 -0.02407340495375981 0 -0.019343146027702481 -0.023958006564686343 0 -0.019583001761363798 -0.023785555859131932 0 -0.019216332368703421 -0.02407340495375981 0 -0.01916430435457981 -0.024059170955444145 0 -0.019343146027702481 -0.023958006564686343 0 -0.01916430435457981 -0.024059170955444145 0 -0.019343146027702481 -0.023958006564686343 0 -0.019327535603808264 -0.02404096269404904 0 -0.019343146027702481 -0.023958006564686343 0 -0.019327535603808264 -0.02404096269404904 0 -0.019583001761363798 -0.023785555859131932 0 -0.022109964545694926 -0.021945367600004075 0 -0.022121625367092713 -0.022185850306003788 0 -0.021856169804178222 -0.021699408523779995 0 -0.019327535603808264 -0.02404096269404904 0 -0.0199282248146847 -0.023540013928172718 0 -0.019583001761363798 -0.023785555859131932 0 -0.020972138052077899 -0.022801445217089895 0 -0.022386718148778191 -0.021741032661243408 0 -0.020972138052077899 -0.022801445217089895 0 -0.020855480181737038 -0.022875322936813398 0 -0.022109964545694926 -0.021945367600004075 0 -0.021841051453403204 -0.022403496686372319 0 -0.022121625367092713 -0.022185850306003788 0 -0.022839503073923604 -0.022505969186095653 0 -0.021831582956387454 -0.022208499403098741 0 -0.021856169804178222 -0.021699408523779995 0 -0.0199282248146847 -0.023540013928172718 0 -0.019583001761363798 -0.023785555859131932 0 -0.020155546158384965 -0.023253176970301777 0 -0.019556195922772749 -0.023911145478374893 0 -0.019216332368703421 -0.02407340495375981 0 -0.019583001761363798 -0.023785555859131932 0 -0.019556195922772749 -0.023911145478374893 0 -0.019583001761363798 -0.023785555859131932 0 -0.020155546158384965 -0.023253176970301777 0 -0.020267781858331658 -0.023146132417889605 0 -0.019556195922772749 -0.023911145478374893 0 -0.020155546158384965 -0.023253176970301777 0 -0.020855480181737038 -0.022875322936813398 0 -0.020580899900163499 -0.022370620178496746 0 -0.0199282248146847 -0.023540013928172718 0 -0.020155546158384965 -0.023253176970301777 0 -0.020711645370946725 -0.02229275242952249 0 -0.021831582956387454 -0.022208499403098741 0 -0.021435393528097171 -0.021457555840473291 0 -0.020711645370946725 -0.02229275242952249 0 -0.021435393528097171 -0.021457555840473291 0 -0.020711645370946725 -0.02229275242952249 0 -0.02084482576541714 -0.02103862828364482 0 -0.021831582956387454 -0.022208499403098741 0 -0.021435393528097171 -0.021457555840473291 0 -0.021856169804178222 -0.021699408523779995 0 -0.021435393528097171 -0.021457555840473291 0 -0.021856169804178222 -0.021699408523779995 0 -0.021830535012961207 -0.020913234828338435 0 -0.021830535012961207 -0.020913234828338435 0 -0.021713920690184355 -0.020094800213061488 0 -0.022200419745874833 -0.020558546012454233 0 -0.022082941517275734 -0.021188309790428878 0 -0.021856169804178222 -0.021699408523779995 0 -0.021830535012961207 -0.020913234828338435 0 -0.022082941517275734 -0.021188309790428878 0 -0.021830535012961207 -0.020913234828338435 0 -0.022200419745874833 -0.020558546012454233 0 -0.021435393528097171 -0.021457555840473291 0 -0.021447277191891899 -0.020621573014112122 0 -0.02084482576541714 -0.02103862828364482 0 -0.021830535012961207 -0.020913234828338435 0 -0.021447277191891899 -0.020621573014112122 0 -0.021713920690184355 -0.020094800213061488 0 -0.021435393528097171 -0.021457555840473291 0 -0.021830535012961207 -0.020913234828338435 0 -0.021447277191891899 -0.020621573014112122 0 -0.021447277191891899 -0.020621573014112122 0 -0.021713920690184355 -0.020094800213061488 0 -0.021209236345223318 -0.019883586129590732 0 -0.021713920690184355 -0.020094800213061488 0 -0.02148502753637976 -0.019171107028306888 0 -0.021209236345223318 -0.019883586129590732 0 -0.021713920690184355 -0.020094800213061488 0 -0.022097084126216276 -0.019432118825858786 0 -0.022200419745874833 -0.020558546012454233 0 -0.021713920690184355 -0.020094800213061488 0 -0.022097084126216276 -0.019432118825858786 0 -0.02148502753637976 -0.019171107028306888 0 -0.022097084126216276 -0.019432118825858786 0 -0.02148502753637976 -0.019171107028306888 0 -0.021768074330971197 -0.018677712138914147 0 -0.02148502753637976 -0.019171107028306888 0 -0.021768074330971197 -0.018677712138914147 0 -0.021299839699549301 -0.018557035588866694 0 -0.021768074330971197 -0.018677712138914147 0 -0.021299839699549301 -0.018557035588866694 0 -0.021482009466871049 -0.018208640240911598 0 -0.021768074330971197 -0.018677712138914147 0 -0.021978722891273984 -0.01826731640456877 0 -0.021482009466871049 -0.018208640240911598 0 -0.021978722891273984 -0.01826731640456877 0 -0.021482009466871049 -0.018208640240911598 0 -0.021768566626896163 -0.017904645040596051 0 -0.021978722891273984 -0.01826731640456877 0 -0.022558882761085836 -0.017983944991551471 0 -0.021768566626896163 -0.017904645040596051 0 -0.021978722891273984 -0.01826731640456877 0 -0.022523938281058871 -0.018598032950834096 0 -0.022558882761085836 -0.017983944991551471 0 -0.022097084126216276 -0.019432118825858786 0 -0.021768074330971197 -0.018677712138914147 0 -0.022523938281058871 -0.018598032950834096 0 -0.021768074330971197 -0.018677712138914147 0 -0.021978722891273984 -0.01826731640456877 0 -0.022523938281058871 -0.018598032950834096 0 -0.022523938281058871 -0.018598032950834096 0 -0.023286619294138434 -0.018633829418277445 0 -0.022901810433672766 -0.019475862398713194 0 -0.022523938281058871 -0.018598032950834096 0 -0.022558882761085836 -0.017983944991551471 0 -0.023101930038636139 -0.018019163599942208 0 -0.022523938281058871 -0.018598032950834096 0 -0.023101930038636139 -0.018019163599942208 0 -0.023286619294138434 -0.018633829418277445 0 -0.022888140411283994 -0.018366782927789021 0 -0.023134187351286768 -0.016649072929740161 0 -0.023101930038636139 -0.018019163599942208 0 -0.023286619294138434 -0.018633829418277445 0 -0.023625929015430685 -0.017869749822208753 0 -0.022888140411283994 -0.018366782927789021 0 -0.022527895870270792 -0.019492263813884466 0 -0.022455564924676159 -0.018008848721550088 0 -0.022135449808662194 -0.019564191699999105 0 -0.023160845076148559 -0.01936083446453243 0 -0.022135449808662194 -0.019564191699999105 0 -0.022783712762880135 -0.01987766964802206 0 -0.023160845076148559 -0.01936083446453243 0 -0.022783712762880135 -0.01987766964802206 0 -0.023236777765919769 -0.020182530206782703 0 -0.023160845076148559 -0.01936083446453243 0 -0.022097084126216276 -0.019432118825858786 0 -0.022523938281058871 -0.018598032950834096 0 -0.022901810433672766 -0.019475862398713194 0 -0.022527895870270792 -0.019492263813884466 0 -0.02221348596293617 -0.020445520683893204 0 -0.022097084126216276 -0.019432118825858786 0 -0.022901810433672766 -0.019475862398713194 0 -0.022200419745874833 -0.020558546012454233 0 -0.022135449808662194 -0.019564191699999105 0 -0.022200419745874833 -0.020558546012454233 0 -0.022623425796714232 -0.020382358458331515 0 -0.022135449808662194 -0.019564191699999105 0 -0.022623425796714232 -0.020382358458331515 0 -0.022783712762880135 -0.01987766964802206 0 -0.023031241534702075 -0.020775622745631949 0 -0.022623425796714232 -0.020382358458331515 0 -0.023236777765919769 -0.020182530206782703 0 -0.022623425796714232 -0.020382358458331515 0 -0.022783712762880135 -0.01987766964802206 0 -0.023236777765919769 -0.020182530206782703 0 -0.023236777765919769 -0.020182530206782703 0 -0.023760304529238604 -0.020604575397403936 0 -0.023735699930180106 -0.019789557434220093 0 -0.023031241534702075 -0.020775622745631949 0 -0.023236777765919769 -0.020182530206782703 0 -0.023760304529238604 -0.020604575397403936 0 -0.022203478518378537 -0.021915918704059928 0 -0.021120259507618432 -0.022702791118107881 0 -0.01987772724191909 -0.023810972635152639 0 -0.019705369861094061 -0.023902984548328291 0 -0.019731391051271981 -0.024050779260873748 0 -0.023760304529238604 -0.020604575397403936 0 -0.024600911896725138 -0.019508498433891911 0 -0.023735699930180106 -0.019789557434220093 0 -0.020157169841246363 -0.023714434692132778 0 -0.01987772724191909 -0.023810972635152639 0 -0.019731391051271981 -0.024050779260873748 0 -0.020157169841246363 -0.023714434692132778 0 -0.020181372304063229 -0.023751588668757886 0 -0.020196129917265701 -0.023811475546238497 0 -0.019783608130230664 -0.024255974250971566 0 -0.021120259507618432 -0.022702791118107881 0 -0.019977079725065919 -0.023682483323598121 0 -0.020157169841246363 -0.023714434692132778 0 -0.01987772724191909 -0.023810972635152639 0 -0.019859397508838278 -0.023624233658797591 0 -0.01987772724191909 -0.023810972635152639 0 -0.01973543211326793 -0.023789178436641696 0 -0.01987772724191909 -0.023810972635152639 0 -0.01973543211326793 -0.023789178436641696 0 -0.019705369861094061 -0.023902984548328291 0 -0.019432519386576762 -0.024377798479819537 0 -0.019545801042397008 -0.023985581013683276 0 -0.019552072128557814 -0.023437096656832405 0 -0.021120259507618432 -0.022702791118107881 0 -0.022572026785619075 -0.020509909933781895 0 -0.024600911896725138 -0.019508498433891911 0 -0.023899739994661374 -0.019200503843191663 0 -0.023735699930180106 -0.019789557434220093 0 -0.019705369861094061 -0.023902984548328291 0 -0.019731391051271981 -0.024050779260873748 0 -0.019624519569695333 -0.024005030452940588 0 -0.019731391051271981 -0.024050779260873748 0 -0.019638379352711632 -0.024042396228298811 0 -0.019624519569695333 -0.024005030452940588 0 -0.021120259507618432 -0.022702791118107881 0 -0.01978808075209644 -0.024277679877325618 0 -0.019731391051271981 -0.024050779260873748 0 -0.019638379352711632 -0.024042396228298811 0 -0.019545801042397008 -0.023985581013683276 0 -0.019638379352711632 -0.024042396228298811 0 -0.019545801042397008 -0.023985581013683276 0 -0.019659655109105584 -0.024026928278813538 0 -0.024600911896725138 -0.019508498433891911 0 -0.023899739994661374 -0.019200503843191663 0 -0.024498560154745906 -0.018537168171304953 0 -0.023899739994661374 -0.019200503843191663 0 -0.023160845076148559 -0.01936083446453243 0 -0.023843004579938092 -0.018381773629753025 0 -0.023899739994661374 -0.019200503843191663 0 -0.023735699930180106 -0.019789557434220093 0 -0.023160845076148559 -0.01936083446453243 0 -0.023236777765919769 -0.020182530206782703 0 -0.023735699930180106 -0.019789557434220093 0 -0.023160845076148559 -0.01936083446453243 0 -0.022455564924676159 -0.018008848721550088 0 -0.023843004579938092 -0.018381773629753025 0 -0.023287297668148032 -0.017342659587714134 0 -0.022455564924676159 -0.018008848721550088 0 -0.023160845076148559 -0.01936083446453243 0 -0.023843004579938092 -0.018381773629753025 0 -0.023843004579938092 -0.018381773629753025 0 -0.023287297668148032 -0.017342659587714134 0 -0.024051947780469696 -0.017379548988261301 0 -0.022455564924676159 -0.018008848721550088 0 -0.023287297668148032 -0.017342659587714134 0 -0.023010654661893639 -0.016226216281156409 0 -0.023287297668148032 -0.017342659587714134 0 -0.023898307494166025 -0.016791111881140373 0 -0.024051947780469696 -0.017379548988261301 0 -0.023287297668148032 -0.017342659587714134 0 -0.023898307494166025 -0.016791111881140373 0 -0.023403208514054027 -0.016492650643901135 0 -0.023898307494166025 -0.016791111881140373 0 -0.023403208514054027 -0.016492650643901135 0 -0.024097665147425871 -0.016160430801538617 0 -0.023403208514054027 -0.016492650643901135 0 -0.024097665147425871 -0.016160430801538617 0 -0.023474978340016474 -0.015756918034587699 0 -0.023403208514054027 -0.016492650643901135 0 -0.023474978340016474 -0.015756918034587699 0 -0.02270025854787204 -0.016055916231444672 0 -0.023287297668148032 -0.017342659587714134 0 -0.023403208514054027 -0.016492650643901135 0 -0.023010654661893639 -0.016226216281156409 0 -0.023124458392133465 -0.01653282256947022 0 -0.023134187351286768 -0.016649072929740161 0 -0.024732328510229128 -0.016498565928680285 0 -0.024866800539840268 -0.017377405208670368 0 -0.026028628132812561 -0.016390198939914263 0 -0.023898307494166025 -0.016791111881140373 0 -0.024732328510229128 -0.016498565928680285 0 -0.024097665147425871 -0.016160430801538617 0 -0.023898307494166025 -0.016791111881140373 0 -0.024732328510229128 -0.016498565928680285 0 -0.024051947780469696 -0.017379548988261301 0 -0.024732328510229128 -0.016498565928680285 0 -0.024051947780469696 -0.017379548988261301 0 -0.024866800539840268 -0.017377405208670368 0 -0.024600911896725138 -0.019508498433891911 0 -0.024498560154745906 -0.018537168171304953 0 -0.025315981888523267 -0.018079771100306657 0 -0.024866800539840268 -0.017377405208670368 0 -0.024498560154745906 -0.018537168171304953 0 -0.025315981888523267 -0.018079771100306657 0 -0.023843004579938092 -0.018381773629753025 0 -0.024866800539840268 -0.017377405208670368 0 -0.024498560154745906 -0.018537168171304953 0 -0.023843004579938092 -0.018381773629753025 0 -0.024051947780469696 -0.017379548988261301 0 -0.024866800539840268 -0.017377405208670368 0 -0.023899739994661374 -0.019200503843191663 0 -0.023843004579938092 -0.018381773629753025 0 -0.024498560154745906 -0.018537168171304953 0 -0.01982509329960468 -0.023904802582829402 0 -0.019614200046516556 -0.024039182303472892 0 -0.019848610954945698 -0.023547030650160714 0 -0.020221816109641744 -0.02349270876079693 0 -0.019659655109105584 -0.024026928278813538 0 -0.019848610954945698 -0.023547030650160714 0 -0.019552072128557814 -0.023437096656832405 0 -0.019659655109105584 -0.024026928278813538 0 -0.019545801042397008 -0.023985581013683276 0 -0.019552072128557814 -0.023437096656832405 0 -0.019659655109105584 -0.024026928278813538 0 -0.019848610954945698 -0.023547030650160714 0 -0.019934206340585469 -0.023249732760201185 0 -0.020221816109641744 -0.02349270876079693 0 -0.019848610954945698 -0.023547030650160714 0 -0.019934206340585469 -0.023249732760201185 0 -0.019552072128557814 -0.023437096656832405 0 -0.024866800539840268 -0.017377405208670368 0 -0.025315981888523267 -0.018079771100306657 0 -0.026028628132812561 -0.016390198939914263 0 -0.022572026785619075 -0.020509909933781895 0 -0.022795645135642365 -0.019873056443358239 0 -0.019934206340585469 -0.023249732760201185 0 -0.019552072128557814 -0.023437096656832405 0 -0.019839877462183547 -0.022707376709463777 0 -0.019934206340585469 -0.023249732760201185 0 -0.019839877462183547 -0.022707376709463777 0 -0.020216771219512913 -0.023011542983715376 0 -0.019839877462183547 -0.022707376709463777 0 -0.020172109588538236 -0.02267062998074611 0 -0.020216771219512913 -0.023011542983715376 0 -0.020450963974364782 -0.022822148718185237 0 -0.020325521439138152 -0.022738115524129316 0 -0.020216771219512913 -0.023011542983715376 0 -0.020325521439138152 -0.022738115524129316 0 -0.020310623378784167 -0.022558728436275651 0 -0.020479217662057323 -0.022629671322527019 0 -0.020450963974364782 -0.022822148718185237 0 -0.020325521439138152 -0.022738115524129316 0 -0.020479217662057323 -0.022629671322527019 0 -0.020325521439138152 -0.022738115524129316 0 -0.020172109588538236 -0.02267062998074611 0 -0.020216771219512913 -0.023011542983715376 0 -0.020325521439138152 -0.022738115524129316 0 -0.020172109588538236 -0.02267062998074611 0 -0.020310623378784167 -0.022558728436275651 0 -0.020450963974364782 -0.022822148718185237 0 -0.020216771219512913 -0.023011542983715376 0 -0.020525235831690296 -0.022983305633860036 0 -0.020221816109641744 -0.02349270876079693 0 -0.020617598417507699 -0.023111825102928956 0 -0.020525235831690296 -0.022983305633860036 0 -0.01982509329960468 -0.023904802582829402 0 -0.01920396899813762 -0.023883218737298317 0 -0.020216771219512913 -0.023011542983715376 0 -0.020221816109641744 -0.02349270876079693 0 -0.020525235831690296 -0.022983305633860036 0 -0.019310366840529898 -0.024386758492435094 0 -0.019057560175593461 -0.024237820657250921 0 -0.018931547616693415 -0.024580542470706086 0 -0.019934206340585469 -0.023249732760201185 0 -0.020216771219512913 -0.023011542983715376 0 -0.020221816109641744 -0.02349270876079693 0 -0.019057560175593461 -0.024237820657250921 0 -0.019220402106921695 -0.024026332897391603 0 -0.01894711054659454 -0.024000477827066536 0 -0.019220402106921695 -0.024026332897391603 0 -0.019423998877915294 -0.024117652678969318 0 -0.019457334119610259 -0.023964489507260135 0 -0.019057560175593461 -0.024237820657250921 0 -0.019220402106921695 -0.024026332897391603 0 -0.019423998877915294 -0.024117652678969318 0 -0.019310366840529898 -0.024386758492435094 0 -0.019057560175593461 -0.024237820657250921 0 -0.019423998877915294 -0.024117652678969318 0 -0.019423998877915294 -0.024117652678969318 0 -0.019659655109105584 -0.024026928278813538 0 -0.019556997269679768 -0.024044490517530225 0 -0.019310366840529898 -0.024386758492435094 0 -0.019423998877915294 -0.024117652678969318 0 -0.019659655109105584 -0.024026928278813538 0 -0.019638379352711632 -0.024042396228298811 0 -0.019659655109105584 -0.024026928278813538 0 -0.019556997269679768 -0.024044490517530225 0 -0.019624519569695333 -0.024005030452940588 0 -0.019556997269679768 -0.024044490517530225 0 -0.019457334119610259 -0.023964489507260135 0 -0.019638379352711632 -0.024042396228298811 0 -0.019624519569695333 -0.024005030452940588 0 -0.019556997269679768 -0.024044490517530225 0 -0.019423998877915294 -0.024117652678969318 0 -0.019556997269679768 -0.024044490517530225 0 -0.019457334119610259 -0.023964489507260135 0 -0.019457334119610259 -0.023964489507260135 0 -0.01953552236847389 -0.023824525688625784 0 -0.019190620089329483 -0.023821800260728061 0 -0.019624519569695333 -0.024005030452940588 0 -0.019457334119610259 -0.023964489507260135 0 -0.01953552236847389 -0.023824525688625784 0 -0.019705369861094061 -0.023902984548328291 0 -0.019624519569695333 -0.024005030452940588 0 -0.01953552236847389 -0.023824525688625784 0 -0.01973543211326793 -0.023789178436641696 0 -0.019705369861094061 -0.023902984548328291 0 -0.01953552236847389 -0.023824525688625784 0 -0.019621175138294915 -0.023633226177461199 0 -0.01973543211326793 -0.023789178436641696 0 -0.01953552236847389 -0.023824525688625784 0 -0.019384117117805584 -0.023676353177569318 0 -0.01953552236847389 -0.023824525688625784 0 -0.019190620089329483 -0.023821800260728061 0 -0.019384117117805584 -0.023676353177569318 0 -0.019621175138294915 -0.023633226177461199 0 -0.01953552236847389 -0.023824525688625784 0 -0.019220402106921695 -0.024026332897391603 0 -0.019190620089329483 -0.023821800260728061 0 -0.01894711054659454 -0.024000477827066536 0 -0.019220402106921695 -0.024026332897391603 0 -0.019457334119610259 -0.023964489507260135 0 -0.019190620089329483 -0.023821800260728061 0 -0.020978919219751604 -0.018980659299329891 0 -0.02075516308022015 -0.019342479268423054 0 -0.023564881901457755 -0.016614113521079464 0 -0.024357294849247587 -0.016780362483695931 0 -0.024255514533691194 -0.016858121414729022 0 -0.020978919219751604 -0.018980659299329891 0 -0.020825529632818852 -0.018316424016188704 0 -0.023564881901457755 -0.016614113521079464 0 -0.022613442974867899 -0.016645189076182398 0 -0.023665205076613835 -0.016875790731274015 0 -0.023564881901457755 -0.016614113521079464 0 -0.024357294849247587 -0.016780362483695931 0 -0.023665205076613835 -0.016875790731274015 0 -0.024357294849247587 -0.016780362483695931 0 -0.023665205076613835 -0.016875790731274015 0 -0.024310705322816834 -0.016965758641394581 0 -0.024998960399999541 -0.016485408316662047 0 -0.024357294849247587 -0.016780362483695931 0 -0.024310705322816834 -0.016965758641394581 0 -0.025000121286283882 -0.016483295918198089 0 -0.024999638407007346 -0.015158903877303375 0 -0.025507769639178383 -0.015237095435890578 0 -0.024999962601231975 -0.016483087672916612 0 -0.024867033694343083 -0.016082302689715756 0 -0.024998960399999541 -0.016485408316662047 0 -0.024357294849247587 -0.016780362483695931 0 -0.024948029932277044 -0.017095310055860645 0 -0.024357294849247587 -0.016780362483695931 0 -0.024641724096618196 -0.017035338556664233 0 -0.024255514533691194 -0.016858121414729022 0 -0.024357294849247587 -0.016780362483695931 0 -0.024641724096618196 -0.017035338556664233 0 -0.024948029932277044 -0.017095310055860645 0 -0.024998960399999541 -0.016485408316662047 0 -0.024948029932277044 -0.017095310055860645 0 -0.024999588995553598 -0.017895050700162961 0 -0.024641724096618196 -0.017035338556664233 0 -0.024948029932277044 -0.017095310055860645 0 -0.025099261777974596 -0.017591920828897444 0 -0.024948029932277044 -0.017095310055860645 0 -0.024999588995553598 -0.017895050700162961 0 -0.025099261777974596 -0.017591920828897444 0 -0.025139996061340413 -0.017295648050500718 0 -0.024700913101798366 -0.019143343530343106 0 -0.025099261777974596 -0.017591920828897444 0 -0.025503541517069891 -0.018260013512942801 0 -0.02619932129715646 -0.018606131263902041 0 -0.025000029341599325 -0.019311159198661037 0 -0.024999588995553598 -0.017895050700162961 0 -0.025382383462701042 -0.018639998922495783 0 -0.024999588995553598 -0.017895050700162961 0 -0.025099261777974596 -0.017591920828897444 0 -0.025503541517069891 -0.018260013512942801 0 -0.024999588995553598 -0.017895050700162961 0 -0.025503541517069891 -0.018260013512942801 0 -0.025382383462701042 -0.018639998922495783 0 -0.025503541517069891 -0.018260013512942801 0 -0.025382383462701042 -0.018639998922495783 0 -0.025739960743807053 -0.018679516086189684 0 -0.024641724096618196 -0.017035338556664233 0 -0.024598417854338878 -0.016745058550604333 0 -0.024255514533691194 -0.016858121414729022 0 -0.024641724096618196 -0.017035338556664233 0 -0.025099261777974596 -0.017591920828897444 0 -0.024656934967809806 -0.01679075273789098 0 -0.024641724096618196 -0.017035338556664233 0 -0.024656934967809806 -0.01679075273789098 0 -0.024598417854338878 -0.016745058550604333 0 -0.025642483980928259 -0.018721220214840892 0 -0.024700913101798366 -0.019143343530343106 0 -0.025503541517069891 -0.018260013512942801 0 -0.025739960743807053 -0.018679516086189684 0 -0.026057581783116929 -0.018545306134202549 0 -0.025739960743807053 -0.018679516086189684 0 -0.025990656198363875 -0.018688894041600328 0 -0.026057581783116929 -0.018545306134202549 0 -0.025934694683102083 -0.018816881694099143 0 -0.025739960743807053 -0.018679516086189684 0 -0.025990656198363875 -0.018688894041600328 0 -0.025990656198363875 -0.018688894041600328 0 -0.026057581783116929 -0.018545306134202549 0 -0.02621908893995582 -0.018711813989207921 0 -0.025934694683102083 -0.018816881694099143 0 -0.025990656198363875 -0.018688894041600328 0 -0.02621908893995582 -0.018711813989207921 0 -0.024700913101798366 -0.019143343530343106 0 -0.023460371735014102 -0.021807034843899991 0 -0.017577993400164877 -0.023457107863899172 0 -0.018223552566763539 -0.0228945490097925 0 -0.018686326481205318 -0.023245350352086743 0 -0.023460371735014102 -0.021807034843899991 0 -0.02075516308022015 -0.019342479268423054 0 -0.017611561692821274 -0.023483739597525487 0 -0.01889180741886503 -0.023646351137892711 0 -0.017577993400164877 -0.023457107863899172 0 -0.017343602718560461 -0.023424807614019487 0 -0.017919310913720305 -0.022275049611350448 0 -0.017577993400164877 -0.023457107863899172 0 -0.018223552566763539 -0.0228945490097925 0 -0.017919310913720305 -0.022275049611350448 0 -0.018223552566763539 -0.0228945490097925 0 -0.017919310913720305 -0.022275049611350448 0 -0.018628950556401767 -0.022504889674535452 0 -0.018369247858743467 -0.021254196655308498 0 -0.018628950556401767 -0.022504889674535452 0 -0.019323624873169649 -0.022272085900650197 0 -0.018369247858743467 -0.021254196655308498 0 -0.017919310913720305 -0.022275049611350448 0 -0.018628950556401767 -0.022504889674535452 0 -0.018628950556401767 -0.022504889674535452 0 -0.018686326481205318 -0.023245350352086743 0 -0.019098555494586861 -0.022810980708632758 0 -0.018223552566763539 -0.0228945490097925 0 -0.018628950556401767 -0.022504889674535452 0 -0.018686326481205318 -0.023245350352086743 0 -0.019737361299283569 -0.023832222727459305 0 -0.01889180741886503 -0.023646351137892711 0 -0.019722415391097637 -0.023196237762353706 0 -0.018686326481205318 -0.023245350352086743 0 -0.019098555494586861 -0.022810980708632758 0 -0.019722415391097637 -0.023196237762353706 0 -0.019098555494586861 -0.022810980708632758 0 -0.019323624873169649 -0.022272085900650197 0 -0.019722415391097637 -0.023196237762353706 0 -0.019323624873169649 -0.022272085900650197 0 -0.02014988493014722 -0.022022456349279178 0 -0.018628950556401767 -0.022504889674535452 0 -0.019098555494586861 -0.022810980708632758 0 -0.019323624873169649 -0.022272085900650197 0 -0.019722415391097637 -0.023196237762353706 0 -0.020302958782914399 -0.022797752514887856 0 -0.02014988493014722 -0.022022456349279178 0 -0.020267781858331658 -0.023146132417889605 0 -0.020155546158384965 -0.023253176970301777 0 -0.020302958782914399 -0.022797752514887856 0 -0.020267781858331658 -0.023146132417889605 0 -0.019722415391097637 -0.023196237762353706 0 -0.020302958782914399 -0.022797752514887856 0 -0.020155546158384965 -0.023253176970301777 0 -0.020302958782914399 -0.022797752514887856 0 -0.020711645370946725 -0.02229275242952249 0 -0.020302958782914399 -0.022797752514887856 0 -0.020711645370946725 -0.02229275242952249 0 -0.02014988493014722 -0.022022456349279178 0 -0.020711645370946725 -0.02229275242952249 0 -0.02014988493014722 -0.022022456349279178 0 -0.02084482576541714 -0.02103862828364482 0 -0.02014988493014722 -0.022022456349279178 0 -0.020505198420939928 -0.020572520830368628 0 -0.02084482576541714 -0.02103862828364482 0 -0.021447277191891899 -0.020621573014112122 0 -0.02084482576541714 -0.02103862828364482 0 -0.021209236345223318 -0.019883586129590732 0 -0.020505198420939928 -0.020572520830368628 0 -0.02084482576541714 -0.02103862828364482 0 -0.021209236345223318 -0.019883586129590732 0 -0.018369247858743467 -0.021254196655308498 0 -0.019323624873169649 -0.022272085900650197 0 -0.019619721323739181 -0.021076303736437839 0 -0.019323624873169649 -0.022272085900650197 0 -0.02014988493014722 -0.022022456349279178 0 -0.019619721323739181 -0.021076303736437839 0 -0.02014988493014722 -0.022022456349279178 0 -0.020505198420939928 -0.020572520830368628 0 -0.019619721323739181 -0.021076303736437839 0 -0.020505198420939928 -0.020572520830368628 0 -0.019619721323739181 -0.021076303736437839 0 -0.020414250041218395 -0.01959975551247688 0 -0.019619721323739181 -0.021076303736437839 0 -0.019013354614226683 -0.019873831146451595 0 -0.020414250041218395 -0.01959975551247688 0 -0.018369247858743467 -0.021254196655308498 0 -0.019619721323739181 -0.021076303736437839 0 -0.019013354614226683 -0.019873831146451595 0 -0.019013354614226683 -0.019873831146451595 0 -0.020414250041218395 -0.01959975551247688 0 -0.021012874395038156 -0.017906883734818472 0 -0.020825529632818852 -0.018316424016188704 0 -0.020957149893590078 -0.017985219589782792 0 -0.020414250041218395 -0.01959975551247688 0 -0.021012874395038156 -0.017906883734818472 0 -0.020984023296914119 -0.019093995892402675 0 -0.022613442974867899 -0.016645189076182398 0 -0.021012874395038156 -0.017906883734818472 0 -0.023074872036946938 -0.017128340407139613 0 -0.021012874395038156 -0.017906883734818472 0 -0.022333625340909147 -0.017344882848353491 0 -0.023074872036946938 -0.017128340407139613 0 -0.020505198420939928 -0.020572520830368628 0 -0.020414250041218395 -0.01959975551247688 0 -0.020984023296914119 -0.019093995892402675 0 -0.020505198420939928 -0.020572520830368628 0 -0.021209236345223318 -0.019883586129590732 0 -0.020984023296914119 -0.019093995892402675 0 -0.021012874395038156 -0.017906883734818472 0 -0.020984023296914119 -0.019093995892402675 0 -0.021096249874534994 -0.018261102734239525 0 -0.020984023296914119 -0.019093995892402675 0 -0.021299839699549301 -0.018557035588866694 0 -0.021096249874534994 -0.018261102734239525 0 -0.02148502753637976 -0.019171107028306888 0 -0.021209236345223318 -0.019883586129590732 0 -0.020984023296914119 -0.019093995892402675 0 -0.02148502753637976 -0.019171107028306888 0 -0.020984023296914119 -0.019093995892402675 0 -0.021299839699549301 -0.018557035588866694 0 -0.021299839699549301 -0.018557035588866694 0 -0.021096249874534994 -0.018261102734239525 0 -0.021209495760790998 -0.018183440026499666 0 -0.021096249874534994 -0.018261102734239525 0 -0.021209495760790998 -0.018183440026499666 0 -0.02140472803948763 -0.017886273874775233 0 -0.021288291497839965 -0.018081109458896186 0 -0.021209495760790998 -0.018183440026499666 0 -0.021280948112012237 -0.018080634869199853 0 -0.021299839699549301 -0.018557035588866694 0 -0.021209495760790998 -0.018183440026499666 0 -0.021482009466871049 -0.018208640240911598 0 -0.021209495760790998 -0.018183440026499666 0 -0.021482009466871049 -0.018208640240911598 0 -0.021280948112012237 -0.018080634869199853 0 -0.021012874395038156 -0.017906883734818472 0 -0.022333625340909147 -0.017344882848353491 0 -0.02140472803948763 -0.017886273874775233 0 -0.021012874395038156 -0.017906883734818472 0 -0.021096249874534994 -0.018261102734239525 0 -0.02140472803948763 -0.017886273874775233 0 -0.021288291497839965 -0.018081109458896186 0 -0.02140472803948763 -0.017886273874775233 0 -0.021368238618534523 -0.018212187562823612 0 -0.021288291497839965 -0.018081109458896186 0 -0.021209495760790998 -0.018183440026499666 0 -0.02140472803948763 -0.017886273874775233 0 -0.02140472803948763 -0.017886273874775233 0 -0.022302475615089846 -0.017983918779355033 0 -0.021368238618534523 -0.018212187562823612 0 -0.022333625340909147 -0.017344882848353491 0 -0.02140472803948763 -0.017886273874775233 0 -0.022302475615089846 -0.017983918779355033 0 -0.022333625340909147 -0.017344882848353491 0 -0.023380621199899407 -0.016366873950365415 0 -0.022302475615089846 -0.017983918779355033 0 -0.023380621199899407 -0.016366873950365415 0 -0.024062494348705075 -0.016768393056686128 0 -0.024839888439282587 -0.015071028213617639 0 -0.023380621199899407 -0.016366873950365415 0 -0.024062494348705075 -0.016768393056686128 0 -0.022302475615089846 -0.017983918779355033 0 -0.023380621199899407 -0.016366873950365415 0 -0.023074872036946938 -0.017128340407139613 0 -0.023569654151012188 -0.01710439327581479 0 -0.023380621199899407 -0.016366873950365415 0 -0.025075294330852569 -0.014176786545185711 0 -0.024839888439282587 -0.015071028213617639 0 -0.02349387101901813 -0.016310978609108264 0 -0.024318759239269468 -0.015703474755288698 0 -0.022333625340909147 -0.017344882848353491 0 -0.023380621199899407 -0.016366873950365415 0 -0.023074872036946938 -0.017128340407139613 0 -0.023074872036946938 -0.017128340407139613 0 -0.023665205076613835 -0.016875790731274015 0 -0.023569654151012188 -0.01710439327581479 0 -0.022613442974867899 -0.016645189076182398 0 -0.023074872036946938 -0.017128340407139613 0 -0.023665205076613835 -0.016875790731274015 0 -0.024999638407007346 -0.015158903877303375 0 -0.025507769639178383 -0.015237095435890578 0 -0.025273926830619822 -0.014476992160833899 0 -0.023665205076613835 -0.016875790731274015 0 -0.024310705322816834 -0.016965758641394581 0 -0.023569654151012188 -0.01710439327581479 0 -0.024867033694343083 -0.016082302689715756 0 -0.024318759239269468 -0.015703474755288698 0 -0.025507769639178383 -0.015237095435890578 0 -0.025075294330852569 -0.014176786545185711 0 -0.025273926830619822 -0.014476992160833899 0 -0.025075294330852569 -0.014176786545185711 0 -0.025273926830619822 -0.014476992160833899 0 -0.025281171609240337 -0.014300194844328552 0 -0.024999638407007346 -0.015158903877303375 0 -0.025273926830619822 -0.014476992160833899 0 -0.024999974709875795 -0.013837050924043061 0 -0.024999974709875795 -0.013837050924043061 0 -0.025281171609240337 -0.014300194844328552 0 -0.025370626264610962 -0.013440126606433423 0 -0.025273926830619822 -0.014476992160833899 0 -0.024999974709875795 -0.013837050924043061 0 -0.025281171609240337 -0.014300194844328552 0 -0.025281171609240337 -0.014300194844328552 0 -0.024839888439282587 -0.015071028213617639 0 -0.025370626264610962 -0.013440126606433423 0 -0.025075294330852569 -0.014176786545185711 0 -0.025281171609240337 -0.014300194844328552 0 -0.024839888439282587 -0.015071028213617639 0 -0.025184758869213005 -0.014478413035079655 0 -0.025202494158687333 -0.013688026031916604 0 -0.024062494348705075 -0.016768393056686128 0 -0.024839888439282587 -0.015071028213617639 0 -0.025370626264610962 -0.013440126606433423 0 -0.026603797179980682 -0.012331395247739317 0 -0.025370626264610962 -0.013440126606433423 0 -0.025487645257937043 -0.012305169489658601 0 -0.024999974709875795 -0.013837050924043061 0 -0.025370626264610962 -0.013440126606433423 0 -0.024999637347501071 -0.012513772134030612 0 -0.025370626264610962 -0.013440126606433423 0 -0.024999637347501071 -0.012513772134030612 0 -0.025487645257937043 -0.012305169489658601 0 -0.024999637347501071 -0.012513772134030612 0 -0.025487645257937043 -0.012305169489658601 0 -0.025000016670316483 -0.011188494278149745 0 -0.025487645257937043 -0.012305169489658601 0 -0.025781400568153364 -0.011758678947759352 0 -0.025000016670316483 -0.011188494278149745 0 -0.026603797179980682 -0.012331395247739317 0 -0.025487645257937043 -0.012305169489658601 0 -0.025781400568153364 -0.011758678947759352 0 -0.026603797179980682 -0.012331395247739317 0 -0.025781400568153364 -0.011758678947759352 0 -0.026465705361318606 -0.011666119415233425 0 -0.025781400568153364 -0.011758678947759352 0 -0.026310378896727302 -0.011111810810238053 0 -0.025704395109526719 -0.010589037165923852 0 -0.025781400568153364 -0.011758678947759352 0 -0.026310378896727302 -0.011111810810238053 0 -0.026465705361318606 -0.011666119415233425 0 -0.025781400568153364 -0.011758678947759352 0 -0.025000016670316483 -0.011188494278149745 0 -0.025704395109526719 -0.010589037165923852 0 -0.027192835692339011 -0.011764193011978908 0 -0.026929519149816603 -0.011247546854263261 0 -0.027401464598251924 -0.011328953034544101 0 -0.025184758869213005 -0.014478413035079655 0 -0.024726667810411662 -0.014859705883130984 0 -0.027192835692339011 -0.011764193011978908 0 -0.02681560480258155 -0.01175111975527807 0 -0.026929519149816603 -0.011247546854263261 0 -0.026603797179980682 -0.012331395247739317 0 -0.027192835692339011 -0.011764193011978908 0 -0.02681560480258155 -0.01175111975527807 0 -0.026603797179980682 -0.012331395247739317 0 -0.02681560480258155 -0.01175111975527807 0 -0.026465705361318606 -0.011666119415233425 0 -0.026310378896727302 -0.011111810810238053 0 -0.026929519149816603 -0.011247546854263261 0 -0.026666859732392328 -0.010836125963409826 0 -0.026310378896727302 -0.011111810810238053 0 -0.026465705361318606 -0.011666119415233425 0 -0.026929519149816603 -0.011247546854263261 0 -0.02681560480258155 -0.01175111975527807 0 -0.026465705361318606 -0.011666119415233425 0 -0.026929519149816603 -0.011247546854263261 0 -0.026929519149816603 -0.011247546854263261 0 -0.02698782693285692 -0.010608370267935468 0 -0.027341142457286225 -0.010965059206665854 0 -0.026929519149816603 -0.011247546854263261 0 -0.02698782693285692 -0.010608370267935468 0 -0.026666859732392328 -0.010836125963409826 0 -0.02698782693285692 -0.010608370267935468 0 -0.02718937446562161 -0.01040015878713439 0 -0.027295631731125373 -0.010644432490443813 0 -0.02698782693285692 -0.010608370267935468 0 -0.026392578025664946 -0.010377203558817286 0 -0.026666859732392328 -0.010836125963409826 0 -0.026310378896727302 -0.011111810810238053 0 -0.026392578025664946 -0.010377203558817286 0 -0.026666859732392328 -0.010836125963409826 0 -0.026392578025664946 -0.010377203558817286 0 -0.026697659942579451 -0.010116997079962152 0 -0.026043555126854519 -0.0095346709086876653 0 -0.026697659942579451 -0.010116997079962152 0 -0.026043555126854519 -0.0095346709086876653 0 -0.026644468850300557 -0.0097863001741158705 0 -0.02698782693285692 -0.010608370267935468 0 -0.026392578025664946 -0.010377203558817286 0 -0.026697659942579451 -0.010116997079962152 0 -0.026697659942579451 -0.010116997079962152 0 -0.026644468850300557 -0.0097863001741158705 0 -0.026906620389494769 -0.01004463400277548 0 -0.02698782693285692 -0.010608370267935468 0 -0.026697659942579451 -0.010116997079962152 0 -0.026998497562228312 -0.010257170048768508 0 -0.026697659942579451 -0.010116997079962152 0 -0.026998497562228312 -0.010257170048768508 0 -0.026906620389494769 -0.01004463400277548 0 -0.026998497562228312 -0.010257170048768508 0 -0.027094762633401059 -0.010108212529149703 0 -0.026906620389494769 -0.01004463400277548 0 -0.026998497562228312 -0.010257170048768508 0 -0.027094762633401059 -0.010108212529149703 0 -0.02718937446562161 -0.01040015878713439 0 -0.02698782693285692 -0.010608370267935468 0 -0.026998497562228312 -0.010257170048768508 0 -0.02718937446562161 -0.01040015878713439 0 -0.025000016670316483 -0.011188494278149745 0 -0.025704395109526719 -0.010589037165923852 0 -0.024999970635055609 -0.0098655412556863387 0 -0.026310378896727302 -0.011111810810238053 0 -0.026392578025664946 -0.010377203558817286 0 -0.025704395109526719 -0.010589037165923852 0 -0.026392578025664946 -0.010377203558817286 0 -0.025704395109526719 -0.010589037165923852 0 -0.026043555126854519 -0.0095346709086876653 0 -0.025704395109526719 -0.010589037165923852 0 -0.024999970635055609 -0.0098655412556863387 0 -0.026043555126854519 -0.0095346709086876653 0 -0.024999970635055609 -0.0098655412556863387 0 -0.024999898712851305 -0.0085417776656349764 0 -0.026043555126854519 -0.0095346709086876653 0 -0.024999898712851305 -0.0085417776656349764 0 -0.026413661914077843 -0.0079234173760719413 0 -0.025672124935821453 -0.0072903942135119151 0 -0.024999898712851305 -0.0085417776656349764 0 -0.026413661914077843 -0.0079234173760719413 0 -0.026347813907471061 -0.0087640038590711764 0 -0.024999898712851305 -0.0085417776656349764 0 -0.026043555126854519 -0.0095346709086876653 0 -0.026347813907471061 -0.0087640038590711764 0 -0.026043555126854519 -0.0095346709086876653 0 -0.026347813907471061 -0.0087640038590711764 0 -0.02700145222061329 -0.0091904210833274654 0 -0.026093359422578673 -0.0095656370342943001 0 -0.026789349217785516 -0.009502352282416849 0 -0.026347813907471061 -0.0087640038590711764 0 -0.02700145222061329 -0.0091904210833274654 0 -0.027233726235552889 -0.0084536441170666478 0 -0.026644468850300557 -0.0097863001741158705 0 -0.027032515090762897 -0.0099465151249935515 0 -0.027100280006787363 -0.0099232452685259886 0 -0.026644468850300557 -0.0097863001741158705 0 -0.027032515090762897 -0.0099465151249935515 0 -0.026906620389494769 -0.01004463400277548 0 -0.026789349217785516 -0.009502352282416849 0 -0.027352066497397146 -0.0090383091203130039 0 -0.02700145222061329 -0.0091904210833274654 0 -0.027910667828035515 -0.0089182122873797641 0 -0.027233726235552889 -0.0084536441170666478 0 -0.027094762633401059 -0.010108212529149703 0 -0.027032515090762897 -0.0099465151249935515 0 -0.026906620389494769 -0.01004463400277548 0 -0.027094762633401059 -0.010108212529149703 0 -0.027032515090762897 -0.0099465151249935515 0 -0.027078256914586814 -0.0099306981172172116 0 -0.027138609879893978 -0.0093301990301858564 0 -0.027352066497397146 -0.0090383091203130039 0 -0.026074963145559737 -0.0064131050594948393 0 -0.02489066250966393 -0.0078154099520108249 0 -0.027808546509171309 -0.0083300448361547062 0 -0.027588036725278823 -0.007628118076883037 0 -0.028492671689799652 -0.0083147087995606977 0 -0.027808546509171309 -0.0083300448361547062 0 -0.027233726235552889 -0.0084536441170666478 0 -0.027588036725278823 -0.007628118076883037 0 -0.027910667828035515 -0.0089182122873797641 0 -0.027808546509171309 -0.0083300448361547062 0 -0.027233726235552889 -0.0084536441170666478 0 -0.026413661914077843 -0.0079234173760719413 0 -0.026347813907471061 -0.0087640038590711764 0 -0.027233726235552889 -0.0084536441170666478 0 -0.026413661914077843 -0.0079234173760719413 0 -0.027233726235552889 -0.0084536441170666478 0 -0.027588036725278823 -0.007628118076883037 0 -0.026413661914077843 -0.0079234173760719413 0 -0.027588036725278823 -0.007628118076883037 0 -0.026623854774168874 -0.0068901569003268024 0 -0.026074963145559737 -0.0064131050594948393 0 -0.025622709067225254 -0.0062097419034943813 0 -0.024238139921522392 -0.005322337841911994 0 -0.024284876168278974 -0.0056386841395658013 0 -0.024689556099797175 -0.0055067109349115203 0 -0.024238139921522392 -0.005322337841911994 0 -0.024284876168278974 -0.0056386841395658013 0 -0.02394041223232592 -0.0054678839620649206 0 -0.024284876168278974 -0.0056386841395658013 0 -0.02394041223232592 -0.0054678839620649206 0 -0.023948479605228893 -0.0057789955999480334 0 -0.024284876168278974 -0.0056386841395658013 0 -0.024689556099797175 -0.0055067109349115203 0 -0.02464569841555873 -0.0059644595416138216 0 -0.025622709067225254 -0.0062097419034943813 0 -0.025400953948551224 -0.0060682203083521277 0 -0.026623854774168874 -0.0068901569003268024 0 -0.025367787456877407 -0.0060666955541556237 0 -0.025672124935821453 -0.0072903942135119151 0 -0.024689556099797175 -0.0055067109349115203 0 -0.025367787456877407 -0.0060666955541556237 0 -0.02464569841555873 -0.0059644595416138216 0 -0.025367787456877407 -0.0060666955541556237 0 -0.024999676631775169 -0.0072176706187803506 0 -0.025000112851455675 -0.0058948869216847678 0 -0.025367787456877407 -0.0060666955541556237 0 -0.024999676631775169 -0.0072176706187803506 0 -0.025672124935821453 -0.0072903942135119151 0 -0.024999898712851305 -0.0085417776656349764 0 -0.024999676631775169 -0.0072176706187803506 0 -0.025672124935821453 -0.0072903942135119151 0 -0.026413661914077843 -0.0079234173760719413 0 -0.026623854774168874 -0.0068901569003268024 0 -0.025672124935821453 -0.0072903942135119151 0 -0.023117901878641853 -0.006451164169275379 0 -0.02265590386003153 -0.0066351789240281416 0 -0.022700373344725768 -0.0079612924452817351 0 -0.023082964085993918 -0.0074998453867110172 0 -0.022659941719557139 -0.007169013411709513 0 -0.022700373344725768 -0.0079612924452817351 0 -0.022659941719557139 -0.007169013411709513 0 -0.022132037542296989 -0.0078433316550759156 0 -0.022700373344725768 -0.0079612924452817351 0 -0.023203853683642361 -0.0079140139805270234 0 -0.0232690045871248 -0.0083943656558170977 0 -0.022700373344725768 -0.0079612924452817351 0 -0.023203853683642361 -0.0079140139805270234 0 -0.023082964085993918 -0.0074998453867110172 0 -0.023203853683642361 -0.0079140139805270234 0 -0.023547547261889838 -0.0080411386881594459 0 -0.023501010456814655 -0.0075536845487547575 0 -0.023203853683642361 -0.0079140139805270234 0 -0.023501010456814655 -0.0075536845487547575 0 -0.023082964085993918 -0.0074998453867110172 0 -0.023082964085993918 -0.0074998453867110172 0 -0.023481255963344123 -0.0070374719554548715 0 -0.022659941719557139 -0.007169013411709513 0 -0.023117901878641853 -0.006451164169275379 0 -0.023391968606692577 -0.006245426309580907 0 -0.023481255963344123 -0.0070374719554548715 0 -0.022659941719557139 -0.007169013411709513 0 -0.02342756145890074 -0.00624751940036853 0 -0.023501010456814655 -0.0075536845487547575 0 -0.023481255963344123 -0.0070374719554548715 0 -0.023785134168823198 -0.00732812242621183 0 -0.023501010456814655 -0.0075536845487547575 0 -0.023082964085993918 -0.0074998453867110172 0 -0.023481255963344123 -0.0070374719554548715 0 -0.023444605632890119 -0.0057939122881480887 0 -0.023709174041163964 -0.005674182392068604 0 -0.023628141797788604 -0.0054411168649289837 0 -0.023444605632890119 -0.0057939122881480887 0 -0.023709174041163964 -0.005674182392068604 0 -0.02365141627720237 -0.0058665558220675562 0 -0.023709174041163964 -0.005674182392068604 0 -0.023948479605228893 -0.0057789955999480334 0 -0.02365141627720237 -0.0058665558220675562 0 -0.023709174041163964 -0.005674182392068604 0 -0.02394041223232592 -0.0054678839620649206 0 -0.023948479605228893 -0.0057789955999480334 0 -0.024238139921522392 -0.005322337841911994 0 -0.02394041223232592 -0.0054678839620649206 0 -0.023898117622239125 -0.0051535885032044657 0 -0.02394041223232592 -0.0054678839620649206 0 -0.023628141797788604 -0.0054411168649289837 0 -0.023898117622239125 -0.0051535885032044657 0 -0.023709174041163964 -0.005674182392068604 0 -0.02394041223232592 -0.0054678839620649206 0 -0.023628141797788604 -0.0054411168649289837 0 -0.022700373344725768 -0.0079612924452817351 0 -0.022132037542296989 -0.0078433316550759156 0 -0.02216095561663594 -0.0082931644687826867 0 -0.022891521436638997 -0.0087897570813192157 0 -0.022672328413846969 -0.0086898123441136489 0 -0.022995469119319718 -0.0086126407361156281 0 -0.02265590386003153 -0.0066351789240281416 0 -0.02489066250966393 -0.0078154099520108249 0 -0.02216095561663594 -0.0082931644687826867 0 -0.02162919415182956 -0.0084141761509755747 0 -0.021940761128368434 -0.0086408994434163701 0 -0.024493364251256498 -0.0089400486316126449 0 -0.022422789235303636 -0.0086334885057533436 0 -0.02216095561663594 -0.0082931644687826867 0 -0.021940761128368434 -0.0086408994434163701 0 -0.022546193124436325 -0.0085174249607248963 0 -0.022132037542296989 -0.0078433316550759156 0 -0.02216095561663594 -0.0082931644687826867 0 -0.02162919415182956 -0.0084141761509755747 0 -0.026570824018606078 -0.0082793488188635505 0 -0.025547824903699341 -0.0092771537662039195 0 -0.024768776358800638 -0.0087300772491629933 0 -0.02489066250966393 -0.0078154099520108249 0 -0.024493364251256498 -0.0089400486316126449 0 -0.027352066497397146 -0.0090383091203130039 0 -0.02489066250966393 -0.0078154099520108249 0 -0.027910667828035515 -0.0089182122873797641 0 -0.027808546509171309 -0.0083300448361547062 0 -0.028492671689799652 -0.0083147087995606977 0 -0.027352066497397146 -0.0090383091203130039 0 -0.024493364251256498 -0.0089400486316126449 0 -0.027078256914586814 -0.0099306981172172116 0 -0.027339529862033224 -0.010108287929121461 0 -0.027457113338813587 -0.0099303773579644226 0 -0.027339529862033224 -0.010108287929121461 0 -0.027248394975376729 -0.010205714426713268 0 -0.027405200137245036 -0.010284919848491912 0 -0.027078256914586814 -0.0099306981172172116 0 -0.027339529862033224 -0.010108287929121461 0 -0.027248394975376729 -0.010205714426713268 0 -0.027094762633401059 -0.010108212529149703 0 -0.027078256914586814 -0.0099306981172172116 0 -0.027248394975376729 -0.010205714426713268 0 -0.024493364251256498 -0.0089400486316126449 0 -0.025608913596205114 -0.0096690331146329009 0 -0.022891521436638997 -0.0087897570813192157 0 -0.022672328413846969 -0.0086898123441136489 0 -0.023083755694016318 -0.0090168494431014604 0 -0.027457113338813587 -0.0099303773579644226 0 -0.02752664118412762 -0.010210513715227141 0 -0.027779168985935774 -0.010221538190365509 0 -0.027339529862033224 -0.010108287929121461 0 -0.027457113338813587 -0.0099303773579644226 0 -0.02752664118412762 -0.010210513715227141 0 -0.027339529862033224 -0.010108287929121461 0 -0.02752664118412762 -0.010210513715227141 0 -0.027405200137245036 -0.010284919848491912 0 -0.02752664118412762 -0.010210513715227141 0 -0.027779168985935774 -0.010221538190365509 0 -0.027666043979069969 -0.010399340278010372 0 -0.022891521436638997 -0.0087897570813192157 0 -0.023083755694016318 -0.0090168494431014604 0 -0.023216477254949106 -0.0088826196204851854 0 -0.023083755694016318 -0.0090168494431014604 0 -0.023216477254949106 -0.0088826196204851854 0 -0.023474639013358629 -0.0090150638261251928 0 -0.022891521436638997 -0.0087897570813192157 0 -0.023216477254949106 -0.0088826196204851854 0 -0.02341361705107747 -0.0087070003199174392 0 -0.022915092460928543 -0.0087752580343655705 0 -0.023294714439973066 -0.0086782398408241194 0 -0.022422789235303636 -0.0086334885057533436 0 -0.023355827995175427 -0.0083869171133010966 0 -0.022700373344725768 -0.0079612924452817351 0 -0.022546193124436325 -0.0085174249607248963 0 -0.0232690045871248 -0.0083943656558170977 0 -0.022995469119319718 -0.0086126407361156281 0 -0.0232690045871248 -0.0083943656558170977 0 -0.023194272597148301 -0.008626816889901771 0 -0.022891521436638997 -0.0087897570813192157 0 -0.022995469119319718 -0.0086126407361156281 0 -0.023194272597148301 -0.008626816889901771 0 -0.022700373344725768 -0.0079612924452817351 0 -0.02216095561663594 -0.0082931644687826867 0 -0.022546193124436325 -0.0085174249607248963 0 -0.023294714439973066 -0.0086782398408241194 0 -0.023936860526408976 -0.0085476377958052865 0 -0.02341361705107747 -0.0087070003199174392 0 -0.023685647109334591 -0.00881304134631016 0 -0.023898527723187693 -0.0086236942498448144 0 -0.023535711689282226 -0.0083718064666949751 0 -0.023194272597148301 -0.008626816889901771 0 -0.023896359843312821 -0.0085149164323735649 0 -0.023203853683642361 -0.0079140139805270234 0 -0.023547547261889838 -0.0080411386881594459 0 -0.0232690045871248 -0.0083943656558170977 0 -0.023547547261889838 -0.0080411386881594459 0 -0.023535711689282226 -0.0083718064666949751 0 -0.0232690045871248 -0.0083943656558170977 0 -0.023535711689282226 -0.0083718064666949751 0 -0.0232690045871248 -0.0083943656558170977 0 -0.023194272597148301 -0.008626816889901771 0 -0.023685647109334591 -0.00881304134631016 0 -0.023474639013358629 -0.0090150638261251928 0 -0.023949719132206053 -0.0089083195260085835 0 -0.023474639013358629 -0.0090150638261251928 0 -0.023532338207839551 -0.0093328354860069043 0 -0.023949719132206053 -0.0089083195260085835 0 -0.023216477254949106 -0.0088826196204851854 0 -0.02341361705107747 -0.0087070003199174392 0 -0.023474639013358629 -0.0090150638261251928 0 -0.02341361705107747 -0.0087070003199174392 0 -0.023685647109334591 -0.00881304134631016 0 -0.023474639013358629 -0.0090150638261251928 0 -0.023083755694016318 -0.0090168494431014604 0 -0.023474639013358629 -0.0090150638261251928 0 -0.023532338207839551 -0.0093328354860069043 0 -0.027779168985935774 -0.010221538190365509 0 -0.028207045420243045 -0.010536062062215374 0 -0.027816274483391898 -0.010532678460359201 0 -0.025608913596205114 -0.0096690331146329009 0 -0.02525483979313228 -0.010452953496201709 0 -0.028207045420243045 -0.010536062062215374 0 -0.027816274483391898 -0.010532678460359201 0 -0.027728905726532808 -0.010970457200492523 0 -0.027779168985935774 -0.010221538190365509 0 -0.027816274483391898 -0.010532678460359201 0 -0.027666043979069969 -0.010399340278010372 0 -0.027816274483391898 -0.010532678460359201 0 -0.027666043979069969 -0.010399340278010372 0 -0.027654763470847249 -0.010624592214213011 0 -0.02525483979313228 -0.010452953496201709 0 -0.028390058129849648 -0.010795706337107748 0 -0.027816274483391898 -0.010532678460359201 0 -0.027728905726532808 -0.010970457200492523 0 -0.027654763470847249 -0.010624592214213011 0 -0.027394838975396397 -0.011359434651256188 0 -0.0273529453481954 -0.010996869086756378 0 -0.026954160751411865 -0.01112340945144596 0 -0.027394838975396397 -0.011359434651256188 0 -0.027728905726532808 -0.010970457200492523 0 -0.0273529453481954 -0.010996869086756378 0 -0.02718937446562161 -0.01040015878713439 0 -0.02737553677803398 -0.010472238347862232 0 -0.027295631731125373 -0.010644432490443813 0 -0.02718937446562161 -0.01040015878713439 0 -0.027248394975376729 -0.010205714426713268 0 -0.02737553677803398 -0.010472238347862232 0 -0.027094762633401059 -0.010108212529149703 0 -0.02718937446562161 -0.01040015878713439 0 -0.027248394975376729 -0.010205714426713268 0 -0.027248394975376729 -0.010205714426713268 0 -0.027405200137245036 -0.010284919848491912 0 -0.02737553677803398 -0.010472238347862232 0 -0.02737553677803398 -0.010472238347862232 0 -0.027531155273703405 -0.010438494875445441 0 -0.027544851747833051 -0.01077842025244532 0 -0.02752664118412762 -0.010210513715227141 0 -0.027405200137245036 -0.010284919848491912 0 -0.027531155273703405 -0.010438494875445441 0 -0.027405200137245036 -0.010284919848491912 0 -0.02737553677803398 -0.010472238347862232 0 -0.027531155273703405 -0.010438494875445441 0 -0.02752664118412762 -0.010210513715227141 0 -0.027531155273703405 -0.010438494875445441 0 -0.027666043979069969 -0.010399340278010372 0 -0.027531155273703405 -0.010438494875445441 0 -0.027654763470847249 -0.010624592214213011 0 -0.027544851747833051 -0.01077842025244532 0 -0.027531155273703405 -0.010438494875445441 0 -0.027666043979069969 -0.010399340278010372 0 -0.027654763470847249 -0.010624592214213011 0 -0.027728905726532808 -0.010970457200492523 0 -0.027544851747833051 -0.01077842025244532 0 -0.027676585137753711 -0.011074747217721996 0 -0.027544851747833051 -0.01077842025244532 0 -0.027341142457286225 -0.010965059206665854 0 -0.027676585137753711 -0.011074747217721996 0 -0.027728905726532808 -0.010970457200492523 0 -0.027654763470847249 -0.010624592214213011 0 -0.027544851747833051 -0.01077842025244532 0 -0.02698782693285692 -0.010608370267935468 0 -0.027341142457286225 -0.010965059206665854 0 -0.027295631731125373 -0.010644432490443813 0 -0.02737553677803398 -0.010472238347862232 0 -0.027544851747833051 -0.01077842025244532 0 -0.027295631731125373 -0.010644432490443813 0 -0.027544851747833051 -0.01077842025244532 0 -0.027341142457286225 -0.010965059206665854 0 -0.027295631731125373 -0.010644432490443813 0 -0.027341142457286225 -0.010965059206665854 0 -0.027401464598251924 -0.011328953034544101 0 -0.027676585137753711 -0.011074747217721996 0 -0.026929519149816603 -0.011247546854263261 0 -0.027341142457286225 -0.010965059206665854 0 -0.027401464598251924 -0.011328953034544101 0 -0.027401464598251924 -0.011328953034544101 0 -0.027676585137753711 -0.011074747217721996 0 -0.027666244971919093 -0.011434979376793103 0 -0.024726667810411662 -0.014859705883130984 0 -0.024543432672090262 -0.014854611411725643 0 -0.027192835692339011 -0.011764193011978908 0 -0.027401464598251924 -0.011328953034544101 0 -0.027666244971919093 -0.011434979376793103 0 -0.0273529453481954 -0.010996869086756378 0 -0.027473066844725971 -0.010752571081643828 0 -0.026987260880766816 -0.010745202596862931 0 -0.027728905726532808 -0.010970457200492523 0 -0.0273529453481954 -0.010996869086756378 0 -0.027473066844725971 -0.010752571081643828 0 -0.027676585137753711 -0.011074747217721996 0 -0.027666244971919093 -0.011434979376793103 0 -0.028114463883394409 -0.01135292652095387 0 -0.027728905726532808 -0.010970457200492523 0 -0.027676585137753711 -0.011074747217721996 0 -0.027473066844725971 -0.010752571081643828 0 -0.028764599796332498 -0.010323275278885382 0 -0.024656339879313149 -0.014342845852474887 0 -0.021368238618534523 -0.018212187562823612 0 -0.021280948112012237 -0.018080634869199853 0 -0.021353670120087334 -0.017928820956288265 0 -0.024543432672090262 -0.014854611411725643 0 -0.024656339879313149 -0.014342845852474887 0 -0.021288291497839965 -0.018081109458896186 0 -0.021368238618534523 -0.018212187562823612 0 -0.021280948112012237 -0.018080634869199853 0 -0.021482009466871049 -0.018208640240911598 0 -0.021280948112012237 -0.018080634869199853 0 -0.021353670120087334 -0.017928820956288265 0 -0.021853400776277874 -0.017396652197223018 0 -0.022097657651375176 -0.017588107851759481 0 -0.02209685924409166 -0.017366904319257252 0 -0.024656339879313149 -0.014342845852474887 0 -0.021452118602408358 -0.018040368127855137 0 -0.021482009466871049 -0.018208640240911598 0 -0.021353670120087334 -0.017928820956288265 0 -0.021768566626896163 -0.017904645040596051 0 -0.024656339879313149 -0.014342845852474887 0 -0.024759755251957099 -0.014088337733137602 0 -0.0273529453481954 -0.010996869086756378 0 -0.026987260880766816 -0.010745202596862931 0 -0.026954160751411865 -0.01112340945144596 0 -0.024759755251957099 -0.014088337733137602 0 -0.023309691091208822 -0.013078233077738812 0 -0.026987260880766816 -0.010745202596862931 0 -0.026440242017092389 -0.010850140237126668 0 -0.026954160751411865 -0.01112340945144596 0 -0.02209685924409166 -0.017366904319257252 0 -0.022370740263870571 -0.017523194891050229 0 -0.022550486776712265 -0.017206434688322888 0 -0.023309691091208822 -0.013078233077738812 0 -0.025183957600320852 -0.010947316485063295 0 -0.022717842967870196 -0.017944263221378234 0 -0.021452118602408358 -0.018040368127855137 0 -0.022558882761085836 -0.017983944991551471 0 -0.022097657651375176 -0.017588107851759481 0 -0.022370740263870571 -0.017523194891050229 0 -0.022097657651375176 -0.017588107851759481 0 -0.02209685924409166 -0.017366904319257252 0 -0.022370740263870571 -0.017523194891050229 0 -0.022558882761085836 -0.017983944991551471 0 -0.022370740263870571 -0.017523194891050229 0 -0.022640647658195415 -0.017548988219211685 0 -0.022640647658195415 -0.017548988219211685 0 -0.023048712476827462 -0.017498714728903218 0 -0.022550486776712265 -0.017206434688322888 0 -0.023101930038636139 -0.018019163599942208 0 -0.022640647658195415 -0.017548988219211685 0 -0.023048712476827462 -0.017498714728903218 0 -0.022558882761085836 -0.017983944991551471 0 -0.023101930038636139 -0.018019163599942208 0 -0.022640647658195415 -0.017548988219211685 0 -0.022370740263870571 -0.017523194891050229 0 -0.022640647658195415 -0.017548988219211685 0 -0.022550486776712265 -0.017206434688322888 0 -0.02125079108498009 -0.014580998829372815 0 -0.022541895774316888 -0.014794936257756597 0 -0.022890660716857778 -0.013964751528978062 0 -0.022033332254318538 -0.016128336648650578 0 -0.023134187351286768 -0.016649072929740161 0 -0.02125079108498009 -0.014580998829372815 0 -0.022763254747753897 -0.015697805514999223 0 -0.022541895774316888 -0.014794936257756597 0 -0.023101930038636139 -0.018019163599942208 0 -0.023048712476827462 -0.017498714728903218 0 -0.023625929015430685 -0.017869749822208753 0 -0.02125079108498009 -0.014580998829372815 0 -0.021984877780593104 -0.013038640476148031 0 -0.019805832343635674 -0.013519931050322001 0 -0.02125079108498009 -0.014580998829372815 0 -0.021984877780593104 -0.013038640476148031 0 -0.022890660716857778 -0.013964751528978062 0 -0.024719690161735409 -0.011452567154789624 0 -0.023833074984317013 -0.011614758975471375 0 -0.024276861593930315 -0.010904896455268634 0 -0.023049887843090072 -0.012220324624030752 0 -0.023309691091208822 -0.013078233077738812 0 -0.022033332254318538 -0.016128336648650578 0 -0.023309691091208822 -0.013078233077738812 0 -0.023833074984317013 -0.011614758975471375 0 -0.024276861593930315 -0.010904896455268634 0 -0.023699520431111946 -0.010894852668021187 0 -0.024276861593930315 -0.010904896455268634 0 -0.023867199361357314 -0.010440248253850943 0 -0.023699520431111946 -0.010894852668021187 0 -0.024719690161735409 -0.011452567154789624 0 -0.024276861593930315 -0.010904896455268634 0 -0.024841276025125095 -0.010979171885582098 0 -0.024276861593930315 -0.010904896455268634 0 -0.024841276025125095 -0.010979171885582098 0 -0.024642693392839417 -0.010562088122237384 0 -0.024841276025125095 -0.010979171885582098 0 -0.024642693392839417 -0.010562088122237384 0 -0.025113181100338094 -0.010557927567822388 0 -0.024276861593930315 -0.010904896455268634 0 -0.024642693392839417 -0.010562088122237384 0 -0.02429130417831836 -0.010291487083838332 0 -0.024642693392839417 -0.010562088122237384 0 -0.02429130417831836 -0.010291487083838332 0 -0.024748656432025187 -0.010046514670369554 0 -0.024642693392839417 -0.010562088122237384 0 -0.025113181100338094 -0.010557927567822388 0 -0.024748656432025187 -0.010046514670369554 0 -0.024276861593930315 -0.010904896455268634 0 -0.023867199361357314 -0.010440248253850943 0 -0.02429130417831836 -0.010291487083838332 0 -0.023867199361357314 -0.010440248253850943 0 -0.023530843673684267 -0.010104951330879101 0 -0.023956600336688331 -0.0099580290249365131 0 -0.023867199361357314 -0.010440248253850943 0 -0.02429130417831836 -0.010291487083838332 0 -0.023956600336688331 -0.0099580290249365131 0 -0.023867199361357314 -0.010440248253850943 0 -0.023530843673684267 -0.010104951330879101 0 -0.02344069484501405 -0.010543279237671758 0 -0.02344069484501405 -0.010543279237671758 0 -0.023058628517775803 -0.010377306917893814 0 -0.023054614906051971 -0.011038957669697567 0 -0.023867199361357314 -0.010440248253850943 0 -0.02344069484501405 -0.010543279237671758 0 -0.023699520431111946 -0.010894852668021187 0 -0.023530843673684267 -0.010104951330879101 0 -0.023058628517775803 -0.010377306917893814 0 -0.023282426274914662 -0.0099547717493911371 0 -0.023530843673684267 -0.010104951330879101 0 -0.02344069484501405 -0.010543279237671758 0 -0.023058628517775803 -0.010377306917893814 0 -0.022279460943409282 -0.010466660116509851 0 -0.023058628517775803 -0.010377306917893814 0 -0.023054614906051971 -0.011038957669697567 0 -0.02525483979313228 -0.010452953496201709 0 -0.023051180964958552 -0.0093953920559236258 0 -0.022279460943409282 -0.010466660116509851 0 -0.023058628517775803 -0.010377306917893814 0 -0.022954340646865454 -0.0097790594958452326 0 -0.02525483979313228 -0.010452953496201709 0 -0.025183957600320852 -0.010947316485063295 0 -0.023833074984317013 -0.011614758975471375 0 -0.023054614906051971 -0.011038957669697567 0 -0.023699520431111946 -0.010894852668021187 0 -0.02344069484501405 -0.010543279237671758 0 -0.023054614906051971 -0.011038957669697567 0 -0.023699520431111946 -0.010894852668021187 0 -0.025901400927551992 -0.013596227486951358 0 -0.024125742506053649 -0.013213427588884549 0 -0.023339214801484119 -0.015467055508923267 0 -0.023891534347086782 -0.01598632709901145 0 -0.024527016958902179 -0.015036981561557763 0 -0.025901400927551992 -0.013596227486951358 0 -0.026618744030813966 -0.012398564567655536 0 -0.027294163232567132 -0.012649984527994797 0 -0.026637084585623878 -0.012814620129012702 0 -0.027050067271573795 -0.012211657176053161 0 -0.027294163232567132 -0.012649984527994797 0 -0.027050067271573795 -0.012211657176053161 0 -0.027335488414735487 -0.01197463186133353 0 -0.023339214801484119 -0.015467055508923267 0 -0.023891534347086782 -0.01598632709901145 0 -0.023049225180258051 -0.016242311709953827 0 -0.025901400927551992 -0.013596227486951358 0 -0.02402184393945812 -0.016959852027418544 0 -0.02129212962736202 -0.019509280509304262 0 -0.02402184393945812 -0.016959852027418544 0 -0.02129212962736202 -0.019509280509304262 0 -0.019803987569149587 -0.022876718548424994 0 -0.020398456759543483 -0.022243298205505486 0 -0.02040914125853345 -0.022481007774720188 0 -0.020237818092659638 -0.022395530090436506 0 -0.020398456759543483 -0.022243298205505486 0 -0.02040914125853345 -0.022481007774720188 0 -0.02051097684604393 -0.02242553826947629 0 -0.02040914125853345 -0.022481007774720188 0 -0.020310623378784167 -0.022558728436275651 0 -0.020237818092659638 -0.022395530090436506 0 -0.02040914125853345 -0.022481007774720188 0 -0.020310623378784167 -0.022558728436275651 0 -0.020479217662057323 -0.022629671322527019 0 -0.020172109588538236 -0.02267062998074611 0 -0.020310623378784167 -0.022558728436275651 0 -0.020237818092659638 -0.022395530090436506 0 -0.020600143951962517 -0.021891472691751155 0 -0.020237818092659638 -0.022395530090436506 0 -0.020082033746333331 -0.022078536916263478 0 -0.02402184393945812 -0.016959852027418544 0 -0.025812398695585204 -0.014668340577752619 0 -0.019839877462183547 -0.022707376709463777 0 -0.020237818092659638 -0.022395530090436506 0 -0.020082033746333331 -0.022078536916263478 0 -0.022795645135642365 -0.019873056443358239 0 -0.02402184393945812 -0.016959852027418544 0 -0.026028628132812561 -0.016390198939914263 0 -0.026648219871925963 -0.014710416694385246 0 -0.025270540560729408 -0.015086213919457367 0 -0.019839877462183547 -0.022707376709463777 0 -0.020172109588538236 -0.02267062998074611 0 -0.020237818092659638 -0.022395530090436506 0 -0.026898769951519418 -0.013931553979635435 0 -0.02568946876458687 -0.013236522464108591 0 -0.025340214447562286 -0.014528701119852326 0 -0.026898769951519418 -0.013931553979635435 0 -0.026637084585623878 -0.012814620129012702 0 -0.02568946876458687 -0.013236522464108591 0 -0.026637084585623878 -0.012814620129012702 0 -0.02568946876458687 -0.013236522464108591 0 -0.026675561971413474 -0.011614770230206682 0 -0.027294163232567132 -0.012649984527994797 0 -0.026898769951519418 -0.013931553979635435 0 -0.026637084585623878 -0.012814620129012702 0 -0.02568946876458687 -0.013236522464108591 0 -0.024123195386389691 -0.014039242547856269 0 -0.025340214447562286 -0.014528701119852326 0 -0.02568946876458687 -0.013236522464108591 0 -0.024123195386389691 -0.014039242547856269 0 -0.024318645572074651 -0.012400578672578929 0 -0.024732328510229128 -0.016498565928680285 0 -0.024097665147425871 -0.016160430801538617 0 -0.025270540560729408 -0.015086213919457367 0 -0.024097665147425871 -0.016160430801538617 0 -0.025270540560729408 -0.015086213919457367 0 -0.023780707867592558 -0.015313055087077988 0 -0.025812398695585204 -0.014668340577752619 0 -0.02373867197425886 -0.015307173292790466 0 -0.024123195386389691 -0.014039242547856269 0 -0.025340214447562286 -0.014528701119852326 0 -0.023780707867592558 -0.015313055087077988 0 -0.024732328510229128 -0.016498565928680285 0 -0.026028628132812561 -0.016390198939914263 0 -0.025270540560729408 -0.015086213919457367 0 -0.024123195386389691 -0.014039242547856269 0 -0.023286036486913447 -0.014699434553852272 0 -0.023780707867592558 -0.015313055087077988 0 -0.024123195386389691 -0.014039242547856269 0 -0.023286036486913447 -0.014699434553852272 0 -0.022890660716857778 -0.013964751528978062 0 -0.023286036486913447 -0.014699434553852272 0 -0.023780707867592558 -0.015313055087077988 0 -0.023474978340016474 -0.015756918034587699 0 -0.024097665147425871 -0.016160430801538617 0 -0.023780707867592558 -0.015313055087077988 0 -0.023474978340016474 -0.015756918034587699 0 -0.023392961742137189 -0.01491304542727135 0 -0.023134187351286768 -0.016649072929740161 0 -0.023286036486913447 -0.014699434553852272 0 -0.022763254747753897 -0.015697805514999223 0 -0.022541895774316888 -0.014794936257756597 0 -0.023286036486913447 -0.014699434553852272 0 -0.023474978340016474 -0.015756918034587699 0 -0.02270025854787204 -0.016055916231444672 0 -0.023286036486913447 -0.014699434553852272 0 -0.022541895774316888 -0.014794936257756597 0 -0.022890660716857778 -0.013964751528978062 0 -0.023049887843090072 -0.012220324624030752 0 -0.025076080719352932 -0.011897124710410774 0 -0.024123195386389691 -0.014039242547856269 0 -0.022890660716857778 -0.013964751528978062 0 -0.024318645572074651 -0.012400578672578929 0 -0.021984877780593104 -0.013038640476148031 0 -0.022890660716857778 -0.013964751528978062 0 -0.024318645572074651 -0.012400578672578929 0 -0.024841276025125095 -0.010979171885582098 0 -0.025113181100338094 -0.010557927567822388 0 -0.025590770302090681 -0.011406268268539762 0 -0.024719690161735409 -0.011452567154789624 0 -0.024841276025125095 -0.010979171885582098 0 -0.025590770302090681 -0.011406268268539762 0 -0.025113181100338094 -0.010557927567822388 0 -0.025686579239188059 -0.010688807439989092 0 -0.025549411722952196 -0.010118518191542048 0 -0.025113181100338094 -0.010557927567822388 0 -0.0251515009604346 -0.010037320993815461 0 -0.024748656432025187 -0.010046514670369554 0 -0.025113181100338094 -0.010557927567822388 0 -0.025549411722952196 -0.010118518191542048 0 -0.0251515009604346 -0.010037320993815461 0 -0.025686579239188059 -0.010688807439989092 0 -0.025549411722952196 -0.010118518191542048 0 -0.026060350411368113 -0.010311826285373905 0 -0.025686579239188059 -0.010688807439989092 0 -0.026060350411368113 -0.010311826285373905 0 -0.026197943198769644 -0.010989085766557565 0 -0.025686579239188059 -0.010688807439989092 0 -0.025590770302090681 -0.011406268268539762 0 -0.026197943198769644 -0.010989085766557565 0 -0.025113181100338094 -0.010557927567822388 0 -0.025686579239188059 -0.010688807439989092 0 -0.025590770302090681 -0.011406268268539762 0 -0.02568946876458687 -0.013236522464108591 0 -0.024318645572074651 -0.012400578672578929 0 -0.026675561971413474 -0.011614770230206682 0 -0.025076080719352932 -0.011897124710410774 0 -0.026576509561913823 -0.01162057973992385 0 -0.025590770302090681 -0.011406268268539762 0 -0.026675561971413474 -0.011614770230206682 0 -0.026197943198769644 -0.010989085766557565 0 -0.026637084585623878 -0.012814620129012702 0 -0.026675561971413474 -0.011614770230206682 0 -0.027050067271573795 -0.012211657176053161 0 -0.026675561971413474 -0.011614770230206682 0 -0.026735924428343077 -0.011140174871541239 0 -0.026197943198769644 -0.010989085766557565 0 -0.026675561971413474 -0.011614770230206682 0 -0.026735924428343077 -0.011140174871541239 0 -0.027064057001663457 -0.011691311007536372 0 -0.026060350411368113 -0.010311826285373905 0 -0.026197943198769644 -0.010989085766557565 0 -0.026776216784610684 -0.010653975716596436 0 -0.026060350411368113 -0.010311826285373905 0 -0.026776216784610684 -0.010653975716596436 0 -0.026464394228470082 -0.010002727760071713 0 -0.026735924428343077 -0.011140174871541239 0 -0.026197943198769644 -0.010989085766557565 0 -0.026776216784610684 -0.010653975716596436 0 -0.026776216784610684 -0.010653975716596436 0 -0.027704590395142611 -0.010603631627930162 0 -0.027191681465803762 -0.011331529009692984 0 -0.026776216784610684 -0.010653975716596436 0 -0.027704590395142611 -0.010603631627930162 0 -0.026982601916084075 -0.0096261106667443891 0 -0.027704590395142611 -0.010603631627930162 0 -0.027765673102372514 -0.011510741499883473 0 -0.027191681465803762 -0.011331529009692984 0 -0.027204043550709947 -0.012318377356034797 0 -0.027335488414735487 -0.01197463186133353 0 -0.028233955576351787 -0.011896587431611845 0 -0.027765673102372514 -0.011510741499883473 0 -0.027335488414735487 -0.01197463186133353 0 -0.028233955576351787 -0.011896587431611845 0 -0.026735924428343077 -0.011140174871541239 0 -0.026776216784610684 -0.010653975716596436 0 -0.027191681465803762 -0.011331529009692984 0 -0.026735924428343077 -0.011140174871541239 0 -0.027191681465803762 -0.011331529009692984 0 -0.027064057001663457 -0.011691311007536372 0 -0.027191681465803762 -0.011331529009692984 0 -0.027064057001663457 -0.011691311007536372 0 -0.027335488414735487 -0.01197463186133353 0 -0.026675561971413474 -0.011614770230206682 0 -0.027064057001663457 -0.011691311007536372 0 -0.027050067271573795 -0.012211657176053161 0 -0.027064057001663457 -0.011691311007536372 0 -0.027050067271573795 -0.012211657176053161 0 -0.027335488414735487 -0.01197463186133353 0 -0.027765673102372514 -0.011510741499883473 0 -0.027191681465803762 -0.011331529009692984 0 -0.027335488414735487 -0.01197463186133353 0 -0.026545252141930771 -0.009197689109914366 0 -0.026308782039253548 -0.0088998547893671138 0 -0.026106179761974595 -0.0086999726496199224 0 -0.026049998312503053 -0.0087833113339180636 0 -0.025963439213572071 -0.0087155943929591254 0 -0.026106179761974595 -0.0086999726496199224 0 -0.026253890025804687 -0.0088695237706251807 0 -0.026049998312503053 -0.0087833113339180636 0 -0.02602662948974032 -0.0085655418267326488 0 -0.026106179761974595 -0.0086999726496199224 0 -0.025963439213572071 -0.0087155943929591254 0 -0.026999636593708756 -0.0094498612522384371 0 -0.026545252141930771 -0.009197689109914366 0 -0.026060350411368113 -0.010311826285373905 0 -0.026464394228470082 -0.010002727760071713 0 -0.02594106487985269 -0.0094283322038639494 0 -0.026982601916084075 -0.0096261106667443891 0 -0.026464394228470082 -0.010002727760071713 0 -0.02594106487985269 -0.0094283322038639494 0 -0.026776216784610684 -0.010653975716596436 0 -0.026982601916084075 -0.0096261106667443891 0 -0.026464394228470082 -0.010002727760071713 0 -0.026982601916084075 -0.0096261106667443891 0 -0.026253890025804687 -0.0088695237706251807 0 -0.02594106487985269 -0.0094283322038639494 0 -0.026253890025804687 -0.0088695237706251807 0 -0.02594106487985269 -0.0094283322038639494 0 -0.026029782994629921 -0.0087524836403903329 0 -0.02594106487985269 -0.0094283322038639494 0 -0.025335630612710196 -0.0095979613403271331 0 -0.025359294694864105 -0.0091065012466260819 0 -0.02594106487985269 -0.0094283322038639494 0 -0.025359294694864105 -0.0091065012466260819 0 -0.02566998895026245 -0.0088568038644240826 0 -0.02594106487985269 -0.0094283322038639494 0 -0.02566998895026245 -0.0088568038644240826 0 -0.026029782994629921 -0.0087524836403903329 0 -0.025549411722952196 -0.010118518191542048 0 -0.026060350411368113 -0.010311826285373905 0 -0.02594106487985269 -0.0094283322038639494 0 -0.025549411722952196 -0.010118518191542048 0 -0.02594106487985269 -0.0094283322038639494 0 -0.025335630612710196 -0.0095979613403271331 0 -0.025549411722952196 -0.010118518191542048 0 -0.025335630612710196 -0.0095979613403271331 0 -0.0251515009604346 -0.010037320993815461 0 -0.025335630612710196 -0.0095979613403271331 0 -0.0251515009604346 -0.010037320993815461 0 -0.024838152362873716 -0.0093849102292428519 0 -0.025335630612710196 -0.0095979613403271331 0 -0.025359294694864105 -0.0091065012466260819 0 -0.024838152362873716 -0.0093849102292428519 0 -0.025359294694864105 -0.0091065012466260819 0 -0.025045652053158056 -0.008838782699562113 0 -0.024838152362873716 -0.0093849102292428519 0 -0.025359294694864105 -0.0091065012466260819 0 -0.025310888455699981 -0.0086075809914656701 0 -0.02566998895026245 -0.0088568038644240826 0 -0.025359294694864105 -0.0091065012466260819 0 -0.025045652053158056 -0.008838782699562113 0 -0.025310888455699981 -0.0086075809914656701 0 -0.025045652053158056 -0.008838782699562113 0 -0.025310888455699981 -0.0086075809914656701 0 -0.024873054092455538 -0.0084802750274516597 0 -0.025310888455699981 -0.0086075809914656701 0 -0.025240350075608962 -0.0081605387225890114 0 -0.024873054092455538 -0.0084802750274516597 0 -0.025310888455699981 -0.0086075809914656701 0 -0.025240350075608962 -0.0081605387225890114 0 -0.025724468130497048 -0.0085423559032697365 0 -0.023800248170546084 -0.0055417733584705873 0 -0.023929221452864843 -0.005552366543486684 0 -0.023892505212440417 -0.0054583040158947558 0 -0.024741962046625564 -0.0069173719451414394 0 -0.023923822268594772 -0.0063946113758727883 0 -0.025240350075608962 -0.0081605387225890114 0 -0.025724468130497048 -0.0085423559032697365 0 -0.025980610584284598 -0.0082841018778932237 0 -0.025310888455699981 -0.0086075809914656701 0 -0.025724468130497048 -0.0085423559032697365 0 -0.02566998895026245 -0.0088568038644240826 0 -0.025724468130497048 -0.0085423559032697365 0 -0.02566998895026245 -0.0088568038644240826 0 -0.026029782994629921 -0.0087524836403903329 0 -0.026253890025804687 -0.0088695237706251807 0 -0.026029782994629921 -0.0087524836403903329 0 -0.026138170190342629 -0.0087555431485689967 0 -0.026029782994629921 -0.0087524836403903329 0 -0.026069058372045074 -0.0086064185190509318 0 -0.026138170190342629 -0.0087555431485689967 0 -0.025724468130497048 -0.0085423559032697365 0 -0.026029782994629921 -0.0087524836403903329 0 -0.026069058372045074 -0.0086064185190509318 0 -0.023923822268594772 -0.0063946113758727883 0 -0.022483766029135037 -0.0063734405491168407 0 -0.025724468130497048 -0.0085423559032697365 0 -0.026069058372045074 -0.0086064185190509318 0 -0.025980610584284598 -0.0082841018778932237 0 -0.025566883078216786 -0.0088389011264573252 0 -0.023923822268594772 -0.0063946113758727883 0 -0.026069058372045074 -0.0086064185190509318 0 -0.026063251466593312 -0.0086110514070864425 0 -0.026057664891294744 -0.008769191510337053 0 -0.026069058372045074 -0.0086064185190509318 0 -0.026057664891294744 -0.008769191510337053 0 -0.026138170190342629 -0.0087555431485689967 0 -0.020789712145754362 -0.0041564404249378548 0 -0.018716830158720475 -0.0040768137199171375 0 -0.019403121244335717 -0.0053484430658515608 0 -0.026057664891294744 -0.008769191510337053 0 -0.026138170190342629 -0.0087555431485689967 0 -0.026049998312503053 -0.0087833113339180636 0 -0.026253890025804687 -0.0088695237706251807 0 -0.026138170190342629 -0.0087555431485689967 0 -0.026049998312503053 -0.0087833113339180636 0 -0.024347722351554111 -0.0085281260545158749 0 -0.023898527723187693 -0.0086236942498448144 0 -0.023949719132206053 -0.0089083195260085835 0 -0.02451096092698311 -0.008395647115567206 0 -0.024225592747229654 -0.0082974591968774138 0 -0.023896359843312821 -0.0085149164323735649 0 -0.024248448649995813 -0.0086419188454038877 0 -0.023051180964958552 -0.0093953920559236258 0 -0.024248448649995813 -0.0086419188454038877 0 -0.023936860526408976 -0.0085476377958052865 0 -0.023690331951232914 -0.0089726593582685477 0 -0.023599548924890822 -0.0095347542740045685 0 -0.023855708257634459 -0.0093050827252307549 0 -0.02451096092698311 -0.008395647115567206 0 -0.024396560125895396 -0.0083082788168649807 0 -0.024225592747229654 -0.0082974591968774138 0 -0.02451096092698311 -0.008395647115567206 0 -0.024396560125895396 -0.0083082788168649807 0 -0.024462868409568329 -0.0083337047149066434 0 -0.02451096092698311 -0.008395647115567206 0 -0.024466907431797719 -0.0084988446375334811 0 -0.024462868409568329 -0.0083337047149066434 0 -0.024396560125895396 -0.0083082788168649807 0 -0.024225592747229654 -0.0082974591968774138 0 -0.024364008049922843 -0.0082056986078846445 0 -0.02376398319682884 -0.0081836142273996673 0 -0.023896359843312821 -0.0085149164323735649 0 -0.024024108946781118 -0.0081378117648430968 0 -0.024225592747229654 -0.0082974591968774138 0 -0.023896359843312821 -0.0085149164323735649 0 -0.024024108946781118 -0.0081378117648430968 0 -0.023535711689282226 -0.0083718064666949751 0 -0.02376398319682884 -0.0081836142273996673 0 -0.023896359843312821 -0.0085149164323735649 0 -0.023547547261889838 -0.0080411386881594459 0 -0.023535711689282226 -0.0083718064666949751 0 -0.02376398319682884 -0.0081836142273996673 0 -0.023685647109334591 -0.00881304134631016 0 -0.023898527723187693 -0.0086236942498448144 0 -0.023949719132206053 -0.0089083195260085835 0 -0.023058628517775803 -0.010377306917893814 0 -0.022954340646865454 -0.0097790594958452326 0 -0.023282426274914662 -0.0099547717493911371 0 -0.022954340646865454 -0.0097790594958452326 0 -0.023282426274914662 -0.0099547717493911371 0 -0.023599548924890822 -0.0095347542740045685 0 -0.023690331951232914 -0.0089726593582685477 0 -0.022954340646865454 -0.0097790594958452326 0 -0.023599548924890822 -0.0095347542740045685 0 -0.023530843673684267 -0.010104951330879101 0 -0.023599548924890822 -0.0095347542740045685 0 -0.023956600336688331 -0.0099580290249365131 0 -0.023530843673684267 -0.010104951330879101 0 -0.023282426274914662 -0.0099547717493911371 0 -0.023599548924890822 -0.0095347542740045685 0 -0.02429130417831836 -0.010291487083838332 0 -0.023956600336688331 -0.0099580290249365131 0 -0.024399289401597492 -0.0097407830448193421 0 -0.023956600336688331 -0.0099580290249365131 0 -0.024050883064363919 -0.0095190116985178295 0 -0.024399289401597492 -0.0097407830448193421 0 -0.024050883064363919 -0.0095190116985178295 0 -0.024399289401597492 -0.0097407830448193421 0 -0.024455779574941324 -0.0092230021949727525 0 -0.023599548924890822 -0.0095347542740045685 0 -0.023956600336688331 -0.0099580290249365131 0 -0.024050883064363919 -0.0095190116985178295 0 -0.023599548924890822 -0.0095347542740045685 0 -0.024050883064363919 -0.0095190116985178295 0 -0.023855708257634459 -0.0093050827252307549 0 -0.0251515009604346 -0.010037320993815461 0 -0.024748656432025187 -0.010046514670369554 0 -0.024838152362873716 -0.0093849102292428519 0 -0.02429130417831836 -0.010291487083838332 0 -0.024748656432025187 -0.010046514670369554 0 -0.024399289401597492 -0.0097407830448193421 0 -0.024748656432025187 -0.010046514670369554 0 -0.024399289401597492 -0.0097407830448193421 0 -0.024838152362873716 -0.0093849102292428519 0 -0.024399289401597492 -0.0097407830448193421 0 -0.024838152362873716 -0.0093849102292428519 0 -0.024455779574941324 -0.0092230021949727525 0 -0.024838152362873716 -0.0093849102292428519 0 -0.024455779574941324 -0.0092230021949727525 0 -0.024655343408071802 -0.0087555312877774395 0 -0.024455779574941324 -0.0092230021949727525 0 -0.024408477789189767 -0.0087718752698019049 0 -0.024655343408071802 -0.0087555312877774395 0 -0.025045652053158056 -0.008838782699562113 0 -0.024838152362873716 -0.0093849102292428519 0 -0.024655343408071802 -0.0087555312877774395 0 -0.023690331951232914 -0.0089726593582685477 0 -0.024082148414482172 -0.0091757090743674555 0 -0.023855708257634459 -0.0093050827252307549 0 -0.024050883064363919 -0.0095190116985178295 0 -0.024082148414482172 -0.0091757090743674555 0 -0.023855708257634459 -0.0093050827252307549 0 -0.024082148414482172 -0.0091757090743674555 0 -0.024455779574941324 -0.0092230021949727525 0 -0.024408477789189767 -0.0087718752698019049 0 -0.024050883064363919 -0.0095190116985178295 0 -0.024082148414482172 -0.0091757090743674555 0 -0.024455779574941324 -0.0092230021949727525 0 -0.023690331951232914 -0.0089726593582685477 0 -0.024082148414482172 -0.0091757090743674555 0 -0.024408477789189767 -0.0087718752698019049 0 -0.024248448649995813 -0.0086419188454038877 0 -0.024310869834320747 -0.0087409038159026592 0 -0.024378690268258677 -0.0085508081233245624 0 -0.024408477789189767 -0.0087718752698019049 0 -0.024417223098775968 -0.008558190942714235 0 -0.02451096092698311 -0.008395647115567206 0 -0.024466907431797719 -0.0084988446375334811 0 -0.024417223098775968 -0.008558190942714235 0 -0.024248448649995813 -0.0086419188454038877 0 -0.024421387572751446 -0.0085097761674767253 0 -0.024466907431797719 -0.0084988446375334811 0 -0.024426836443556213 -0.0085299282668331883 0 -0.024411141675694425 -0.0084622219948302223 0 -0.024466907431797719 -0.0084988446375334811 0 -0.024411141675694425 -0.0084622219948302223 0 -0.02435856646302249 -0.0083756439357247775 0 -0.024466907431797719 -0.0084988446375334811 0 -0.024480826419310563 -0.008295076279343774 0 -0.024462868409568329 -0.0083337047149066434 0 -0.024426836443556213 -0.0085299282668331883 0 -0.024453128964639591 -0.0085859680374372836 0 -0.024411141675694425 -0.0084622219948302223 0 -0.024426836443556213 -0.0085299282668331883 0 -0.024417223098775968 -0.008558190942714235 0 -0.024453128964639591 -0.0085859680374372836 0 -0.024466907431797719 -0.0084988446375334811 0 -0.024426836443556213 -0.0085299282668331883 0 -0.024417223098775968 -0.008558190942714235 0 -0.024408477789189767 -0.0087718752698019049 0 -0.024417223098775968 -0.008558190942714235 0 -0.024453128964639591 -0.0085859680374372836 0 -0.024408477789189767 -0.0087718752698019049 0 -0.024453128964639591 -0.0085859680374372836 0 -0.024655343408071802 -0.0087555312877774395 0 -0.024453128964639591 -0.0085859680374372836 0 -0.024536903963303842 -0.0084539492429957733 0 -0.024655343408071802 -0.0087555312877774395 0 -0.024453128964639591 -0.0085859680374372836 0 -0.024536903963303842 -0.0084539492429957733 0 -0.024411141675694425 -0.0084622219948302223 0 -0.024536903963303842 -0.0084539492429957733 0 -0.024411141675694425 -0.0084622219948302223 0 -0.02435856646302249 -0.0083756439357247775 0 -0.025045652053158056 -0.008838782699562113 0 -0.024655343408071802 -0.0087555312877774395 0 -0.024873054092455538 -0.0084802750274516597 0 -0.024536903963303842 -0.0084539492429957733 0 -0.024655343408071802 -0.0087555312877774395 0 -0.024873054092455538 -0.0084802750274516597 0 -0.023800248170546084 -0.0055417733584705873 0 -0.023665997709880635 -0.005530845931926401 0 -0.023748080916786811 -0.0054706580890521665 0 -0.025240350075608962 -0.0081605387225890114 0 -0.024873054092455538 -0.0084802750274516597 0 -0.024564495000421328 -0.0081673412639670755 0 -0.024741962046625564 -0.0069173719451414394 0 -0.024084620755614426 -0.0068468647302936878 0 -0.024536903963303842 -0.0084539492429957733 0 -0.024873054092455538 -0.0084802750274516597 0 -0.024564495000421328 -0.0081673412639670755 0 -0.02435856646302249 -0.0083756439357247775 0 -0.024564495000421328 -0.0081673412639670755 0 -0.024166748066229905 -0.0082027591079131407 0 -0.023665997709880635 -0.005530845931926401 0 -0.023544119442718853 -0.00552869091854046 0 -0.023596343762900738 -0.0054897663062621121 0 -0.024084620755614426 -0.0068468647302936878 0 -0.023814764663666738 -0.0068280249479242003 0 -0.024536903963303842 -0.0084539492429957733 0 -0.02435856646302249 -0.0083756439357247775 0 -0.024564495000421328 -0.0081673412639670755 0 -0.02444361963552881 -0.0068886970364454231 0 -0.024357008418801052 -0.0069348818754122006 0 -0.024184751964514136 -0.0067587191897686442 0 -0.024384333139882686 -0.0070139652130394078 0 -0.02444361963552881 -0.0068886970364454231 0 -0.02440828468678265 -0.0071436912692155498 0 -0.024384333139882686 -0.0070139652130394078 0 -0.02444361963552881 -0.0068886970364454231 0 -0.024357008418801052 -0.0069348818754122006 0 -0.024285144858962184 -0.0070254391720128715 0 -0.024143852991001507 -0.0070539294791657518 0 -0.024184751964514136 -0.0067587191897686442 0 -0.024357008418801052 -0.0069348818754122006 0 -0.024285144858962184 -0.0070254391720128715 0 -0.024184751964514136 -0.0067587191897686442 0 -0.024384333139882686 -0.0070139652130394078 0 -0.024357008418801052 -0.0069348818754122006 0 -0.024285144858962184 -0.0070254391720128715 0 -0.024384333139882686 -0.0070139652130394078 0 -0.024285144858962184 -0.0070254391720128715 0 -0.02440828468678265 -0.0071436912692155498 0 -0.024285144858962184 -0.0070254391720128715 0 -0.024229623352871061 -0.0071820554469059451 0 -0.024143852991001507 -0.0070539294791657518 0 -0.02444361963552881 -0.0068886970364454231 0 -0.02440828468678265 -0.0071436912692155498 0 -0.024632259180644857 -0.0074060059600757587 0 -0.023814764663666738 -0.0068280249479242003 0 -0.024382681212733546 -0.0078967627850446871 0 -0.024229623352871061 -0.0071820554469059451 0 -0.024257367047180411 -0.00737802385040035 0 -0.024068127063992979 -0.0072930033804590533 0 -0.024285144858962184 -0.0070254391720128715 0 -0.024349080934564584 -0.0072494609381620638 0 -0.02440828468678265 -0.0071436912692155498 0 -0.024285144858962184 -0.0070254391720128715 0 -0.024229623352871061 -0.0071820554469059451 0 -0.024349080934564584 -0.0072494609381620638 0 -0.024229623352871061 -0.0071820554469059451 0 -0.024349080934564584 -0.0072494609381620638 0 -0.024257367047180411 -0.00737802385040035 0 -0.02440828468678265 -0.0071436912692155498 0 -0.024467714045071816 -0.0072639864964157072 0 -0.024632259180644857 -0.0074060059600757587 0 -0.024349080934564584 -0.0072494609381620638 0 -0.024467714045071816 -0.0072639864964157072 0 -0.024376099640924749 -0.0073734146232924905 0 -0.024349080934564584 -0.0072494609381620638 0 -0.02440828468678265 -0.0071436912692155498 0 -0.024467714045071816 -0.0072639864964157072 0 -0.024467714045071816 -0.0072639864964157072 0 -0.024512081127421134 -0.0074005133143159327 0 -0.024376099640924749 -0.0073734146232924905 0 -0.024512081127421134 -0.0074005133143159327 0 -0.024445434557525472 -0.007532516587266563 0 -0.024342546663639861 -0.0074914882831606773 0 -0.024512081127421134 -0.0074005133143159327 0 -0.024445434557525472 -0.007532516587266563 0 -0.024545430767090721 -0.0075238268669600003 0 -0.024445434557525472 -0.007532516587266563 0 -0.024342546663639861 -0.0074914882831606773 0 -0.024372699349561464 -0.0076361312585739747 0 -0.024512081127421134 -0.0074005133143159327 0 -0.024342546663639861 -0.0074914882831606773 0 -0.024376099640924749 -0.0073734146232924905 0 -0.024349080934564584 -0.0072494609381620638 0 -0.024376099640924749 -0.0073734146232924905 0 -0.024257367047180411 -0.00737802385040035 0 -0.024342546663639861 -0.0074914882831606773 0 -0.024376099640924749 -0.0073734146232924905 0 -0.024257367047180411 -0.00737802385040035 0 -0.024342546663639861 -0.0074914882831606773 0 -0.024257367047180411 -0.00737802385040035 0 -0.02419074406167647 -0.0075761374646544513 0 -0.02435856646302249 -0.0083756439357247775 0 -0.024166748066229905 -0.0082027591079131407 0 -0.024242218397684645 -0.0083467420923157964 0 -0.024512081127421134 -0.0074005133143159327 0 -0.024632259180644857 -0.0074060059600757587 0 -0.024545430767090721 -0.0075238268669600003 0 -0.024467714045071816 -0.0072639864964157072 0 -0.024512081127421134 -0.0074005133143159327 0 -0.024632259180644857 -0.0074060059600757587 0 -0.024445434557525472 -0.007532516587266563 0 -0.024545430767090721 -0.0075238268669600003 0 -0.024541136976143255 -0.0076151728629978979 0 -0.024632259180644857 -0.0074060059600757587 0 -0.024545430767090721 -0.0075238268669600003 0 -0.024541136976143255 -0.0076151728629978979 0 -0.024466907431797719 -0.0084988446375334811 0 -0.02435856646302249 -0.0083756439357247775 0 -0.024242218397684645 -0.0083467420923157964 0 -0.024466907431797719 -0.0084988446375334811 0 -0.024632259180644857 -0.0074060059600757587 0 -0.024540840033876413 -0.0078279467564716532 0 -0.024482747456335538 -0.0083674666546216352 0 -0.024382681212733546 -0.0078967627850446871 0 -0.024540840033876413 -0.0078279467564716532 0 -0.024445538928870244 -0.0079830617411192038 0 -0.024488538613873127 -0.0080572338904810886 0 -0.024445538928870244 -0.0079830617411192038 0 -0.024402041073352337 -0.0078926512114280683 0 -0.024358409608939358 -0.0080236520251513108 0 -0.024445538928870244 -0.0079830617411192038 0 -0.024469556833789107 -0.0078618421278905844 0 -0.024402041073352337 -0.0078926512114280683 0 -0.024540840033876413 -0.0078279467564716532 0 -0.024445538928870244 -0.0079830617411192038 0 -0.024469556833789107 -0.0078618421278905844 0 -0.024540840033876413 -0.0078279467564716532 0 -0.024469556833789107 -0.0078618421278905844 0 -0.024493725798120019 -0.0077855384318208836 0 -0.024469556833789107 -0.0078618421278905844 0 -0.024435385709294613 -0.0077536114038592686 0 -0.024493725798120019 -0.0077855384318208836 0 -0.024469556833789107 -0.0078618421278905844 0 -0.024435385709294613 -0.0077536114038592686 0 -0.024402041073352337 -0.0078926512114280683 0 -0.024632259180644857 -0.0074060059600757587 0 -0.024540840033876413 -0.0078279467564716532 0 -0.024541136976143255 -0.0076151728629978979 0 -0.024445434557525472 -0.007532516587266563 0 -0.024435385709294613 -0.0077536114038592686 0 -0.024520669562163196 -0.0076975866113077234 0 -0.024435385709294613 -0.0077536114038592686 0 -0.024520669562163196 -0.0076975866113077234 0 -0.024493725798120019 -0.0077855384318208836 0 -0.024540840033876413 -0.0078279467564716532 0 -0.024520669562163196 -0.0076975866113077234 0 -0.024541136976143255 -0.0076151728629978979 0 -0.024540840033876413 -0.0078279467564716532 0 -0.024520669562163196 -0.0076975866113077234 0 -0.024493725798120019 -0.0077855384318208836 0 -0.024445434557525472 -0.007532516587266563 0 -0.024520669562163196 -0.0076975866113077234 0 -0.024541136976143255 -0.0076151728629978979 0 -0.024445434557525472 -0.007532516587266563 0 -0.024435385709294613 -0.0077536114038592686 0 -0.024372699349561464 -0.0076361312585739747 0 -0.024435385709294613 -0.0077536114038592686 0 -0.024372699349561464 -0.0076361312585739747 0 -0.024295653183300472 -0.0078271700194115345 0 -0.024342546663639861 -0.0074914882831606773 0 -0.024372699349561464 -0.0076361312585739747 0 -0.02419074406167647 -0.0075761374646544513 0 -0.024372699349561464 -0.0076361312585739747 0 -0.02419074406167647 -0.0075761374646544513 0 -0.024295653183300472 -0.0078271700194115345 0 -0.02419074406167647 -0.0075761374646544513 0 -0.024295653183300472 -0.0078271700194115345 0 -0.024081008700108961 -0.0078323099620017014 0 -0.024435385709294613 -0.0077536114038592686 0 -0.024295653183300472 -0.0078271700194115345 0 -0.024402041073352337 -0.0078926512114280683 0 -0.024295653183300472 -0.0078271700194115345 0 -0.024402041073352337 -0.0078926512114280683 0 -0.024358409608939358 -0.0080236520251513108 0 -0.024295653183300472 -0.0078271700194115345 0 -0.024358409608939358 -0.0080236520251513108 0 -0.024224732556073755 -0.0080656811644494904 0 -0.024358409608939358 -0.0080236520251513108 0 -0.024224732556073755 -0.0080656811644494904 0 -0.024364008049922843 -0.0082056986078846445 0 -0.024295653183300472 -0.0078271700194115345 0 -0.024224732556073755 -0.0080656811644494904 0 -0.024081008700108961 -0.0078323099620017014 0 -0.024225592747229654 -0.0082974591968774138 0 -0.024224732556073755 -0.0080656811644494904 0 -0.024024108946781118 -0.0081378117648430968 0 -0.024225592747229654 -0.0082974591968774138 0 -0.024224732556073755 -0.0080656811644494904 0 -0.024364008049922843 -0.0082056986078846445 0 -0.024396560125895396 -0.0083082788168649807 0 -0.024364008049922843 -0.0082056986078846445 0 -0.024462868409568329 -0.0083337047149066434 0 -0.024480826419310563 -0.008295076279343774 0 -0.024540840033876413 -0.0078279467564716532 0 -0.024488538613873127 -0.0080572338904810886 0 -0.024466907431797719 -0.0084988446375334811 0 -0.024480826419310563 -0.008295076279343774 0 -0.024540840033876413 -0.0078279467564716532 0 -0.024364008049922843 -0.0082056986078846445 0 -0.024462868409568329 -0.0083337047149066434 0 -0.024439382616984053 -0.0081582004267845357 0 -0.024462868409568329 -0.0083337047149066434 0 -0.0244755505748709 -0.0081968567157907502 0 -0.024439382616984053 -0.0081582004267845357 0 -0.024480826419310563 -0.008295076279343774 0 -0.024462868409568329 -0.0083337047149066434 0 -0.0244755505748709 -0.0081968567157907502 0 -0.0244755505748709 -0.0081968567157907502 0 -0.024488538613873127 -0.0080572338904810886 0 -0.024439382616984053 -0.0081582004267845357 0 -0.024480826419310563 -0.008295076279343774 0 -0.0244755505748709 -0.0081968567157907502 0 -0.024488538613873127 -0.0080572338904810886 0 -0.024445538928870244 -0.0079830617411192038 0 -0.024488538613873127 -0.0080572338904810886 0 -0.024439382616984053 -0.0081582004267845357 0 -0.024445538928870244 -0.0079830617411192038 0 -0.024358409608939358 -0.0080236520251513108 0 -0.024439382616984053 -0.0081582004267845357 0 -0.024358409608939358 -0.0080236520251513108 0 -0.024364008049922843 -0.0082056986078846445 0 -0.024439382616984053 -0.0081582004267845357 0 -0.023547547261889838 -0.0080411386881594459 0 -0.02376398319682884 -0.0081836142273996673 0 -0.023796306144215733 -0.0078013015502011391 0 -0.02376398319682884 -0.0081836142273996673 0 -0.024024108946781118 -0.0081378117648430968 0 -0.023796306144215733 -0.0078013015502011391 0 -0.024024108946781118 -0.0081378117648430968 0 -0.024081008700108961 -0.0078323099620017014 0 -0.023796306144215733 -0.0078013015502011391 0 -0.024224732556073755 -0.0080656811644494904 0 -0.024024108946781118 -0.0081378117648430968 0 -0.024081008700108961 -0.0078323099620017014 0 -0.024081008700108961 -0.0078323099620017014 0 -0.023968764098838247 -0.0075576592017949805 0 -0.023796306144215733 -0.0078013015502011391 0 -0.02419074406167647 -0.0075761374646544513 0 -0.024081008700108961 -0.0078323099620017014 0 -0.023968764098838247 -0.0075576592017949805 0 -0.023501010456814655 -0.0075536845487547575 0 -0.023796306144215733 -0.0078013015502011391 0 -0.023785134168823198 -0.00732812242621183 0 -0.023968764098838247 -0.0075576592017949805 0 -0.023796306144215733 -0.0078013015502011391 0 -0.023785134168823198 -0.00732812242621183 0 -0.023547547261889838 -0.0080411386881594459 0 -0.023501010456814655 -0.0075536845487547575 0 -0.023796306144215733 -0.0078013015502011391 0 -0.023481255963344123 -0.0070374719554548715 0 -0.023785134168823198 -0.00732812242621183 0 -0.023931991079003467 -0.0069487363471744364 0 -0.02419074406167647 -0.0075761374646544513 0 -0.023968764098838247 -0.0075576592017949805 0 -0.024068127063992979 -0.0072930033804590533 0 -0.024257367047180411 -0.00737802385040035 0 -0.02419074406167647 -0.0075761374646544513 0 -0.024068127063992979 -0.0072930033804590533 0 -0.023968764098838247 -0.0075576592017949805 0 -0.023785134168823198 -0.00732812242621183 0 -0.024068127063992979 -0.0072930033804590533 0 -0.023785134168823198 -0.00732812242621183 0 -0.024068127063992979 -0.0072930033804590533 0 -0.023931991079003467 -0.0069487363471744364 0 -0.024229623352871061 -0.0071820554469059451 0 -0.024068127063992979 -0.0072930033804590533 0 -0.024143852991001507 -0.0070539294791657518 0 -0.024068127063992979 -0.0072930033804590533 0 -0.024143852991001507 -0.0070539294791657518 0 -0.023931991079003467 -0.0069487363471744364 0 -0.023931991079003467 -0.0069487363471744364 0 -0.024184751964514136 -0.0067587191897686442 0 -0.023810416091503549 -0.0065478656835837737 0 -0.024143852991001507 -0.0070539294791657518 0 -0.023931991079003467 -0.0069487363471744364 0 -0.024184751964514136 -0.0067587191897686442 0 -0.023481255963344123 -0.0070374719554548715 0 -0.023931991079003467 -0.0069487363471744364 0 -0.023810416091503549 -0.0065478656835837737 0 -0.02395813100051172 -0.0060462065808512596 0 -0.02342756145890074 -0.00624751940036853 0 -0.023642562317192098 -0.0059408765304510515 0 -0.023810416091503549 -0.0065478656835837737 0 -0.02395813100051172 -0.0060462065808512596 0 -0.02342756145890074 -0.00624751940036853 0 -0.024184751964514136 -0.0067587191897686442 0 -0.023810416091503549 -0.0065478656835837737 0 -0.02395813100051172 -0.0060462065808512596 0 -0.02395813100051172 -0.0060462065808512596 0 -0.023735815815987413 -0.0057318431495127203 0 -0.023642562317192098 -0.0059408765304510515 0 -0.02348550825805884 -0.0054205264376961573 0 -0.023527394094460002 -0.0053275949838804213 0 -0.023407075275421581 -0.0052300051576204655 0 -0.023718908393367155 -0.0056383591924778756 0 -0.023577889117708771 -0.0055005638402041536 0 -0.023590076892286239 -0.0053652450319031306 0 -0.023527394094460002 -0.0053275949838804213 0 -0.023615513459559697 -0.0053035385812502051 0 -0.023590076892286239 -0.0053652450319031306 0 -0.023527394094460002 -0.0053275949838804213 0 -0.023552647346430585 -0.0054052655242733793 0 -0.02348550825805884 -0.0054205264376961573 0 -0.023527394094460002 -0.0053275949838804213 0 -0.023552647346430585 -0.0054052655242733793 0 -0.023590076892286239 -0.0053652450319031306 0 -0.023552647346430585 -0.0054052655242733793 0 -0.0235913628424665 -0.0054303376343336953 0 -0.023814764663666738 -0.0068280249479242003 0 -0.023718908393367155 -0.0056383591924778756 0 -0.023544119442718853 -0.00552869091854046 0 -0.02348550825805884 -0.0054205264376961573 0 -0.023557332693268367 -0.0054682480068124527 0 -0.02444361963552881 -0.0068886970364454231 0 -0.024184751964514136 -0.0067587191897686442 0 -0.02395813100051172 -0.0060462065808512596 0 -0.023552647346430585 -0.0054052655242733793 0 -0.0235913628424665 -0.0054303376343336953 0 -0.023557332693268367 -0.0054682480068124527 0 -0.0235913628424665 -0.0054303376343336953 0 -0.023557332693268367 -0.0054682480068124527 0 -0.023594628310471294 -0.0054592639216717448 0 -0.02348550825805884 -0.0054205264376961573 0 -0.023552647346430585 -0.0054052655242733793 0 -0.023557332693268367 -0.0054682480068124527 0 -0.023557332693268367 -0.0054682480068124527 0 -0.023596343762900738 -0.0054897663062621121 0 -0.023594628310471294 -0.0054592639216717448 0 -0.023544119442718853 -0.00552869091854046 0 -0.023557332693268367 -0.0054682480068124527 0 -0.023596343762900738 -0.0054897663062621121 0 -0.023596343762900738 -0.0054897663062621121 0 -0.023630386350793391 -0.0054491391147417018 0 -0.023594628310471294 -0.0054592639216717448 0 -0.023665997709880635 -0.005530845931926401 0 -0.023596343762900738 -0.0054897663062621121 0 -0.023630386350793391 -0.0054491391147417018 0 -0.023665997709880635 -0.005530845931926401 0 -0.023630386350793391 -0.0054491391147417018 0 -0.023693729998857726 -0.0054433771197806274 0 -0.0235913628424665 -0.0054303376343336953 0 -0.023630386350793391 -0.0054491391147417018 0 -0.023594628310471294 -0.0054592639216717448 0 -0.0235913628424665 -0.0054303376343336953 0 -0.023630386350793391 -0.0054491391147417018 0 -0.023627522510995102 -0.0053909782855500995 0 -0.023665997709880635 -0.005530845931926401 0 -0.023748080916786811 -0.0054706580890521665 0 -0.023693729998857726 -0.0054433771197806274 0 -0.023748080916786811 -0.0054706580890521665 0 -0.023693729998857726 -0.0054433771197806274 0 -0.023770077597072049 -0.0053837586609087754 0 -0.023630386350793391 -0.0054491391147417018 0 -0.023693729998857726 -0.0054433771197806274 0 -0.023663289959902644 -0.0053837195554919922 0 -0.023663289959902644 -0.0053837195554919922 0 -0.023632852930615195 -0.0053920521884158303 0 -0.023495688058491011 -0.0053712471747660289 0 -0.023693729998857726 -0.0054433771197806274 0 -0.023663289959902644 -0.0053837195554919922 0 -0.023770077597072049 -0.0053837586609087754 0 -0.023582378867116206 -0.0053954530612472362 0 -0.023839803530107073 -0.0053324757012694051 0 -0.023663289959902644 -0.0053837195554919922 0 -0.023632852930615195 -0.0053920521884158303 0 -0.023640911834322081 -0.0053753254344666747 0 -0.023627571087410964 -0.0053688500909504847 0 -0.023632852930615195 -0.0053920521884158303 0 -0.023640911834322081 -0.0053753254344666747 0 -0.02358599490917224 -0.0054327939195052913 0 -0.023651917740030837 -0.0053630157187020844 0 -0.023627571087410964 -0.0053688500909504847 0 -0.023632852930615195 -0.0053920521884158303 0 -0.023589312887686713 -0.0053506391394978221 0 -0.023632852930615195 -0.0053920521884158303 0 -0.023495688058491011 -0.0053712471747660289 0 -0.023519759008762721 -0.0055499829564159891 0 -0.023590076892286239 -0.0053652450319031306 0 -0.0235913628424665 -0.0054303376343336953 0 -0.023627522510995102 -0.0053909782855500995 0 -0.023630386350793391 -0.0054491391147417018 0 -0.023663289959902644 -0.0053837195554919922 0 -0.023627522510995102 -0.0053909782855500995 0 -0.023663289959902644 -0.0053837195554919922 0 -0.023627522510995102 -0.0053909782855500995 0 -0.023640911834322081 -0.0053753254344666747 0 -0.023627571087410964 -0.0053688500909504847 0 -0.023632234945269743 -0.0053541492472223258 0 -0.023640911834322081 -0.0053753254344666747 0 -0.023627522510995102 -0.0053909782855500995 0 -0.023632234945269743 -0.0053541492472223258 0 -0.023640911834322081 -0.0053753254344666747 0 -0.023590076892286239 -0.0053652450319031306 0 -0.023627522510995102 -0.0053909782855500995 0 -0.023632234945269743 -0.0053541492472223258 0 -0.023632234945269743 -0.0053541492472223258 0 -0.02363040506083677 -0.0053473372732470298 0 -0.023615513459559697 -0.0053035385812502051 0 -0.023590076892286239 -0.0053652450319031306 0 -0.023632234945269743 -0.0053541492472223258 0 -0.023615513459559697 -0.0053035385812502051 0 -0.023632234945269743 -0.0053541492472223258 0 -0.02363040506083677 -0.0053473372732470298 0 -0.023624081161880851 -0.0053627759738274269 0 -0.02363040506083677 -0.0053473372732470298 0 -0.023624081161880851 -0.0053627759738274269 0 -0.023624563116204672 -0.0053772430901598252 0 -0.02363040506083677 -0.0053473372732470298 0 -0.023624563116204672 -0.0053772430901598252 0 -0.023643759199276068 -0.0053746415670488179 0 -0.02363040506083677 -0.0053473372732470298 0 -0.023643759199276068 -0.0053746415670488179 0 -0.023615513459559697 -0.0053035385812502051 0 -0.023656015099467895 -0.004938710629594451 0 -0.023570321621564447 -0.0053812555539990512 0 -0.023627571087410964 -0.0053688500909504847 0 -0.023624081161880851 -0.0053627759738274269 0 -0.023589312887686713 -0.0053506391394978221 0 -0.023627571087410964 -0.0053688500909504847 0 -0.023632234945269743 -0.0053541492472223258 0 -0.023624081161880851 -0.0053627759738274269 0 -0.023624081161880851 -0.0053627759738274269 0 -0.023624563116204672 -0.0053772430901598252 0 -0.023600621392155761 -0.0053766233350719967 0 -0.023600621392155761 -0.0053766233350719967 0 -0.023589312887686713 -0.0053506391394978221 0 -0.023560716939361646 -0.0054120543868456288 0 -0.023624081161880851 -0.0053627759738274269 0 -0.023600621392155761 -0.0053766233350719967 0 -0.023589312887686713 -0.0053506391394978221 0 -0.023897002359981413 -0.0042567543703653484 0 -0.02342853724046539 -0.0044031611282208342 0 -0.023678705088012487 -0.0039891747130169127 0 -0.023666215796087825 -0.0048732342837957921 0 -0.023656015099467895 -0.004938710629594451 0 -0.023624563116204672 -0.0053772430901598252 0 -0.023610376799575724 -0.0054430675918951928 0 -0.023643759199276068 -0.0053746415670488179 0 -0.023600621392155761 -0.0053766233350719967 0 -0.023610376799575724 -0.0054430675918951928 0 -0.023560716939361646 -0.0054120543868456288 0 -0.023624563116204672 -0.0053772430901598252 0 -0.023600621392155761 -0.0053766233350719967 0 -0.023610376799575724 -0.0054430675918951928 0 -0.023932740192745595 -0.0049838048171235152 0 -0.023743041535709424 -0.0047925922298506767 0 -0.024147129983476338 -0.0044764205511008508 0 -0.023656015099467895 -0.004938710629594451 0 -0.023917698362360344 -0.0041967738958566363 0 -0.023743041535709424 -0.0047925922298506767 0 -0.023490332968796317 -0.0052080514105955246 0 -0.023509413280234912 -0.0047861466768852421 0 -0.023656015099467895 -0.004938710629594451 0 -0.023552364526614692 -0.005227601572613841 0 -0.023932740192745595 -0.0049838048171235152 0 -0.023743041535709424 -0.0047925922298506767 0 -0.023490332968796317 -0.0052080514105955246 0 -0.023428060569681289 -0.0050607927644015852 0 -0.023490332968796317 -0.0052080514105955246 0 -0.023509413280234912 -0.0047861466768852421 0 -0.023428060569681289 -0.0050607927644015852 0 -0.023418097185688862 -0.0051789926908588349 0 -0.023490332968796317 -0.0052080514105955246 0 -0.023527394094460002 -0.0053275949838804213 0 -0.023490332968796317 -0.0052080514105955246 0 -0.023407075275421581 -0.0052300051576204655 0 -0.023418097185688862 -0.0051789926908588349 0 -0.023490332968796317 -0.0052080514105955246 0 -0.023407075275421581 -0.0052300051576204655 0 -0.023686696454664379 -0.0051879088925937834 0 -0.023490332968796317 -0.0052080514105955246 0 -0.023615513459559697 -0.0053035385812502051 0 -0.023527394094460002 -0.0053275949838804213 0 -0.023490332968796317 -0.0052080514105955246 0 -0.023615513459559697 -0.0053035385812502051 0 -0.01944392377988248 -0.0073126101696469109 0 -0.019403121244335717 -0.0053484430658515608 0 -0.018229140632102448 -0.0062117360953872361 0 -0.019403121244335717 -0.0053484430658515608 0 -0.0179309820889542 -0.0048499593116611249 0 -0.018229140632102448 -0.0062117360953872361 0 -0.018716830158720475 -0.0040768137199171375 0 -0.019403121244335717 -0.0053484430658515608 0 -0.0179309820889542 -0.0048499593116611249 0 -0.01944392377988248 -0.0073126101696469109 0 -0.019403121244335717 -0.0053484430658515608 0 -0.021309700389527102 -0.0055047403430727769 0 -0.020789712145754362 -0.0041564404249378548 0 -0.019403121244335717 -0.0053484430658515608 0 -0.021309700389527102 -0.0055047403430727769 0 -0.019157665715767564 -0.0073356584719727102 0 -0.022506203160468786 -0.0062694162595243897 0 -0.01944392377988248 -0.0073126101696469109 0 -0.021843197781026755 -0.0068668621747274968 0 -0.021309700389527102 -0.0055047403430727769 0 -0.022506203160468786 -0.0062694162595243897 0 -0.022480285942269314 -0.005169655286679873 0 -0.023923822268594772 -0.0063946113758727883 0 -0.022480285942269314 -0.005169655286679873 0 -0.023800248170546084 -0.0055417733584705873 0 -0.023892505212440417 -0.0054583040158947558 0 -0.023813938778938993 -0.00544418878071499 0 -0.023854766241404 -0.0053741329703196348 0 -0.023892505212440417 -0.0054583040158947558 0 -0.023813938778938993 -0.00544418878071499 0 -0.023748080916786811 -0.0054706580890521665 0 -0.023813938778938993 -0.00544418878071499 0 -0.023770077597072049 -0.0053837586609087754 0 -0.023800248170546084 -0.0055417733584705873 0 -0.023748080916786811 -0.0054706580890521665 0 -0.023813938778938993 -0.00544418878071499 0 -0.022506203160468786 -0.0062694162595243897 0 -0.023839803530107073 -0.0053324757012694051 0 -0.023242951825386843 -0.0054170733151076124 0 -0.023495688058491011 -0.0053712471747660289 0 -0.023406690428908992 -0.0055145133933339092 0 -0.023854766241404 -0.0053741329703196348 0 -0.023813938778938993 -0.00544418878071499 0 -0.023770077597072049 -0.0053837586609087754 0 -0.023495688058491011 -0.0053712471747660289 0 -0.023519759008762721 -0.0055499829564159891 0 -0.023406690428908992 -0.0055145133933339092 0 -0.023242951825386843 -0.0054170733151076124 0 -0.023406690428908992 -0.0055145133933339092 0 -0.023363830732200008 -0.0057244872635325199 0 -0.023519759008762721 -0.0055499829564159891 0 -0.023406690428908992 -0.0055145133933339092 0 -0.023363830732200008 -0.0057244872635325199 0 -0.023651917740030837 -0.0053630157187020844 0 -0.023136584777280051 -0.0064481833016261422 0 -0.023589312887686713 -0.0053506391394978221 0 -0.023560716939361646 -0.0054120543868456288 0 -0.023494707325350014 -0.0053986932713627218 0 -0.023666215796087825 -0.0048732342837957921 0 -0.024199819276802679 -0.004684034141022685 0 -0.023610376799575724 -0.0054430675918951928 0 -0.023502088536548321 -0.0054902081515855088 0 -0.023437409464142127 -0.0055491797533749896 0 -0.023502088536548321 -0.0054902081515855088 0 -0.023447530795178407 -0.0053548630849863093 0 -0.023437409464142127 -0.0055491797533749896 0 -0.023560716939361646 -0.0054120543868456288 0 -0.023502088536548321 -0.0054902081515855088 0 -0.023494707325350014 -0.0053986932713627218 0 -0.023610376799575724 -0.0054430675918951928 0 -0.023560716939361646 -0.0054120543868456288 0 -0.023502088536548321 -0.0054902081515855088 0 -0.023300906944579834 -0.0053283044739248411 0 -0.023136584777280051 -0.0064481833016261422 0 -0.023136584777280051 -0.0064481833016261422 0 -0.022086838550923461 -0.0076942997182641087 0 -0.023447530795178407 -0.0053548630849863093 0 -0.023305277282216669 -0.0054853128030485539 0 -0.023437409464142127 -0.0055491797533749896 0 -0.022305274862480504 -0.0085087733296350873 0 -0.021412829541816666 -0.0094293268572586998 0 -0.020759864011945538 -0.0082636738429902115 0 -0.021412829541816666 -0.0094293268572586998 0 -0.020461920562860534 -0.0092762100870121978 0 -0.020523219772018788 -0.010343781453474692 0 -0.021412829541816666 -0.0094293268572586998 0 -0.020759864011945538 -0.0082636738429902115 0 -0.020461920562860534 -0.0092762100870121978 0 -0.022506203160468786 -0.0062694162595243897 0 -0.023136584777280051 -0.0064481833016261422 0 -0.021601354443842962 -0.0067136528344680195 0 -0.022305274862480504 -0.0085087733296350873 0 -0.020759864011945538 -0.0082636738429902115 0 -0.019302666139963037 -0.0071774057324296885 0 -0.020759864011945538 -0.0082636738429902115 0 -0.019149400231774281 -0.0090648759662142354 0 -0.019302666139963037 -0.0071774057324296885 0 -0.021601354443842962 -0.0067136528344680195 0 -0.020759864011945538 -0.0082636738429902115 0 -0.020759864011945538 -0.0082636738429902115 0 -0.020461920562860534 -0.0092762100870121978 0 -0.019149400231774281 -0.0090648759662142354 0 -0.020461920562860534 -0.0092762100870121978 0 -0.019149400231774281 -0.0090648759662142354 0 -0.020523219772018788 -0.010343781453474692 0 -0.019302666139963037 -0.0071774057324296885 0 -0.019149400231774281 -0.0090648759662142354 0 -0.01701453335622214 -0.0076848309182367229 0 -0.021032423240908107 -0.0058582982327352959 0 -0.02100655381299241 -0.0053194275192335501 0 -0.02021466795868716 -0.0055362254795024496 0 -0.021032423240908107 -0.0058582982327352959 0 -0.02100655381299241 -0.0053194275192335501 0 -0.021794509945112325 -0.0051066120163361303 0 -0.019149400231774281 -0.0090648759662142354 0 -0.018844700217865471 -0.01084294517076664 0 -0.017302404251391838 -0.0098644768757924304 0 -0.019149400231774281 -0.0090648759662142354 0 -0.018844700217865471 -0.01084294517076664 0 -0.020523219772018788 -0.010343781453474692 0 -0.024771687566435611 -0.0039552088674402091 0 -0.024840977046620531 -0.003599327076814117 0 -0.024557216608189179 -0.0038522257794101535 0 -0.019395402057298335 -0.0085076683748247506 0 -0.02257254920811777 -0.006152759698529014 0 -0.025146463990974217 -0.0035214303776584218 0 -0.024771687566435611 -0.0039552088674402091 0 -0.024840977046620531 -0.003599327076814117 0 -0.022826370559807827 -0.0028742135202827254 0 -0.02257254920811777 -0.006152759698529014 0 -0.025146463990974217 -0.0035214303776584218 0 -0.024840977046620531 -0.003599327076814117 0 -0.024685593951931623 -0.0032944003208663628 0 -0.024526993204469588 -0.003630327747932325 0 -0.02425658913858382 -0.003516781451731081 0 -0.024685593951931623 -0.0032944003208663628 0 -0.024840977046620531 -0.003599327076814117 0 -0.024526993204469588 -0.003630327747932325 0 -0.024557216608189179 -0.0038522257794101535 0 -0.024840977046620531 -0.003599327076814117 0 -0.024526993204469588 -0.003630327747932325 0 -0.024685593951931623 -0.0032944003208663628 0 -0.024526993204469588 -0.003630327747932325 0 -0.024557216608189179 -0.0038522257794101535 0 -0.024341610004681952 -0.0038144769079518749 0 -0.023305277282216669 -0.0054853128030485539 0 -0.023133032109671152 -0.005661306058802361 0 -0.023437409464142127 -0.0055491797533749896 0 -0.024771687566435611 -0.0039552088674402091 0 -0.024557216608189179 -0.0038522257794101535 0 -0.024355823013808182 -0.0041056850355104075 0 -0.02257254920811777 -0.006152759698529014 0 -0.024199819276802679 -0.004684034141022685 0 -0.022086838550923461 -0.0076942997182641087 0 -0.02257254920811777 -0.006152759698529014 0 -0.024557216608189179 -0.0038522257794101535 0 -0.024341610004681952 -0.0038144769079518749 0 -0.024355823013808182 -0.0041056850355104075 0 -0.023897002359981413 -0.0042567543703653484 0 -0.024355823013808182 -0.0041056850355104075 0 -0.024067503366264804 -0.0038812470915927382 0 -0.024341610004681952 -0.0038144769079518749 0 -0.024355823013808182 -0.0041056850355104075 0 -0.024067503366264804 -0.0038812470915927382 0 -0.024067503366264804 -0.0038812470915927382 0 -0.02425658913858382 -0.003516781451731081 0 -0.023927156264747982 -0.0035836919770509757 0 -0.02425658913858382 -0.003516781451731081 0 -0.024194490620084257 -0.0031566585370356925 0 -0.023927156264747982 -0.0035836919770509757 0 -0.024526993204469588 -0.003630327747932325 0 -0.024341610004681952 -0.0038144769079518749 0 -0.02425658913858382 -0.003516781451731081 0 -0.024341610004681952 -0.0038144769079518749 0 -0.024067503366264804 -0.0038812470915927382 0 -0.02425658913858382 -0.003516781451731081 0 -0.024194490620084257 -0.0031566585370356925 0 -0.024078203613762963 -0.0028949731178488829 0 -0.024685593951931623 -0.0032944003208663628 0 -0.024194490620084257 -0.0031566585370356925 0 -0.024264512784309772 -0.003829362499378207 0 -0.02408975274425534 -0.003241446264694203 0 -0.02425658913858382 -0.003516781451731081 0 -0.024194490620084257 -0.0031566585370356925 0 -0.024685593951931623 -0.0032944003208663628 0 -0.024205100897245459 -0.00324686431594334 0 -0.024073080126113481 -0.0037180958825645204 0 -0.024194490620084257 -0.0031566585370356925 0 -0.024078203613762963 -0.0028949731178488829 0 -0.02408975274425534 -0.003241446264694203 0 -0.024078203613762963 -0.0028949731178488829 0 -0.023944212293032119 -0.0028718099621149545 0 -0.023799502289545936 -0.0027034304610790783 0 -0.024078203613762963 -0.0028949731178488829 0 -0.023799502289545936 -0.0027034304610790783 0 -0.023438876531030182 -0.001941816586786968 0 -0.023944212293032119 -0.0028718099621149545 0 -0.023799502289545936 -0.0027034304610790783 0 -0.023717414243163221 -0.0027753939081246442 0 -0.023799502289545936 -0.0027034304610790783 0 -0.023527067293824908 -0.0025827745532153823 0 -0.023438876531030182 -0.001941816586786968 0 -0.023527067293824908 -0.0025827745532153823 0 -0.023438876531030182 -0.001941816586786968 0 -0.023247415832444666 -0.0023913601830611668 0 -0.023527067293824908 -0.0025827745532153823 0 -0.023717414243163221 -0.0027753939081246442 0 -0.023309170948331705 -0.002688781875392998 0 -0.023799502289545936 -0.0027034304610790783 0 -0.023527067293824908 -0.0025827745532153823 0 -0.023717414243163221 -0.0027753939081246442 0 -0.023527067293824908 -0.0025827745532153823 0 -0.023247415832444666 -0.0023913601830611668 0 -0.023309170948331705 -0.002688781875392998 0 -0.023969834524699331 -0.0028297928575953752 0 -0.024241613161431065 -0.0026009021158479853 0 -0.023438876531030182 -0.001941816586786968 0 -0.022857639795489635 -0.0022336360838240699 0 -0.022631020784836597 -0.0018585539827473141 0 -0.022826370559807827 -0.0028742135202827254 0 -0.024241613161431065 -0.0026009021158479853 0 -0.022552049050819263 -0.0013679336021800471 0 -0.023438876531030182 -0.001941816586786968 0 -0.022631020784836597 -0.0018585539827473141 0 -0.023438876531030182 -0.001941816586786968 0 -0.023247415832444666 -0.0023913601830611668 0 -0.022857639795489635 -0.0022336360838240699 0 -0.022857639795489635 -0.0022336360838240699 0 -0.023309170948331705 -0.002688781875392998 0 -0.022698285233135548 -0.002695894036675835 0 -0.023247415832444666 -0.0023913601830611668 0 -0.022857639795489635 -0.0022336360838240699 0 -0.023309170948331705 -0.002688781875392998 0 -0.022857639795489635 -0.0022336360838240699 0 -0.022085572661346142 -0.0023221229246273151 0 -0.022698285233135548 -0.002695894036675835 0 -0.022857639795489635 -0.0022336360838240699 0 -0.022631020784836597 -0.0018585539827473141 0 -0.022085572661346142 -0.0023221229246273151 0 -0.022631020784836597 -0.0018585539827473141 0 -0.022158572664297594 -0.0016493864499925726 0 -0.022085572661346142 -0.0023221229246273151 0 -0.022552049050819263 -0.0013679336021800471 0 -0.022631020784836597 -0.0018585539827473141 0 -0.022158572664297594 -0.0016493864499925726 0 -0.022826370559807827 -0.0028742135202827254 0 -0.022550990657060656 -0.001531724137911033 0 -0.023493014689912259 -0.0040280862960568459 0 -0.023749165488403754 -0.004416517291652689 0 -0.023916062823082198 -0.0039612846431632126 0 -0.023493014689912259 -0.0040280862960568459 0 -0.023181571273032327 -0.0038515365098574423 0 -0.023078454499110609 -0.0041487751974577831 0 -0.023518181796194991 -0.0040708955480371076 0 -0.023234612303689665 -0.0044222388733489741 0 -0.023428060569681289 -0.0050607927644015852 0 -0.023509413280234912 -0.0047861466768852421 0 -0.023389287722476587 -0.0050062798681900231 0 -0.023509413280234912 -0.0047861466768852421 0 -0.023389287722476587 -0.0050062798681900231 0 -0.023321189809028038 -0.0047370011439557746 0 -0.023493014689912259 -0.0040280862960568459 0 -0.023509413280234912 -0.0047861466768852421 0 -0.023321189809028038 -0.0047370011439557746 0 -0.023493014689912259 -0.0040280862960568459 0 -0.023509413280234912 -0.0047861466768852421 0 -0.023749165488403754 -0.004416517291652689 0 -0.023743041535709424 -0.0047925922298506767 0 -0.023509413280234912 -0.0047861466768852421 0 -0.023749165488403754 -0.004416517291652689 0 -0.023743041535709424 -0.0047925922298506767 0 -0.023749165488403754 -0.004416517291652689 0 -0.024147129983476338 -0.0044764205511008508 0 -0.023749165488403754 -0.004416517291652689 0 -0.024147129983476338 -0.0044764205511008508 0 -0.023916062823082198 -0.0039612846431632126 0 -0.024067503366264804 -0.0038812470915927382 0 -0.023678705088012487 -0.0039891747130169127 0 -0.023927156264747982 -0.0035836919770509757 0 -0.023897002359981413 -0.0042567543703653484 0 -0.024067503366264804 -0.0038812470915927382 0 -0.023678705088012487 -0.0039891747130169127 0 -0.023917698362360344 -0.0041967738958566363 0 -0.024073080126113481 -0.0037180958825645204 0 -0.024147129983476338 -0.0044764205511008508 0 -0.024264512784309772 -0.003829362499378207 0 -0.023916062823082198 -0.0039612846431632126 0 -0.024264512784309772 -0.003829362499378207 0 -0.023916062823082198 -0.0039612846431632126 0 -0.023989135856510625 -0.0034465351885252845 0 -0.023493014689912259 -0.0040280862960568459 0 -0.023916062823082198 -0.0039612846431632126 0 -0.023805681476655065 -0.0035675745010467779 0 -0.023916062823082198 -0.0039612846431632126 0 -0.023805681476655065 -0.0035675745010467779 0 -0.023989135856510625 -0.0034465351885252845 0 -0.023805681476655065 -0.0035675745010467779 0 -0.023989135856510625 -0.0034465351885252845 0 -0.02388450682739331 -0.003210962612249148 0 -0.023805681476655065 -0.0035675745010467779 0 -0.023761139040928952 -0.0032922357709644695 0 -0.02388450682739331 -0.003210962612249148 0 -0.023805681476655065 -0.0035675745010467779 0 -0.023761139040928952 -0.0032922357709644695 0 -0.023596355577590371 -0.003487220746418206 0 -0.024264512784309772 -0.003829362499378207 0 -0.023989135856510625 -0.0034465351885252845 0 -0.02408975274425534 -0.003241446264694203 0 -0.023989135856510625 -0.0034465351885252845 0 -0.023997872486671516 -0.0030551972226362896 0 -0.02388450682739331 -0.003210962612249148 0 -0.024078203613762963 -0.0028949731178488829 0 -0.02408975274425534 -0.003241446264694203 0 -0.023997872486671516 -0.0030551972226362896 0 -0.023989135856510625 -0.0034465351885252845 0 -0.02408975274425534 -0.003241446264694203 0 -0.023997872486671516 -0.0030551972226362896 0 -0.024078203613762963 -0.0028949731178488829 0 -0.023944212293032119 -0.0028718099621149545 0 -0.023997872486671516 -0.0030551972226362896 0 -0.023997872486671516 -0.0030551972226362896 0 -0.023910599769333074 -0.0029852486954632354 0 -0.02388450682739331 -0.003210962612249148 0 -0.023944212293032119 -0.0028718099621149545 0 -0.023997872486671516 -0.0030551972226362896 0 -0.023910599769333074 -0.0029852486954632354 0 -0.023761139040928952 -0.0032922357709644695 0 -0.023804166049654994 -0.003084408633013536 0 -0.023637281228160615 -0.0031906912920713379 0 -0.023761139040928952 -0.0032922357709644695 0 -0.02388450682739331 -0.003210962612249148 0 -0.023804166049654994 -0.003084408633013536 0 -0.023910599769333074 -0.0029852486954632354 0 -0.02388450682739331 -0.003210962612249148 0 -0.023804166049654994 -0.003084408633013536 0 -0.023910599769333074 -0.0029852486954632354 0 -0.023804166049654994 -0.003084408633013536 0 -0.023820671718601517 -0.0029302091296449402 0 -0.023804166049654994 -0.003084408633013536 0 -0.023637281228160615 -0.0031906912920713379 0 -0.023697418809436217 -0.0030159180550774368 0 -0.023637281228160615 -0.0031906912920713379 0 -0.023565766126826069 -0.0030398685305820898 0 -0.023697418809436217 -0.0030159180550774368 0 -0.023637281228160615 -0.0031906912920713379 0 -0.023489099285775555 -0.0031717050219783496 0 -0.023565766126826069 -0.0030398685305820898 0 -0.023489099285775555 -0.0031717050219783496 0 -0.023380216927242434 -0.0031705186184688384 0 -0.023477016696219495 -0.0030765722434538349 0 -0.023489099285775555 -0.0031717050219783496 0 -0.023565766126826069 -0.0030398685305820898 0 -0.023477016696219495 -0.0030765722434538349 0 -0.023489099285775555 -0.0031717050219783496 0 -0.023467667660584494 -0.0033463817908912829 0 -0.023358310248400033 -0.0033088891272916353 0 -0.023637281228160615 -0.0031906912920713379 0 -0.023489099285775555 -0.0031717050219783496 0 -0.023467667660584494 -0.0033463817908912829 0 -0.023761139040928952 -0.0032922357709644695 0 -0.023637281228160615 -0.0031906912920713379 0 -0.023596355577590371 -0.003487220746418206 0 -0.023637281228160615 -0.0031906912920713379 0 -0.023467667660584494 -0.0033463817908912829 0 -0.023596355577590371 -0.003487220746418206 0 -0.023493014689912259 -0.0040280862960568459 0 -0.023805681476655065 -0.0035675745010467779 0 -0.023596355577590371 -0.003487220746418206 0 -0.023493014689912259 -0.0040280862960568459 0 -0.023596355577590371 -0.003487220746418206 0 -0.023362493700643024 -0.0035976464124951729 0 -0.023467667660584494 -0.0033463817908912829 0 -0.023596355577590371 -0.003487220746418206 0 -0.023362493700643024 -0.0035976464124951729 0 -0.023181571273032327 -0.0038515365098574423 0 -0.023362493700643024 -0.0035976464124951729 0 -0.023110108208472323 -0.0034413836561132645 0 -0.023493014689912259 -0.0040280862960568459 0 -0.023181571273032327 -0.0038515365098574423 0 -0.023362493700643024 -0.0035976464124951729 0 -0.023362493700643024 -0.0035976464124951729 0 -0.023110108208472323 -0.0034413836561132645 0 -0.023327907206273424 -0.003411605695091979 0 -0.023467667660584494 -0.0033463817908912829 0 -0.023362493700643024 -0.0035976464124951729 0 -0.023327907206273424 -0.003411605695091979 0 -0.023367860056987769 -0.0034449850981028303 0 -0.023504302690813498 -0.0030630327872583898 0 -0.02314560109930355 -0.0032662932048045734 0 -0.023367860056987769 -0.0034449850981028303 0 -0.023504302690813498 -0.0030630327872583898 0 -0.02378798347515795 -0.0027493446547270819 0 -0.023504302690813498 -0.0030630327872583898 0 -0.02314560109930355 -0.0032662932048045734 0 -0.023699966425098237 -0.0027922218735205134 0 -0.023703439620961698 -0.002805941001202442 0 -0.023699966425098237 -0.0027922218735205134 0 -0.023706304481580589 -0.0027895532126144249 0 -0.023243527007292646 -0.0034418753984046769 0 -0.023614728585740288 -0.0028650954314232927 0 -0.023456738431010229 -0.0030192704105040167 0 -0.023668588654710571 -0.0028181686179380417 0 -0.023110108208472323 -0.0034413836561132645 0 -0.023380216927242434 -0.0031705186184688384 0 -0.023458998033230212 -0.0029411992973505229 0 -0.023110108208472323 -0.0034413836561132645 0 -0.023358310248400033 -0.0033088891272916353 0 -0.023380216927242434 -0.0031705186184688384 0 -0.023110108208472323 -0.0034413836561132645 0 -0.023327907206273424 -0.003411605695091979 0 -0.023358310248400033 -0.0033088891272916353 0 -0.023467667660584494 -0.0033463817908912829 0 -0.023327907206273424 -0.003411605695091979 0 -0.023358310248400033 -0.0033088891272916353 0 -0.023489099285775555 -0.0031717050219783496 0 -0.023358310248400033 -0.0033088891272916353 0 -0.023380216927242434 -0.0031705186184688384 0 -0.023703439620961698 -0.002805941001202442 0 -0.023700541958637855 -0.0027891911364092883 0 -0.023706304481580589 -0.0027895532126144249 0 -0.02368815611626731 -0.0027986671520597774 0 -0.023703439620961698 -0.002805941001202442 0 -0.023700541958637855 -0.0027891911364092883 0 -0.02368815611626731 -0.0027986671520597774 0 -0.023646987936570173 -0.0028314181463094772 0 -0.023680847487723637 -0.0027664839336039347 0 -0.02368815611626731 -0.0027986671520597774 0 -0.02367452559625809 -0.0028254803354459601 0 -0.023703439620961698 -0.002805941001202442 0 -0.024183678505365302 -0.0021898643214969915 0 -0.023968296136724954 -0.0025291553366104716 0 -0.024602887904152861 -0.0019837712627728773 0 -0.024653585848575545 -0.0020036681945434969 0 -0.024444722075113525 -0.0022109999185782659 0 -0.02368815611626731 -0.0027986671520597774 0 -0.02367452559625809 -0.0028254803354459601 0 -0.023646987936570173 -0.0028314181463094772 0 -0.023646987936570173 -0.0028314181463094772 0 -0.023659375878383467 -0.002873133132303769 0 -0.02358877755011855 -0.0029556967366628811 0 -0.02367452559625809 -0.0028254803354459601 0 -0.023646987936570173 -0.0028314181463094772 0 -0.023659375878383467 -0.002873133132303769 0 -0.022850543297930327 -0.0038210006104597675 0 -0.022727775276249595 -0.0036959345588203937 0 -0.023018619658623472 -0.003633309486644021 0 -0.022850543297930327 -0.0038210006104597675 0 -0.022727775276249595 -0.0036959345588203937 0 -0.022698979007217221 -0.0039742776888516355 0 -0.023181571273032327 -0.0038515365098574423 0 -0.023110108208472323 -0.0034413836561132645 0 -0.022930787680223542 -0.0039833915697694159 0 -0.023456738431010229 -0.0030192704105040167 0 -0.023055688793298623 -0.0033264312086835365 0 -0.023367860056987769 -0.0034449850981028303 0 -0.023018619658623472 -0.003633309486644021 0 -0.022930787680223542 -0.0039833915697694159 0 -0.023243527007292646 -0.0034418753984046769 0 -0.022952050946530283 -0.0039426171575161839 0 -0.02314560109930355 -0.0032662932048045734 0 -0.022727775276249595 -0.0036959345588203937 0 -0.023018619658623472 -0.003633309486644021 0 -0.02367452559625809 -0.0028254803354459601 0 -0.023703439620961698 -0.002805941001202442 0 -0.023659375878383467 -0.002873133132303769 0 -0.023367860056987769 -0.0034449850981028303 0 -0.02314560109930355 -0.0032662932048045734 0 -0.023018619658623472 -0.003633309486644021 0 -0.022850543297930327 -0.0038210006104597675 0 -0.023018619658623472 -0.003633309486644021 0 -0.022930787680223542 -0.0039833915697694159 0 -0.022930787680223542 -0.0039833915697694159 0 -0.022823559404789202 -0.0041163166653452633 0 -0.023078454499110609 -0.0041487751974577831 0 -0.023181571273032327 -0.0038515365098574423 0 -0.022930787680223542 -0.0039833915697694159 0 -0.023078454499110609 -0.0041487751974577831 0 -0.022727775276249595 -0.0036959345588203937 0 -0.022698979007217221 -0.0039742776888516355 0 -0.022481092462439345 -0.0040084573809073638 0 -0.023055688793298623 -0.0033264312086835365 0 -0.024009362332898184 -0.0036007588013302178 0 -0.022850543297930327 -0.0038210006104597675 0 -0.022930787680223542 -0.0039833915697694159 0 -0.022698979007217221 -0.0039742776888516355 0 -0.022698979007217221 -0.0039742776888516355 0 -0.022823559404789202 -0.0041163166653452633 0 -0.022653400491902054 -0.0041446523002244048 0 -0.022698979007217221 -0.0039742776888516355 0 -0.022653400491902054 -0.0041446523002244048 0 -0.022481092462439345 -0.0040084573809073638 0 -0.022930787680223542 -0.0039833915697694159 0 -0.022698979007217221 -0.0039742776888516355 0 -0.022823559404789202 -0.0041163166653452633 0 -0.022823559404789202 -0.0041163166653452633 0 -0.022653400491902054 -0.0041446523002244048 0 -0.022755098238222138 -0.0043132817509132452 0 -0.022653400491902054 -0.0041446523002244048 0 -0.022755098238222138 -0.0043132817509132452 0 -0.022531645216424454 -0.0042633706495194571 0 -0.023086337731935181 -0.0047960531551989099 0 -0.023234612303689665 -0.0044222388733489741 0 -0.023348206609254622 -0.0053071521740055017 0 -0.023389287722476587 -0.0050062798681900231 0 -0.023321189809028038 -0.0047370011439557746 0 -0.022823559404789202 -0.0041163166653452633 0 -0.022755098238222138 -0.0043132817509132452 0 -0.023078454499110609 -0.0041487751974577831 0 -0.023348206609254622 -0.0053071521740055017 0 -0.023389287722476587 -0.0050062798681900231 0 -0.023434183537393374 -0.0052349982882003024 0 -0.024612140047231348 -0.0039740069021702139 0 -0.024009362332898184 -0.0036007588013302178 0 -0.024595700906316149 -0.0021883996094774708 0 -0.024594856649670462 -0.0022803479566364869 0 -0.024674722660862486 -0.0020725978204487469 0 -0.024427941431802432 -0.0059301899858641453 0 -0.024661827134275959 -0.0059662323373985407 0 -0.024960348078760752 -0.0053419208391556139 0 -0.022755098238222138 -0.0043132817509132452 0 -0.022531645216424454 -0.0042633706495194571 0 -0.022450873503738446 -0.0044863290043842558 0 -0.022326131631722215 -0.0043473994240743477 0 -0.022531645216424454 -0.0042633706495194571 0 -0.022481092462439345 -0.0040084573809073638 0 -0.023389004473772231 -0.0053429128203257717 0 -0.024009362332898184 -0.0036007588013302178 0 -0.022326131631722215 -0.0043473994240743477 0 -0.022531645216424454 -0.0042633706495194571 0 -0.022450873503738446 -0.0044863290043842558 0 -0.022653400491902054 -0.0041446523002244048 0 -0.022531645216424454 -0.0042633706495194571 0 -0.022481092462439345 -0.0040084573809073638 0 -0.024595700906316149 -0.0021883996094774708 0 -0.024628654512714024 -0.0020510972798568998 0 -0.024519075222722866 -0.0022088751158489415 0 -0.025811387273349504 -0.0011051501487351753 0 -0.025415373831433708 -0.0016567197112669556 0 -0.024595700906316149 -0.0021883996094774708 0 -0.024674722660862486 -0.0020725978204487469 0 -0.024628654512714024 -0.0020510972798568998 0 -0.026955698756930217 -0.00022645327309413194 0 -0.02721806447577995 0.00036624719277590016 0 -0.026711415217574856 0.00010981931144068093 0 -0.024183678505365302 -0.0021898643214969915 0 -0.024009362332898184 -0.0036007588013302178 0 -0.024602887904152861 -0.0019837712627728773 0 -0.024674722660862486 -0.0020725978204487469 0 -0.024653585848575545 -0.0020036681945434969 0 -0.025811387273349504 -0.0011051501487351753 0 -0.025925946819601722 -0.00083522567322095564 0 -0.024674722660862486 -0.0020725978204487469 0 -0.024628654512714024 -0.0020510972798568998 0 -0.024653585848575545 -0.0020036681945434969 0 -0.02721806447577995 0.00036624719277590016 0 -0.026711415217574856 0.00010981931144068093 0 -0.026870825541169426 0.00061484793558882654 0 -0.02651909514264103 0.00037401595609613065 0 -0.026711415217574856 0.00010981931144068093 0 -0.026870825541169426 0.00061484793558882654 0 -0.02651909514264103 0.00037401595609613065 0 -0.026165573129474217 -7.488288156288624e-05 0 -0.026711415217574856 0.00010981931144068093 0 -0.02651909514264103 0.00037401595609613065 0 -0.026112075025200038 0.00036661538055987695 0 -0.026165573129474217 -7.488288156288624e-05 0 -0.026165573129474217 -7.488288156288624e-05 0 -0.026711415217574856 0.00010981931144068093 0 -0.026342182139013383 -0.00042585015998322613 0 -0.026955698756930217 -0.00022645327309413194 0 -0.026711415217574856 0.00010981931144068093 0 -0.026342182139013383 -0.00042585015998322613 0 -0.025555519908742379 -7.9509759100708968e-05 0 -0.025492096389821171 -0.00065200139506261059 0 -0.025553780240054315 1.9084052005404833e-06 0 -0.025803598450982072 -6.1646960897778405e-05 0 -0.025583054826929724 -0.00021243090876662846 0 -0.024999957916567225 -0.00039212609646987242 0 -0.025553780240054315 1.9084052005404833e-06 0 -0.025400583009977648 -0.0012290237625343335 0 -0.026112075025200038 0.00036661538055987695 0 -0.026165573129474217 -7.488288156288624e-05 0 -0.025803598450982072 -6.1646960897778405e-05 0 -0.026112075025200038 0.00036661538055987695 0 -0.025553780240054315 1.9084052005404833e-06 0 -0.025803598450982072 -6.1646960897778405e-05 0 -0.026165573129474217 -7.488288156288624e-05 0 -0.025779254206327536 -0.00024836172230584605 0 -0.025937986808137484 -0.00046772576887048318 0 -0.026165573129474217 -7.488288156288624e-05 0 -0.025803598450982072 -6.1646960897778405e-05 0 -0.025779254206327536 -0.00024836172230584605 0 -0.025803598450982072 -6.1646960897778405e-05 0 -0.025779254206327536 -0.00024836172230584605 0 -0.025583054826929724 -0.00021243090876662846 0 -0.024999957916567225 -0.00039212609646987242 0 -0.025400583009977648 -0.0012290237625343335 0 -0.024999982856345585 -0.0018646583039808597 0 -0.025779254206327536 -0.00024836172230584605 0 -0.025583054826929724 -0.00021243090876662846 0 -0.025706145272112072 -0.00044533016884167352 0 -0.025400583009977648 -0.0012290237625343335 0 -0.024999982856345585 -0.0018646583039808597 0 -0.025201713087112877 -0.0022701963216470761 0 -0.025583054826929724 -0.00021243090876662846 0 -0.025489346970689948 -0.0006317709941742718 0 -0.025706145272112072 -0.00044533016884167352 0 -0.025492096389821171 -0.00065200139506261059 0 -0.02529364961181944 -0.0017178882081761869 0 -0.025489346970689948 -0.0006317709941742718 0 -0.025706145272112072 -0.00044533016884167352 0 -0.02575074454452583 -0.00068858325311749776 0 -0.025706145272112072 -0.00044533016884167352 0 -0.025937986808137484 -0.00046772576887048318 0 -0.02575074454452583 -0.00068858325311749776 0 -0.025779254206327536 -0.00024836172230584605 0 -0.025706145272112072 -0.00044533016884167352 0 -0.025937986808137484 -0.00046772576887048318 0 -0.025937986808137484 -0.00046772576887048318 0 -0.02596783012255887 -0.00093613578985651206 0 -0.02575074454452583 -0.00068858325311749776 0 -0.02596783012255887 -0.00093613578985651206 0 -0.02575074454452583 -0.00068858325311749776 0 -0.02541566290332373 -0.0010713703649651884 0 -0.025489346970689948 -0.0006317709941742718 0 -0.02575074454452583 -0.00068858325311749776 0 -0.02541566290332373 -0.0010713703649651884 0 -0.02529364961181944 -0.0017178882081761869 0 -0.025508521350648475 -0.00087096909950034609 0 -0.024999982856345585 -0.0018646583039808597 0 -0.025201713087112877 -0.0022701963216470761 0 -0.024939963649846734 -0.0033213403742464865 0 -0.026955698756930217 -0.00022645327309413194 0 -0.026342182139013383 -0.00042585015998322613 0 -0.026549470289409391 -0.00078646717442985424 0 -0.026165573129474217 -7.488288156288624e-05 0 -0.025937986808137484 -0.00046772576887048318 0 -0.026342182139013383 -0.00042585015998322613 0 -0.025937986808137484 -0.00046772576887048318 0 -0.02596783012255887 -0.00093613578985651206 0 -0.026342182139013383 -0.00042585015998322613 0 -0.025917444288624625 -0.0015431144587540492 0 -0.025415373831433708 -0.0016567197112669556 0 -0.02596783012255887 -0.00093613578985651206 0 -0.026342182139013383 -0.00042585015998322613 0 -0.026549470289409391 -0.00078646717442985424 0 -0.024595700906316149 -0.0021883996094774708 0 -0.024594856649670462 -0.0022803479566364869 0 -0.024452633801414356 -0.0022151944842168756 0 -0.024332602846458315 -0.0021838068193114919 0 -0.025415373831433708 -0.0016567197112669556 0 -0.024594856649670462 -0.0022803479566364869 0 -0.024452633801414356 -0.0022151944842168756 0 -0.024303903034639432 -0.0026163166139209302 0 -0.024612140047231348 -0.0039740069021702139 0 -0.02459485123647432 -0.0052891048647208255 0 -0.024427941431802432 -0.0059301899858641453 0 -0.024326517261218702 -0.0062323820065628968 0 -0.024071627282280964 -0.006410026118453903 0 -0.024326517261218702 -0.0062323820065628968 0 -0.024300460598488182 -0.0063328735157086313 0 -0.024361804910150456 -0.0064303160061470093 0 -0.024326517261218702 -0.0062323820065628968 0 -0.024300460598488182 -0.0063328735157086313 0 -0.024230471798036987 -0.0064353726820812959 0 -0.024326517261218702 -0.0062323820065628968 0 -0.024071627282280964 -0.006410026118453903 0 -0.024230471798036987 -0.0064353726820812959 0 -0.02459485123647432 -0.0052891048647208255 0 -0.024363787694168804 -0.00576812106267394 0 -0.024452633801414356 -0.0022151944842168756 0 -0.024178733412669788 -0.0025991315002637876 0 -0.024303903034639432 -0.0026163166139209302 0 -0.025415373831433708 -0.0016567197112669556 0 -0.025370025565923136 -0.0036719036470310783 0 -0.02560830899235781 -0.0020614367551325882 0 -0.025609000636162116 -0.0020595941828786954 0 -0.025607663907488872 -0.0020698914851176244 0 -0.025370025565923136 -0.0036719036470310783 0 -0.02459485123647432 -0.0052891048647208255 0 -0.024396196992456855 -0.0065202324478600849 0 -0.024393560065841157 -0.0063615874691652684 0 -0.024230471798036987 -0.0064353726820812959 0 -0.024396196992456855 -0.0065202324478600849 0 -0.024393560065841157 -0.0063615874691652684 0 -0.024718367273525249 -0.0064028338209754006 0 -0.025304890451030963 -0.0058357322545826897 0 -0.025416715816500401 -0.0058513761012633303 0 -0.025256754337787277 -0.0060198725237728392 0 -0.02459485123647432 -0.0052891048647208255 0 -0.024940133492395537 -0.0062286190326782658 0 -0.024393560065841157 -0.0063615874691652684 0 -0.024718367273525249 -0.0064028338209754006 0 -0.024668545974520374 -0.0061817092049576729 0 -0.024257539562462731 -0.00646387564126956 0 -0.024266389904363674 -0.0064394736990840643 0 -0.024193431413381535 -0.006154831238162131 0 -0.024266389904363674 -0.0064394736990840643 0 -0.024265741204600049 -0.0063806911227119274 0 -0.024193431413381535 -0.006154831238162131 0 -0.023771141894352612 -0.0060928438324611466 0 -0.024193431413381535 -0.006154831238162131 0 -0.023822144057813688 -0.0060456643851538663 0 -0.024393560065841157 -0.0063615874691652684 0 -0.024265741204600049 -0.0063806911227119274 0 -0.024193431413381535 -0.006154831238162131 0 -0.023442652887279758 -0.0056510809974808889 0 -0.024219390980277977 -0.0062405480598172773 0 -0.024266389904363674 -0.0064394736990840643 0 -0.024260722984024451 -0.0064205704970829412 0 -0.024265741204600049 -0.0063806911227119274 0 -0.024300460598488182 -0.0063328735157086313 0 -0.024361804910150456 -0.0064303160061470093 0 -0.024287892230067332 -0.0064095226400457707 0 -0.023442652887279758 -0.0056510809974808889 0 -0.023555403135170364 -0.005673744556815438 0 -0.024361804910150456 -0.0064303160061470093 0 -0.024266389904363674 -0.0064394736990840643 0 -0.024287892230067332 -0.0064095226400457707 0 -0.024300460598488182 -0.0063328735157086313 0 -0.024260722984024451 -0.0064205704970829412 0 -0.024230471798036987 -0.0064353726820812959 0 -0.024300460598488182 -0.0063328735157086313 0 -0.024287892230067332 -0.0064095226400457707 0 -0.024260722984024451 -0.0064205704970829412 0 -0.024266389904363674 -0.0064394736990840643 0 -0.024287892230067332 -0.0064095226400457707 0 -0.024260722984024451 -0.0064205704970829412 0 -0.024260722984024451 -0.0064205704970829412 0 -0.024230471798036987 -0.0064353726820812959 0 -0.024265741204600049 -0.0063806911227119274 0 -0.024393560065841157 -0.0063615874691652684 0 -0.024230471798036987 -0.0064353726820812959 0 -0.024265741204600049 -0.0063806911227119274 0 -0.025372009319795875 -0.0013332296210555004 0 -0.02587563530936203 -0.0028907159925783505 0 -0.025000002105635008 -0.0036965585161726849 0 -0.025868056754899258 -0.0036727261414193778 0 -0.025433255177102231 -0.0042514073140935841 0 -0.025000002105635008 -0.0036965585161726849 0 -0.02502788118362545 -0.0035239568154849751 0 -0.025868056754899258 -0.0036727261414193778 0 -0.025917444288624625 -0.0015431144587540492 0 -0.025508521350648475 -0.00087096909950034609 0 -0.02560830899235781 -0.0020614367551325882 0 -0.025606679026988936 -0.0020523488690753467 0 -0.025608026489030343 -0.0020624340186374815 0 -0.025606534959167992 -0.002052754464623583 0 -0.025606679026988936 -0.0020523488690753467 0 -0.025608026489030343 -0.0020624340186374815 0 -0.024999553213345144 -0.003693464145066978 0 -0.025372009319795875 -0.0013332296210555004 0 -0.025372009319795875 -0.0013332296210555004 0 -0.025508521350648475 -0.00087096909950034609 0 -0.025370025565923136 -0.0036719036470310783 0 -0.02587563530936203 -0.0028907159925783505 0 -0.02560830899235781 -0.0020614367551325882 0 -0.025607663907488872 -0.0020698914851176244 0 -0.025608026489030343 -0.0020624340186374815 0 -0.026696445153043508 -0.0038106351604212914 0 -0.025868056754899258 -0.0036727261414193778 0 -0.025859246242454927 -0.004842134458361653 0 -0.025304890451030963 -0.0058357322545826897 0 -0.025256754337787277 -0.0060198725237728392 0 -0.025098532527100169 -0.0061488371031593906 0 -0.025370025565923136 -0.0036719036470310783 0 -0.025519484670168416 -0.0056655440092230379 0 -0.025000002105635008 -0.0036965585161726849 0 -0.025433255177102231 -0.0042514073140935841 0 -0.024999983645516921 -0.0047954891361992958 0 -0.025868056754899258 -0.0036727261414193778 0 -0.025433255177102231 -0.0042514073140935841 0 -0.025859246242454927 -0.004842134458361653 0 -0.025433255177102231 -0.0042514073140935841 0 -0.024999983645516921 -0.0047954891361992958 0 -0.025859246242454927 -0.004842134458361653 0 -0.024999983645516921 -0.0047954891361992958 0 -0.025859246242454927 -0.004842134458361653 0 -0.025000004373222796 -0.0058944545803119516 0 -0.025098532527100169 -0.0061488371031593906 0 -0.025108454413329533 -0.0060319007049802987 0 -0.025000112851455675 -0.0058948869216847678 0 -0.025519484670168416 -0.0056655440092230379 0 -0.025000112786227668 -0.0058942705589686024 0 -0.025086298011923847 -0.0061496803340607281 0 -0.024989278227057064 -0.0060593727978521068 0 -0.024668545974520374 -0.0061817092049576729 0 -0.024718367273525249 -0.0064028338209754006 0 -0.025086298011923847 -0.0061496803340607281 0 -0.024668545974520374 -0.0061817092049576729 0 -0.025098532527100169 -0.0061488371031593906 0 -0.025086298011923847 -0.0061496803340607281 0 -0.025108454413329533 -0.0060319007049802987 0 -0.025086298011923847 -0.0061496803340607281 0 -0.024989278227057064 -0.0060593727978521068 0 -0.025108454413329533 -0.0060319007049802987 0 -0.025256754337787277 -0.0060198725237728392 0 -0.025098532527100169 -0.0061488371031593906 0 -0.025086298011923847 -0.0061496803340607281 0 -0.024940133492395537 -0.0062286190326782658 0 -0.025088083957626961 -0.0061387336410757684 0 -0.025367787456877407 -0.0060666955541556237 0 -0.024989278227057064 -0.0060593727978521068 0 -0.02464569841555873 -0.0059644595416138216 0 -0.025367787456877407 -0.0060666955541556237 0 -0.024989278227057064 -0.0060593727978521068 0 -0.025108454413329533 -0.0060319007049802987 0 -0.025367787456877407 -0.0060666955541556237 0 -0.025108454413329533 -0.0060319007049802987 0 -0.025000112851455675 -0.0058948869216847678 0 -0.02398427384833126 -0.0060035173426670222 0 -0.024193431413381535 -0.006154831238162131 0 -0.024218796144797081 -0.0059194130248353414 0 -0.02398427384833126 -0.0060035173426670222 0 -0.024193431413381535 -0.006154831238162131 0 -0.023822144057813688 -0.0060456643851538663 0 -0.024193431413381535 -0.006154831238162131 0 -0.024668545974520374 -0.0061817092049576729 0 -0.02464569841555873 -0.0059644595416138216 0 -0.024393560065841157 -0.0063615874691652684 0 -0.024193431413381535 -0.006154831238162131 0 -0.024668545974520374 -0.0061817092049576729 0 -0.024989278227057064 -0.0060593727978521068 0 -0.024668545974520374 -0.0061817092049576729 0 -0.02464569841555873 -0.0059644595416138216 0 -0.024284876168278974 -0.0056386841395658013 0 -0.02464569841555873 -0.0059644595416138216 0 -0.024218796144797081 -0.0059194130248353414 0 -0.024193431413381535 -0.006154831238162131 0 -0.02464569841555873 -0.0059644595416138216 0 -0.024218796144797081 -0.0059194130248353414 0 -0.02398427384833126 -0.0060035173426670222 0 -0.024218796144797081 -0.0059194130248353414 0 -0.023948479605228893 -0.0057789955999480334 0 -0.024284876168278974 -0.0056386841395658013 0 -0.024218796144797081 -0.0059194130248353414 0 -0.023948479605228893 -0.0057789955999480334 0 -0.023948479605228893 -0.0057789955999480334 0 -0.023759580647226618 -0.0059487373490967289 0 -0.02365141627720237 -0.0058665558220675562 0 -0.02398427384833126 -0.0060035173426670222 0 -0.023948479605228893 -0.0057789955999480334 0 -0.023759580647226618 -0.0059487373490967289 0 -0.02398427384833126 -0.0060035173426670222 0 -0.023759580647226618 -0.0059487373490967289 0 -0.023822144057813688 -0.0060456643851538663 0 -0.023759580647226618 -0.0059487373490967289 0 -0.023641370397135698 -0.0059738770703079303 0 -0.023822144057813688 -0.0060456643851538663 0 -0.023571578359295558 -0.0059577669415333155 0 -0.023487915678991649 -0.0059354441197984097 0 -0.023515567646399348 -0.0059136272245125261 0 -0.023641370397135698 -0.0059738770703079303 0 -0.023571578359295558 -0.0059577669415333155 0 -0.023515567646399348 -0.0059136272245125261 0 -0.023759580647226618 -0.0059487373490967289 0 -0.023641370397135698 -0.0059738770703079303 0 -0.023571578359295558 -0.0059577669415333155 0 -0.023571578359295558 -0.0059577669415333155 0 -0.02365141627720237 -0.0058665558220675562 0 -0.023480875442264522 -0.0060144407697320917 0 -0.023759580647226618 -0.0059487373490967289 0 -0.023571578359295558 -0.0059577669415333155 0 -0.02365141627720237 -0.0058665558220675562 0 -0.023444605632890119 -0.0057939122881480887 0 -0.023480875442264522 -0.0060144407697320917 0 -0.02342756145890074 -0.00624751940036853 0 -0.023444605632890119 -0.0057939122881480887 0 -0.02365141627720237 -0.0058665558220675562 0 -0.023480875442264522 -0.0060144407697320917 0 -0.023480875442264522 -0.0060144407697320917 0 -0.02342756145890074 -0.00624751940036853 0 -0.023496686142025394 -0.0059482023647477967 0 -0.023481255963344123 -0.0070374719554548715 0 -0.023810416091503549 -0.0065478656835837737 0 -0.02342756145890074 -0.00624751940036853 0 -0.02342756145890074 -0.00624751940036853 0 -0.023496686142025394 -0.0059482023647477967 0 -0.023642562317192098 -0.0059408765304510515 0 -0.023496686142025394 -0.0059482023647477967 0 -0.023642562317192098 -0.0059408765304510515 0 -0.023556574826446509 -0.0057998011590434211 0 -0.023571578359295558 -0.0059577669415333155 0 -0.023480875442264522 -0.0060144407697320917 0 -0.023487915678991649 -0.0059354441197984097 0 -0.023480875442264522 -0.0060144407697320917 0 -0.023496686142025394 -0.0059482023647477967 0 -0.023487915678991649 -0.0059354441197984097 0 -0.023496686142025394 -0.0059482023647477967 0 -0.023487915678991649 -0.0059354441197984097 0 -0.023449538199503302 -0.0057684668726225106 0 -0.023487915678991649 -0.0059354441197984097 0 -0.023449538199503302 -0.0057684668726225106 0 -0.023515567646399348 -0.0059136272245125261 0 -0.023449538199503302 -0.0057684668726225106 0 -0.023493581796717889 -0.00561122836903562 0 -0.023414534454529137 -0.0054971758516053409 0 -0.023449538199503302 -0.0057684668726225106 0 -0.023419341544929483 -0.0056427406198576975 0 -0.023478570744479926 -0.0058244655835273992 0 -0.023735815815987413 -0.0057318431495127203 0 -0.023642562317192098 -0.0059408765304510515 0 -0.023556574826446509 -0.0057998011590434211 0 -0.023735815815987413 -0.0057318431495127203 0 -0.023556574826446509 -0.0057998011590434211 0 -0.023493581796717889 -0.00561122836903562 0 -0.023496686142025394 -0.0059482023647477967 0 -0.023449538199503302 -0.0057684668726225106 0 -0.023556574826446509 -0.0057998011590434211 0 -0.023449538199503302 -0.0057684668726225106 0 -0.023556574826446509 -0.0057998011590434211 0 -0.023493581796717889 -0.00561122836903562 0 -0.023735815815987413 -0.0057318431495127203 0 -0.023493581796717889 -0.00561122836903562 0 -0.023434183537393374 -0.0052349982882003024 0 -0.023418097185688862 -0.0051789926908588349 0 -0.023407075275421581 -0.0052300051576204655 0 -0.023434183537393374 -0.0052349982882003024 0 -0.023577889117708771 -0.0055005638402041536 0 -0.023445129424808562 -0.0052478211881499823 0 -0.023493581796717889 -0.00561122836903562 0 -0.023434183537393374 -0.0052349982882003024 0 -0.023414534454529137 -0.0054971758516053409 0 -0.023428060569681289 -0.0050607927644015852 0 -0.023389287722476587 -0.0050062798681900231 0 -0.023434183537393374 -0.0052349982882003024 0 -0.023428060569681289 -0.0050607927644015852 0 -0.023418097185688862 -0.0051789926908588349 0 -0.023434183537393374 -0.0052349982882003024 0 -0.023348206609254622 -0.0053071521740055017 0 -0.023419341544929483 -0.0056427406198576975 0 -0.023460787236717223 -0.0058063738200277073 0 -0.023449538199503302 -0.0057684668726225106 0 -0.023419341544929483 -0.0056427406198576975 0 -0.023414534454529137 -0.0054971758516053409 0 -0.023348206609254622 -0.0053071521740055017 0 -0.023434183537393374 -0.0052349982882003024 0 -0.023414534454529137 -0.0054971758516053409 0 -0.023348206609254622 -0.0053071521740055017 0 -0.023419341544929483 -0.0056427406198576975 0 -0.023414534454529137 -0.0054971758516053409 0 -0.023086337731935181 -0.0047960531551989099 0 -0.022910051534085818 -0.0051193149228205498 0 -0.023419341544929483 -0.0056427406198576975 0 -0.023460787236717223 -0.0058063738200277073 0 -0.023478570744479926 -0.0058244655835273992 0 -0.023460787236717223 -0.0058063738200277073 0 -0.023585879173995582 -0.0059313835592029376 0 -0.023478570744479926 -0.0058244655835273992 0 -0.023442652887279758 -0.0056510809974808889 0 -0.022910051534085818 -0.0051193149228205498 0 -0.023389004473772231 -0.0053429128203257717 0 -0.023442652887279758 -0.0056510809974808889 0 -0.022326131631722215 -0.0043473994240743477 0 -0.022175749363879078 -0.0046592163266786389 0 -0.022450873503738446 -0.0044863290043842558 0 -0.023771141894352612 -0.0060928438324611466 0 -0.023460787236717223 -0.0058063738200277073 0 -0.023585879173995582 -0.0059313835592029376 0 -0.024661827134275959 -0.0059662323373985407 0 -0.024326517261218702 -0.0062323820065628968 0 -0.024361804910150456 -0.0064303160061470093 0 -0.024427941431802432 -0.0059301899858641453 0 -0.024661827134275959 -0.0059662323373985407 0 -0.024326517261218702 -0.0062323820065628968 0 -0.023585879173995582 -0.0059313835592029376 0 -0.023689108418380331 -0.006007606185942824 0 -0.023577197932040064 -0.0059346048720979906 0 -0.023771141894352612 -0.0060928438324611466 0 -0.023585879173995582 -0.0059313835592029376 0 -0.023689108418380331 -0.006007606185942824 0 -0.023771141894352612 -0.0060928438324611466 0 -0.023822144057813688 -0.0060456643851538663 0 -0.023689108418380331 -0.006007606185942824 0 -0.023641370397135698 -0.0059738770703079303 0 -0.023689108418380331 -0.006007606185942824 0 -0.023577197932040064 -0.0059346048720979906 0 -0.023641370397135698 -0.0059738770703079303 0 -0.023822144057813688 -0.0060456643851538663 0 -0.023689108418380331 -0.006007606185942824 0 -0.023641370397135698 -0.0059738770703079303 0 -0.023577197932040064 -0.0059346048720979906 0 -0.023515567646399348 -0.0059136272245125261 0 -0.023577197932040064 -0.0059346048720979906 0 -0.023515567646399348 -0.0059136272245125261 0 -0.023478570744479926 -0.0058244655835273992 0 -0.023449538199503302 -0.0057684668726225106 0 -0.023515567646399348 -0.0059136272245125261 0 -0.023478570744479926 -0.0058244655835273992 0 -0.023585879173995582 -0.0059313835592029376 0 -0.023577197932040064 -0.0059346048720979906 0 -0.023478570744479926 -0.0058244655835273992 0 -0.009705377125608065 -0.0022231860691709973 0 -0.010753614575381789 -0.0021573253980305207 0 -0.0097593789468966539 -0.00328955049029293 0 -0.007506761606015335 -0.0012280941360496593 0 -0.0078765742207298501 -0.0010672718910764805 0 -0.0079913700402858973 -0.0027176213501634945 0 -0.0072356825277756715 -5.3664811297930346e-05 0 -0.0075932292337018746 -0.00066089580684858035 0 -0.0076873167433268537 -0.00025161502289543984 0 -0.0072356825277756715 -5.3664811297930346e-05 0 -0.0076873167433268537 -0.00025161502289543984 0 -0.0077095623312042573 0.00015923114207982354 0 -0.007506761606015335 -0.0012280941360496593 0 -0.0078765742207298501 -0.0010672718910764805 0 -0.0070546005808683849 0.00019485262484570968 0 -0.0074446894973532801 -0.00031846921148473076 0 -0.0075175444028886202 0.00074840303719461113 0 -0.0078765742207298501 -0.0010672718910764805 0 -0.0070546005808683849 0.00019485262484570968 0 -0.007752199248658817 0.00049893516334560001 0 -0.0072356825277756715 -5.3664811297930346e-05 0 -0.0075105755493872382 0.0004951802731276273 0 -0.0072539263090963301 0.0011291945642918444 0 -0.0072356825277756715 -5.3664811297930346e-05 0 -0.0075105755493872382 0.0004951802731276273 0 -0.0077095623312042573 0.00015923114207982354 0 -0.0075105755493872382 0.0004951802731276273 0 -0.0076031102013418873 0.00079861919190166045 0 -0.0072539263090963301 0.0011291945642918444 0 -0.0075105755493872382 0.0004951802731276273 0 -0.0076031102013418873 0.00079861919190166045 0 -0.0078167779801038579 0.00057024754389890147 0 -0.009705377125608065 -0.0022231860691709973 0 -0.0090411983254083533 -0.0013706599188955497 0 -0.010330000016002821 -0.00075531391874799941 0 -0.0092130199459997345 -0.0017243560361938919 0 -0.0086879753022487648 -0.00026593656619606045 0 -0.009705377125608065 -0.0022231860691709973 0 -0.010753614575381789 -0.0021573253980305207 0 -0.010330000016002821 -0.00075531391874799941 0 -0.0090411983254083533 -0.0013706599188955497 0 -0.010330000016002821 -0.00075531391874799941 0 -0.0092301350242536412 -0.00027782507088411031 0 -0.0090411983254083533 -0.0013706599188955497 0 -0.0077276079935542927 -0.00071989110078299779 0 -0.0092301350242536412 -0.00027782507088411031 0 -0.0090411983254083533 -0.0013706599188955497 0 -0.0083201024707250711 -0.0027002341310815685 0 -0.0077276079935542927 -0.00071989110078299779 0 -0.009705377125608065 -0.0022231860691709973 0 -0.0083201024707250711 -0.0027002341310815685 0 -0.0097593789468966539 -0.00328955049029293 0 -0.009705377125608065 -0.0022231860691709973 0 -0.0090411983254083533 -0.0013706599188955497 0 -0.0083201024707250711 -0.0027002341310815685 0 -0.0099539461929369494 -0.0078095640397065373 0 -0.010269872969144533 -0.0082982819343749622 0 -0.010409778462783605 -0.0080290154418725945 0 -0.0089728790699533986 -0.005321499089987033 0 -0.010322980165702938 -0.0056742746654795178 0 -0.0099539461929369494 -0.0078095640397065373 0 -0.010007935003075612 -0.0083969395054653648 0 -0.0097325162872685788 -0.0081984798378303865 0 -0.0099539461929369494 -0.0078095640397065373 0 -0.010007935003075612 -0.0083969395054653648 0 -0.010269872969144533 -0.0082982819343749622 0 -0.010269872969144533 -0.0082982819343749622 0 -0.0104585787683961 -0.008395452324609632 0 -0.010409778462783605 -0.0080290154418725945 0 -0.010007935003075612 -0.0083969395054653648 0 -0.010269872969144533 -0.0082982819343749622 0 -0.010277266048509036 -0.0085994570106921481 0 -0.010269872969144533 -0.0082982819343749622 0 -0.0104585787683961 -0.008395452324609632 0 -0.010277266048509036 -0.0085994570106921481 0 -0.010658649781140096 -0.0083790238547963337 0 -0.010409778462783605 -0.0080290154418725945 0 -0.010837504899321891 -0.0082305321944933108 0 -0.0104585787683961 -0.008395452324609632 0 -0.010658649781140096 -0.0083790238547963337 0 -0.010409778462783605 -0.0080290154418725945 0 -0.0104585787683961 -0.008395452324609632 0 -0.010658649781140096 -0.0083790238547963337 0 -0.010623520031807802 -0.0086519818961450501 0 -0.010322980165702938 -0.0056742746654795178 0 -0.00987444935772884 -0.0062533149859113233 0 -0.010753614575381789 -0.0021573253980305207 0 -0.0097593789468966539 -0.00328955049029293 0 -0.011168210931936151 -0.003547553107139135 0 -0.0072356825277756715 -5.3664811297930346e-05 0 -0.0075932292337018746 -0.00066089580684858035 0 -0.0072682465714170724 -0.0012801834685868007 0 -0.0074446894973532801 -0.00031846921148473076 0 -0.0087073721893352381 -0.0031271607537890133 0 -0.0097593789468966539 -0.00328955049029293 0 -0.011168210931936151 -0.003547553107139135 0 -0.01118237988694387 -0.0038795133527463207 0 -0.0092130199459997345 -0.0017243560361938919 0 -0.0087073721893352381 -0.0031271607537890133 0 -0.0075932292337018746 -0.00066089580684858035 0 -0.0072682465714170724 -0.0012801834685868007 0 -0.0078743033181492127 -0.0011602084175306861 0 -0.0087073721893352381 -0.0031271607537890133 0 -0.0084111143005635245 -0.0059298031083086615 0 -0.0087073721893352381 -0.0031271607537890133 0 -0.00987444935772884 -0.0062533149859113233 0 -0.0072682465714170724 -0.0012801834685868007 0 -0.0073583852717033918 -0.001577355770625897 0 -0.0078743033181492127 -0.0011602084175306861 0 -0.010658649781140096 -0.0083790238547963337 0 -0.010837504899321891 -0.0082305321944933108 0 -0.010838263726781905 -0.0085440124380948782 0 -0.010806390075717634 -0.0081052180081963611 0 -0.010850771928025851 -0.0081240543846269418 0 -0.010838263726781905 -0.0085440124380948782 0 -0.010850771928025851 -0.0081240543846269418 0 -0.010838263726781905 -0.0085440124380948782 0 -0.010994545633924659 -0.0086621705598876851 0 -0.00987444935772884 -0.0062533149859113233 0 -0.010808439301645378 -0.0090846508116706835 0 -0.0084111143005635245 -0.0059298031083086615 0 -0.008657456315499466 -0.0088102252382443146 0 -0.0085722243758854042 -0.0035926384066887994 0 -0.0087012402087537806 -0.006228983321275753 0 -0.0094912649957277686 -0.0065506747772026055 0 -0.00987444935772884 -0.0062533149859113233 0 -0.0084111143005635245 -0.0059298031083086615 0 -0.0056803342869964912 -0.007331859626516982 0 -0.0073020140362562496 -0.0080086595478975949 0 -0.006310441870919661 -0.0094439054012492533 0 -0.0084111143005635245 -0.0059298031083086615 0 -0.00745805081359616 -0.0049054923119345043 0 -0.0073583852717033918 -0.001577355770625897 0 -0.0080967776867373539 -0.001885154418477592 0 -0.0078743033181492127 -0.0011602084175306861 0 -0.0080967776867373539 -0.001885154418477592 0 -0.008460306646634233 -0.0014744409210832206 0 -0.0078743033181492127 -0.0011602084175306861 0 -0.0080967776867373539 -0.001885154418477592 0 -0.0089127881264030144 -0.001780762336520899 0 -0.008460306646634233 -0.0014744409210832206 0 -0.0080967776867373539 -0.001885154418477592 0 -0.008846488538653165 -0.0022184914208007085 0 -0.0089127881264030144 -0.001780762336520899 0 -0.00745805081359616 -0.0049054923119345043 0 -0.0070177504070952426 -0.0079314888875829659 0 -0.0073020140362562496 -0.0080086595478975949 0 -0.0089396353665168043 -0.008679842836759431 0 -0.0075713745021244042 -0.0093579103469284431 0 -0.0070177504070952426 -0.0079314888875829659 0 -0.008139910666242596 -0.0033973216508388984 0 -0.0057804132988877521 -0.0067341591958818463 0 -0.0059373404013521218 -0.0063849972594415185 0 -0.0062663812422746549 -0.0069418593554164878 0 -0.008846488538653165 -0.0022184914208007085 0 -0.009059440915365485 -0.0017534755698590003 0 -0.0089127881264030144 -0.001780762336520899 0 -0.009065923194377894 -0.0017485183057318299 0 -0.0089127881264030144 -0.001780762336520899 0 -0.0089715040650816882 -0.0013047408257191725 0 -0.0089127881264030144 -0.001780762336520899 0 -0.008460306646634233 -0.0014744409210832206 0 -0.0089715040650816882 -0.0013047408257191725 0 -0.008139910666242596 -0.0033973216508388984 0 -0.0084364766840940818 -0.0032138486629308448 0 -0.008460306646634233 -0.0014744409210832206 0 -0.0088658798713773124 -0.00094237509376160337 0 -0.008381819835100654 -0.00066490802084867313 0 -0.008460306646634233 -0.0014744409210832206 0 -0.0089715040650816882 -0.0013047408257191725 0 -0.0088658798713773124 -0.00094237509376160337 0 -0.0089715040650816882 -0.0013047408257191725 0 -0.0088658798713773124 -0.00094237509376160337 0 -0.0095417899772545049 -0.00058054717032603913 0 -0.0088658798713773124 -0.00094237509376160337 0 -0.0095417899772545049 -0.00058054717032603913 0 -0.0089785196219699919 -0.00050912135363062334 0 -0.0088658798713773124 -0.00094237509376160337 0 -0.008381819835100654 -0.00066490802084867313 0 -0.0089785196219699919 -0.00050912135363062334 0 -0.008381819835100654 -0.00066490802084867313 0 -0.0078743033181492127 -0.0011602084175306861 0 -0.0079586703433930702 -0.00055977715172194687 0 -0.008460306646634233 -0.0014744409210832206 0 -0.008381819835100654 -0.00066490802084867313 0 -0.0078743033181492127 -0.0011602084175306861 0 -0.0075932292337018746 -0.00066089580684858035 0 -0.0078743033181492127 -0.0011602084175306861 0 -0.0079586703433930702 -0.00055977715172194687 0 -0.0023975701366979953 -0.0083423053783066668 0 -0.0026560522224608409 -0.0082787990165325079 0 -0.0026261605109371739 -0.0083787269948367993 0 -0.0020616164457634895 -0.012721894550223167 0 -4.858375504628305e-05 -0.0092092284678093102 0 -0.0024289595388523304 -0.0084790540662476217 0 -0.0024484136687657524 -0.0086222253604626153 0 -0.0026261605109371739 -0.0083787269948367993 0 -0.0024289595388523304 -0.0084790540662476217 0 -0.0023975701366979953 -0.0083423053783066668 0 -0.0026261605109371739 -0.0083787269948367993 0 -0.0045247130170945815 -0.004716696859669702 0 -0.00078514591866265778 -0.0057385613733536307 0 -0.0045247130170945815 -0.004716696859669702 0 -0.0050212084048588792 -0.010038023993480357 0 -0.0059373404013521218 -0.0063849972594415185 0 -0.0064766021685085211 -0.0062716472840994011 0 -0.0062663812422746549 -0.0069418593554164878 0 -0.0024289595388523304 -0.0084790540662476217 0 -0.0023975701366979953 -0.0083423053783066668 0 -0.002333515431207986 -0.0085665876906481486 0 -0.008139910666242596 -0.0033973216508388984 0 -0.0045247130170945815 -0.004716696859669702 0 -0.0092306289201443091 -0.0031435946336426726 0 -0.0098646794324388359 -0.0012196861105112234 0 -0.0088758374426123107 -0.0013580674322228085 0 -0.0078774671066252945 -0.0034158218036632487 0 -0.0092306289201443091 -0.0031435946336426726 0 -0.0088758374426123107 -0.0013580674322228085 0 -0.009065923194377894 -0.0017485183057318299 0 -0.0089715040650816882 -0.0013047408257191725 0 -0.0095417899772545049 -0.00058054717032603913 0 -0.008139910666242596 -0.0033973216508388984 0 -0.0092942328761527835 -0.00078543382157711297 0 -0.0015481347777028536 -0.0018188076132023394 0 -0.0025341054115460213 -0.0026929984611221108 0 -0.0022097289415759246 -0.0014040096031846634 0 -0.0045247130170945815 -0.004716696859669702 0 -0.0058258615201426276 -0.0011823716156297631 0 -0.0012040931439184696 -0.0029635673556967319 0 -0.0015481347777028536 -0.0018188076132023394 0 -0.0025341054115460213 -0.0026929984611221108 0 -0.0015481347777028536 -0.0018188076132023394 0 -0.0018948809260328965 -0.00064607753234181928 0 -0.0022097289415759246 -0.0014040096031846634 0 -0.0098646794324388359 -0.0012196861105112234 0 -0.0088758374426123107 -0.0013580674322228085 0 -0.0098995076707410878 0.0004576840324851639 0 -0.0058258615201426276 -0.0011823716156297631 0 -0.006108268495346846 -0.00012240965640998873 0 -0.0095417899772545049 -0.00058054717032603913 0 -0.0095221027063387836 0.00022922418491931054 0 -0.0098995076707410878 0.0004576840324851639 0 -0.0092942328761527835 -0.00078543382157711297 0 -0.009812641304828772 0.00028190352424605235 0 -0.0095417899772545049 -0.00058054717032603913 0 -0.0092174734896735 -0.00014939153229596465 0 -0.0095221027063387836 0.00022922418491931054 0 -0.0095417899772545049 -0.00058054717032603913 0 -0.0092174734896735 -0.00014939153229596465 0 -0.0089785196219699919 -0.00050912135363062334 0 -0.0092174734896735 -0.00014939153229596465 0 -0.00921645601295004 0.00021761157774069628 0 -0.0095221027063387836 0.00022922418491931054 0 -0.00921645601295004 0.00021761157774069628 0 -0.0094196980219979649 0.00070721190110706745 0 -0.0095221027063387836 0.00022922418491931054 0 -0.00921645601295004 0.00021761157774069628 0 -0.0094196980219979649 0.00070721190110706745 0 -0.0089727330374125228 0.00062522405799943378 0 -0.0094196980219979649 0.00070721190110706745 0 -0.0089727330374125228 0.00062522405799943378 0 -0.0091350709894385176 0.00097201406123383462 0 -0.0097666345805555461 0.00080827633936566927 0 -0.0095221027063387836 0.00022922418491931054 0 -0.0098995076707410878 0.0004576840324851639 0 -0.0094196980219979649 0.00070721190110706745 0 -0.0097666345805555461 0.00080827633936566927 0 -0.0095221027063387836 0.00022922418491931054 0 -0.0098646794324388359 -0.0012196861105112234 0 -0.0098995076707410878 0.0004576840324851639 0 -0.010374023850302172 0.00047329531021837159 0 -0.0097666345805555461 0.00080827633936566927 0 -0.010374023850302172 0.00047329531021837159 0 -0.0099544713878572354 0.0012190664983205556 0 -0.0097666345805555461 0.00080827633936566927 0 -0.0098995076707410878 0.0004576840324851639 0 -0.010374023850302172 0.00047329531021837159 0 -0.0083028839575000537 -0.00016658347232734283 0 -0.0085408675845224987 0.00015236859341705936 0 -0.0081823780838305611 0.00029802274884345171 0 -0.0083028839575000537 -0.00016658347232734283 0 -0.0079355396856400293 -0.0001255720763580939 0 -0.0081823780838305611 0.00029802274884345171 0 -0.0079355396856400293 -0.0001255720763580939 0 -0.0081823780838305611 0.00029802274884345171 0 -0.0077095623312042573 0.00015923114207982354 0 -0.0076873167433268537 -0.00025161502289543984 0 -0.0079355396856400293 -0.0001255720763580939 0 -0.0077095623312042573 0.00015923114207982354 0 -0.0076873167433268537 -0.00025161502289543984 0 -0.0079355396856400293 -0.0001255720763580939 0 -0.0079586703433930702 -0.00055977715172194687 0 -0.0075932292337018746 -0.00066089580684858035 0 -0.0076873167433268537 -0.00025161502289543984 0 -0.0079586703433930702 -0.00055977715172194687 0 -0.008381819835100654 -0.00066490802084867313 0 -0.0083028839575000537 -0.00016658347232734283 0 -0.0079586703433930702 -0.00055977715172194687 0 -0.0083028839575000537 -0.00016658347232734283 0 -0.0079355396856400293 -0.0001255720763580939 0 -0.0079586703433930702 -0.00055977715172194687 0 -0.008381819835100654 -0.00066490802084867313 0 -0.0089785196219699919 -0.00050912135363062334 0 -0.0088100383114158038 -0.00012287107812878302 0 -0.008381819835100654 -0.00066490802084867313 0 -0.0083028839575000537 -0.00016658347232734283 0 -0.0088100383114158038 -0.00012287107812878302 0 -0.0092174734896735 -0.00014939153229596465 0 -0.0089785196219699919 -0.00050912135363062334 0 -0.0088100383114158038 -0.00012287107812878302 0 -0.00921645601295004 0.00021761157774069628 0 -0.0088100383114158038 -0.00012287107812878302 0 -0.0088326605454614893 0.00027059229683574907 0 -0.0092174734896735 -0.00014939153229596465 0 -0.00921645601295004 0.00021761157774069628 0 -0.0088100383114158038 -0.00012287107812878302 0 -0.0083028839575000537 -0.00016658347232734283 0 -0.0088100383114158038 -0.00012287107812878302 0 -0.0085408675845224987 0.00015236859341705936 0 -0.0088100383114158038 -0.00012287107812878302 0 -0.0085408675845224987 0.00015236859341705936 0 -0.0088326605454614893 0.00027059229683574907 0 -0.0085408675845224987 0.00015236859341705936 0 -0.008572071563455767 0.000477919920223864 0 -0.0081823780838305611 0.00029802274884345171 0 -0.0085408675845224987 0.00015236859341705936 0 -0.008572071563455767 0.000477919920223864 0 -0.0088326605454614893 0.00027059229683574907 0 -0.00921645601295004 0.00021761157774069628 0 -0.0088326605454614893 0.00027059229683574907 0 -0.0089727330374125228 0.00062522405799943378 0 -0.008572071563455767 0.000477919920223864 0 -0.0088326605454614893 0.00027059229683574907 0 -0.0089727330374125228 0.00062522405799943378 0 -0.0089727330374125228 0.00062522405799943378 0 -0.0088474665557420409 0.0010280768219012811 0 -0.0091350709894385176 0.00097201406123383462 0 -0.0089727330374125228 0.00062522405799943378 0 -0.0085414453906119594 0.00085657554015856137 0 -0.0088474665557420409 0.0010280768219012811 0 -0.008572071563455767 0.000477919920223864 0 -0.0085414453906119594 0.00085657554015856137 0 -0.0082019688728294116 0.00071632302231480316 0 -0.008572071563455767 0.000477919920223864 0 -0.0089727330374125228 0.00062522405799943378 0 -0.0085414453906119594 0.00085657554015856137 0 -0.0082019688728294116 0.00071632302231480316 0 -0.0081823780838305611 0.00029802274884345171 0 -0.0078167779801038579 0.00057024754389890147 0 -0.0085414453906119594 0.00085657554015856137 0 -0.0082019688728294116 0.00071632302231480316 0 -0.0082510944730965347 0.0010612491880527982 0 -0.008572071563455767 0.000477919920223864 0 -0.0082019688728294116 0.00071632302231480316 0 -0.0081823780838305611 0.00029802274884345171 0 -0.0081823780838305611 0.00029802274884345171 0 -0.0077095623312042573 0.00015923114207982354 0 -0.0078167779801038579 0.00057024754389890147 0 -0.0075105755493872382 0.0004951802731276273 0 -0.0077095623312042573 0.00015923114207982354 0 -0.0078167779801038579 0.00057024754389890147 0 -0.0076031102013418873 0.00079861919190166045 0 -0.0078167779801038579 0.00057024754389890147 0 -0.0078447852489762597 0.0010262490225187279 0 -0.0082019688728294116 0.00071632302231480316 0 -0.0078167779801038579 0.00057024754389890147 0 -0.0078447852489762597 0.0010262490225187279 0 -0.0078447852489762597 0.0010262490225187279 0 -0.0081189038427136664 0.001421070783856293 0 -0.0082510944730965347 0.0010612491880527982 0 -0.0078447852489762597 0.0010262490225187279 0 -0.0081189038427136664 0.001421070783856293 0 -0.0076945154436588595 0.0015349516077199142 0 -0.0081189038427136664 0.001421070783856293 0 -0.0079709002559392797 0.0018734984720886806 0 -0.0076945154436588595 0.0015349516077199142 0 -0.0081189038427136664 0.001421070783856293 0 -0.0085669644135377854 0.0013213722529046633 0 -0.0083798200286756153 0.0016973447999328627 0 -0.0081189038427136664 0.001421070783856293 0 -0.0082510944730965347 0.0010612491880527982 0 -0.0085669644135377854 0.0013213722529046633 0 -0.0082019688728294116 0.00071632302231480316 0 -0.0078447852489762597 0.0010262490225187279 0 -0.0082510944730965347 0.0010612491880527982 0 -0.0085414453906119594 0.00085657554015856137 0 -0.0082510944730965347 0.0010612491880527982 0 -0.0085669644135377854 0.0013213722529046633 0 -0.0085414453906119594 0.00085657554015856137 0 -0.0088474665557420409 0.0010280768219012811 0 -0.0085669644135377854 0.0013213722529046633 0 -0.0088474665557420409 0.0010280768219012811 0 -0.0090089507775017678 0.0013600866306277275 0 -0.0085669644135377854 0.0013213722529046633 0 -0.0088474665557420409 0.0010280768219012811 0 -0.0090089507775017678 0.0013600866306277275 0 -0.0091350709894385176 0.00097201406123383462 0 -0.0090089507775017678 0.0013600866306277275 0 -0.0085669644135377854 0.0013213722529046633 0 -0.0088382094592869675 0.0018001340476545202 0 -0.0085669644135377854 0.0013213722529046633 0 -0.0088382094592869675 0.0018001340476545202 0 -0.0083798200286756153 0.0016973447999328627 0 -0.0088382094592869675 0.0018001340476545202 0 -0.0083800793564524252 0.0020937640130795536 0 -0.0083798200286756153 0.0016973447999328627 0 -0.0088382094592869675 0.0018001340476545202 0 -0.0090362433826426131 0.0021618147847749431 0 -0.0093679214720773386 0.0017597503958125375 0 -0.0090089507775017678 0.0013600866306277275 0 -0.0088382094592869675 0.0018001340476545202 0 -0.0093679214720773386 0.0017597503958125375 0 -0.0088382094592869675 0.0018001340476545202 0 -0.0090362433826426131 0.0021618147847749431 0 -0.0087136857818792962 0.0023114809574938471 0 -0.0090362433826426131 0.0021618147847749431 0 -0.0087136857818792962 0.0023114809574938471 0 -0.0089926978690608016 0.002560742883484346 0 -0.0088382094592869675 0.0018001340476545202 0 -0.0087136857818792962 0.0023114809574938471 0 -0.0083800793564524252 0.0020937640130795536 0 -0.0087136857818792962 0.0023114809574938471 0 -0.0083800793564524252 0.0020937640130795536 0 -0.0083414630643098148 0.0024868341078502685 0 -0.0083800793564524252 0.0020937640130795536 0 -0.0080069419938928257 0.0022728624348038323 0 -0.0083414630643098148 0.0024868341078502685 0 -0.0083800793564524252 0.0020937640130795536 0 -0.0080069419938928257 0.0022728624348038323 0 -0.0079709002559392797 0.0018734984720886806 0 -0.0081189038427136664 0.001421070783856293 0 -0.0079709002559392797 0.0018734984720886806 0 -0.0083798200286756153 0.0016973447999328627 0 -0.0083800793564524252 0.0020937640130795536 0 -0.0079709002559392797 0.0018734984720886806 0 -0.0083798200286756153 0.0016973447999328627 0 -0.0099544713878572354 0.0012190664983205556 0 -0.0098718660706327583 0.0019217265749424622 0 -0.010600764829965805 0.0015037824909888732 0 -0.010374023850302172 0.00047329531021837159 0 -0.0099544713878572354 0.0012190664983205556 0 -0.010600764829965805 0.0015037824909888732 0 -0.006108268495346846 -0.00012240965640998873 0 -0.0065118253013919172 0.00075364199008328076 0 -0.0018948809260328965 -0.00064607753234181928 0 -0.0022026828732885015 0.00018239864235796718 0 -0.0022739125603050058 0.00053110856406634157 0 -0.0099544713878572354 0.0012190664983205556 0 -0.0094039296268268163 0.0011876555901588095 0 -0.0093679214720773386 0.0017597503958125375 0 -0.0094196980219979649 0.00070721190110706745 0 -0.0097666345805555461 0.00080827633936566927 0 -0.0094039296268268163 0.0011876555901588095 0 -0.0097666345805555461 0.00080827633936566927 0 -0.0099544713878572354 0.0012190664983205556 0 -0.0094039296268268163 0.0011876555901588095 0 -0.0094196980219979649 0.00070721190110706745 0 -0.0094039296268268163 0.0011876555901588095 0 -0.0091350709894385176 0.00097201406123383462 0 -0.0090089507775017678 0.0013600866306277275 0 -0.0094039296268268163 0.0011876555901588095 0 -0.0091350709894385176 0.00097201406123383462 0 -0.0090089507775017678 0.0013600866306277275 0 -0.0094039296268268163 0.0011876555901588095 0 -0.0093679214720773386 0.0017597503958125375 0 -0.0090362433826426131 0.0021618147847749431 0 -0.0093813565165567631 0.0023200750336234001 0 -0.0089926978690608016 0.002560742883484346 0 -0.0090362433826426131 0.0021618147847749431 0 -0.0093679214720773386 0.0017597503958125375 0 -0.0093813565165567631 0.0023200750336234001 0 -0.0093813565165567631 0.0023200750336234001 0 -0.0098718660706327583 0.0019217265749424622 0 -0.0098040499509794259 0.0023973125485913112 0 -0.0093679214720773386 0.0017597503958125375 0 -0.0093813565165567631 0.0023200750336234001 0 -0.0098718660706327583 0.0019217265749424622 0 -0.0099544713878572354 0.0012190664983205556 0 -0.0093679214720773386 0.0017597503958125375 0 -0.0098718660706327583 0.0019217265749424622 0 -0.0098718660706327583 0.0019217265749424622 0 -0.010219890187368687 0.0022683606662162394 0 -0.010600764829965805 0.0015037824909888732 0 -0.0098718660706327583 0.0019217265749424622 0 -0.010219890187368687 0.0022683606662162394 0 -0.0098040499509794259 0.0023973125485913112 0 -0.010401731576699462 0.002944527357378541 0 -0.010207343247123614 0.0028277387374175183 0 -0.010180272760441957 0.0031147271731936433 0 -0.010207343247123614 0.0028277387374175183 0 -0.0099993895683287738 0.0029925898435190315 0 -0.010180272760441957 0.0031147271731936433 0 -0.010401731576699462 0.002944527357378541 0 -0.010207343247123614 0.0028277387374175183 0 -0.010393542288018441 0.0026108595291802223 0 -0.010207343247123614 0.0028277387374175183 0 -0.010393542288018441 0.0026108595291802223 0 -0.010033580158629657 0.0026284775349537885 0 -0.010219890187368687 0.0022683606662162394 0 -0.010393542288018441 0.0026108595291802223 0 -0.010033580158629657 0.0026284775349537885 0 -0.010033580158629657 0.0026284775349537885 0 -0.0098040499509794259 0.0023973125485913112 0 -0.0096624514982222402 0.0027962505891655047 0 -0.010219890187368687 0.0022683606662162394 0 -0.010033580158629657 0.0026284775349537885 0 -0.0098040499509794259 0.0023973125485913112 0 -0.010207343247123614 0.0028277387374175183 0 -0.010033580158629657 0.0026284775349537885 0 -0.0099993895683287738 0.0029925898435190315 0 -0.0099993895683287738 0.0029925898435190315 0 -0.0096624514982222402 0.0027962505891655047 0 -0.0097394689900811762 0.0032523016332753987 0 -0.010033580158629657 0.0026284775349537885 0 -0.0099993895683287738 0.0029925898435190315 0 -0.0096624514982222402 0.0027962505891655047 0 -0.0096624514982222402 0.0027962505891655047 0 -0.009277823856629383 0.0028349434447193264 0 -0.0094673344582285497 0.0031023434920208356 0 -0.0093813565165567631 0.0023200750336234001 0 -0.0098040499509794259 0.0023973125485913112 0 -0.0096624514982222402 0.0027962505891655047 0 -0.0093813565165567631 0.0023200750336234001 0 -0.0096624514982222402 0.0027962505891655047 0 -0.009277823856629383 0.0028349434447193264 0 -0.0093813565165567631 0.0023200750336234001 0 -0.009277823856629383 0.0028349434447193264 0 -0.0089926978690608016 0.002560742883484346 0 -0.009277823856629383 0.0028349434447193264 0 -0.0091855626669897199 0.0032035854166301727 0 -0.0094673344582285497 0.0031023434920208356 0 -0.0091855626669897199 0.0032035854166301727 0 -0.0093742937535290869 0.0034159678498883821 0 -0.0094673344582285497 0.0031023434920208356 0 -0.0091855626669897199 0.0032035854166301727 0 -0.0093742937535290869 0.0034159678498883821 0 -0.0091635098191961174 0.0035534405387537341 0 -0.0093742937535290869 0.0034159678498883821 0 -0.0091635098191961174 0.0035534405387537341 0 -0.0093654411035983456 0.0037172156320363419 0 -0.0091635098191961174 0.0035534405387537341 0 -0.0093654411035983456 0.0037172156320363419 0 -0.0091195625658290393 0.0037911282001835858 0 -0.0093742937535290869 0.0034159678498883821 0 -0.00961212841163658 0.0035703529894122168 0 -0.0093654411035983456 0.0037172156320363419 0 -0.0093742937535290869 0.0034159678498883821 0 -0.00961212841163658 0.0035703529894122168 0 -0.0097394689900811762 0.0032523016332753987 0 -0.00961212841163658 0.0035703529894122168 0 -0.0098476768909314949 0.0035467037665625404 0 -0.0096595133151612354 0.0038968732919203728 0 -0.00961212841163658 0.0035703529894122168 0 -0.0097394689900811762 0.0032523016332753987 0 -0.0098476768909314949 0.0035467037665625404 0 -0.0096624514982222402 0.0027962505891655047 0 -0.0097394689900811762 0.0032523016332753987 0 -0.0094673344582285497 0.0031023434920208356 0 -0.0093742937535290869 0.0034159678498883821 0 -0.0097394689900811762 0.0032523016332753987 0 -0.0094673344582285497 0.0031023434920208356 0 -0.0097394689900811762 0.0032523016332753987 0 -0.010044159997892982 0.0033637456323011021 0 -0.0098476768909314949 0.0035467037665625404 0 -0.0099993895683287738 0.0029925898435190315 0 -0.010044159997892982 0.0033637456323011021 0 -0.010180272760441957 0.0031147271731936433 0 -0.0099993895683287738 0.0029925898435190315 0 -0.0097394689900811762 0.0032523016332753987 0 -0.010044159997892982 0.0033637456323011021 0 -0.010044159997892982 0.0033637456323011021 0 -0.0098476768909314949 0.0035467037665625404 0 -0.01000570500794409 0.0037731764337601312 0 -0.010044159997892982 0.0033637456323011021 0 -0.010243009595345104 0.0035821141953492589 0 -0.01031832914152557 0.0032742888441136798 0 -0.010044159997892982 0.0033637456323011021 0 -0.010243009595345104 0.0035821141953492589 0 -0.01000570500794409 0.0037731764337601312 0 -0.010243009595345104 0.0035821141953492589 0 -0.01031832914152557 0.0032742888441136798 0 -0.010496063407527951 0.0034639313050247446 0 -0.010044159997892982 0.0033637456323011021 0 -0.01031832914152557 0.0032742888441136798 0 -0.010180272760441957 0.0031147271731936433 0 -0.010401731576699462 0.002944527357378541 0 -0.01031832914152557 0.0032742888441136798 0 -0.010180272760441957 0.0031147271731936433 0 -0.0083289008487767296 0.0028785005739286355 0 -0.0083414630643098148 0.0024868341078502685 0 -0.0086588098902813312 0.0027219862207542283 0 -0.0083289008487767296 0.0028785005739286355 0 -0.0079607866188258491 0.002629221414796708 0 -0.0080176824742139025 0.0030279046582862932 0 -0.0079607866188258491 0.002629221414796708 0 -0.0080176824742139025 0.0030279046582862932 0 -0.0076956657905390257 0.0028273127810906204 0 -0.0080069419938928257 0.0022728624348038323 0 -0.0079607866188258491 0.002629221414796708 0 -0.0083414630643098148 0.0024868341078502685 0 -0.0083289008487767296 0.0028785005739286355 0 -0.0079607866188258491 0.002629221414796708 0 -0.0083414630643098148 0.0024868341078502685 0 -0.0087136857818792962 0.0023114809574938471 0 -0.0089926978690608016 0.002560742883484346 0 -0.0086588098902813312 0.0027219862207542283 0 -0.0087136857818792962 0.0023114809574938471 0 -0.0083414630643098148 0.0024868341078502685 0 -0.0086588098902813312 0.0027219862207542283 0 -0.009277823856629383 0.0028349434447193264 0 -0.0091855626669897199 0.0032035854166301727 0 -0.0089245813206075778 0.0029722142312436678 0 -0.0089926978690608016 0.002560742883484346 0 -0.0089245813206075778 0.0029722142312436678 0 -0.0086588098902813312 0.0027219862207542283 0 -0.009277823856629383 0.0028349434447193264 0 -0.0089926978690608016 0.002560742883484346 0 -0.0089245813206075778 0.0029722142312436678 0 -0.0089245813206075778 0.0029722142312436678 0 -0.0086588098902813312 0.0027219862207542283 0 -0.0086168919329745967 0.0031038092999293781 0 -0.0083289008487767296 0.0028785005739286355 0 -0.0086588098902813312 0.0027219862207542283 0 -0.0086168919329745967 0.0031038092999293781 0 -0.0086168919329745967 0.0031038092999293781 0 -0.0089007307871247169 0.0033253658870093642 0 -0.0085970037472879717 0.003455945839922319 0 -0.0089245813206075778 0.0029722142312436678 0 -0.0086168919329745967 0.0031038092999293781 0 -0.0089007307871247169 0.0033253658870093642 0 -0.0091855626669897199 0.0032035854166301727 0 -0.0089245813206075778 0.0029722142312436678 0 -0.0089007307871247169 0.0033253658870093642 0 -0.0091855626669897199 0.0032035854166301727 0 -0.0089007307871247169 0.0033253658870093642 0 -0.0091635098191961174 0.0035534405387537341 0 -0.0089007307871247169 0.0033253658870093642 0 -0.0088799902575923025 0.0036587558115053764 0 -0.0091635098191961174 0.0035534405387537341 0 -0.0088799902575923025 0.0036587558115053764 0 -0.0091635098191961174 0.0035534405387537341 0 -0.0091195625658290393 0.0037911282001835858 0 -0.0089007307871247169 0.0033253658870093642 0 -0.0088799902575923025 0.0036587558115053764 0 -0.0085970037472879717 0.003455945839922319 0 -0.0088799902575923025 0.0036587558115053764 0 -0.0085970037472879717 0.003455945839922319 0 -0.0086002004020937755 0.0037981348251950793 0 -0.0085970037472879717 0.003455945839922319 0 -0.0082960599403976414 0.0035822360443199196 0 -0.0083096695333849339 0.0032365408800907169 0 -0.0085970037472879717 0.003455945839922319 0 -0.0082960599403976414 0.0035822360443199196 0 -0.0086002004020937755 0.0037981348251950793 0 -0.0086168919329745967 0.0031038092999293781 0 -0.0085970037472879717 0.003455945839922319 0 -0.0083096695333849339 0.0032365408800907169 0 -0.0083289008487767296 0.0028785005739286355 0 -0.0086168919329745967 0.0031038092999293781 0 -0.0083096695333849339 0.0032365408800907169 0 -0.0083289008487767296 0.0028785005739286355 0 -0.0083096695333849339 0.0032365408800907169 0 -0.0080176824742139025 0.0030279046582862932 0 -0.0080176824742139025 0.0030279046582862932 0 -0.0080008737290816426 0.0033651057105291843 0 -0.0077622027214948293 0.0031971813292219369 0 -0.0083096695333849339 0.0032365408800907169 0 -0.0080176824742139025 0.0030279046582862932 0 -0.0080008737290816426 0.0033651057105291843 0 -0.0082960599403976414 0.0035822360443199196 0 -0.0083096695333849339 0.0032365408800907169 0 -0.0080008737290816426 0.0033651057105291843 0 -0.0080008737290816426 0.0033651057105291843 0 -0.0077763768651147175 0.0034670172536342106 0 -0.0080106924858159984 0.0036886956743018219 0 -0.0082960599403976414 0.0035822360443199196 0 -0.0080008737290816426 0.0033651057105291843 0 -0.0080106924858159984 0.0036886956743018219 0 -0.0077763768651147175 0.0034670172536342106 0 -0.0077003461135366352 0.0037806617102214808 0 -0.0080106924858159984 0.0036886956743018219 0 -0.0077763768651147175 0.0034670172536342106 0 -0.0074285838201912932 0.0032998047584377995 0 -0.0077003461135366352 0.0037806617102214808 0 -0.0074285838201912932 0.0032998047584377995 0 -0.0073440997815511846 0.0032127826710012324 0 -0.0072420061294262419 0.004067223884895727 0 -0.0074285838201912932 0.0032998047584377995 0 -0.0073440997815511846 0.0032127826710012324 0 -0.0072468765777932605 0.0027894352832062439 0 -0.0077763768651147175 0.0034670172536342106 0 -0.0074285838201912932 0.0032998047584377995 0 -0.0077622027214948293 0.0031971813292219369 0 -0.0074285838201912932 0.0032998047584377995 0 -0.0077622027214948293 0.0031971813292219369 0 -0.0076956657905390257 0.0028273127810906204 0 -0.0080008737290816426 0.0033651057105291843 0 -0.0077763768651147175 0.0034670172536342106 0 -0.0077622027214948293 0.0031971813292219369 0 -0.0073440997815511846 0.0032127826710012324 0 -0.0067559501578656313 0.0035207765335795974 0 -0.0072088977474770019 0.0042223190503410711 0 -0.0072685648852007356 0.0032299708528518481 0 -0.008040989147844008 0.0044054106314495725 0 -0.0093505178695072171 0.0037158966619771274 0 -0.0091314591881094601 0.0037050783772605272 0 -0.0091577978154106961 0.0040024901800187656 0 -0.0073440997815511846 0.0032127826710012324 0 -0.0067559501578656313 0.0035207765335795974 0 -0.0069057980768155586 0.0029909243257570475 0 -0.0073440997815511846 0.0032127826710012324 0 -0.0069057980768155586 0.0029909243257570475 0 -0.0072468765777932605 0.0027894352832062439 0 -0.0067559501578656313 0.0035207765335795974 0 -0.0069057980768155586 0.0029909243257570475 0 -0.0062758277023381029 0.002794863257740276 0 -0.0080361323583309548 0.0035725625654940787 0 -0.0086332780871529059 0.0027495657039913824 0 -0.0069280434504357478 0.0024504562588024918 0 -0.0066348443673485405 0.0015484004586540673 0 -0.0062758277023381029 0.002794863257740276 0 -0.0069057980768155586 0.0029909243257570475 0 -0.0069280434504357478 0.0024504562588024918 0 -0.0062758277023381029 0.002794863257740276 0 -0.0069057980768155586 0.0029909243257570475 0 -0.0072468765777932605 0.0027894352832062439 0 -0.0069280434504357478 0.0024504562588024918 0 -0.0072468765777932605 0.0027894352832062439 0 -0.0069280434504357478 0.0024504562588024918 0 -0.007619085391880962 0.0019741656188716774 0 -0.0074285838201912932 0.0032998047584377995 0 -0.0076956657905390257 0.0028273127810906204 0 -0.0073137482678685677 0.0022643576633293639 0 -0.0080069419938928257 0.0022728624348038323 0 -0.0079607866188258491 0.002629221414796708 0 -0.0073137482678685677 0.0022643576633293639 0 -0.007429329123968962 0.0032027227411703025 0 -0.0074643253469877761 0.002132041542990543 0 -0.0074285838201912932 0.0032998047584377995 0 -0.0072468765777932605 0.0027894352832062439 0 -0.007619085391880962 0.0019741656188716774 0 -0.0080176824742139025 0.0030279046582862932 0 -0.0077622027214948293 0.0031971813292219369 0 -0.0076956657905390257 0.0028273127810906204 0 -0.0079607866188258491 0.002629221414796708 0 -0.0076956657905390257 0.0028273127810906204 0 -0.0073137482678685677 0.0022643576633293639 0 -0.0080069419938928257 0.0022728624348038323 0 -0.0079709002559392797 0.0018734984720886806 0 -0.0073137482678685677 0.0022643576633293639 0 -0.0079709002559392797 0.0018734984720886806 0 -0.0073137482678685677 0.0022643576633293639 0 -0.0076945154436588595 0.0015349516077199142 0 -0.0073137482678685677 0.0022643576633293639 0 -0.0072539263090963301 0.0011291945642918444 0 -0.0076945154436588595 0.0015349516077199142 0 -0.0074643253469877761 0.002132041542990543 0 -0.0075175444028886202 0.00074840303719461113 0 -0.0069280434504357478 0.0024504562588024918 0 -0.007619085391880962 0.0019741656188716774 0 -0.0066348443673485405 0.0015484004586540673 0 -0.007619085391880962 0.0019741656188716774 0 -0.0066348443673485405 0.0015484004586540673 0 -0.007752199248658817 0.00049893516334560001 0 -0.0098972353370001508 0.00065747669145985058 0 -0.010330000016002821 -0.00075531391874799941 0 -0.0092301350242536412 -0.00027782507088411031 0 -0.0066348443673485405 0.0015484004586540673 0 -0.0070546005808683849 0.00019485262484570968 0 -0.007752199248658817 0.00049893516334560001 0 -0.0082068834676379127 0.0010635274425664053 0 -0.0086879753022487648 -0.00026593656619606045 0 -0.0078447852489762597 0.0010262490225187279 0 -0.0072539263090963301 0.0011291945642918444 0 -0.0076945154436588595 0.0015349516077199142 0 -0.0076031102013418873 0.00079861919190166045 0 -0.0078447852489762597 0.0010262490225187279 0 -0.0072539263090963301 0.0011291945642918444 0 -0.0077276079935542927 -0.00071989110078299779 0 -0.0092301350242536412 -0.00027782507088411031 0 -0.0085816873694607772 0.0006751048243337002 0 -0.0080833889356166731 0.001314430563624329 0 -0.0087663254602163669 0.001574047297117658 0 -0.0098972353370001508 0.00065747669145985058 0 -0.0085816873694607772 0.0006751048243337002 0 -0.0094516668374092644 0.0020746865611896447 0 -0.0098972353370001508 0.00065747669145985058 0 -0.0092301350242536412 -0.00027782507088411031 0 -0.0085816873694607772 0.0006751048243337002 0 -0.0088191067058214449 0.0026571267649962882 0 -0.0085242425681133095 0.0031650999087685597 0 -0.0083688426045704489 0.0027379750010711845 0 -0.008505201903788508 0.0021115553747713183 0 -0.0088191067058214449 0.0026571267649962882 0 -0.0083688426045704489 0.0027379750010711845 0 -0.0088191067058214449 0.0026571267649962882 0 -0.0085242425681133095 0.0031650999087685597 0 -0.0088814050755362164 0.0033505422957249304 0 -0.0082068834676379127 0.0010635274425664053 0 -0.0086332780871529059 0.0027495657039913824 0 -0.0088191067058214449 0.0026571267649962882 0 -0.0088814050755362164 0.0033505422957249304 0 -0.0091519735714579078 0.0032884242933627814 0 -0.0087663254602163669 0.001574047297117658 0 -0.0086332780871529059 0.0027495657039913824 0 -0.0088814050755362164 0.0033505422957249304 0 -0.0091304320620415446 0.003351989474758856 0 -0.0091519735714579078 0.0032884242933627814 0 -0.0086418304021163486 0.0028246954942646222 0 -0.0086332780871529059 0.0027495657039913824 0 -0.0093505178695072171 0.0037158966619771274 0 -0.0091304320620415446 0.003351989474758856 0 -0.0091518303913446734 0.003289987743553846 0 -0.0093505178695072171 0.0037158966619771274 0 -0.0091304320620415446 0.003351989474758856 0 -0.0091314591881094601 0.0037050783772605272 0 -0.0091304320620415446 0.003351989474758856 0 -0.0090205996543730009 0.0035548846452603763 0 -0.0091314591881094601 0.0037050783772605272 0 -0.0088814050755362164 0.0033505422957249304 0 -0.0090205996543730009 0.0035548846452603763 0 -0.0089234510641992247 0.0037951475006005558 0 -0.0088814050755362164 0.0033505422957249304 0 -0.0091304320620415446 0.003351989474758856 0 -0.0090205996543730009 0.0035548846452603763 0 -0.0090205996543730009 0.0035548846452603763 0 -0.0089234510641992247 0.0037951475006005558 0 -0.0091314591881094601 0.0037050783772605272 0 -0.0089234510641992247 0.0037951475006005558 0 -0.0091314591881094601 0.0037050783772605272 0 -0.0091577978154106961 0.0040024901800187656 0 -0.0085242425681133095 0.0031650999087685597 0 -0.0088814050755362164 0.0033505422957249304 0 -0.0085707653868800429 0.0036486834525516635 0 -0.0088814050755362164 0.0033505422957249304 0 -0.0089234510641992247 0.0037951475006005558 0 -0.0085707653868800429 0.0036486834525516635 0 -0.0085707653868800429 0.0036486834525516635 0 -0.0080688704223678305 0.0032565514384550747 0 -0.0082546034118513578 0.0039720581580993146 0 -0.0080688704223678305 0.0032565514384550747 0 -0.0077893055795574826 0.0041721581171972454 0 -0.0082546034118513578 0.0039720581580993146 0 -0.0085242425681133095 0.0031650999087685597 0 -0.0085707653868800429 0.0036486834525516635 0 -0.0080688704223678305 0.0032565514384550747 0 -0.0085242425681133095 0.0031650999087685597 0 -0.0080688704223678305 0.0032565514384550747 0 -0.0083688426045704489 0.0027379750010711845 0 -0.0080688704223678305 0.0032565514384550747 0 -0.0077624182365983166 0.003233083705212744 0 -0.0076532765020164446 0.0028042409784793157 0 -0.0080688704223678305 0.0032565514384550747 0 -0.0076532765020164446 0.0028042409784793157 0 -0.0079559471083298413 0.0025161106008243336 0 -0.0080621087221702352 0.0033119777853318311 0 -0.0079449150761682161 0.0039768645569024192 0 -0.0080688704223678305 0.0032565514384550747 0 -0.0077624182365983166 0.003233083705212744 0 -0.0080837055832049948 0.0037917684508463291 0 -0.0074560013246859225 0.0035021952848001544 0 -0.0077624182365983166 0.003233083705212744 0 -0.0080837055832049948 0.0037917684508463291 0 -0.0074560013246859225 0.0035021952848001544 0 -0.0077624182365983166 0.003233083705212744 0 -0.0072477827501607585 0.0029757024716460098 0 -0.0074560013246859225 0.0035021952848001544 0 -0.0072477827501607585 0.0029757024716460098 0 -0.0068627863223292137 0.0034728227610214034 0 -0.0073685206912620016 0.0027361178908312106 0 -0.0065659325293489041 0.00393004998644691 0 -0.0072477827501607585 0.0029757024716460098 0 -0.0073613560373742351 0.0025610377507328092 0 -0.0072112888256428021 0.0026942709130512005 0 -0.0072477827501607585 0.0029757024716460098 0 -0.0076532765020164446 0.0028042409784793157 0 -0.0073613560373742351 0.0025610377507328092 0 -0.0077624182365983166 0.003233083705212744 0 -0.0072477827501607585 0.0029757024716460098 0 -0.0076532765020164446 0.0028042409784793157 0 -0.0076532765020164446 0.0028042409784793157 0 -0.0076356444785992197 0.0022906819537124863 0 -0.0079559471083298413 0.0025161106008243336 0 -0.0076532765020164446 0.0028042409784793157 0 -0.0073613560373742351 0.0025610377507328092 0 -0.0076356444785992197 0.0022906819537124863 0 -0.0073613560373742351 0.0025610377507328092 0 -0.0071287063449739785 0.0024590351509531879 0 -0.0073501944997017479 0.002060551276615692 0 -0.0073613560373742351 0.0025610377507328092 0 -0.0076356444785992197 0.0022906819537124863 0 -0.0073501944997017479 0.002060551276615692 0 -0.0076356444785992197 0.0022906819537124863 0 -0.0079559471083298413 0.0025161106008243336 0 -0.0080576026006145968 0.0020659806958938406 0 -0.008505201903788508 0.0021115553747713183 0 -0.0083688426045704489 0.0027379750010711845 0 -0.0079559471083298413 0.0025161106008243336 0 -0.008505201903788508 0.0021115553747713183 0 -0.0079559471083298413 0.0025161106008243336 0 -0.0080576026006145968 0.0020659806958938406 0 -0.0080688704223678305 0.0032565514384550747 0 -0.0083688426045704489 0.0027379750010711845 0 -0.0079559471083298413 0.0025161106008243336 0 -0.022158572664297594 -0.0016493864499925726 0 -0.022085572661346142 -0.0023221229246273151 0 -0.021145962351818481 -0.0018078929635549903 0 -0.021525194181336606 -0.0013216917613359817 0 -0.022158572664297594 -0.0016493864499925726 0 -0.021145962351818481 -0.0018078929635549903 0 -0.022085572661346142 -0.0023221229246273151 0 -0.020688593957871742 -0.0024934985951665942 0 -0.021111250001884879 -0.0033380824969885098 0 -0.020688593957871742 -0.0024934985951665942 0 -0.021145962351818481 -0.0018078929635549903 0 -0.020445736377186483 -0.0016542930539805982 0 -0.022085572661346142 -0.0023221229246273151 0 -0.020688593957871742 -0.0024934985951665942 0 -0.021145962351818481 -0.0018078929635549903 0 -0.021525194181336606 -0.0013216917613359817 0 -0.021145962351818481 -0.0018078929635549903 0 -0.020722171253663147 -0.0008694419046760978 0 -0.021145962351818481 -0.0018078929635549903 0 -0.020445736377186483 -0.0016542930539805982 0 -0.020722171253663147 -0.0008694419046760978 0 -0.020445736377186483 -0.0016542930539805982 0 -0.019789741811097217 -0.0022523316364604874 0 -0.019868491799169784 -0.0010839319308345377 0 -0.020688593957871742 -0.0024934985951665942 0 -0.020445736377186483 -0.0016542930539805982 0 -0.019789741811097217 -0.0022523316364604874 0 -0.0072477827501607585 0.0029757024716460098 0 -0.0072243384304794978 0.0029600835315213088 0 -0.007172330216424494 0.0028497652191044592 0 -0.0071934156619094334 0.0029393100469866287 0 -0.0072243384304794978 0.0029600835315213088 0 -0.007172330216424494 0.0028497652191044592 0 -0.0071934156619094334 0.0029393100469866287 0 -0.007172330216424494 0.0028497652191044592 0 -0.0070498041814742998 0.0026987756311514363 0 -0.013566671042330546 0.0001713736376541781 0 -0.01445646107420334 0.00048141512555864167 0 -0.0072477827501607585 0.0029757024716460098 0 -0.007172330216424494 0.0028497652191044592 0 -0.0072112888256428021 0.0026942709130512005 0 -0.007172330216424494 0.0028497652191044592 0 -0.0071402634960036166 0.0027260167540624279 0 -0.0070498041814742998 0.0026987756311514363 0 -0.007172330216424494 0.0028497652191044592 0 -0.0072112888256428021 0.0026942709130512005 0 -0.0071402634960036166 0.0027260167540624279 0 -0.0071287063449739785 0.0024590351509531879 0 -0.0070033941402158134 0.002226512539453216 0 -0.0070498041814742998 0.0026987756311514363 0 -0.0073613560373742351 0.0025610377507328092 0 -0.0072112888256428021 0.0026942709130512005 0 -0.0071287063449739785 0.0024590351509531879 0 -0.0072112888256428021 0.0026942709130512005 0 -0.0071402634960036166 0.0027260167540624279 0 -0.0071184053874697121 0.0026574631300681304 0 -0.0071184053874697121 0.0026574631300681304 0 -0.0071287063449739785 0.0024590351509531879 0 -0.0070498041814742998 0.0026987756311514363 0 -0.0072112888256428021 0.0026942709130512005 0 -0.0071184053874697121 0.0026574631300681304 0 -0.0071287063449739785 0.0024590351509531879 0 -0.0071402634960036166 0.0027260167540624279 0 -0.0071184053874697121 0.0026574631300681304 0 -0.0070498041814742998 0.0026987756311514363 0 -0.0071287063449739785 0.0024590351509531879 0 -0.0070033941402158134 0.002226512539453216 0 -0.0073501944997017479 0.002060551276615692 0 -0.01271257744520808 -0.0044363710661074994 0 -0.0096280916047179182 -0.0035671574754758419 0 -0.01454166041494815 -0.010294520199505006 0 -0.015855483764962919 -0.010817197768025035 0 -0.015863739291141602 -0.0094610321107464479 0 -0.01271257744520808 -0.0044363710661074994 0 -0.0168326419698425 -0.0069718076814796054 0 -0.015730113159902758 -0.002327016991927115 0 -0.016988635665909892 -0.0037742358859318348 0 -0.017051675911420951 -0.0028525414647464255 0 -0.020445736377186483 -0.0016542930539805982 0 -0.019868491799169784 -0.0010839319308345377 0 -0.020722171253663147 -0.0008694419046760978 0 -0.01271257744520808 -0.0044363710661074994 0 -0.01445646107420334 0.00048141512555864167 0 -0.015730113159902758 -0.002327016991927115 0 -0.015613534561415903 -0.0041479385106739201 0 -0.016988635665909892 -0.0037742358859318348 0 -0.01445646107420334 0.00048141512555864167 0 -0.019472820466398155 -0.0021404309880822055 0 -0.0168326419698425 -0.0069718076814796054 0 -0.019239671815767617 -0.0050948053853943397 0 -0.016988635665909892 -0.0037742358859318348 0 -0.017051675911420951 -0.0028525414647464255 0 -0.018386244108723599 -0.0033967999306513765 0 -0.019472820466398155 -0.0021404309880822055 0 -0.019239671815767617 -0.0050948053853943397 0 -0.021525194181336606 -0.0013216917613359817 0 -0.020722171253663147 -0.0008694419046760978 0 -0.021571896975265535 -0.00064830109122490274 0 -0.015855483764962919 -0.010817197768025035 0 -0.017302404251391838 -0.0098644768757924304 0 -0.015863739291141602 -0.0094610321107464479 0 -0.015855483764962919 -0.010817197768025035 0 -0.017302404251391838 -0.0098644768757924304 0 -0.017174838186710884 -0.011328387834107057 0 -0.018844700217865471 -0.01084294517076664 0 -0.017302404251391838 -0.0098644768757924304 0 -0.017174838186710884 -0.011328387834107057 0 -0.022679985199939488 -0.00111986832989561 0 -0.022158572664297594 -0.0016493864499925726 0 -0.021571896975265535 -0.00064830109122490274 0 -0.022826370559807827 -0.0028742135202827254 0 -0.019239671815767617 -0.0050948053853943397 0 -0.019395402057298335 -0.0085076683748247506 0 -0.019239671815767617 -0.0050948053853943397 0 -0.021525194181336606 -0.0013216917613359817 0 -0.022158572664297594 -0.0016493864499925726 0 -0.021571896975265535 -0.00064830109122490274 0 -0.019157665715767564 -0.0073356584719727102 0 -0.017224012941469372 -0.0076332653501161585 0 -0.019149400231774281 -0.0090648759662142354 0 -0.017302404251391838 -0.0098644768757924304 0 -0.01701453335622214 -0.0076848309182367229 0 -0.01701453335622214 -0.0076848309182367229 0 -0.015863739291141602 -0.0094610321107464479 0 -0.01462000168915454 -0.008624713760827336 0 -0.017302404251391838 -0.0098644768757924304 0 -0.01701453335622214 -0.0076848309182367229 0 -0.015863739291141602 -0.0094610321107464479 0 -0.01701453335622214 -0.0076848309182367229 0 -0.01462000168915454 -0.008624713760827336 0 -0.014703028428775989 -0.0072793670546450308 0 -0.01271257744520808 -0.0044363710661074994 0 -0.014727682511142941 -0.01092162792208401 0 -0.01454166041494815 -0.010294520199505006 0 -0.015863739291141602 -0.0094610321107464479 0 -0.01462000168915454 -0.008624713760827336 0 -0.014444426760748271 -0.010139809103803904 0 -0.01462000168915454 -0.008624713760827336 0 -0.012723374516658845 -0.0094630987137789974 0 -0.01462000168915454 -0.008624713760827336 0 -0.013141962949738937 -0.0082237112092279647 0 -0.012723374516658845 -0.0094630987137789974 0 -0.01462000168915454 -0.008624713760827336 0 -0.013141962949738937 -0.0082237112092279647 0 -0.014703028428775989 -0.0072793670546450308 0 -0.013141962949738937 -0.0082237112092279647 0 -0.013431882735167296 -0.0071006400397884539 0 -0.014703028428775989 -0.0072793670546450308 0 -0.013431882735167296 -0.0071006400397884539 0 -0.014229451337909125 -0.0054935640246724085 0 -0.014703028428775989 -0.0072793670546450308 0 -0.013426358023788108 -0.007113876164419366 0 -0.014164571970315173 -0.0053817144770418393 0 -0.013431882735167296 -0.0071006400397884539 0 -0.013102775703932338 -0.006263883895715157 0 -0.013932408310442989 -0.0059831185804135635 0 -0.013102775703932338 -0.006263883895715157 0 -0.013932408310442989 -0.0059831185804135635 0 -0.013109766515442534 -0.0048172578179394455 0 -0.014229451337909125 -0.0054935640246724085 0 -0.015881975598814959 -0.0063589491940816197 0 -0.016267938867853722 -0.0054035347902425769 0 -0.014229451337909125 -0.0054935640246724085 0 -0.016267938867853722 -0.0054035347902425769 0 -0.015797995811432923 -0.004645289913110774 0 -0.014229451337909125 -0.0054935640246724085 0 -0.014703028428775989 -0.0072793670546450308 0 -0.015881975598814959 -0.0063589491940816197 0 -0.01701453335622214 -0.0076848309182367229 0 -0.014703028428775989 -0.0072793670546450308 0 -0.015881975598814959 -0.0063589491940816197 0 -0.01701453335622214 -0.0076848309182367229 0 -0.015881975598814959 -0.0063589491940816197 0 -0.017028438430195716 -0.0058756487827994848 0 -0.016267938867853722 -0.0054035347902425769 0 -0.01685019093675575 -0.0046980997901695685 0 -0.015797995811432923 -0.004645289913110774 0 -0.016267938867853722 -0.0054035347902425769 0 -0.017028438430195716 -0.0058756487827994848 0 -0.01685019093675575 -0.0046980997901695685 0 -0.015881975598814959 -0.0063589491940816197 0 -0.016267938867853722 -0.0054035347902425769 0 -0.017028438430195716 -0.0058756487827994848 0 -0.017028438430195716 -0.0058756487827994848 0 -0.0179309820889542 -0.0048499593116611249 0 -0.018229140632102448 -0.0062117360953872361 0 -0.017028438430195716 -0.0058756487827994848 0 -0.0179309820889542 -0.0048499593116611249 0 -0.01685019093675575 -0.0046980997901695685 0 -0.01701453335622214 -0.0076848309182367229 0 -0.017028438430195716 -0.0058756487827994848 0 -0.018229140632102448 -0.0062117360953872361 0 -0.01944392377988248 -0.0073126101696469109 0 -0.01701453335622214 -0.0076848309182367229 0 -0.018229140632102448 -0.0062117360953872361 0 -0.0089453607861032947 -0.0039548895654498177 0 -0.0096328209336801803 -0.0034036643030694756 0 -0.010399944416547797 -0.0081568104389078515 0 -0.011214506703712259 -0.0086833684736911752 0 -0.011097606200615237 -0.0076845349481691663 0 -0.010399944416547797 -0.0081568104389078515 0 -0.011097606200615237 -0.0076845349481691663 0 -0.010821810658718418 -0.0077608405409747708 0 -0.0089453607861032947 -0.0039548895654498177 0 -0.0097549174017651195 -0.008231049874029478 0 -0.0094740936931151497 -0.0075876244691936269 0 -0.0092938463324456332 -0.007897498826116579 0 -0.0095456980950139794 -0.0079719538336625109 0 -0.0083201024707250711 -0.0027002341310815685 0 -0.0077276079935542927 -0.00071989110078299779 0 -0.0068772175548140382 -0.0021092522117644023 0 -0.0099539461929369494 -0.0078095640397065373 0 -0.0094740936931151497 -0.0075876244691936269 0 -0.0095456980950139794 -0.0079719538336625109 0 -0.0089728790699533986 -0.005321499089987033 0 -0.0089453607861032947 -0.0039548895654498177 0 -0.008505201903788508 0.0021115553747713183 0 -0.0082148886484080651 0.0015888409841900003 0 -0.0080576026006145968 0.0020659806958938406 0 -0.0080833889356166731 0.001314430563624329 0 -0.0089453607861032947 -0.0039548895654498177 0 -0.0082148886484080651 0.0015888409841900003 0 -0.0080576026006145968 0.0020659806958938406 0 -0.0077455021667826281 0.0018334665406099968 0 -0.0076356444785992197 0.0022906819537124863 0 -0.0080576026006145968 0.0020659806958938406 0 -0.0077455021667826281 0.0018334665406099968 0 -0.0076356444785992197 0.0022906819537124863 0 -0.0077455021667826281 0.0018334665406099968 0 -0.0073501944997017479 0.002060551276615692 0 -0.013141962949738937 -0.0082237112092279647 0 -0.012723374516658845 -0.0094630987137789974 0 -0.012080986314886827 -0.0082574771555235706 0 -0.011214506703712259 -0.0086833684736911752 0 -0.012723374516658845 -0.0094630987137789974 0 -0.012080986314886827 -0.0082574771555235706 0 -0.0096328209336801803 -0.0034036643030694756 0 -0.0096280916047179182 -0.0035671574754758419 0 -0.013141962949738937 -0.0082237112092279647 0 -0.013431882735167296 -0.0071006400397884539 0 -0.012456146181253821 -0.0072513101382098875 0 -0.013141962949738937 -0.0082237112092279647 0 -0.012080986314886827 -0.0082574771555235706 0 -0.012456146181253821 -0.0072513101382098875 0 -0.011214506703712259 -0.0086833684736911752 0 -0.012080986314886827 -0.0082574771555235706 0 -0.011097606200615237 -0.0076845349481691663 0 -0.012080986314886827 -0.0082574771555235706 0 -0.011097606200615237 -0.0076845349481691663 0 -0.012456146181253821 -0.0072513101382098875 0 -0.011112550416918795 -0.0077021171157688334 0 -0.011119015434773593 -0.0071621378902444865 0 -0.011097606200615237 -0.0076845349481691663 0 -0.010888831762166517 -0.0080747336119433785 0 -0.010330355595549779 -0.0085414508751392344 0 -0.011097606200615237 -0.0076845349481691663 0 -0.012456146181253821 -0.0072513101382098875 0 -0.012158870364611671 -0.0060737610416409238 0 -0.011097606200615237 -0.0076845349481691663 0 -0.011000076911070057 -0.0078470984200540231 0 -0.010888831762166517 -0.0080747336119433785 0 -0.010888831762166517 -0.0080747336119433785 0 -0.010986589907553249 -0.0085520091496888353 0 -0.01105356529430743 -0.0084593580532218611 0 -0.010888831762166517 -0.0080747336119433785 0 -0.011025290560134147 -0.0079893019542691731 0 -0.010987628214382041 -0.0079176126940157625 0 -0.010788875016054586 -0.0082115385681715992 0 -0.010508157444396433 -0.0081724829708111658 0 -0.011000076911070057 -0.0078470984200540231 0 -0.010888831762166517 -0.0080747336119433785 0 -0.010987628214382041 -0.0079176126940157625 0 -0.013102775703932338 -0.006263883895715157 0 -0.012456146181253821 -0.0072513101382098875 0 -0.012158870364611671 -0.0060737610416409238 0 -0.013431882735167296 -0.0071006400397884539 0 -0.013102775703932338 -0.006263883895715157 0 -0.012456146181253821 -0.0072513101382098875 0 -0.013102775703932338 -0.006263883895715157 0 -0.012158870364611671 -0.0060737610416409238 0 -0.013109766515442534 -0.0048172578179394455 0 -0.010330355595549779 -0.0085414508751392344 0 -0.010784142061058979 -0.0087905596941491807 0 -0.010468877584970216 -0.0094772078037521079 0 -0.010888831762166517 -0.0080747336119433785 0 -0.010986589907553249 -0.0085520091496888353 0 -0.010784142061058979 -0.0087905596941491807 0 -0.010928420862384229 -0.0086915146985499132 0 -0.010986589907553249 -0.0085520091496888353 0 -0.010784142061058979 -0.0087905596941491807 0 -0.010928420862384229 -0.0086915146985499132 0 -0.010986589907553249 -0.0085520091496888353 0 -0.011008410429172971 -0.0085288430535854064 0 -0.010526502597868668 -0.008191105144950285 0 -0.010508157444396433 -0.0081724829708111658 0 -0.010888831762166517 -0.0080747336119433785 0 -0.010330355595549779 -0.0085414508751392344 0 -0.010784142061058979 -0.0087905596941491807 0 -0.010928420862384229 -0.0086915146985499132 0 -0.010784142061058979 -0.0087905596941491807 0 -0.010909181699609416 -0.0089190077728695371 0 -0.011008410429172971 -0.0085288430535854064 0 -0.010959446219882315 -0.0090647831581837264 0 -0.010909181699609416 -0.0089190077728695371 0 -0.0091169284866932845 -0.0081952892025016419 0 -0.0094740211998387402 -0.0082218461535704147 0 -0.0094926485066612679 -0.0085854587834585921 0 -0.010508157444396433 -0.0081724829708111658 0 -0.010149884922761532 -0.0088098524079089306 0 -0.010928420862384229 -0.0086915146985499132 0 -0.011008410429172971 -0.0085288430535854064 0 -0.010909181699609416 -0.0089190077728695371 0 -0.0091169284866932845 -0.0081952892025016419 0 -0.0093576297353580411 -0.0080716682075381574 0 -0.0092938463324456332 -0.007897498826116579 0 -0.011025290560134147 -0.0079893019542691731 0 -0.010987628214382041 -0.0079176126940157625 0 -0.010821810658718418 -0.0077608405409747708 0 -0.0091169284866932845 -0.0081952892025016419 0 -0.0093576297353580411 -0.0080716682075381574 0 -0.0094740211998387402 -0.0082218461535704147 0 -0.010508157444396433 -0.0081724829708111658 0 -0.0097549174017651195 -0.008231049874029478 0 -0.0093576297353580411 -0.0080716682075381574 0 -0.0092938463324456332 -0.007897498826116579 0 -0.0095456980950139794 -0.0079719538336625109 0 -0.011000076911070057 -0.0078470984200540231 0 -0.010987628214382041 -0.0079176126940157625 0 -0.010821810658718418 -0.0077608405409747708 0 -0.011097606200615237 -0.0076845349481691663 0 -0.011000076911070057 -0.0078470984200540231 0 -0.010821810658718418 -0.0077608405409747708 0 -0.0099539461929369494 -0.0078095640397065373 0 -0.0095456980950139794 -0.0079719538336625109 0 -0.0097325162872685788 -0.0081984798378303865 0 -0.0095456980950139794 -0.0079719538336625109 0 -0.0097325162872685788 -0.0081984798378303865 0 -0.0094740211998387402 -0.0082218461535704147 0 -0.0093576297353580411 -0.0080716682075381574 0 -0.0095456980950139794 -0.0079719538336625109 0 -0.0094740211998387402 -0.0082218461535704147 0 -0.0097325162872685788 -0.0081984798378303865 0 -0.0094740211998387402 -0.0082218461535704147 0 -0.0094926485066612679 -0.0085854587834585921 0 -0.010007935003075612 -0.0083969395054653648 0 -0.0097325162872685788 -0.0081984798378303865 0 -0.0094926485066612679 -0.0085854587834585921 0 -0.010149884922761532 -0.0088098524079089306 0 -0.010318413237159613 -0.009119920036384949 0 -0.010844337197229052 -0.0092159461425877411 0 -0.010777234376054745 -0.0092345082417856997 0 -0.010753319630780573 -0.0092992091622401719 0 -0.010959446219882315 -0.0090647831581837264 0 -0.010844337197229052 -0.0092159461425877411 0 -0.010753319630780573 -0.0092992091622401719 0 -0.011033628569969256 -0.009684550346780986 0 -0.011178874458844468 -0.0092415266161554478 0 -0.010844337197229052 -0.0092159461425877411 0 -0.010805419139135918 -0.0091348571754769591 0 -0.010806185243352846 -0.0092443637140848418 0 -0.010959446219882315 -0.0090647831581837264 0 -0.010844337197229052 -0.0092159461425877411 0 -0.010805419139135918 -0.0091348571754769591 0 -0.010959446219882315 -0.0090647831581837264 0 -0.010909181699609416 -0.0089190077728695371 0 -0.010805419139135918 -0.0091348571754769591 0 -0.010784142061058979 -0.0087905596941491807 0 -0.01120707237824421 -0.0099067139824428486 0 -0.010468877584970216 -0.0094772078037521079 0 -0.010784142061058979 -0.0087905596941491807 0 -0.010909181699609416 -0.0089190077728695371 0 -0.010805419139135918 -0.0091348571754769591 0 -0.010788547223956632 -0.0087933903772953164 0 -0.011033628569969256 -0.009684550346780986 0 -0.010468877584970216 -0.0094772078037521079 0 -0.01033706578931312 -0.010471444644068593 0 -0.0097010413647659818 -0.0096795413610259035 0 -0.010330355595549779 -0.0085414508751392344 0 -0.010468877584970216 -0.0094772078037521079 0 -0.0097010413647659818 -0.0096795413610259035 0 -0.011119015434773593 -0.0071621378902444865 0 -0.012799992587520603 -0.0085378122475008103 0 -0.01033706578931312 -0.010471444644068593 0 -0.0097010413647659818 -0.0096795413610259035 0 -0.0097300703669576261 -0.01079824271888315 0 -0.01120707237824421 -0.0099067139824428486 0 -0.010822582665778326 -0.011106329365109665 0 -0.011530834751888926 -0.01098955905653067 0 -0.01120707237824421 -0.0099067139824428486 0 -0.010468877584970216 -0.0094772078037521079 0 -0.01033706578931312 -0.010471444644068593 0 -0.01120707237824421 -0.0099067139824428486 0 -0.01033706578931312 -0.010471444644068593 0 -0.010822582665778326 -0.011106329365109665 0 -0.010822582665778326 -0.011106329365109665 0 -0.011104180671545699 -0.011471038384925539 0 -0.01075916193152821 -0.011805049135270465 0 -0.010822582665778326 -0.011106329365109665 0 -0.010185848544031423 -0.011493142145589927 0 -0.01075916193152821 -0.011805049135270465 0 -0.010822582665778326 -0.011106329365109665 0 -0.011104180671545699 -0.011471038384925539 0 -0.011530834751888926 -0.01098955905653067 0 -0.01033706578931312 -0.010471444644068593 0 -0.010185848544031423 -0.011493142145589927 0 -0.0097300703669576261 -0.01079824271888315 0 -0.01033706578931312 -0.010471444644068593 0 -0.010822582665778326 -0.011106329365109665 0 -0.010185848544031423 -0.011493142145589927 0 -0.010185848544031423 -0.011493142145589927 0 -0.010355438449896361 -0.012069402560087142 0 -0.0096691191957200811 -0.012106171990581727 0 -0.010185848544031423 -0.011493142145589927 0 -0.010355438449896361 -0.012069402560087142 0 -0.01075916193152821 -0.011805049135270465 0 -0.010355438449896361 -0.012069402560087142 0 -0.0096691191957200811 -0.012106171990581727 0 -0.010080075718050158 -0.012627135901859347 0 -0.010355438449896361 -0.012069402560087142 0 -0.01075916193152821 -0.011805049135270465 0 -0.011095059064626062 -0.012308760503224561 0 -0.011104180671545699 -0.011471038384925539 0 -0.01075916193152821 -0.011805049135270465 0 -0.011319297046808108 -0.011973962881816957 0 -0.01075916193152821 -0.011805049135270465 0 -0.011095059064626062 -0.012308760503224561 0 -0.011319297046808108 -0.011973962881816957 0 -0.010071539340242235 -0.017175915176221319 0 -0.0119541922255842 -0.012567160035259133 0 -0.0067498132416448729 -0.021667047015429101 0 -0.0072081693920895001 -0.021491161123427863 0 -0.0070470775906499019 -0.021754556890365064 0 -0.011319297046808108 -0.011973962881816957 0 -0.011851390178813094 -0.012105901253129566 0 -0.011530834751888926 -0.01098955905653067 0 -0.011060902388650535 -0.012409927686838379 0 -0.011319297046808108 -0.011973962881816957 0 -0.011851390178813094 -0.012105901253129566 0 -0.010071539340242235 -0.017175915176221319 0 -0.0089775826868972002 -0.015665669583032171 0 -0.0089775826868972002 -0.015665669583032171 0 -0.0090204192011074814 -0.015371879155276024 0 -0.0072647319335288566 -0.021628647028973404 0 -0.007325081851967237 -0.021664777766565592 0 -0.0073347646451625238 -0.021614626158411695 0 -0.010786601817482915 -0.0092354970909932377 0 -0.010777234376054745 -0.0092345082417856997 0 -0.010685782809236009 -0.0091733019358685806 0 -0.0072647319335288566 -0.021628647028973404 0 -0.007325081851967237 -0.021664777766565592 0 -0.0073065888466965602 -0.02171580905138154 0 -0.010777234376054745 -0.0092345082417856997 0 -0.010649707931350493 -0.0092552177823628599 0 -0.010753319630780573 -0.0092992091622401719 0 -0.010777234376054745 -0.0092345082417856997 0 -0.010685782809236009 -0.0091733019358685806 0 -0.010649707931350493 -0.0092552177823628599 0 -0.011104180671545699 -0.011471038384925539 0 -0.011319297046808108 -0.011973962881816957 0 -0.011530834751888926 -0.01098955905653067 0 -0.010786601817482915 -0.0092354970909932377 0 -0.010777234376054745 -0.0092345082417856997 0 -0.010806185243352846 -0.0092443637140848418 0 -0.0089775826868972002 -0.015665669583032171 0 -0.011178874458844468 -0.0092415266161554478 0 -0.010844337197229052 -0.0092159461425877411 0 -0.010777234376054745 -0.0092345082417856997 0 -0.010806185243352846 -0.0092443637140848418 0 -0.026049998312503053 -0.0087833113339180636 0 -0.025913148995295669 -0.0088092019029932297 0 -0.025947118056760345 -0.0087609344822005431 0 -0.026057664891294744 -0.008769191510337053 0 -0.026049998312503053 -0.0087833113339180636 0 -0.025913148995295669 -0.0088092019029932297 0 -0.018716830158720475 -0.0040768137199171375 0 -0.0179309820889542 -0.0048499593116611249 0 -0.016652588991215519 -0.004015955589280867 0 -0.022483766029135037 -0.0063734405491168407 0 -0.020264497440677508 -0.0068750044875464603 0 -0.0179309820889542 -0.0048499593116611249 0 -0.016652588991215519 -0.004015955589280867 0 -0.01685019093675575 -0.0046980997901695685 0 -0.020264497440677508 -0.0068750044875464603 0 -0.015461281910962023 -0.0068980182907462965 0 -0.016640901587034424 -0.0040175502294257214 0 -0.015797995811432923 -0.004645289913110774 0 -0.015024362834444414 -0.0039596146932780046 0 -0.016640901587034424 -0.0040175502294257214 0 -0.01685019093675575 -0.0046980997901695685 0 -0.015797995811432923 -0.004645289913110774 0 -0.020264497440677508 -0.0068750044875464603 0 -0.018055531503022394 -0.0041012300603628458 0 -0.019053518471752275 -0.0078505832908421346 0 -0.019098001405802048 -0.0078529506002891613 0 -0.019090352487892197 -0.0079427647808967879 0 -0.025913148995295669 -0.0088092019029932297 0 -0.025887165686726346 -0.0087648391865358787 0 -0.025947118056760345 -0.0087609344822005431 0 -0.020264497440677508 -0.0068750044875464603 0 -0.021539780662134123 -0.00949144242819531 0 -0.015461281910962023 -0.0068980182907462965 0 -0.021539780662134123 -0.00949144242819531 0 -0.015233404664276471 -0.0098293574050667357 0 -0.015049429669886007 -0.0093794432414793308 0 -0.015508419149187356 -0.0093456292047758051 0 -0.014164571970315173 -0.0053817144770418393 0 -0.015461281910962023 -0.0068980182907462965 0 -0.014229451337909125 -0.0054935640246724085 0 -0.015797995811432923 -0.004645289913110774 0 -0.015024362834444414 -0.0039596146932780046 0 -0.013932408310442989 -0.0059831185804135635 0 -0.014491009156383471 -0.0048880154197432756 0 -0.013109766515442534 -0.0048172578179394455 0 -0.015461281910962023 -0.0068980182907462965 0 -0.012799992587520603 -0.0085378122475008103 0 -0.0097010413647659818 -0.0096795413610259035 0 -0.0090939224145172148 -0.010753930098786221 0 -0.0097300703669576261 -0.01079824271888315 0 -0.015233404664276471 -0.0098293574050667357 0 -0.014707957850052975 -0.0098096803414335024 0 -0.015049429669886007 -0.0093794432414793308 0 -0.012799992587520603 -0.0085378122475008103 0 -0.011330012497088947 -0.010462977623466129 0 -0.010185848544031423 -0.011493142145589927 0 -0.0097300703669576261 -0.01079824271888315 0 -0.0093485571604038035 -0.011551954191011286 0 -0.0090939224145172148 -0.010753930098786221 0 -0.0097300703669576261 -0.01079824271888315 0 -0.0093485571604038035 -0.011551954191011286 0 -0.010185848544031423 -0.011493142145589927 0 -0.0096691191957200811 -0.012106171990581727 0 -0.0093485571604038035 -0.011551954191011286 0 -0.0096691191957200811 -0.012106171990581727 0 -0.0093485571604038035 -0.011551954191011286 0 -0.0090192371715250661 -0.012082960231931991 0 -0.0096691191957200811 -0.012106171990581727 0 -0.0090192371715250661 -0.012082960231931991 0 -0.0092153964432725236 -0.01256881578566808 0 -0.0093485571604038035 -0.011551954191011286 0 -0.0085054452142892274 -0.011753043127624737 0 -0.0090192371715250661 -0.012082960231931991 0 -0.0090939224145172148 -0.010753930098786221 0 -0.0093485571604038035 -0.011551954191011286 0 -0.0085054452142892274 -0.011753043127624737 0 -0.015049429669886007 -0.0093794432414793308 0 -0.01538515730668657 -0.0089650797288542243 0 -0.015508419149187356 -0.0093456292047758051 0 -0.011330012497088947 -0.010462977623466129 0 -0.016479603460909348 -0.010696673604709252 0 -0.016479603460909348 -0.010696673604709252 0 -0.021539780662134123 -0.00949144242819531 0 -0.021539780662134123 -0.00949144242819531 0 -0.025851714124554309 -0.008914978402015503 0 -0.024536938140266366 -0.009494403868447774 0 -0.024834162487439554 -0.01054473085930072 0 -0.025359340991610101 -0.009591335568551471 0 -0.025887165686726346 -0.0087648391865358787 0 -0.025909264555276919 -0.0087186964183958836 0 -0.025947118056760345 -0.0087609344822005431 0 -0.024536938140266366 -0.009494403868447774 0 -0.025359340991610101 -0.009591335568551471 0 -0.025362468900538629 -0.0085110551948091289 0 -0.016479603460909348 -0.010696673604709252 0 -0.02309309942443746 -0.0095895405306665443 0 -0.025359340991610101 -0.009591335568551471 0 -0.025833779365304406 -0.0086535277960137734 0 -0.025362468900538629 -0.0085110551948091289 0 -0.025909264555276919 -0.0087186964183958836 0 -0.025963439213572071 -0.0087155943929591254 0 -0.025833779365304406 -0.0086535277960137734 0 -0.025851714124554309 -0.008914978402015503 0 -0.025772925263052141 -0.0087948257608234451 0 -0.026049998312503053 -0.0087833113339180636 0 -0.025963439213572071 -0.0087155943929591254 0 -0.025947118056760345 -0.0087609344822005431 0 -0.025909264555276919 -0.0087186964183958836 0 -0.025963439213572071 -0.0087155943929591254 0 -0.025947118056760345 -0.0087609344822005431 0 -0.025861475529656539 -0.0080780268012991471 0 -0.025823491919921841 -0.0084116230662958716 0 -0.025362468900538629 -0.0085110551948091289 0 -0.02602662948974032 -0.0085655418267326488 0 -0.025861475529656539 -0.0080780268012991471 0 -0.025823491919921841 -0.0084116230662958716 0 -0.027704590395142611 -0.010603631627930162 0 -0.027765673102372514 -0.011510741499883473 0 -0.028332365167425832 -0.011758205471490464 0 -0.023939233311133668 -0.011851698978853081 0 -0.02309309942443746 -0.0095895405306665443 0 -0.021620189202765042 -0.016125655158878146 0 -0.018907945295117381 -0.017054605690566205 0 -0.020815476685899524 -0.014552470304577236 0 -0.020675769814326467 -0.010277741681976333 0 -0.020616505784812538 -0.010160548791997268 0 -0.019217508568197456 -0.010619803440454366 0 -0.026999636593708756 -0.0094498612522384371 0 -0.023939233311133668 -0.011851698978853081 0 -0.027765673102372514 -0.011510741499883473 0 -0.028332365167425832 -0.011758205471490464 0 -0.028233955576351787 -0.011896587431611845 0 -0.023939233311133668 -0.011851698978853081 0 -0.024125742506053649 -0.013213427588884549 0 -0.024125742506053649 -0.013213427588884549 0 -0.022952646348641501 -0.013273576702004145 0 -0.023951503083167153 -0.014012323939469287 0 -0.02427941813092702 -0.013539214504371193 0 -0.023795515189562286 -0.013704832423409828 0 -0.022322751171884928 -0.016017387571826393 0 -0.022653176264606074 -0.015902100465788244 0 -0.023382372319622764 -0.017365743750982942 0 -0.023939233311133668 -0.011851698978853081 0 -0.022952646348641501 -0.013273576702004145 0 -0.02602662948974032 -0.0085655418267326488 0 -0.025963439213572071 -0.0087155943929591254 0 -0.025833779365304406 -0.0086535277960137734 0 -0.02602662948974032 -0.0085655418267326488 0 -0.025833779365304406 -0.0086535277960137734 0 -0.025823491919921841 -0.0084116230662958716 0 -0.025833779365304406 -0.0086535277960137734 0 -0.025823491919921841 -0.0084116230662958716 0 -0.025362468900538629 -0.0085110551948091289 0 -0.018529411189872318 -0.013230246758298656 0 -0.019585327388603344 -0.011766830821282735 0 -0.018795340541844681 -0.01168117808122705 0 -0.019585327388603344 -0.011766830821282735 0 -0.018795340541844681 -0.01168117808122705 0 -0.019217508568197456 -0.010619803440454366 0 -0.022952646348641501 -0.013273576702004145 0 -0.019226726985067725 -0.013786857369241493 0 -0.018907945295117381 -0.017054605690566205 0 -0.01614584868905249 -0.015923378828852565 0 -0.020815476685899524 -0.014552470304577236 0 -0.020675769814326467 -0.010277741681976333 0 -0.019585327388603344 -0.011766830821282735 0 -0.019217508568197456 -0.010619803440454366 0 -0.018907945295117381 -0.017054605690566205 0 -0.015855698143300744 -0.016884251020862016 0 -0.016192885317046133 -0.017977333293439691 0 -0.019226726985067725 -0.013786857369241493 0 -0.013900174958089701 -0.013771934074854469 0 -0.018907945295117381 -0.017054605690566205 0 -0.01614584868905249 -0.015923378828852565 0 -0.015855698143300744 -0.016884251020862016 0 -0.011597419477816142 -0.020175569359534799 0 -0.011600765951177119 -0.020173449313525372 0 -0.011589947245464584 -0.020187490621315144 0 -0.016296293537412462 -0.019718112726809872 0 -0.013062605761054571 -0.019757780440023999 0 -0.014142799232596986 -0.020396274260212698 0 -0.015038778551914161 -0.020129650885825055 0 -0.014617541121562419 -0.018765582807205371 0 -0.013062605761054571 -0.019757780440023999 0 -0.013805978199218116 -0.018135074660292759 0 -0.016296293537412462 -0.019718112726809872 0 -0.013805978199218116 -0.018135074660292759 0 -0.013805978199218116 -0.018135074660292759 0 -0.010878555929081967 -0.015490977264306083 0 -0.013805978199218116 -0.018135074660292759 0 -0.013900174958089701 -0.013771934074854469 0 -0.012911711720339196 -0.016605947077488664 0 -0.012436247886926967 -0.015070855795507591 0 -0.013456678720290705 -0.014717092271250643 0 -0.0085054452142892274 -0.011753043127624737 0 -0.0090192371715250661 -0.012082960231931991 0 -0.0089103617270601641 -0.013049069045485253 0 -0.0090192371715250661 -0.012082960231931991 0 -0.0089103617270601641 -0.013049069045485253 0 -0.0092153964432725236 -0.01256881578566808 0 -0.018529411189872318 -0.013230246758298656 0 -0.018795340541844681 -0.01168117808122705 0 -0.017854246512802697 -0.011092424014176622 0 -0.018795340541844681 -0.01168117808122705 0 -0.019217508568197456 -0.010619803440454366 0 -0.017854246512802697 -0.011092424014176622 0 -0.016479603460909348 -0.010696673604709252 0 -0.013900174958089701 -0.013771934074854469 0 -0.0089103617270601641 -0.013049069045485253 0 -0.0091169742762394583 -0.012975324944403906 0 -0.0092153964432725236 -0.01256881578566808 0 -0.013900174958089701 -0.013771934074854469 0 -0.010878555929081967 -0.015490977264306083 0 -0.0096691191957200811 -0.012106171990581727 0 -0.0092153964432725236 -0.01256881578566808 0 -0.010080075718050158 -0.012627135901859347 0 -0.010878555929081967 -0.015490977264306083 0 -0.010307497907955808 -0.012994688120654007 0 -0.010878555929081967 -0.015490977264306083 0 -0.010992804359041467 -0.016243680039602644 0 -0.0091077699999726532 -0.012967507595172236 0 -0.0092153964432725236 -0.01256881578566808 0 -0.010080075718050158 -0.012627135901859347 0 -0.011635630645229015 -0.019930950805378166 0 -0.01161794562680271 -0.019934798099030416 0 -0.011588138162435936 -0.019943311617162708 0 -0.011601443855610861 -0.019935699512115587 0 -0.01161794562680271 -0.019934798099030416 0 -0.011600184336907418 -0.019959393506561122 0 -0.013062605761054571 -0.019757780440023999 0 -0.01137013301537622 -0.02009521404712546 0 -0.011577368523940203 -0.020167498898840154 0 -0.011580461816987025 -0.02011662135085587 0 -0.011583585843011024 -0.020166216299833693 0 -0.011648823446433719 -0.019900310134420885 0 -0.011601443855610861 -0.019935699512115587 0 -0.01161794562680271 -0.019934798099030416 0 -0.011651517716246814 -0.019913515970144218 0 -0.011635630645229015 -0.019930950805378166 0 -0.01161794562680271 -0.019934798099030416 0 -0.011648823446433719 -0.019900310134420885 0 -0.011651517716246814 -0.019913515970144218 0 -0.01161794562680271 -0.019934798099030416 0 -0.011580461816987025 -0.02011662135085587 0 -0.011583585843011024 -0.020166216299833693 0 -0.011602071796965235 -0.020184648267521362 0 -0.011589947245464584 -0.020187490621315144 0 -0.011591124889881642 -0.020194133137065386 0 -0.011592823715615999 -0.020234381591337749 0 -0.011591124889881642 -0.020194133137065386 0 -0.011592823715615999 -0.020234381591337749 0 -0.011602071796965235 -0.020184648267521362 0 -0.009047077685701321 -0.022250441441600748 0 -0.0089840973781247207 -0.021356206740377252 0 -0.011583585843011024 -0.020166216299833693 0 -0.011591124889881642 -0.020194133137065386 0 -0.011602071796965235 -0.020184648267521362 0 -0.011583585843011024 -0.020166216299833693 0 -0.011589947245464584 -0.020187490621315144 0 -0.011591124889881642 -0.020194133137065386 0 -0.011577368523940203 -0.020167498898840154 0 -0.011583585843011024 -0.020166216299833693 0 -0.011589947245464584 -0.020187490621315144 0 -0.0060430251684211863 -0.023355649141117034 0 -0.0061003977215535604 -0.023426860354057374 0 -0.0058550489523321097 -0.023678025689521879 0 -0.0060430251684211863 -0.023355649141117034 0 -0.0061003977215535604 -0.023426860354057374 0 -0.0062516944534665971 -0.023213760665740414 0 -0.009047077685701321 -0.022250441441600748 0 -0.014263748056367541 -0.022132101932951256 0 -0.011592823715615999 -0.020234381591337749 0 -0.011597362900956157 -0.020225029428048519 0 -0.011612859853590882 -0.020262292444073304 0 -0.016349245969176123 -0.02134607513927634 0 -0.014263748056367541 -0.022132101932951256 0 -0.016296293537412462 -0.019718112726809872 0 -0.016349245969176123 -0.02134607513927634 0 -0.011597419477816142 -0.020175569359534799 0 -0.011589947245464584 -0.020187490621315144 0 -0.011597362900956157 -0.020225029428048519 0 -0.020988386361729477 -0.022083153116279505 0 -0.020949983904399779 -0.02235771718371872 0 -0.020805673767842769 -0.02236167435097268 0 -0.011589947245464584 -0.020187490621315144 0 -0.011592823715615999 -0.020234381591337749 0 -0.011597362900956157 -0.020225029428048519 0 -0.013062605761054571 -0.019757780440023999 0 -0.012404244297262756 -0.019929547200850658 0 -0.016296293537412462 -0.019718112726809872 0 -0.021569941328051807 -0.018807798432420746 0 -0.020988386361729477 -0.022083153116279505 0 -0.020805673767842769 -0.02236167435097268 0 -0.020659323363404824 -0.022203637657292611 0 -0.020703770055412664 -0.022292575939654388 0 -0.020805673767842769 -0.02236167435097268 0 -0.020659323363404824 -0.022203637657292611 0 -0.020805673767842769 -0.02236167435097268 0 -0.020755322512940686 -0.022534036286480891 0 -0.020899075626004432 -0.022676837388569692 0 -0.020949983904399779 -0.02235771718371872 0 -0.020805673767842769 -0.02236167435097268 0 -0.020899075626004432 -0.022676837388569692 0 -0.020805673767842769 -0.02236167435097268 0 -0.020755322512940686 -0.022534036286480891 0 -0.020657213910961036 -0.022446736213716768 0 -0.020703770055412664 -0.022292575939654388 0 -0.020805673767842769 -0.02236167435097268 0 -0.020657213910961036 -0.022446736213716768 0 -0.020703770055412664 -0.022292575939654388 0 -0.020657213910961036 -0.022446736213716768 0 -0.020569635953432631 -0.022336187016360472 0 -0.020657213910961036 -0.022446736213716768 0 -0.02051097684604393 -0.02242553826947629 0 -0.020569635953432631 -0.022336187016360472 0 -0.020755322512940686 -0.022534036286480891 0 -0.020657213910961036 -0.022446736213716768 0 -0.02065023161923453 -0.022573395745185871 0 -0.020755322512940686 -0.022534036286480891 0 -0.02065023161923453 -0.022573395745185871 0 -0.020651186817196045 -0.022726828826564831 0 -0.020657213910961036 -0.022446736213716768 0 -0.02065023161923453 -0.022573395745185871 0 -0.020561629559098939 -0.022559498963542337 0 -0.02065023161923453 -0.022573395745185871 0 -0.020561629559098939 -0.022559498963542337 0 -0.020588447642897637 -0.022655267729211996 0 -0.02040914125853345 -0.022481007774720188 0 -0.020479217662057323 -0.022629671322527019 0 -0.020561629559098939 -0.022559498963542337 0 -0.02040914125853345 -0.022481007774720188 0 -0.020561629559098939 -0.022559498963542337 0 -0.02051097684604393 -0.02242553826947629 0 -0.020479217662057323 -0.022629671322527019 0 -0.020561629559098939 -0.022559498963542337 0 -0.020588447642897637 -0.022655267729211996 0 -0.020398456759543483 -0.022243298205505486 0 -0.02051097684604393 -0.02242553826947629 0 -0.020569635953432631 -0.022336187016360472 0 -0.020657213910961036 -0.022446736213716768 0 -0.020561629559098939 -0.022559498963542337 0 -0.02051097684604393 -0.02242553826947629 0 -0.020895103268452495 -0.018113317970347206 0 -0.022322751171884928 -0.016017387571826393 0 -0.023382372319622764 -0.017365743750982942 0 -0.020398456759543483 -0.022243298205505486 0 -0.020569635953432631 -0.022336187016360472 0 -0.020663692127867641 -0.022182670183892222 0 -0.02129212962736202 -0.019509280509304262 0 -0.021569941328051807 -0.018807798432420746 0 -0.020703770055412664 -0.022292575939654388 0 -0.020569635953432631 -0.022336187016360472 0 -0.020663692127867641 -0.022182670183892222 0 -0.021827148655328091 -0.021214702823211782 0 -0.021569941328051807 -0.018807798432420746 0 -0.022952646348641501 -0.013273576702004145 0 -0.021569941328051807 -0.018807798432420746 0 -0.02129212962736202 -0.019509280509304262 0 -0.024125742506053649 -0.013213427588884549 0 -0.0072024938643608571 -0.022424216450435568 0 -0.0069112215063339456 -0.022679669035752775 0 -0.0069182532672984179 -0.022185369204407532 0 -0.0072024938643608571 -0.022424216450435568 0 -0.0069112215063339456 -0.022679669035752775 0 -0.0072317537989919512 -0.022813556340899984 0 -0.0072024938643608571 -0.022424216450435568 0 -0.0072743513453334858 -0.021909960119844165 0 -0.0076400798846149665 -0.022736728298510516 0 -0.0072317537989919512 -0.022813556340899984 0 -0.0073628176893914769 -0.023056146033146232 0 -0.0076400798846149665 -0.022736728298510516 0 -0.0072024938643608571 -0.022424216450435568 0 -0.0072317537989919512 -0.022813556340899984 0 -0.0076400798846149665 -0.022736728298510516 0 -0.0072479355743515694 -0.021905888634086591 0 -0.0074456598620480947 -0.022108087202614559 0 -0.007325081851967237 -0.021664777766565592 0 -0.0073256103666630469 -0.021680674686406269 0 -0.0072903243149254372 -0.021602297753119552 0 -0.0073256103666630469 -0.021680674686406269 0 -0.0072743513453334858 -0.021909960119844165 0 -0.0073341456031481471 -0.021518027239562851 0 -0.007325081851967237 -0.021664777766565592 0 -0.0073256103666630469 -0.021680674686406269 0 -0.0073150326940598902 -0.021740333610430498 0 -0.0073256103666630469 -0.021680674686406269 0 -0.0073150326940598902 -0.021740333610430498 0 -0.0072743513453334858 -0.021909960119844165 0 -0.0073150326940598902 -0.021740333610430498 0 -0.0073065888466965602 -0.02171580905138154 0 -0.0072795899894641412 -0.021842089329241234 0 -0.0073150326940598902 -0.021740333610430498 0 -0.0072795899894641412 -0.021842089329241234 0 -0.0072743513453334858 -0.021909960119844165 0 -0.007325081851967237 -0.021664777766565592 0 -0.0073150326940598902 -0.021740333610430498 0 -0.0073065888466965602 -0.02171580905138154 0 -0.0072647319335288566 -0.021628647028973404 0 -0.0073065888466965602 -0.02171580905138154 0 -0.0072795899894641412 -0.021842089329241234 0 -0.0072081693920895001 -0.021491161123427863 0 -0.0071658312639268709 -0.021818780943849491 0 -0.0072795899894641412 -0.021842089329241234 0 -0.0072081693920895001 -0.021491161123427863 0 -0.0071658312639268709 -0.021818780943849491 0 -0.0070470775906499019 -0.021754556890365064 0 -0.0089775826868972002 -0.015665669583032171 0 -0.0083556969487808119 -0.022581519724256774 0 -0.0071658312639268709 -0.021818780943849491 0 -0.0072795899894641412 -0.021842089329241234 0 -0.0072743513453334858 -0.021909960119844165 0 -0.0072024938643608571 -0.022424216450435568 0 -0.0072743513453334858 -0.021909960119844165 0 -0.0070887847097265873 -0.022041058330721071 0 -0.0071658312639268709 -0.021818780943849491 0 -0.0072743513453334858 -0.021909960119844165 0 -0.0070887847097265873 -0.022041058330721071 0 -0.0069182532672984179 -0.022185369204407532 0 -0.0070887847097265873 -0.022041058330721071 0 -0.0070470775906499019 -0.021754556890365064 0 -0.0072024938643608571 -0.022424216450435568 0 -0.0069182532672984179 -0.022185369204407532 0 -0.0070887847097265873 -0.022041058330721071 0 -0.0071658312639268709 -0.021818780943849491 0 -0.0070887847097265873 -0.022041058330721071 0 -0.0070470775906499019 -0.021754556890365064 0 -0.0067498132416448729 -0.021667047015429101 0 -0.0069182532672984179 -0.022185369204407532 0 -0.0070470775906499019 -0.021754556890365064 0 -0.010071539340242235 -0.017175915176221319 0 -0.010992804359041467 -0.016243680039602644 0 -0.0067498132416448729 -0.021667047015429101 0 -0.0069182532672984179 -0.022185369204407532 0 -0.0064433900755975068 -0.022347078314870903 0 -0.010071539340242235 -0.017175915176221319 0 -0.0087257951711871423 -0.02182337841437049 0 -0.011649907524331643 -0.019884924702827222 0 -0.011588138162435936 -0.019943311617162708 0 -0.011622906276276431 -0.020000297916954561 0 -0.010355438449896361 -0.012069402560087142 0 -0.011095059064626062 -0.012308760503224561 0 -0.010080075718050158 -0.012627135901859347 0 -0.011588138162435936 -0.019943311617162708 0 -0.011600184336907418 -0.019959393506561122 0 -0.011615656707444785 -0.020008874743954894 0 -0.011588138162435936 -0.019943311617162708 0 -0.011615656707444785 -0.020008874743954894 0 -0.011622906276276431 -0.020000297916954561 0 -0.01161794562680271 -0.019934798099030416 0 -0.011588138162435936 -0.019943311617162708 0 -0.011600184336907418 -0.019959393506561122 0 -0.0064433900755975068 -0.022347078314870903 0 -0.0065229625599365799 -0.023011293530512244 0 -0.0062239100347175075 -0.022905445276664847 0 -0.011601443855610861 -0.019935699512115587 0 -0.011600184336907418 -0.019959393506561122 0 -0.011615656707444785 -0.020008874743954894 0 -0.011615656707444785 -0.020008874743954894 0 -0.011622906276276431 -0.020000297916954561 0 -0.011602071796965235 -0.020184648267521362 0 -0.0087257951711871423 -0.02182337841437049 0 -0.0089840973781247207 -0.021356206740377252 0 -0.011580461816987025 -0.02011662135085587 0 -0.011615656707444785 -0.020008874743954894 0 -0.011602071796965235 -0.020184648267521362 0 -0.01137013301537622 -0.02009521404712546 0 -0.011699640748021597 -0.019987708232434509 0 -0.0069112215063339456 -0.022679669035752775 0 -0.0069182532672984179 -0.022185369204407532 0 -0.0064433900755975068 -0.022347078314870903 0 -0.0069112215063339456 -0.022679669035752775 0 -0.0064433900755975068 -0.022347078314870903 0 -0.0065229625599365799 -0.023011293530512244 0 -0.0069112215063339456 -0.022679669035752775 0 -0.0065229625599365799 -0.023011293530512244 0 -0.0070281149860652262 -0.023294992204961246 0 -0.0060430251684211863 -0.023355649141117034 0 -0.0062239100347175075 -0.022905445276664847 0 -0.0062516944534665971 -0.023213760665740414 0 -0.0065229625599365799 -0.023011293530512244 0 -0.0062239100347175075 -0.022905445276664847 0 -0.0062516944534665971 -0.023213760665740414 0 -0.0065229625599365799 -0.023011293530512244 0 -0.0062516944534665971 -0.023213760665740414 0 -0.0063172481119880474 -0.023493424940256812 0 -0.0061003977215535604 -0.023426860354057374 0 -0.0062516944534665971 -0.023213760665740414 0 -0.0063172481119880474 -0.023493424940256812 0 -0.0068497638893963804 -0.023809482208739612 0 -0.0069536690285511658 -0.023692882102897734 0 -0.0070281149860652262 -0.023294992204961246 0 -0.0064075503481572666 -0.023705408809345518 0 -0.0071186527371433963 -0.023283504158205705 0 -0.0065229625599365799 -0.023011293530512244 0 -0.0063172481119880474 -0.023493424940256812 0 -0.0070281149860652262 -0.023294992204961246 0 -0.0069536690285511658 -0.023692882102897734 0 -0.0070281149860652262 -0.023294992204961246 0 -0.0070934464470633913 -0.023601663734286207 0 -0.0070281149860652262 -0.023294992204961246 0 -0.0070934464470633913 -0.023601663734286207 0 -0.0072836891380606197 -0.023502288110973154 0 -0.0070281149860652262 -0.023294992204961246 0 -0.0072904008691989895 -0.023297021064389811 0 -0.0072836891380606197 -0.023502288110973154 0 -0.0070281149860652262 -0.023294992204961246 0 -0.0073628176893914769 -0.023056146033146232 0 -0.0072904008691989895 -0.023297021064389811 0 -0.0072317537989919512 -0.022813556340899984 0 -0.0070281149860652262 -0.023294992204961246 0 -0.0073628176893914769 -0.023056146033146232 0 -0.0069112215063339456 -0.022679669035752775 0 -0.0072317537989919512 -0.022813556340899984 0 -0.0070281149860652262 -0.023294992204961246 0 -0.0073628176893914769 -0.023056146033146232 0 -0.0075648898255107656 -0.023130141940419228 0 -0.0076400798846149665 -0.022736728298510516 0 -0.0073628176893914769 -0.023056146033146232 0 -0.0074641117674559962 -0.02331818543320335 0 -0.0075648898255107656 -0.023130141940419228 0 -0.0074641117674559962 -0.02331818543320335 0 -0.0075060572932482347 -0.023522498711382674 0 -0.0072836891380606197 -0.023502288110973154 0 -0.0073628176893914769 -0.023056146033146232 0 -0.0074641117674559962 -0.02331818543320335 0 -0.0072904008691989895 -0.023297021064389811 0 -0.0074641117674559962 -0.02331818543320335 0 -0.0072904008691989895 -0.023297021064389811 0 -0.0072836891380606197 -0.023502288110973154 0 -0.0074641117674559962 -0.02331818543320335 0 -0.0075833793852124482 -0.023337302771594189 0 -0.0075060572932482347 -0.023522498711382674 0 -0.0074641117674559962 -0.02331818543320335 0 -0.0075833793852124482 -0.023337302771594189 0 -0.0075648898255107656 -0.023130141940419228 0 -0.0075524697259641577 -0.023406558948125961 0 -0.0074000456849819766 -0.023797929238732946 0 -0.0075833793852124482 -0.023337302771594189 0 -0.0075762655250228989 -0.023374367251801965 0 -0.0076694292489415811 -0.023541643290978478 0 -0.0075762655250228989 -0.023374367251801965 0 -0.0075374554904863843 -0.023862332296061588 0 -0.0071440348142794031 -0.023959367624759201 0 -0.0075833793852124482 -0.023337302771594189 0 -0.0075762655250228989 -0.023374367251801965 0 -0.0076288461368970413 -0.023182371549062851 0 -0.0075833793852124482 -0.023337302771594189 0 -0.0076288461368970413 -0.023182371549062851 0 -0.0075648898255107656 -0.023130141940419228 0 -0.0076288461368970413 -0.023182371549062851 0 -0.0075648898255107656 -0.023130141940419228 0 -0.0076400798846149665 -0.022736728298510516 0 -0.0070278428506312402 -0.021159864060606503 0 -0.0068731388540633018 -0.021171406115271407 0 -0.0068343953672837235 -0.021015578304397577 0 -0.0077163575350016993 -0.023478220811602217 0 -0.0080613165208711195 -0.023857077899496346 0 -0.0077796690832762057 -0.023937631499598079 0 -0.0073934535468103257 -0.022328691987689761 0 -0.0073233629770496078 -0.022374582140165845 0 -0.0077163575350016993 -0.023478220811602217 0 -0.0077796690832762057 -0.023937631499598079 0 -0.0075374554904863843 -0.023862332296061588 0 -0.0075762655250228989 -0.023374367251801965 0 -0.0077163575350016993 -0.023478220811602217 0 -0.0075374554904863843 -0.023862332296061588 0 -0.0073987712428194886 -0.022230757930910557 0 -0.0073934535468103257 -0.022328691987689761 0 -0.0071961259154088315 -0.021310848183147123 0 -0.0070699795307521615 -0.021305357052080684 0 -0.0071315370151608503 -0.021373082763648028 0 -0.0070278428506312402 -0.021159864060606503 0 -0.0070699795307521615 -0.021305357052080684 0 -0.0069461471214752228 -0.021307272367356623 0 -0.0071961259154088315 -0.021310848183147123 0 -0.0070278428506312402 -0.021159864060606503 0 -0.0070699795307521615 -0.021305357052080684 0 -0.0075762655250228989 -0.023374367251801965 0 -0.0076288461368970413 -0.023182371549062851 0 -0.0077163575350016993 -0.023478220811602217 0 -0.0070278428506312402 -0.021159864060606503 0 -0.0069461471214752228 -0.021307272367356623 0 -0.0068731388540633018 -0.021171406115271407 0 -0.0069461471214752228 -0.021307272367356623 0 -0.0068976173323080725 -0.021376657007360893 0 -0.0069771217435419617 -0.021405633981145516 0 -0.0068976173323080725 -0.021376657007360893 0 -0.0069329739912540591 -0.02142466561569312 0 -0.0068615852463064083 -0.021408420185089577 0 -0.0068976173323080725 -0.021376657007360893 0 -0.0069771217435419617 -0.021405633981145516 0 -0.0069329739912540591 -0.02142466561569312 0 -0.0069461471214752228 -0.021307272367356623 0 -0.0068976173323080725 -0.021376657007360893 0 -0.0068145078493189615 -0.021325040418858167 0 -0.0069461471214752228 -0.021307272367356623 0 -0.0069771217435419617 -0.021405633981145516 0 -0.0070446438284328602 -0.021380178742318137 0 -0.0069771217435419617 -0.021405633981145516 0 -0.0070446438284328602 -0.021380178742318137 0 -0.00705153797826019 -0.021455619520049343 0 -0.0070446438284328602 -0.021380178742318137 0 -0.0071217660194816974 -0.021440441866972179 0 -0.00705153797826019 -0.021455619520049343 0 -0.0070699795307521615 -0.021305357052080684 0 -0.0069461471214752228 -0.021307272367356623 0 -0.0070446438284328602 -0.021380178742318137 0 -0.0070699795307521615 -0.021305357052080684 0 -0.0070446438284328602 -0.021380178742318137 0 -0.0071315370151608503 -0.021373082763648028 0 -0.0070446438284328602 -0.021380178742318137 0 -0.0071315370151608503 -0.021373082763648028 0 -0.0071217660194816974 -0.021440441866972179 0 -0.0071217660194816974 -0.021440441866972179 0 -0.00705153797826019 -0.021455619520049343 0 -0.007149079530290676 -0.021519278357787129 0 -0.00705153797826019 -0.021455619520049343 0 -0.007149079530290676 -0.021519278357787129 0 -0.0070443664338087665 -0.02151267465148048 0 -0.0069771217435419617 -0.021405633981145516 0 -0.00705153797826019 -0.021455619520049343 0 -0.0069749584626536383 -0.021465464173178812 0 -0.0069771217435419617 -0.021405633981145516 0 -0.0069749584626536383 -0.021465464173178812 0 -0.0069329739912540591 -0.02142466561569312 0 -0.0069749584626536383 -0.021465464173178812 0 -0.0070443664338087665 -0.02151267465148048 0 -0.0069706131077421707 -0.02151385700739997 0 -0.00705153797826019 -0.021455619520049343 0 -0.0069749584626536383 -0.021465464173178812 0 -0.0070443664338087665 -0.02151267465148048 0 -0.0069749584626536383 -0.021465464173178812 0 -0.006913951027632397 -0.021486066629094608 0 -0.0068883423222406851 -0.021445641118743322 0 -0.0069749584626536383 -0.021465464173178812 0 -0.006913951027632397 -0.021486066629094608 0 -0.0069706131077421707 -0.02151385700739997 0 -0.0069749584626536383 -0.021465464173178812 0 -0.0069329739912540591 -0.02142466561569312 0 -0.0068883423222406851 -0.021445641118743322 0 -0.0073341456031481471 -0.021518027239562851 0 -0.0072194098131900669 -0.021465930250022604 0 -0.0072903243149254372 -0.021602297753119552 0 -0.0073987712428194886 -0.022230757930910557 0 -0.0074456598620480947 -0.022108087202614559 0 -0.0071961259154088315 -0.021310848183147123 0 -0.0073341456031481471 -0.021518027239562851 0 -0.0072194098131900669 -0.021465930250022604 0 -0.0071961259154088315 -0.021310848183147123 0 -0.0071315370151608503 -0.021373082763648028 0 -0.0072194098131900669 -0.021465930250022604 0 -0.0071315370151608503 -0.021373082763648028 0 -0.0071217660194816974 -0.021440441866972179 0 -0.0072194098131900669 -0.021465930250022604 0 -0.007149079530290676 -0.021519278357787129 0 -0.0072903243149254372 -0.021602297753119552 0 -0.0072248393203320381 -0.021582373211447126 0 -0.0072194098131900669 -0.021465930250022604 0 -0.007149079530290676 -0.021519278357787129 0 -0.0072903243149254372 -0.021602297753119552 0 -0.0071217660194816974 -0.021440441866972179 0 -0.0072194098131900669 -0.021465930250022604 0 -0.007149079530290676 -0.021519278357787129 0 -0.0073256103666630469 -0.021680674686406269 0 -0.0073341456031481471 -0.021518027239562851 0 -0.0072903243149254372 -0.021602297753119552 0 -0.007325081851967237 -0.021664777766565592 0 -0.0072903243149254372 -0.021602297753119552 0 -0.0073347646451625238 -0.021614626158411695 0 -0.0072903243149254372 -0.021602297753119552 0 -0.0073347646451625238 -0.021614626158411695 0 -0.0072248393203320381 -0.021582373211447126 0 -0.0073347646451625238 -0.021614626158411695 0 -0.0072011341056895644 -0.021608942318843558 0 -0.0072248393203320381 -0.021582373211447126 0 -0.0090204192011074814 -0.015371879155276024 0 -0.0087349798965023588 -0.015436547048333129 0 -0.010685782809236009 -0.0091733019358685806 0 -0.010649707931350493 -0.0092552177823628599 0 -0.010341177079913806 -0.009279524586054461 0 -0.010330521763031925 -0.0092479529596323374 0 -0.010318413237159613 -0.009119920036384949 0 -0.010649707931350493 -0.0092552177823628599 0 -0.010341177079913806 -0.009279524586054461 0 -0.010753319630780573 -0.0092992091622401719 0 -0.010336136350448791 -0.0091402325228094813 0 -0.010341177079913806 -0.009279524586054461 0 -0.0098849291670578179 -0.0089684099201039116 0 -0.010685782809236009 -0.0091733019358685806 0 -0.010341177079913806 -0.009279524586054461 0 -0.010304202369375756 -0.0092771010018005817 0 -0.010336136350448791 -0.0091402325228094813 0 -0.010341177079913806 -0.009279524586054461 0 -0.010304202369375756 -0.0092771010018005817 0 -0.007149079530290676 -0.021519278357787129 0 -0.0072248393203320381 -0.021582373211447126 0 -0.0071113951248374246 -0.021563049416367833 0 -0.0072011341056895644 -0.021608942318843558 0 -0.0072248393203320381 -0.021582373211447126 0 -0.0071113951248374246 -0.021563049416367833 0 -0.007149079530290676 -0.021519278357787129 0 -0.0070443664338087665 -0.02151267465148048 0 -0.0071113951248374246 -0.021563049416367833 0 -0.0070443664338087665 -0.02151267465148048 0 -0.0071113951248374246 -0.021563049416367833 0 -0.0070089145487744172 -0.021549991393881963 0 -0.0069706131077421707 -0.02151385700739997 0 -0.0069389704531669424 -0.021537127661245544 0 -0.0069092218013221858 -0.021512890196643215 0 -0.006913951027632397 -0.021486066629094608 0 -0.0069706131077421707 -0.02151385700739997 0 -0.0069092218013221858 -0.021512890196643215 0 -0.0070443664338087665 -0.02151267465148048 0 -0.0069706131077421707 -0.02151385700739997 0 -0.0070089145487744172 -0.021549991393881963 0 -0.0069706131077421707 -0.02151385700739997 0 -0.0070089145487744172 -0.021549991393881963 0 -0.0069389704531669424 -0.021537127661245544 0 -0.0070089145487744172 -0.021549991393881963 0 -0.0069593793156425606 -0.021560152954246761 0 -0.0070358062515765308 -0.021593180754205868 0 -0.0069593793156425606 -0.021560152954246761 0 -0.0070358062515765308 -0.021593180754205868 0 -0.0069185147861408787 -0.021554043983912727 0 -0.0070089145487744172 -0.021549991393881963 0 -0.0069389704531669424 -0.021537127661245544 0 -0.0069593793156425606 -0.021560152954246761 0 -0.0069389704531669424 -0.021537127661245544 0 -0.0069593793156425606 -0.021560152954246761 0 -0.0069022509005143068 -0.021542970856877015 0 -0.0071113951248374246 -0.021563049416367833 0 -0.0070089145487744172 -0.021549991393881963 0 -0.0070358062515765308 -0.021593180754205868 0 -0.0072011341056895644 -0.021608942318843558 0 -0.0071113951248374246 -0.021563049416367833 0 -0.0070358062515765308 -0.021593180754205868 0 -0.0087349798965023588 -0.015436547048333129 0 -0.0090281172045513208 -0.015521326313583257 0 -0.010336136350448791 -0.0091402325228094813 0 -0.010304202369375756 -0.0092771010018005817 0 -0.010650804233805157 -0.0092059499324143122 0 -0.010650804233805157 -0.0092059499324143122 0 -0.010434046878031589 -0.0089097795338533761 0 -0.010717717994969594 -0.008920615507008383 0 -0.010336136350448791 -0.0091402325228094813 0 -0.010650804233805157 -0.0092059499324143122 0 -0.010434046878031589 -0.0089097795338533761 0 -0.010717717994969594 -0.008920615507008383 0 -0.010849598626995562 -0.008777106798566291 0 -0.011075330068853381 -0.0090897641344341272 0 -0.010650804233805157 -0.0092059499324143122 0 -0.010717717994969594 -0.008920615507008383 0 -0.011075330068853381 -0.0090897641344341272 0 -0.0090281172045513208 -0.015521326313583257 0 -0.0078134944496470304 -0.013727905557000425 0 -0.010717717994969594 -0.008920615507008383 0 -0.010849598626995562 -0.008777106798566291 0 -0.010623520031807802 -0.0086519818961450501 0 -0.010849598626995562 -0.008777106798566291 0 -0.010838263726781905 -0.0085440124380948782 0 -0.010623520031807802 -0.0086519818961450501 0 -0.010658649781140096 -0.0083790238547963337 0 -0.010838263726781905 -0.0085440124380948782 0 -0.010623520031807802 -0.0086519818961450501 0 -0.010849598626995562 -0.008777106798566291 0 -0.010838263726781905 -0.0085440124380948782 0 -0.010994545633924659 -0.0086621705598876851 0 -0.010434046878031589 -0.0089097795338533761 0 -0.010717717994969594 -0.008920615507008383 0 -0.010623520031807802 -0.0086519818961450501 0 -0.0104585787683961 -0.008395452324609632 0 -0.010623520031807802 -0.0086519818961450501 0 -0.010277266048509036 -0.0085994570106921481 0 -0.010434046878031589 -0.0089097795338533761 0 -0.010623520031807802 -0.0086519818961450501 0 -0.010277266048509036 -0.0085994570106921481 0 -0.010434046878031589 -0.0089097795338533761 0 -0.010277266048509036 -0.0085994570106921481 0 -0.0098849291670578179 -0.0089684099201039116 0 -0.010007935003075612 -0.0083969395054653648 0 -0.0094926485066612679 -0.0085854587834585921 0 -0.0098849291670578179 -0.0089684099201039116 0 -0.010007935003075612 -0.0083969395054653648 0 -0.010277266048509036 -0.0085994570106921481 0 -0.0098849291670578179 -0.0089684099201039116 0 -0.010336136350448791 -0.0091402325228094813 0 -0.010434046878031589 -0.0089097795338533761 0 -0.0098849291670578179 -0.0089684099201039116 0 2.5211374687489588e-05 -0.017510656085304256 0 -5.263308056497654e-05 -0.017525421292601946 0 7.6731983630009388e-05 -0.017507137358933687 0 -0.0063598777509849044 -0.012538171265293076 0 -0.0053708327558070366 -0.012858225028053373 0 -0.0050172663065201776 -0.014050966464841448 0 -0.0020616164457634895 -0.012721894550223167 0 -0.0023897868186068872 -0.015799424433226225 0 2.5211374687489588e-05 -0.017510656085304256 0 3.6360199591792967e-05 -0.017502283511738839 0 7.6731983630009388e-05 -0.017507137358933687 0 0.0009142344761738473 -0.014694334950494102 0 9.1903132615376963e-05 -0.018593877694469452 0 0.00023280017952614541 -0.01773925716310891 0 7.6731983630009388e-05 -0.017507137358933687 0 0.00030817851877240507 -0.017605061058938321 0 0.00071264779587684496 -0.012568299655489369 0 -0.00023863484763943758 -0.012957418238862518 0 -0.0011494220014235355 -0.010565245658132759 0 0.0009142344761738473 -0.014694334950494102 0 -4.858375504628305e-05 -0.0092092284678093102 0 -0.0020616164457634895 -0.012721894550223167 0 0.0009142344761738473 -0.014694334950494102 0 -0.0024289595388523304 -0.0084790540662476217 0 -0.0024484136687657524 -0.0086222253604626153 0 -0.002333515431207986 -0.0085665876906481486 0 -0.0020616164457634895 -0.012721894550223167 0 -0.0050212084048588792 -0.010038023993480357 0 -0.0063598777509849044 -0.012538171265293076 0 -0.0053708327558070366 -0.012858225028053373 0 -0.0055689699674968691 -0.012218753677818496 0 -0.0053708327558070366 -0.012858225028053373 0 -0.0055997669112285197 -0.012188425132514755 0 -0.0050156094445340813 -0.01255295676484197 0 -0.0048650459019805199 -0.012441954009707943 0 -0.0050212084048588792 -0.010038023993480357 0 -0.0045576868427546846 -0.011755792860264761 0 -0.0055997669112285197 -0.012188425132514755 0 -0.0050156094445340813 -0.01255295676484197 0 -0.0070177504070952426 -0.0079314888875829659 0 -0.0050212084048588792 -0.010038023993480357 0 -0.0045576868427546846 -0.011755792860264761 0 -0.0050156094445340813 -0.01255295676484197 0 -0.0045428816072717697 -0.013401148996799143 0 -0.0089396353665168043 -0.008679842836759431 0 -0.0075713745021244042 -0.0093579103469284431 0 -0.0077353319943342788 -0.01130700810255046 0 -0.0070177504070952426 -0.0079314888875829659 0 -0.0050350985995450213 -0.013373198345749545 0 -0.0045576868427546846 -0.011755792860264761 0 -0.0036724816512201334 -0.013701906882728054 0 -0.0045428816072717697 -0.013401148996799143 0 -0.0053708327558070366 -0.012858225028053373 0 -0.0050156094445340813 -0.01255295676484197 0 -0.0045428816072717697 -0.013401148996799143 0 -0.010849598626995562 -0.008777106798566291 0 -0.010994545633924659 -0.0086621705598876851 0 -0.011075330068853381 -0.0090897641344341272 0 -0.006310441870919661 -0.0094439054012492533 0 -0.0075713745021244042 -0.0093579103469284431 0 -0.0077353319943342788 -0.01130700810255046 0 -0.0073020140362562496 -0.0080086595478975949 0 -0.006310441870919661 -0.0094439054012492533 0 -0.0075713745021244042 -0.0093579103469284431 0 -0.006310441870919661 -0.0094439054012492533 0 -0.0077353319943342788 -0.01130700810255046 0 -0.0069572355073994358 -0.011581195327736517 0 -0.008657456315499466 -0.0088102252382443146 0 -0.0078134944496470304 -0.013727905557000425 0 -0.0050350985995450213 -0.013373198345749545 0 -0.0044368919373362348 -0.01399253005413733 0 -0.0036596553415821046 -0.013728732518171546 0 -0.0034750819373245562 -0.014140463552887056 0 -0.0040580818922746967 -0.014188611540295664 0 -0.0050350985995450213 -0.013373198345749545 0 -0.0078134944496470304 -0.013727905557000425 0 -0.0036786220933072676 -0.013716004098177271 0 -0.0034750819373245562 -0.014140463552887056 0 -0.0030784340800287051 -0.013929165493484939 0 -0.0053708327558070366 -0.012858225028053373 0 -0.0045428816072717697 -0.013401148996799143 0 -0.0050172663065201776 -0.014050966464841448 0 -0.0050350985995450213 -0.013373198345749545 0 -0.0041331030107985434 -0.013585571139889461 0 -0.0036596553415821046 -0.013728732518171546 0 -0.0045428816072717697 -0.013401148996799143 0 -0.0040580818922746967 -0.014188611540295664 0 -0.0045428816072717697 -0.013401148996799143 0 -0.0040580818922746967 -0.014188611540295664 0 -0.0050172663065201776 -0.014050966464841448 0 -5.263308056497654e-05 -0.017525421292601946 0 -8.9834877983549383e-05 -0.017428932035219575 0 -0.00024736990335758453 -0.017422244437570879 0 -0.0023897868186068872 -0.015799424433226225 0 -0.0040081460515619905 -0.019048843424089929 0 -0.0040580818922746967 -0.014188611540295664 0 -0.0050172663065201776 -0.014050966464841448 0 -0.003596365524235829 -0.015636407520051094 0 -0.0069185147861408787 -0.021554043983912727 0 -0.0068611371296674198 -0.021530872451883246 0 -0.0069022509005143068 -0.021542970856877015 0 -0.0078134944496470304 -0.013727905557000425 0 -0.0040081460515619905 -0.019048843424089929 0 -0.0034750819373245562 -0.014140463552887056 0 -0.0030784340800287051 -0.013929165493484939 0 -0.003596365524235829 -0.015636407520051094 0 -0.0034750819373245562 -0.014140463552887056 0 -0.0040580818922746967 -0.014188611540295664 0 -0.003596365524235829 -0.015636407520051094 0 -0.0069593793156425606 -0.021560152954246761 0 -0.0069185147861408787 -0.021554043983912727 0 -0.0069022509005143068 -0.021542970856877015 0 -0.0068611371296674198 -0.021530872451883246 0 -0.0069022509005143068 -0.021542970856877015 0 -0.0068598048696282572 -0.021532512603282112 0 -0.0069389704531669424 -0.021537127661245544 0 -0.006886461121996746 -0.021527283468258902 0 -0.0069092218013221858 -0.021512890196643215 0 -0.0069389704531669424 -0.021537127661245544 0 -0.0069022509005143068 -0.021542970856877015 0 -0.006886461121996746 -0.021527283468258902 0 -0.0069022509005143068 -0.021542970856877015 0 -0.006886461121996746 -0.021527283468258902 0 -0.0068598048696282572 -0.021532512603282112 0 -0.0068505354726450416 -0.02153733612624394 0 -0.0068448988835665631 -0.021516593005597051 0 -0.0067838664004757762 -0.021491069764116084 0 -0.0040081460515619905 -0.019048843424089929 0 -0.0020919310811338401 -0.019640508090603543 0 -0.006886461121996746 -0.021527283468258902 0 -0.0068448988835665631 -0.021516593005597051 0 -0.0068646059472532734 -0.021509211619720418 0 -0.006886461121996746 -0.021527283468258902 0 -0.0068448988835665631 -0.021516593005597051 0 -0.0068598048696282572 -0.021532512603282112 0 -0.0068505354726450416 -0.02153733612624394 0 -0.0068448988835665631 -0.021516593005597051 0 -0.0068598048696282572 -0.021532512603282112 0 -0.0040081460515619905 -0.019048843424089929 0 -0.0041767146697898406 -0.019164819958727878 0 -0.0068448988835665631 -0.021516593005597051 0 -0.0068258002153737153 -0.021501445966418901 0 -0.0067838664004757762 -0.021491069764116084 0 -0.0068258002153737153 -0.021501445966418901 0 -0.0067982461400272944 -0.021492419930970407 0 -0.0067838664004757762 -0.021491069764116084 0 -0.0068258002153737153 -0.021501445966418901 0 -0.0068435647809703881 -0.02149577866913454 0 -0.0068646059472532734 -0.021509211619720418 0 -0.0068258002153737153 -0.021501445966418901 0 -0.0067982461400272944 -0.021492419930970407 0 -0.0068435647809703881 -0.02149577866913454 0 -0.0068448988835665631 -0.021516593005597051 0 -0.0068258002153737153 -0.021501445966418901 0 -0.0068646059472532734 -0.021509211619720418 0 -0.006886461121996746 -0.021527283468258902 0 -0.0068646059472532734 -0.021509211619720418 0 -0.0069092218013221858 -0.021512890196643215 0 -0.0068646059472532734 -0.021509211619720418 0 -0.0068775874839144303 -0.021496515736938272 0 -0.0069092218013221858 -0.021512890196643215 0 -0.0068435647809703881 -0.02149577866913454 0 -0.0068775874839144303 -0.021496515736938272 0 -0.0068635894705680045 -0.02147466528327531 0 -0.0068435647809703881 -0.02149577866913454 0 -0.0068646059472532734 -0.021509211619720418 0 -0.0068775874839144303 -0.021496515736938272 0 -0.006913951027632397 -0.021486066629094608 0 -0.0068775874839144303 -0.021496515736938272 0 -0.0069092218013221858 -0.021512890196643215 0 -8.9834877983549383e-05 -0.017428932035219575 0 -0.00024736990335758453 -0.017422244437570879 0 -0.00020915844697887224 -0.017305301158635371 0 0.0019993507227161278 -0.018376094747091874 0 0.0015285391107982054 -0.018181552140478483 0 0.0016746614750955294 -0.01852391275744138 0 -0.0020919310811338401 -0.019640508090603543 0 0.00131660631474207 -0.017669653206887879 0 -8.9834877983549383e-05 -0.017428932035219575 0 -0.00020915844697887224 -0.017305301158635371 0 8.1692353965158978e-06 -0.017348552350421393 0 -0.0036250460067131607 -0.019546010611672299 0 -0.0020919310811338401 -0.019640508090603543 0 0.0015285391107982054 -0.018181552140478483 0 0.0011651270973917984 -0.018410812946143985 0 0.0016746614750955294 -0.01852391275744138 0 -8.9834877983549383e-05 -0.017428932035219575 0 8.1692353965158978e-06 -0.017348552350421393 0 7.6731983630009388e-05 -0.017507137358933687 0 -5.263308056497654e-05 -0.017525421292601946 0 -8.9834877983549383e-05 -0.017428932035219575 0 7.6731983630009388e-05 -0.017507137358933687 0 7.6731983630009388e-05 -0.017507137358933687 0 0.00030817851877240507 -0.017605061058938321 0 0.00027371438164346248 -0.017433407950608264 0 8.1692353965158978e-06 -0.017348552350421393 0 7.6731983630009388e-05 -0.017507137358933687 0 0.00027371438164346248 -0.017433407950608264 0 0.00131660631474207 -0.017669653206887879 0 0.00051901244241868904 -0.017689132871270594 0 0.0015285391107982054 -0.018181552140478483 0 0.0011651270973917984 -0.018410812946143985 0 0.0010231118124731035 -0.017949207428205941 0 0.0011651270973917984 -0.018410812946143985 0 0.0014372919639706922 -0.018781129662106107 0 0.0010366319099315198 -0.01888009687755985 0 0.0011651270973917984 -0.018410812946143985 0 0.0016746614750955294 -0.01852391275744138 0 0.0014372919639706922 -0.018781129662106107 0 0.0016746614750955294 -0.01852391275744138 0 0.0014372919639706922 -0.018781129662106107 0 0.0018684534128102226 -0.018904245891973526 0 0.0014372919639706922 -0.018781129662106107 0 0.0018684534128102226 -0.018904245891973526 0 0.0013319484278678439 -0.019220002785745673 0 0.0013319484278678439 -0.019220002785745673 0 0.0010366319099315198 -0.01888009687755985 0 0.00083723525433446948 -0.019233543237578962 0 0.0014372919639706922 -0.018781129662106107 0 0.0013319484278678439 -0.019220002785745673 0 0.0010366319099315198 -0.01888009687755985 0 -0.0069329739912540591 -0.02142466561569312 0 -0.0068615852463064083 -0.021408420185089577 0 -0.0068883423222406851 -0.021445641118743322 0 -0.0068615852463064083 -0.021408420185089577 0 -0.0068419519191137883 -0.021444976172694058 0 -0.0068883423222406851 -0.021445641118743322 0 -0.006913951027632397 -0.021486066629094608 0 -0.0068883423222406851 -0.021445641118743322 0 -0.0068635894705680045 -0.02147466528327531 0 -0.006913951027632397 -0.021486066629094608 0 -0.0068775874839144303 -0.021496515736938272 0 -0.0068635894705680045 -0.02147466528327531 0 -0.0068419519191137883 -0.021444976172694058 0 -0.0068883423222406851 -0.021445641118743322 0 -0.0068635894705680045 -0.02147466528327531 0 -0.0068419519191137883 -0.021444976172694058 0 -0.0068635894705680045 -0.02147466528327531 0 -0.0068246761129703249 -0.02146779789302531 0 -0.0068419519191137883 -0.021444976172694058 0 -0.0068246761129703249 -0.02146779789302531 0 -0.006788549616352663 -0.021430102854293611 0 -0.0067982461400272944 -0.021492419930970407 0 -0.0067638213892034973 -0.021498754781688046 0 -0.006788549616352663 -0.021430102854293611 0 -0.0067982461400272944 -0.021492419930970407 0 -0.0068246761129703249 -0.02146779789302531 0 -0.006788549616352663 -0.021430102854293611 0 -0.0067982461400272944 -0.021492419930970407 0 -0.0068435647809703881 -0.02149577866913454 0 -0.0068246761129703249 -0.02146779789302531 0 -0.0068435647809703881 -0.02149577866913454 0 -0.0068635894705680045 -0.02147466528327531 0 -0.0068246761129703249 -0.02146779789302531 0 -0.0068615852463064083 -0.021408420185089577 0 -0.0068419519191137883 -0.021444976172694058 0 -0.006788549616352663 -0.021430102854293611 0 -0.0067638213892034973 -0.021498754781688046 0 -0.006788549616352663 -0.021430102854293611 0 -0.0066578284829612146 -0.021358359742548606 0 -0.0020919310811338401 -0.019640508090603543 0 -0.0024297672832560313 -0.02018256921175627 0 0.0019993507227161278 -0.018376094747091874 0 0.0016746614750955294 -0.01852391275744138 0 0.0018684534128102226 -0.018904245891973526 0 -0.0066578284829612146 -0.021358359742548606 0 -0.0068145078493189615 -0.021325040418858167 0 -0.0067212579103566126 -0.021202242105106989 0 -0.006788549616352663 -0.021430102854293611 0 -0.0066578284829612146 -0.021358359742548606 0 -0.0068145078493189615 -0.021325040418858167 0 -0.0068615852463064083 -0.021408420185089577 0 -0.006788549616352663 -0.021430102854293611 0 -0.0068145078493189615 -0.021325040418858167 0 -0.0068976173323080725 -0.021376657007360893 0 -0.0068615852463064083 -0.021408420185089577 0 -0.0068145078493189615 -0.021325040418858167 0 -0.0068145078493189615 -0.021325040418858167 0 -0.0067212579103566126 -0.021202242105106989 0 -0.0068731388540633018 -0.021171406115271407 0 -0.0069461471214752228 -0.021307272367356623 0 -0.0068145078493189615 -0.021325040418858167 0 -0.0068731388540633018 -0.021171406115271407 0 -0.0066578284829612146 -0.021358359742548606 0 -0.0067212579103566126 -0.021202242105106989 0 -0.0065491565257532495 -0.021176729156374835 0 -0.0024297672832560313 -0.02018256921175627 0 -0.0024463538525730795 -0.02039122284945628 0 -0.0067212579103566126 -0.021202242105106989 0 -0.0066308705471347408 -0.021045017742056329 0 -0.0065491565257532495 -0.021176729156374835 0 -0.0067212579103566126 -0.021202242105106989 0 -0.0068731388540633018 -0.021171406115271407 0 -0.0068343953672837235 -0.021015578304397577 0 -0.0067212579103566126 -0.021202242105106989 0 -0.0066308705471347408 -0.021045017742056329 0 -0.0068343953672837235 -0.021015578304397577 0 0.0013319484278678439 -0.019220002785745673 0 0.00133893272772252 -0.019740911380606282 0 0.0010359808849746135 -0.019553616429063645 0 0.0013319484278678439 -0.019220002785745673 0 0.00083723525433446948 -0.019233543237578962 0 0.0010359808849746135 -0.019553616429063645 0 0.0018684534128102226 -0.018904245891973526 0 0.0013319484278678439 -0.019220002785745673 0 0.0017244681249915263 -0.019471562115169858 0 0.0013319484278678439 -0.019220002785745673 0 0.0017244681249915263 -0.019471562115169858 0 0.00133893272772252 -0.019740911380606282 0 -0.0066308705471347408 -0.021045017742056329 0 -0.0065491565257532495 -0.021176729156374835 0 -0.0064457805349169197 -0.020965675257442532 0 0.0017244681249915263 -0.019471562115169858 0 0.00133893272772252 -0.019740911380606282 0 0.0015886728188882707 -0.020068058724456491 0 -0.0024463538525730795 -0.02039122284945628 0 -0.0021662023620349947 -0.020158572170588404 0 0.00133893272772252 -0.019740911380606282 0 0.0010752922281935028 -0.019935472651239548 0 0.0012523125348429581 -0.019970121920983193 0 0.00133893272772252 -0.019740911380606282 0 0.0010752922281935028 -0.019935472651239548 0 0.0010359808849746135 -0.019553616429063645 0 0.0012085715716830313 -0.020127110390800014 0 0.0013845446901043061 -0.020068218921846463 0 0.0013354742646602921 -0.02064716535044538 0 0.0010752922281935028 -0.019935472651239548 0 0.0012085715716830313 -0.020127110390800014 0 0.0010712603116762303 -0.020329727911163289 0 0.0010752922281935028 -0.019935472651239548 0 0.0012523125348429581 -0.019970121920983193 0 0.0012085715716830313 -0.020127110390800014 0 0.0012523125348429581 -0.019970121920983193 0 0.0012085715716830313 -0.020127110390800014 0 0.0013845446901043061 -0.020068218921846463 0 0.00133893272772252 -0.019740911380606282 0 0.0012523125348429581 -0.019970121920983193 0 0.0013845446901043061 -0.020068218921846463 0 0.0015886728188882707 -0.020068058724456491 0 0.0013845446901043061 -0.020068218921846463 0 0.0012562733912511116 -0.021016191789879967 0 0.00133893272772252 -0.019740911380606282 0 0.0015886728188882707 -0.020068058724456491 0 0.0013845446901043061 -0.020068218921846463 0 -0.0021662023620349947 -0.020158572170588404 0 -0.004531277537455209 -0.02233602730659006 0 -0.0064457805349169197 -0.020965675257442532 0 -0.0063437411260884331 -0.020740675522243263 0 -0.0066058890106536327 -0.020872484470666603 0 -0.004531277537455209 -0.02233602730659006 0 -0.008117886012448141 -0.022729092472234244 0 -0.0089063476575267919 -0.024501249622535345 0 -0.0085429077729119521 -0.024529487964719668 0 -0.0084468372486190529 -0.024198983820607759 0 0.0010712603116762303 -0.020329727911163289 0 0.0013354742646602921 -0.02064716535044538 0 0.00092044717916383505 -0.020595668330647184 0 0.0017901014195928209 -0.019794485573926705 0 -0.00054768810431544089 -0.021534787368093739 0 0.0012085715716830313 -0.020127110390800014 0 0.0010712603116762303 -0.020329727911163289 0 0.0013354742646602921 -0.02064716535044538 0 0.0013845446901043061 -0.020068218921846463 0 0.0012562733912511116 -0.021016191789879967 0 0.0011285373934080737 -0.021094068713428508 0 -0.004531277537455209 -0.02233602730659006 0 -0.00054768810431544089 -0.021534787368093739 0 0.00016436515839006897 -0.023290898504893083 0 0.000127260484546619 -0.023598321823302001 0 -0.00030800749324133884 -0.023621230051377229 0 -0.00054768810431544089 -0.021534787368093739 0 0.00043344806607961835 -0.022373397446976796 0 -0.004531277537455209 -0.02233602730659006 0 -0.0039959548177442026 -0.024461783961836587 0 -0.0028535221720955815 -0.021397591947843145 0 -0.0034011538104543409 -0.021758818665518372 0 -0.0037727068159485412 -0.024398743274601852 0 -0.00054768810431544089 -0.021534787368093739 0 -0.0039959548177442026 -0.024461783961836587 0 -0.0089063476575267919 -0.024501249622535345 0 -0.0087167009273411058 -0.024775166904308282 0 -0.0085429077729119521 -0.024529487964719668 0 -0.0089063476575267919 -0.024501249622535345 0 -0.0090898312140701657 -0.024915806175080796 0 -0.0087167009273411058 -0.024775166904308282 0 -0.0087167009273411058 -0.024775166904308282 0 -0.0083912116907954894 -0.024844573121955298 0 -0.0085429077729119521 -0.024529487964719668 0 -0.0087167009273411058 -0.024775166904308282 0 -0.0086502939379897361 -0.025137348248377413 0 -0.0083912116907954894 -0.024844573121955298 0 -0.0090898312140701657 -0.024915806175080796 0 -0.0087167009273411058 -0.024775166904308282 0 -0.0086502939379897361 -0.025137348248377413 0 -0.0086502939379897361 -0.025137348248377413 0 -0.009261095886177937 -0.025716835973060501 0 -0.0084065451850327492 -0.025634216636495934 0 -0.0039959548177442026 -0.024461783961836587 0 -0.0065411057274661569 -0.025630975966732174 0 -0.0039959548177442026 -0.024461783961836587 0 -0.001518127536900498 -0.024535820106425514 0 -0.0090898312140701657 -0.024915806175080796 0 -0.0086502939379897361 -0.025137348248377413 0 -0.009261095886177937 -0.025716835973060501 0 0.000127260484546619 -0.023598321823302001 0 -1.4850928165356371e-06 -0.024087816125664276 0 -0.00030800749324133884 -0.023621230051377229 0 -0.0033880270320608965 -0.024593289826771 0 -0.003550777862518382 -0.025273539569724831 0 -0.0034449717450857199 -0.025302624155867051 0 -0.0079598710318757159 -0.02531088397225675 0 -0.0081148918788294094 -0.024952672775704711 0 -0.0078726754850842792 -0.02493098987852389 0 -0.0079598710318757159 -0.02531088397225675 0 -0.008214216628287873 -0.025304015810271585 0 -0.0081148918788294094 -0.024952672775704711 0 -0.008214216628287873 -0.025304015810271585 0 -0.0083912116907954894 -0.024844573121955298 0 -0.0081148918788294094 -0.024952672775704711 0 -0.0086502939379897361 -0.025137348248377413 0 -0.008214216628287873 -0.025304015810271585 0 -0.0083912116907954894 -0.024844573121955298 0 -0.0086502939379897361 -0.025137348248377413 0 -0.008214216628287873 -0.025304015810271585 0 -0.0084065451850327492 -0.025634216636495934 0 -0.0083912116907954894 -0.024844573121955298 0 -0.0080760985590709721 -0.024454535256494981 0 -0.0085429077729119521 -0.024529487964719668 0 -0.0081148918788294094 -0.024952672775704711 0 -0.0080760985590709721 -0.024454535256494981 0 -0.0078726754850842792 -0.02493098987852389 0 -0.0083912116907954894 -0.024844573121955298 0 -0.0081148918788294094 -0.024952672775704711 0 -0.0080760985590709721 -0.024454535256494981 0 -0.0080760985590709721 -0.024454535256494981 0 -0.0085429077729119521 -0.024529487964719668 0 -0.0084468372486190529 -0.024198983820607759 0 -0.0066308705471347408 -0.021045017742056329 0 -0.0066058890106536327 -0.020872484470666603 0 -0.0068343953672837235 -0.021015578304397577 0 -0.0066308705471347408 -0.021045017742056329 0 -0.0064457805349169197 -0.020965675257442532 0 -0.0066058890106536327 -0.020872484470666603 0 -0.008117886012448141 -0.022729092472234244 0 -0.0073233629770496078 -0.022374582140165845 0 -0.0080760985590709721 -0.024454535256494981 0 -0.0080613165208711195 -0.023857077899496346 0 -0.0077796690832762057 -0.023937631499598079 0 -0.0080760985590709721 -0.024454535256494981 0 -0.0084468372486190529 -0.024198983820607759 0 -0.0080613165208711195 -0.023857077899496346 0 -0.0077796690832762057 -0.023937631499598079 0 -0.0075374554904863843 -0.023862332296061588 0 -0.0076622722359463158 -0.024317761648473941 0 -0.0073210097316376279 -0.024400102675349044 0 -0.0076622722359463158 -0.024317761648473941 0 -0.007497087234871397 -0.024826894569838907 0 -0.0075374554904863843 -0.023862332296061588 0 -0.0073210097316376279 -0.024400102675349044 0 -0.0076622722359463158 -0.024317761648473941 0 -0.0080760985590709721 -0.024454535256494981 0 -0.0076622722359463158 -0.024317761648473941 0 -0.0077931378143579529 -0.024619414575268211 0 -0.0080760985590709721 -0.024454535256494981 0 -0.0077796690832762057 -0.023937631499598079 0 -0.0076622722359463158 -0.024317761648473941 0 -0.0075060572932482347 -0.023522498711382674 0 -0.0076694292489415811 -0.023541643290978478 0 -0.0076161514136254037 -0.023850440579682643 0 -0.0075833793852124482 -0.023337302771594189 0 -0.0075060572932482347 -0.023522498711382674 0 -0.0076694292489415811 -0.023541643290978478 0 -0.0075374554904863843 -0.023862332296061588 0 -0.0073210097316376279 -0.024400102675349044 0 -0.0071440348142794031 -0.023959367624759201 0 -0.0073210097316376279 -0.024400102675349044 0 -0.0071440348142794031 -0.023959367624759201 0 -0.0069252504948213592 -0.024528399271543141 0 -0.0074000456849819766 -0.023797929238732946 0 -0.0073175166762900002 -0.024019889087698261 0 -0.0076161514136254037 -0.023850440579682643 0 -0.0074217261451488175 -0.023886603350609475 0 -0.0073787570828860996 -0.023699321109553785 0 -0.0075060572932482347 -0.023522498711382674 0 -0.0076161514136254037 -0.023850440579682643 0 -0.0073787570828860996 -0.023699321109553785 0 -0.0073175166762900002 -0.024019889087698261 0 -0.0069563438483130971 -0.025421950020975762 0 -0.0076161514136254037 -0.023850440579682643 0 -0.0074217261451488175 -0.023886603350609475 0 -0.0075364033305585889 -0.024148447565222469 0 -0.0069252504948213592 -0.024528399271543141 0 -0.0071545061279133446 -0.02485645968583702 0 -0.0067729345789841197 -0.025055264527681677 0 -0.0073210097316376279 -0.024400102675349044 0 -0.0069252504948213592 -0.024528399271543141 0 -0.0071545061279133446 -0.02485645968583702 0 -0.0063197100123843306 -0.027097227875444916 0 -0.0064804036095171529 -0.027163070372445638 0 -0.0063582046117304086 -0.027192463269327616 0 -0.0071545061279133446 -0.02485645968583702 0 -0.0067729345789841197 -0.025055264527681677 0 -0.0073722026464208045 -0.025343174264874986 0 -0.0069563438483130971 -0.025421950020975762 0 -0.0068705560242953764 -0.026329883658559598 0 -0.0075516434906863113 -0.025703347257271039 0 -0.0074578309529092683 -0.026025780924687755 0 -0.0070724745974712067 -0.025473648545603668 0 -0.0063197100123843306 -0.027097227875444916 0 -0.0062940640247296899 -0.027193062602040474 0 -0.0063582046117304086 -0.027192463269327616 0 -0.0069563438483130971 -0.025421950020975762 0 -0.0072668725062124163 -0.026799291678595214 0 -0.0080760985590709721 -0.024454535256494981 0 -0.0078726754850842792 -0.02493098987852389 0 -0.0077931378143579529 -0.024619414575268211 0 -0.0078726754850842792 -0.02493098987852389 0 -0.0077931378143579529 -0.024619414575268211 0 -0.007497087234871397 -0.024826894569838907 0 -0.0076622722359463158 -0.024317761648473941 0 -0.0077931378143579529 -0.024619414575268211 0 -0.007497087234871397 -0.024826894569838907 0 -0.0073210097316376279 -0.024400102675349044 0 -0.0071545061279133446 -0.02485645968583702 0 -0.007497087234871397 -0.024826894569838907 0 -0.007497087234871397 -0.024826894569838907 0 -0.0076473069158706922 -0.025176370140256137 0 -0.0073722026464208045 -0.025343174264874986 0 -0.0071545061279133446 -0.02485645968583702 0 -0.007497087234871397 -0.024826894569838907 0 -0.0073722026464208045 -0.025343174264874986 0 -0.0079598710318757159 -0.02531088397225675 0 -0.0078726754850842792 -0.02493098987852389 0 -0.0076473069158706922 -0.025176370140256137 0 -0.0078726754850842792 -0.02493098987852389 0 -0.007497087234871397 -0.024826894569838907 0 -0.0076473069158706922 -0.025176370140256137 0 -0.0079598710318757159 -0.02531088397225675 0 -0.0076473069158706922 -0.025176370140256137 0 -0.0077627691077060282 -0.025393255480034561 0 -0.0077627691077060282 -0.025393255480034561 0 -0.0073722026464208045 -0.025343174264874986 0 -0.0079023598919648885 -0.025617328727836321 0 -0.0079598710318757159 -0.02531088397225675 0 -0.0077627691077060282 -0.025393255480034561 0 -0.0079084052389092104 -0.025456057350660394 0 -0.0068705560242953764 -0.026329883658559598 0 -0.0072758797957031664 -0.026535266669927119 0 -0.0076473069158706922 -0.025176370140256137 0 -0.0077627691077060282 -0.025393255480034561 0 -0.0073722026464208045 -0.025343174264874986 0 -0.0064804036095171529 -0.027163070372445638 0 -0.0065455202706860864 -0.027333101623764101 0 -0.0067457291895905167 -0.027258476616552459 0 -0.0077627691077060282 -0.025393255480034561 0 -0.0079084052389092104 -0.025456057350660394 0 -0.0079023598919648885 -0.025617328727836321 0 -0.0064804036095171529 -0.027163070372445638 0 -0.0065455202706860864 -0.027333101623764101 0 -0.0064120799719019654 -0.027278249756079551 0 -0.0065455202706860864 -0.027333101623764101 0 -0.0064120799719019654 -0.027278249756079551 0 -0.0062384726997065402 -0.027387037125999655 0 -0.0064632931748282978 -0.02717378990940154 0 -0.00630519782044206 -0.027326029761117171 0 -0.0065038257673684834 -0.026939631538768199 0 -0.0062384726997065402 -0.027387037125999655 0 -0.0063343017964394843 -0.027482764741385446 0 -0.0065038257673684834 -0.026939631538768199 0 -0.0069417315636151038 -0.026896668378810704 0 -0.0071077563165506501 -0.026425713290280241 0 -0.0064632931748282978 -0.02717378990940154 0 -0.0072758797957031664 -0.026535266669927119 0 -0.0065038257673684834 -0.026939631538768199 0 -0.0069417315636151038 -0.026896668378810704 0 -0.0066814853632622745 -0.02721645275500123 0 -0.0069417315636151038 -0.026896668378810704 0 -0.0070128423990725797 -0.027247728690187659 0 -0.0071891038120508021 -0.026953612079020996 0 -0.0069417315636151038 -0.026896668378810704 0 -0.0071077563165506501 -0.026425713290280241 0 -0.0071866762493494425 -0.026669830171546595 0 -0.006263420547222006 -0.027154743360185422 0 -0.0063250637254083407 -0.027240005874627906 0 -0.0063242674910955884 -0.027403342015743213 0 -0.0072668725062124163 -0.026799291678595214 0 -0.0068094982409216574 -0.026882679231763205 0 -0.0062940640247296899 -0.027193062602040474 0 -0.0063250637254083407 -0.027240005874627906 0 -0.0063582046117304086 -0.027192463269327616 0 -0.0063250637254083407 -0.027240005874627906 0 -0.0063649688677842424 -0.02726491884813715 0 -0.0063599093995705463 -0.027324442650992892 0 -0.0063250637254083407 -0.027240005874627906 0 -0.0063649688677842424 -0.02726491884813715 0 -0.0063582046117304086 -0.027192463269327616 0 -0.0064804036095171529 -0.027163070372445638 0 -0.0063582046117304086 -0.027192463269327616 0 -0.006393403779719726 -0.0272410264568912 0 -0.0063649688677842424 -0.02726491884813715 0 -0.006393403779719726 -0.0272410264568912 0 -0.0063607466193498097 -0.027302646985189815 0 -0.0063649688677842424 -0.02726491884813715 0 -0.0063582046117304086 -0.027192463269327616 0 -0.006393403779719726 -0.0272410264568912 0 -0.0064804036095171529 -0.027163070372445638 0 -0.006393403779719726 -0.0272410264568912 0 -0.0064120799719019654 -0.027278249756079551 0 -0.006393403779719726 -0.0272410264568912 0 -0.0064120799719019654 -0.027278249756079551 0 -0.0063607466193498097 -0.027302646985189815 0 -0.0064120799719019654 -0.027278249756079551 0 -0.0062384726997065402 -0.027387037125999655 0 -0.0063607466193498097 -0.027302646985189815 0 -0.0063649688677842424 -0.02726491884813715 0 -0.0063607466193498097 -0.027302646985189815 0 -0.0063599093995705463 -0.027324442650992892 0 -0.008767984770064019 -0.02643929658311792 0 -0.0083542244064430081 -0.02710868780971944 0 -0.0082407884493215337 -0.027786551650472988 0 -0.006263420547222006 -0.027154743360185422 0 -0.0063242674910955884 -0.027403342015743213 0 -0.0062607984881291826 -0.027549769785280516 0 -0.0072668725062124163 -0.026799291678595214 0 -0.0072907656654077934 -0.027633005955975339 0 -0.0063250637254083407 -0.027240005874627906 0 -0.0063599093995705463 -0.027324442650992892 0 -0.0063242674910955884 -0.027403342015743213 0 -0.0063599093995705463 -0.027324442650992892 0 -0.006372577658809277 -0.027401796367346784 0 -0.0063242674910955884 -0.027403342015743213 0 -0.0063607466193498097 -0.027302646985189815 0 -0.0063599093995705463 -0.027324442650992892 0 -0.006372577658809277 -0.027401796367346784 0 -0.006372577658809277 -0.027401796367346784 0 -0.0063242674910955884 -0.027403342015743213 0 -0.0064381304763588502 -0.027598935221066087 0 -0.0063607466193498097 -0.027302646985189815 0 -0.006372577658809277 -0.027401796367346784 0 -0.0064381304763588502 -0.027598935221066087 0 -0.0063242674910955884 -0.027403342015743213 0 -0.0064381304763588502 -0.027598935221066087 0 -0.0062607984881291826 -0.027549769785280516 0 -0.0064614702037037843 -0.027832722765852788 0 -0.0064381304763588502 -0.027598935221066087 0 -0.0062607984881291826 -0.027549769785280516 0 -0.0064614702037037843 -0.027832722765852788 0 -0.0064381304763588502 -0.027598935221066087 0 -0.0066108723967946582 -0.027884825770005183 0 -0.0062384726997065402 -0.027387037125999655 0 -0.0063607466193498097 -0.027302646985189815 0 -0.0058892165673002676 -0.027703286254620135 0 -0.0063607466193498097 -0.027302646985189815 0 -0.0064381304763588502 -0.027598935221066087 0 -0.0066108723967946582 -0.027884825770005183 0 -0.0063454742205154074 -0.027364692474508557 0 -0.0062432528005361846 -0.027807242803625211 0 -0.0062384726997065402 -0.027387037125999655 0 -0.0058892165673002676 -0.027703286254620135 0 -0.0063343017964394843 -0.027482764741385446 0 -0.0058045225974833938 -0.027955481824072689 0 -0.0058892165673002676 -0.027703286254620135 0 -0.0056475415352853992 -0.028288898922993581 0 -0.0058045225974833938 -0.027955481824072689 0 -0.0058892165673002676 -0.027703286254620135 0 -0.0063343017964394843 -0.027482764741385446 0 -0.0064614702037037843 -0.027832722765852788 0 -0.0066108723967946582 -0.027884825770005183 0 -0.0065404251574264971 -0.027996173312277401 0 -0.0066928017140303981 -0.027503494044328034 0 -0.0070128423990725797 -0.027247728690187659 0 -0.0070243177072156406 -0.027590501179191356 0 -0.0069417315636151038 -0.026896668378810704 0 -0.0070128423990725797 -0.027247728690187659 0 -0.0066814853632622745 -0.02721645275500123 0 -0.0066928017140303981 -0.027503494044328034 0 -0.0070128423990725797 -0.027247728690187659 0 -0.0066814853632622745 -0.02721645275500123 0 -0.0065038257673684834 -0.026939631538768199 0 -0.0066814853632622745 -0.02721645275500123 0 -0.0063343017964394843 -0.027482764741385446 0 -0.0066928017140303981 -0.027503494044328034 0 -0.0066814853632622745 -0.02721645275500123 0 -0.0063343017964394843 -0.027482764741385446 0 -0.0058045225974833938 -0.027955481824072689 0 -0.0063343017964394843 -0.027482764741385446 0 -0.0066004111692612938 -0.027890988174275582 0 -0.0058120850496102159 -0.027972906365333946 0 -0.0061348540111296054 -0.027982820742646863 0 -0.0058045225974833938 -0.027955481824072689 0 -0.0056621954102039698 -0.028111091375200643 0 -0.0057086910579283862 -0.028116404713538625 0 -0.0066928017140303981 -0.027503494044328034 0 -0.0063343017964394843 -0.027482764741385446 0 -0.0066004111692612938 -0.027890988174275582 0 -0.0061348540111296054 -0.027982820742646863 0 -0.0069908789527090356 -0.027831908240718847 0 -0.0066004111692612938 -0.027890988174275582 0 -0.0070243177072156406 -0.027590501179191356 0 -0.0074393506846221124 -0.027798625860612054 0 -0.0056621954102039698 -0.028111091375200643 0 -0.0064683566403414029 -0.027850828016190224 0 -0.0058504870461754416 -0.028333855815561013 0 -0.0066928017140303981 -0.027503494044328034 0 -0.0066004111692612938 -0.027890988174275582 0 -0.0070243177072156406 -0.027590501179191356 0 -0.0064683566403414029 -0.027850828016190224 0 -0.0069591037726108914 -0.028349581482719998 0 -0.0058504870461754416 -0.028333855815561013 0 -0.0074393506846221124 -0.027798625860612054 0 -0.0073634117244439808 -0.027470856026227636 0 -0.0077545130996465299 -0.02740698859952748 0 -0.0070243177072156406 -0.027590501179191356 0 -0.0074393506846221124 -0.027798625860612054 0 -0.0073634117244439808 -0.027470856026227636 0 -0.0070128423990725797 -0.027247728690187659 0 -0.0070243177072156406 -0.027590501179191356 0 -0.0073634117244439808 -0.027470856026227636 0 -0.0070128423990725797 -0.027247728690187659 0 -0.0073634117244439808 -0.027470856026227636 0 -0.007416571643497411 -0.027154511950176114 0 -0.0073634117244439808 -0.027470856026227636 0 -0.007416571643497411 -0.027154511950176114 0 -0.0077545130996465299 -0.02740698859952748 0 -0.007416571643497411 -0.027154511950176114 0 -0.0077554227240720043 -0.027012483690020954 0 -0.0077545130996465299 -0.02740698859952748 0 -0.007416571643497411 -0.027154511950176114 0 -0.0077554227240720043 -0.027012483690020954 0 -0.0074131347929081871 -0.026783133258143011 0 -0.0070128423990725797 -0.027247728690187659 0 -0.007416571643497411 -0.027154511950176114 0 -0.0071891038120508021 -0.026953612079020996 0 -0.0077545130996465299 -0.02740698859952748 0 -0.0081853826679809186 -0.027220022573714871 0 -0.0083764390662449482 -0.027681550272876037 0 -0.0077554227240720043 -0.027012483690020954 0 -0.0081853826679809186 -0.027220022573714871 0 -0.0081635991951353685 -0.026781666160162594 0 -0.0077554227240720043 -0.027012483690020954 0 -0.0077545130996465299 -0.02740698859952748 0 -0.0081853826679809186 -0.027220022573714871 0 -0.0074393506846221124 -0.027798625860612054 0 -0.0077545130996465299 -0.02740698859952748 0 -0.0083764390662449482 -0.027681550272876037 0 -0.0064683566403414029 -0.027850828016190224 0 -0.0083764390662449482 -0.027681550272876037 0 -0.0069591037726108914 -0.028349581482719998 0 -0.0069908789527090356 -0.027831908240718847 0 -0.0082877245908696204 -0.027686201191161833 0 -0.0046698018601105422 -0.028895442283365252 0 -0.0050114524954055807 -0.028584381315889234 0 -0.0053386664474673988 -0.028646025547045421 0 -0.0070522394248447818 -0.028423579868963902 0 -0.0060558268368885995 -0.028490216543137607 0 -0.0085438881629375379 -0.027998112956419755 0 -0.0083764390662449482 -0.027681550272876037 0 -0.0069591037726108914 -0.028349581482719998 0 -0.0085438881629375379 -0.027998112956419755 0 -0.0083764390662449482 -0.027681550272876037 0 -0.0088276380326873169 -0.027377866539270091 0 -0.0046698018601105422 -0.028895442283365252 0 -0.0039204213824382463 -0.029095145878605001 0 -0.0042473904678241511 -0.028621957851968652 0 -0.0070522394248447818 -0.028423579868963902 0 -0.00430611031289039 -0.027803146324912195 0 -0.0085438881629375379 -0.027998112956419755 0 -0.0094892271459525879 -0.027703742550940262 0 -0.0088276380326873169 -0.027377866539270091 0 -0.00430611031289039 -0.027803146324912195 0 -0.0066159280466680861 -0.026263772788593848 0 -0.0094892271459525879 -0.027703742550940262 0 -0.0088276380326873169 -0.027377866539270091 0 -0.0093792840763591602 -0.026713415971477136 0 -0.0088276380326873169 -0.027377866539270091 0 -0.0086140717925266355 -0.026934648244880146 0 -0.0093792840763591602 -0.026713415971477136 0 -0.0081853826679809186 -0.027220022573714871 0 -0.0083764390662449482 -0.027681550272876037 0 -0.0085083848602934744 -0.027304519933357908 0 -0.0083764390662449482 -0.027681550272876037 0 -0.0085083848602934744 -0.027304519933357908 0 -0.0088276380326873169 -0.027377866539270091 0 -0.0085083848602934744 -0.027304519933357908 0 -0.0088276380326873169 -0.027377866539270091 0 -0.0086140717925266355 -0.026934648244880146 0 -0.0081853826679809186 -0.027220022573714871 0 -0.0085083848602934744 -0.027304519933357908 0 -0.0086140717925266355 -0.026934648244880146 0 -0.0081853826679809186 -0.027220022573714871 0 -0.0086140717925266355 -0.026934648244880146 0 -0.0081635991951353685 -0.026781666160162594 0 -0.0086140717925266355 -0.026934648244880146 0 -0.0086590979866318831 -0.026296509513828427 0 -0.0081635991951353685 -0.026781666160162594 0 -0.0086140717925266355 -0.026934648244880146 0 -0.0086590979866318831 -0.026296509513828427 0 -0.0093792840763591602 -0.026713415971477136 0 -0.0086590979866318831 -0.026296509513828427 0 -0.0081635991951353685 -0.026781666160162594 0 -0.0081185888801997667 -0.026303539251773846 0 -0.0035111739542237124 -0.026025712943454835 0 -0.0034449717450857199 -0.025302624155867051 0 -0.0037233657244032494 -0.025966788694770447 0 -0.0066159280466680861 -0.026263772788593848 0 -0.0065411057274661569 -0.025630975966732174 0 -0.0086590979866318831 -0.026296509513828427 0 -0.0093792840763591602 -0.026713415971477136 0 -0.009261095886177937 -0.025716835973060501 0 -0.003550777862518382 -0.025273539569724831 0 -0.0034449717450857199 -0.025302624155867051 0 -0.0037233657244032494 -0.025966788694770447 0 -0.001518127536900498 -0.024535820106425514 0 -0.0021533828141857333 -0.025223619289186539 0 -0.0086590979866318831 -0.026296509513828427 0 -0.009261095886177937 -0.025716835973060501 0 -0.0084065451850327492 -0.025634216636495934 0 -0.0086590979866318831 -0.026296509513828427 0 -0.0084065451850327492 -0.025634216636495934 0 -0.0081185888801997667 -0.026303539251773846 0 -0.0083416516140623048 -0.025654395571377907 0 -0.0080152396203556475 -0.025788199474895024 0 -0.0084065451850327492 -0.025634216636495934 0 -0.007662080985561863 -0.026028678711901603 0 -0.0081185888801997667 -0.026303539251773846 0 -0.008214216628287873 -0.025304015810271585 0 -0.0084065451850327492 -0.025634216636495934 0 -0.0081655105469956579 -0.02555794192834418 0 -0.008214216628287873 -0.025304015810271585 0 -0.0081655105469956579 -0.02555794192834418 0 -0.008008945253591037 -0.025496517137963141 0 -0.0079598710318757159 -0.02531088397225675 0 -0.008214216628287873 -0.025304015810271585 0 -0.008008945253591037 -0.025496517137963141 0 -0.0079598710318757159 -0.02531088397225675 0 -0.0079084052389092104 -0.025456057350660394 0 -0.008008945253591037 -0.025496517137963141 0 -0.0079084052389092104 -0.025456057350660394 0 -0.008008945253591037 -0.025496517137963141 0 -0.0079023598919648885 -0.025617328727836321 0 -0.007662080985561863 -0.026028678711901603 0 -0.0070991341844709507 -0.02641252898495669 0 -0.0071657119068964988 -0.026432828531316226 0 -0.0072758797957031664 -0.026535266669927119 0 -0.0072578522190169664 -0.026525349283690533 0 -0.0081655105469956579 -0.02555794192834418 0 -0.008008945253591037 -0.025496517137963141 0 -0.0079023598919648885 -0.025617328727836321 0 -0.0080152396203556475 -0.025788199474895024 0 -0.0072758797957031664 -0.026535266669927119 0 -0.007662080985561863 -0.026028678711901603 0 -0.0074906134214159804 -0.026413039624724726 0 -0.0071657119068964988 -0.026432828531316226 0 -0.0074906134214159804 -0.026413039624724726 0 -0.0074131347929081871 -0.026783133258143011 0 -0.00776586366970423 -0.026566782912428404 0 -0.0074906134214159804 -0.026413039624724726 0 -0.007313841600207943 -0.026548595894892741 0 -0.0074131347929081871 -0.026783133258143011 0 -0.007662080985561863 -0.026028678711901603 0 -0.0074906134214159804 -0.026413039624724726 0 -0.00776586366970423 -0.026566782912428404 0 -0.0074906134214159804 -0.026413039624724726 0 -0.0071657119068964988 -0.026432828531316226 0 -0.007313841600207943 -0.026548595894892741 0 -0.0071077563165506501 -0.026425713290280241 0 -0.0071657119068964988 -0.026432828531316226 0 -0.0071866762493494425 -0.026669830171546595 0 -0.0071657119068964988 -0.026432828531316226 0 -0.007313841600207943 -0.026548595894892741 0 -0.0071866762493494425 -0.026669830171546595 0 -0.007313841600207943 -0.026548595894892741 0 -0.0071866762493494425 -0.026669830171546595 0 -0.0074131347929081871 -0.026783133258143011 0 -0.007416571643497411 -0.027154511950176114 0 -0.0071891038120508021 -0.026953612079020996 0 -0.0074131347929081871 -0.026783133258143011 0 -0.0069417315636151038 -0.026896668378810704 0 -0.0071866762493494425 -0.026669830171546595 0 -0.0071891038120508021 -0.026953612079020996 0 -0.0071866762493494425 -0.026669830171546595 0 -0.0071891038120508021 -0.026953612079020996 0 -0.0074131347929081871 -0.026783133258143011 0 -0.0077554227240720043 -0.027012483690020954 0 -0.0074131347929081871 -0.026783133258143011 0 -0.00776586366970423 -0.026566782912428404 0 -0.0077554227240720043 -0.027012483690020954 0 -0.0081635991951353685 -0.026781666160162594 0 -0.00776586366970423 -0.026566782912428404 0 -0.0081635991951353685 -0.026781666160162594 0 -0.0081185888801997667 -0.026303539251773846 0 -0.00776586366970423 -0.026566782912428404 0 -0.007662080985561863 -0.026028678711901603 0 -0.0081185888801997667 -0.026303539251773846 0 -0.00776586366970423 -0.026566782912428404 0 -0.019190620089329483 -0.023821800260728061 0 -0.018692240874003469 -0.0237015271139412 0 -0.01894711054659454 -0.024000477827066536 0 -0.01910107549217134 -0.023538841632039828 0 -0.019190620089329483 -0.023821800260728061 0 -0.018692240874003469 -0.0237015271139412 0 -0.018692240874003469 -0.0237015271139412 0 -0.018551904155553758 -0.024126025729861663 0 -0.01894711054659454 -0.024000477827066536 0 -0.0093151700290777257 -0.02888414741777208 0 -0.0091544077480718612 -0.029361742593625045 0 -0.0088011432665178104 -0.02899654253830045 0 -0.011728789738184404 -0.025547440570861685 0 -0.0070930678408151013 -0.02775578873007168 0 -0.014168112875188068 -0.026470244117109087 0 -0.011728789738184404 -0.025547440570861685 0 -0.0054117485111363165 -0.02539295130270499 0 -0.0062050615857900939 -0.025143386457307671 0 -0.0061672726261672445 -0.026551988109314095 0 -0.0054117485111363165 -0.02539295130270499 0 -0.0061269863769432518 -0.024746176370027566 0 -0.0062050615857900939 -0.025143386457307671 0 -0.019057560175593461 -0.024237820657250921 0 -0.018551904155553758 -0.024126025729861663 0 -0.01894711054659454 -0.024000477827066536 0 -0.014544955715370813 -0.024140452456324842 0 -0.014167055459044718 -0.024117100681136653 0 -0.014334648660553508 -0.024054830678200474 0 -0.014247044860170159 -0.023783361715510029 0 -0.014544955715370813 -0.024140452456324842 0 -0.014334648660553508 -0.024054830678200474 0 -0.019057560175593461 -0.024237820657250921 0 -0.018551904155553758 -0.024126025729861663 0 -0.018931547616693415 -0.024580542470706086 0 -0.011728789738184404 -0.025547440570861685 0 -0.01920396899813762 -0.023883218737298317 0 -0.01920396899813762 -0.023883218737298317 0 -0.019499498549557921 -0.023734587291473274 0 -0.020551043524101423 -0.023018546339420423 0 -0.020525235831690296 -0.022983305633860036 0 -0.020539264949364543 -0.022870511731270617 0 -0.020551043524101423 -0.023018546339420423 0 -0.020651186817196045 -0.022726828826564831 0 -0.020899075626004432 -0.022676837388569692 0 -0.020551043524101423 -0.023018546339420423 0 -0.020539264949364543 -0.022870511731270617 0 -0.020651186817196045 -0.022726828826564831 0 -0.020450963974364782 -0.022822148718185237 0 -0.020525235831690296 -0.022983305633860036 0 -0.020539264949364543 -0.022870511731270617 0 -0.020651186817196045 -0.022726828826564831 0 -0.020588447642897637 -0.022655267729211996 0 -0.02055462332818956 -0.022742844166973839 0 -0.02065023161923453 -0.022573395745185871 0 -0.020651186817196045 -0.022726828826564831 0 -0.020588447642897637 -0.022655267729211996 0 -0.020539264949364543 -0.022870511731270617 0 -0.020651186817196045 -0.022726828826564831 0 -0.02055462332818956 -0.022742844166973839 0 -0.020479217662057323 -0.022629671322527019 0 -0.020588447642897637 -0.022655267729211996 0 -0.02055462332818956 -0.022742844166973839 0 -0.020450963974364782 -0.022822148718185237 0 -0.020479217662057323 -0.022629671322527019 0 -0.02055462332818956 -0.022742844166973839 0 -0.020450963974364782 -0.022822148718185237 0 -0.020539264949364543 -0.022870511731270617 0 -0.02055462332818956 -0.022742844166973839 0 -0.01920396899813762 -0.023883218737298317 0 -0.014263748056367541 -0.022132101932951256 0 -0.020755322512940686 -0.022534036286480891 0 -0.020651186817196045 -0.022726828826564831 0 -0.020899075626004432 -0.022676837388569692 0 -0.014544955715370813 -0.024140452456324842 0 -0.014108750905250338 -0.024312354990881475 0 -0.014167055459044718 -0.024117100681136653 0 -0.014263748056367541 -0.022132101932951256 0 -0.010952702530769107 -0.024143283049253072 0 -0.011728789738184404 -0.025547440570861685 0 -0.010952702530769107 -0.024143283049253072 0 -0.014247044860170159 -0.023783361715510029 0 -0.014123278417401432 -0.024146077315112632 0 -0.014334648660553508 -0.024054830678200474 0 -0.0054117485111363165 -0.02539295130270499 0 -0.0057612680698498064 -0.024375745013206607 0 -0.0061269863769432518 -0.024746176370027566 0 -0.010952702530769107 -0.024143283049253072 0 -0.014621005527796049 -0.023510726536702744 0 -0.0057612680698498064 -0.024375745013206607 0 -0.0061269863769432518 -0.024746176370027566 0 -0.0066364203967817096 -0.023957793941145999 0 -0.0061269863769432518 -0.024746176370027566 0 -0.0064906884033632149 -0.024793548258645427 0 -0.0062050615857900939 -0.025143386457307671 0 -0.0060456278085990155 -0.024832893684676192 0 -0.0068851572560448696 -0.023772204496455396 0 -0.0061269863769432518 -0.024746176370027566 0 -0.0062477737556083327 -0.024334787287027444 0 -0.0064906884033632149 -0.024793548258645427 0 -0.0097878935939440474 -0.023355507011184769 0 -0.010551118270355568 -0.023002270146059732 0 -0.010131562795794361 -0.022834282845243158 0 -0.010952702530769107 -0.024143283049253072 0 -0.0068851572560448696 -0.023772204496455396 0 -0.010551118270355568 -0.023002270146059732 0 -0.010671330237307661 -0.022603127529044181 0 -0.010131562795794361 -0.022834282845243158 0 -0.009047077685701321 -0.022250441441600748 0 -0.0068851572560448696 -0.023772204496455396 0 -0.0061003977215535604 -0.023426860354057374 0 -0.0063172481119880474 -0.023493424940256812 0 -0.0058550489523321097 -0.023678025689521879 0 -0.0064075503481572666 -0.023705408809345518 0 -0.0068851572560448696 -0.023772204496455396 0 -0.0062477737556083327 -0.024334787287027444 0 -0.0066407045165110092 -0.024460868123664992 0 -0.0067547734691739639 -0.024196377353048477 0 -0.0068497638893963804 -0.023809482208739612 0 -0.0062477737556083327 -0.024334787287027444 0 -0.0067547734691739639 -0.024196377353048477 0 -0.0066407045165110092 -0.024460868123664992 0 -0.0064906884033632149 -0.024793548258645427 0 -0.0067593737110502455 -0.024642329168891589 0 -0.0062477737556083327 -0.024334787287027444 0 -0.0066407045165110092 -0.024460868123664992 0 -0.0064906884033632149 -0.024793548258645427 0 -0.0064906884033632149 -0.024793548258645427 0 -0.0062050615857900939 -0.025143386457307671 0 -0.0066032526574222004 -0.025330998546926206 0 -0.0062595275498058415 -0.025181002915020113 0 -0.0071318041674960841 -0.025705548294062852 0 -0.0064906884033632149 -0.024793548258645427 0 -0.0066032526574222004 -0.025330998546926206 0 -0.0069010956365878279 -0.024937194453872262 0 -0.0062050615857900939 -0.025143386457307671 0 -0.0067921823678229135 -0.026073927885762283 0 -0.0077545706175296235 -0.026091076708559015 0 -0.0062050615857900939 -0.025143386457307671 0 -0.0067921823678229135 -0.026073927885762283 0 -0.0061672726261672445 -0.026551988109314095 0 -0.0067921823678229135 -0.026073927885762283 0 -0.0061672726261672445 -0.026551988109314095 0 -0.0071629966537853701 -0.026687112467992498 0 -0.0071629966537853701 -0.026687112467992498 0 -0.0077545706175296235 -0.026091076708559015 0 -0.0080845298282592008 -0.027339222981787929 0 -0.0067921823678229135 -0.026073927885762283 0 -0.0071629966537853701 -0.026687112467992498 0 -0.0077545706175296235 -0.026091076708559015 0 -0.0077545706175296235 -0.026091076708559015 0 -0.0086619766006361242 -0.026875525878620452 0 -0.0080845298282592008 -0.027339222981787929 0 -0.0066032526574222004 -0.025330998546926206 0 -0.0071930695356018353 -0.025758882362480206 0 -0.0071294691407073141 -0.025307738800887901 0 -0.0071318041674960841 -0.025705548294062852 0 -0.0080081766377255118 -0.026307854783260875 0 -0.0071930695356018353 -0.025758882362480206 0 -0.0071294691407073141 -0.025307738800887901 0 -0.0075983744717683334 -0.025549709567716825 0 -0.0071294691407073141 -0.025307738800887901 0 -0.0073954179292913206 -0.024936999888710457 0 -0.0069010956365878279 -0.024937194453872262 0 -0.0071294691407073141 -0.025307738800887901 0 -0.0073954179292913206 -0.024936999888710457 0 -0.0075983744717683334 -0.025549709567716825 0 -0.0066032526574222004 -0.025330998546926206 0 -0.0071294691407073141 -0.025307738800887901 0 -0.0069010956365878279 -0.024937194453872262 0 -0.0064906884033632149 -0.024793548258645427 0 -0.0069010956365878279 -0.024937194453872262 0 -0.0067593737110502455 -0.024642329168891589 0 -0.0069010956365878279 -0.024937194453872262 0 -0.0069333323524676978 -0.024431131436107846 0 -0.0067593737110502455 -0.024642329168891589 0 -0.0069010956365878279 -0.024937194453872262 0 -0.0069333323524676978 -0.024431131436107846 0 -0.0072027525294840414 -0.024608452990239511 0 -0.0066407045165110092 -0.024460868123664992 0 -0.0069333323524676978 -0.024431131436107846 0 -0.0067593737110502455 -0.024642329168891589 0 -0.0066407045165110092 -0.024460868123664992 0 -0.0069333323524676978 -0.024431131436107846 0 -0.0067547734691739639 -0.024196377353048477 0 -0.0069333323524676978 -0.024431131436107846 0 -0.0067547734691739639 -0.024196377353048477 0 -0.0070261527562159049 -0.024171738583176769 0 -0.0068497638893963804 -0.023809482208739612 0 -0.0067547734691739639 -0.024196377353048477 0 -0.0070261527562159049 -0.024171738583176769 0 -0.0068497638893963804 -0.023809482208739612 0 -0.0069536690285511658 -0.023692882102897734 0 -0.0070261527562159049 -0.024171738583176769 0 -0.0069536690285511658 -0.023692882102897734 0 -0.0070261527562159049 -0.024171738583176769 0 -0.0076447110874173175 -0.024531226309269544 0 -0.0069536690285511658 -0.023692882102897734 0 -0.0070854788826509758 -0.023722972832158028 0 -0.0070934464470633913 -0.023601663734286207 0 -0.0069905669412866052 -0.023731276333158666 0 -0.0073439668657772697 -0.024064451533104669 0 -0.0070261527562159049 -0.024171738583176769 0 -0.0072027525294840414 -0.024608452990239511 0 -0.0076447110874173175 -0.024531226309269544 0 -0.0073954179292913206 -0.024936999888710457 0 -0.0069010956365878279 -0.024937194453872262 0 -0.0072027525294840414 -0.024608452990239511 0 -0.0069333323524676978 -0.024431131436107846 0 -0.0070261527562159049 -0.024171738583176769 0 -0.0072027525294840414 -0.024608452990239511 0 -0.0073954179292913206 -0.024936999888710457 0 -0.0072027525294840414 -0.024608452990239511 0 -0.0076447110874173175 -0.024531226309269544 0 -0.0073439668657772697 -0.024064451533104669 0 -0.0076838976450243051 -0.024973999615195031 0 -0.0070854788826509758 -0.023722972832158028 0 -0.0072700762891456999 -0.023795692483615509 0 -0.0072661876836578052 -0.024011237051519075 0 -0.0070854788826509758 -0.023722972832158028 0 -0.0072115261295618016 -0.02367018860222031 0 -0.0072700762891456999 -0.023795692483615509 0 -0.0070854788826509758 -0.023722972832158028 0 -0.0072115261295618016 -0.02367018860222031 0 -0.0070934464470633913 -0.023601663734286207 0 -0.0072115261295618016 -0.02367018860222031 0 -0.0070934464470633913 -0.023601663734286207 0 -0.0072836891380606197 -0.023502288110973154 0 -0.0075060572932482347 -0.023522498711382674 0 -0.0072836891380606197 -0.023502288110973154 0 -0.0073787570828860996 -0.023699321109553785 0 -0.0072115261295618016 -0.02367018860222031 0 -0.0072836891380606197 -0.023502288110973154 0 -0.0073787570828860996 -0.023699321109553785 0 -0.0072115261295618016 -0.02367018860222031 0 -0.0073787570828860996 -0.023699321109553785 0 -0.0072700762891456999 -0.023795692483615509 0 -0.0074217261451488175 -0.023886603350609475 0 -0.0073787570828860996 -0.023699321109553785 0 -0.0072700762891456999 -0.023795692483615509 0 -0.0074217261451488175 -0.023886603350609475 0 -0.0072700762891456999 -0.023795692483615509 0 -0.0072661876836578052 -0.024011237051519075 0 -0.0074217261451488175 -0.023886603350609475 0 -0.0075364033305585889 -0.024148447565222469 0 -0.0072661876836578052 -0.024011237051519075 0 -0.0076095671776265856 -0.025065037551367648 0 -0.0076838976450243051 -0.024973999615195031 0 -0.0073954179292913206 -0.024936999888710457 0 -0.0076447110874173175 -0.024531226309269544 0 -0.0081728291486633537 -0.025289541912979791 0 -0.0073954179292913206 -0.024936999888710457 0 -0.0080144745099827129 -0.025267324666969203 0 -0.0075983744717683334 -0.025549709567716825 0 -0.0075983744717683334 -0.025549709567716825 0 -0.0080415795560723757 -0.02580475543186795 0 -0.0078451855121406903 -0.02618064661965475 0 -0.0071930695356018353 -0.025758882362480206 0 -0.0075983744717683334 -0.025549709567716825 0 -0.0078451855121406903 -0.02618064661965475 0 -0.0080144745099827129 -0.025267324666969203 0 -0.0075983744717683334 -0.025549709567716825 0 -0.0080415795560723757 -0.02580475543186795 0 -0.0069563438483130971 -0.025421950020975762 0 -0.0076838976450243051 -0.024973999615195031 0 -0.008767984770064019 -0.02643929658311792 0 -0.0080144745099827129 -0.025267324666969203 0 -0.0080415795560723757 -0.02580475543186795 0 -0.0072668725062124163 -0.026799291678595214 0 -0.0076838976450243051 -0.024973999615195031 0 -0.008767984770064019 -0.02643929658311792 0 -0.0080415795560723757 -0.02580475543186795 0 -0.0081874587641213234 -0.026496794472398645 0 -0.0081409638143933264 -0.026871718455420749 0 -0.0081384132704955953 -0.027018919404327518 0 -0.0080265639737947883 -0.025796595266833883 0 -0.0081409638143933264 -0.026871718455420749 0 -0.0080415795560723757 -0.02580475543186795 0 -0.0081874587641213234 -0.026496794472398645 0 -0.0075853234956509662 -0.026641724328331184 0 -0.0081874587641213234 -0.026496794472398645 0 -0.0075853234956509662 -0.026641724328331184 0 -0.0083542244064430081 -0.02710868780971944 0 -0.008767984770064019 -0.02643929658311792 0 -0.0081874587641213234 -0.026496794472398645 0 -0.0083542244064430081 -0.02710868780971944 0 -0.0080081766377255118 -0.026307854783260875 0 -0.0081409638143933264 -0.026871718455420749 0 -0.0076819250138709504 -0.026921261625690394 0 -0.0074673592211454325 -0.027659455695618368 0 -0.0078322267841139642 -0.027417895132340525 0 -0.0092933301064830626 -0.027340637049810261 0 -0.0089549148481000516 -0.027914893994415602 0 -0.0086989562802052261 -0.027503076524336791 0 -0.0074673592211454325 -0.027659455695618368 0 -0.0078322267841139642 -0.027417895132340525 0 -0.0076739369617976694 -0.028049826704159994 0 -0.0081409638143933264 -0.026871718455420749 0 -0.0082343075258673962 -0.027788140671043318 0 -0.0076819250138709504 -0.026921261625690394 0 -0.0078322267841139642 -0.027417895132340525 0 -0.0083542244064430081 -0.02710868780971944 0 -0.0078322267841139642 -0.027417895132340525 0 -0.0082407884493215337 -0.027786551650472988 0 -0.0076739369617976694 -0.028049826704159994 0 -0.0078322267841139642 -0.027417895132340525 0 -0.0083542244064430081 -0.02710868780971944 0 -0.0082407884493215337 -0.027786551650472988 0 -0.0082407884493215337 -0.027786551650472988 0 -0.0076609724800001536 -0.028291178510761836 0 -0.0076739369617976694 -0.028049826704159994 0 -0.0072907656654077934 -0.027633005955975339 0 -0.0070991472959790547 -0.028097089170444452 0 -0.0064614702037037843 -0.027832722765852788 0 -0.0062607984881291826 -0.027549769785280516 0 -0.0065058007733118303 -0.028024445835556556 0 -0.0064614702037037843 -0.027832722765852788 0 -0.0065404251574264971 -0.027996173312277401 0 -0.0065058007733118303 -0.028024445835556556 0 -0.0076609724800001536 -0.028291178510761836 0 -0.0075789314785354635 -0.028284179055310953 0 -0.0076739369617976694 -0.028049826704159994 0 -0.0075789314785354635 -0.028284179055310953 0 -0.0076739369617976694 -0.028049826704159994 0 -0.0075365159450378359 -0.028208381460803671 0 -0.0074673592211454325 -0.027659455695618368 0 -0.0076739369617976694 -0.028049826704159994 0 -0.0075365159450378359 -0.028208381460803671 0 -0.0089549148481000516 -0.027914893994415602 0 -0.0085000362191629368 -0.028324384165477973 0 -0.008425733621932819 -0.027996629681402183 0 -0.0082343075258673962 -0.027788140671043318 0 -0.0080394050162807939 -0.028198886876857388 0 -0.0085000362191629368 -0.028324384165477973 0 -0.0082335638774527382 -0.028275229191968371 0 -0.008425733621932819 -0.027996629681402183 0 -0.0075789314785354635 -0.028284179055310953 0 -0.0075365159450378359 -0.028208381460803671 0 -0.0079764516032773472 -0.028282556450029677 0 -0.0080394050162807939 -0.028198886876857388 0 -0.0080079744814434139 -0.02823691754348439 0 -0.0085000362191629368 -0.028324384165477973 0 -0.0082088781721741319 -0.028338184140311532 0 -0.0079764516032773472 -0.028282556450029677 0 -0.0082088781721741319 -0.028338184140311532 0 -0.0083384478549331422 -0.028310896728857522 0 -0.0079764516032773472 -0.028282556450029677 0 -0.0082088781721741319 -0.028338184140311532 0 -0.0083384478549331422 -0.028310896728857522 0 -0.0082335638774527382 -0.028275229191968371 0 -0.0082335638774527382 -0.028275229191968371 0 -0.008425733621932819 -0.027996629681402183 0 -0.0080572310734122309 -0.028171567112103196 0 -0.0085000362191629368 -0.028324384165477973 0 -0.0082088781721741319 -0.028338184140311532 0 -0.0082335638774527382 -0.028275229191968371 0 -0.008425733621932819 -0.027996629681402183 0 -0.0086989562802052261 -0.027503076524336791 0 -0.0080845298282592008 -0.027339222981787929 0 -0.008425733621932819 -0.027996629681402183 0 -0.0080845298282592008 -0.027339222981787929 0 -0.0080572310734122309 -0.028171567112103196 0 -0.0089549148481000516 -0.027914893994415602 0 -0.008425733621932819 -0.027996629681402183 0 -0.0086989562802052261 -0.027503076524336791 0 -0.0086619766006361242 -0.026875525878620452 0 -0.0086989562802052261 -0.027503076524336791 0 -0.0080845298282592008 -0.027339222981787929 0 -0.0086619766006361242 -0.026875525878620452 0 -0.0092933301064830626 -0.027340637049810261 0 -0.0086989562802052261 -0.027503076524336791 0 -0.0071629966537853701 -0.026687112467992498 0 -0.0080845298282592008 -0.027339222981787929 0 -0.0071234012761154115 -0.027501305778163575 0 -0.0061672726261672445 -0.026551988109314095 0 -0.0071629966537853701 -0.026687112467992498 0 -0.0071234012761154115 -0.027501305778163575 0 -0.0070930678408151013 -0.02775578873007168 0 -0.0078079002684580514 -0.028044404358167931 0 -0.0088011432665178104 -0.02899654253830045 0 -0.0083994440919611443 -0.028580560010662386 0 -0.0089360639111366446 -0.028556936630539268 0 -0.0083994440919611443 -0.028580560010662386 0 -0.0085664066256471647 -0.02816907084304723 0 -0.0083451765963913366 -0.028177676990594539 0 -0.0083994440919611443 -0.028580560010662386 0 -0.0085664066256471647 -0.02816907084304723 0 -0.0089360639111366446 -0.028556936630539268 0 -0.0078079002684580514 -0.028044404358167931 0 -0.0079845656315909591 -0.028146691991141892 0 -0.0080845298282592008 -0.027339222981787929 0 -0.0071234012761154115 -0.027501305778163575 0 -0.0080572310734122309 -0.028171567112103196 0 -0.0083994440919611443 -0.028580560010662386 0 -0.0083451765963913366 -0.028177676990594539 0 -0.0080572310734122309 -0.028171567112103196 0 -0.0082335638774527382 -0.028275229191968371 0 -0.0080572310734122309 -0.028171567112103196 0 -0.0083246055024762209 -0.028236030416841886 0 -0.0083451765963913366 -0.028177676990594539 0 -0.0080572310734122309 -0.028171567112103196 0 -0.0083246055024762209 -0.028236030416841886 0 -0.0083384478549331422 -0.028310896728857522 0 -0.0082335638774527382 -0.028275229191968371 0 -0.0083246055024762209 -0.028236030416841886 0 -0.0083384478549331422 -0.028310896728857522 0 -0.0083246055024762209 -0.028236030416841886 0 -0.0085332011151682801 -0.028269805179055082 0 -0.0083384478549331422 -0.028310896728857522 0 -0.0085332011151682801 -0.028269805179055082 0 -0.0085122837931107861 -0.028230515755820834 0 -0.0085332011151682801 -0.028269805179055082 0 -0.0085680575542820721 -0.028340973109820033 0 -0.0087980667655515044 -0.028237192795518021 0 -0.01098238305618069 -0.030506055730716544 0 -0.011350093262841698 -0.030119535444824101 0 -0.011033413728567179 -0.029805430093773511 0 -0.0094734241879519954 -0.028896268008360353 0 -0.0099478788968398856 -0.029105137236338088 0 -0.0083451765963913366 -0.028177676990594539 0 -0.0083246055024762209 -0.028236030416841886 0 -0.0084847048977542971 -0.028094474226881799 0 -0.0083246055024762209 -0.028236030416841886 0 -0.0085332011151682801 -0.028269805179055082 0 -0.0085680575542820721 -0.028340973109820033 0 -0.0080977884453224038 -0.028284755358625884 0 -0.0094734241879519954 -0.028896268008360353 0 -0.0085664066256471647 -0.02816907084304723 0 -0.0083451765963913366 -0.028177676990594539 0 -0.0084847048977542971 -0.028094474226881799 0 -0.0087763295999930754 -0.027935688254796046 0 -0.0094734241879519954 -0.028896268008360353 0 -0.0085664066256471647 -0.02816907084304723 0 -0.0086068228981154727 -0.027699738320847229 0 -0.0090946476959119105 -0.028148540490230411 0 -0.0094734241879519954 -0.028896268008360353 0 -0.0096782128353044162 -0.029126348129529404 0 -0.01098238305618069 -0.030506055730716544 0 -0.011557877799853728 -0.030489705302084516 0 -0.011350093262841698 -0.030119535444824101 0 -0.0086068228981154727 -0.027699738320847229 0 -0.0092203803427640223 -0.027644607972323078 0 -0.0090946476959119105 -0.028148540490230411 0 -0.011557877799853728 -0.030489705302084516 0 -0.011350093262841698 -0.030119535444824101 0 -0.011756303825039605 -0.030022652550578312 0 -0.011350093262841698 -0.030119535444824101 0 -0.011756303825039605 -0.030022652550578312 0 -0.011442818145817275 -0.029789951042241261 0 -0.011350093262841698 -0.030119535444824101 0 -0.011442818145817275 -0.029789951042241261 0 -0.011033413728567179 -0.029805430093773511 0 -0.012398790167315574 -0.029725425007522652 0 -0.011756303825039605 -0.030022652550578312 0 -0.012155468026461036 -0.030449450928216944 0 -0.011557877799853728 -0.030489705302084516 0 -0.011756303825039605 -0.030022652550578312 0 -0.012155468026461036 -0.030449450928216944 0 -0.01537832723729874 -0.02579934974713621 0 -0.014102934782175031 -0.025646424797084656 0 -0.0092203803427640223 -0.027644607972323078 0 -0.0098516954450764468 -0.027590361307796185 0 -0.009568848103676135 -0.028319154060389023 0 -0.0096782128353044162 -0.029126348129529404 0 -0.01537832723729874 -0.02579934974713621 0 -0.0092203803427640223 -0.027644607972323078 0 -0.009568848103676135 -0.028319154060389023 0 -0.0090946476959119105 -0.028148540490230411 0 -0.0085664066256471647 -0.02816907084304723 0 -0.0090946476959119105 -0.028148540490230411 0 -0.0089360639111366446 -0.028556936630539268 0 -0.009568848103676135 -0.028319154060389023 0 -0.0090946476959119105 -0.028148540490230411 0 -0.0089360639111366446 -0.028556936630539268 0 -0.0093151700290777257 -0.02888414741777208 0 -0.0088011432665178104 -0.02899654253830045 0 -0.0089360639111366446 -0.028556936630539268 0 -0.0093151700290777257 -0.02888414741777208 0 -0.009568848103676135 -0.028319154060389023 0 -0.0089360639111366446 -0.028556936630539268 0 -0.01910107549217134 -0.023538841632039828 0 -0.018692240874003469 -0.0237015271139412 0 -0.018794092141229114 -0.023241621278112426 0 -0.014168112875188068 -0.026470244117109087 0 -0.014102934782175031 -0.025646424797084656 0 -0.012323612418373507 -0.028468466119710028 0 -0.012073410200032775 -0.027755398982283967 0 -0.011544474308844399 -0.028266135226660154 0 -0.012073410200032775 -0.027755398982283967 0 -0.011544474308844399 -0.028266135226660154 0 -0.010683483750862626 -0.027383198453521388 0 -0.011544474308844399 -0.028266135226660154 0 -0.010905176969156745 -0.028325976742162959 0 -0.010683483750862626 -0.027383198453521388 0 -0.010391028742320806 -0.028073311074690906 0 -0.010624795406187128 -0.027376863339626668 0 -0.011353097281386537 -0.028729200417962477 0 -0.011021167899006052 -0.029108470518019122 0 -0.010905176969156745 -0.028325976742162959 0 -0.011544474308844399 -0.028266135226660154 0 -0.011353097281386537 -0.028729200417962477 0 -0.011784822597979298 -0.028767197431811154 0 -0.011544474308844399 -0.028266135226660154 0 -0.011353097281386537 -0.028729200417962477 0 -0.010905176969156745 -0.028325976742162959 0 -0.011353097281386537 -0.028729200417962477 0 -0.011784822597979298 -0.028767197431811154 0 -0.0115227348579041 -0.029132941328969496 0 -0.012323612418373507 -0.028468466119710028 0 -0.011544474308844399 -0.028266135226660154 0 -0.011784822597979298 -0.028767197431811154 0 -0.012323612418373507 -0.028468466119710028 0 -0.011784822597979298 -0.028767197431811154 0 -0.012105060453530844 -0.029142287783018205 0 -0.012105060453530844 -0.029142287783018205 0 -0.011743830985427459 -0.029525562181455887 0 -0.0115227348579041 -0.029132941328969496 0 -0.011784822597979298 -0.028767197431811154 0 -0.012105060453530844 -0.029142287783018205 0 -0.0115227348579041 -0.029132941328969496 0 -0.012398790167315574 -0.029725425007522652 0 -0.011756303825039605 -0.030022652550578312 0 -0.011743830985427459 -0.029525562181455887 0 -0.012398790167315574 -0.029725425007522652 0 -0.012105060453530844 -0.029142287783018205 0 -0.011743830985427459 -0.029525562181455887 0 -0.011346821067613044 -0.02947227529371526 0 -0.011021167899006052 -0.029108470518019122 0 -0.011033413728567179 -0.029805430093773511 0 -0.011756303825039605 -0.030022652550578312 0 -0.011743830985427459 -0.029525562181455887 0 -0.011442818145817275 -0.029789951042241261 0 -0.011442818145817275 -0.029789951042241261 0 -0.011346821067613044 -0.02947227529371526 0 -0.011033413728567179 -0.029805430093773511 0 -0.011743830985427459 -0.029525562181455887 0 -0.011442818145817275 -0.029789951042241261 0 -0.011346821067613044 -0.02947227529371526 0 -0.011346821067613044 -0.02947227529371526 0 -0.0115227348579041 -0.029132941328969496 0 -0.011021167899006052 -0.029108470518019122 0 -0.011743830985427459 -0.029525562181455887 0 -0.011346821067613044 -0.02947227529371526 0 -0.0115227348579041 -0.029132941328969496 0 -0.011353097281386537 -0.028729200417962477 0 -0.0115227348579041 -0.029132941328969496 0 -0.011021167899006052 -0.029108470518019122 0 -0.009263692489890037 -0.028024403866476803 0 -0.0091871214790248644 -0.028021470358940953 0 -0.0087980667655515044 -0.028237192795518021 0 -0.009263692489890037 -0.028024403866476803 0 -0.0091871214790248644 -0.028021470358940953 0 -0.0094190668584063792 -0.028005421143019783 0 -0.0091871214790248644 -0.028021470358940953 0 -0.0092893079341785541 -0.028010841545194218 0 -0.0094190668584063792 -0.028005421143019783 0 -0.0091871214790248644 -0.028021470358940953 0 -0.0087578354479137567 -0.028174219809517703 0 -0.0086104202960362239 -0.027973904483596705 0 -0.0091871214790248644 -0.028021470358940953 0 -0.0087578354479137567 -0.028174219809517703 0 -0.0087980667655515044 -0.028237192795518021 0 -0.010142469960716282 -0.028517449613205185 0 -0.0099478788968398856 -0.029105137236338088 0 -0.0085332011151682801 -0.028269805179055082 0 -0.0087578354479137567 -0.028174219809517703 0 -0.0087980667655515044 -0.028237192795518021 0 -0.0083384478549331422 -0.028310896728857522 0 -0.0085122837931107861 -0.028230515755820834 0 -0.0084052774321776227 -0.0281040553800764 0 -0.0085332011151682801 -0.028269805179055082 0 -0.0087578354479137567 -0.028174219809517703 0 -0.0085122837931107861 -0.028230515755820834 0 -0.0087578354479137567 -0.028174219809517703 0 -0.0084052774321776227 -0.0281040553800764 0 -0.0086104202960362239 -0.027973904483596705 0 -0.0087578354479137567 -0.028174219809517703 0 -0.0085122837931107861 -0.028230515755820834 0 -0.0084052774321776227 -0.0281040553800764 0 -0.0091871214790248644 -0.028021470358940953 0 -0.0089995810021151253 -0.028019258970697861 0 -0.0092893079341785541 -0.028010841545194218 0 -0.0091535721038829149 -0.028007666731779356 0 -0.0086686153644352296 -0.027776987696193214 0 -0.0091871214790248644 -0.028021470358940953 0 -0.0086104202960362239 -0.027973904483596705 0 -0.0083580567340041604 -0.027515483320684736 0 -0.0084052774321776227 -0.0281040553800764 0 -0.0086104202960362239 -0.027973904483596705 0 -0.0082107374676168091 -0.02789124082578771 0 -0.0086104202960362239 -0.027973904483596705 0 -0.0083580567340041604 -0.027515483320684736 0 -0.0082107374676168091 -0.02789124082578771 0 -0.0092893079341785541 -0.028010841545194218 0 -0.0093266501198318343 -0.027961576742661233 0 -0.0095267796047240338 -0.027925283691627129 0 -0.0089995810021151253 -0.028019258970697861 0 -0.0092893079341785541 -0.028010841545194218 0 -0.008931152268522511 -0.027645779128652272 0 -0.0092943855719284478 -0.028002751867421939 0 -0.0091026935130727269 -0.027801241349103195 0 -0.009263692489890037 -0.028024403866476803 0 -0.0094190668584063792 -0.028005421143019783 0 -0.0098455266080718397 -0.027960063427828145 0 -0.010142469960716282 -0.028517449613205185 0 -0.010391028742320806 -0.028073311074690906 0 -0.0092893079341785541 -0.028010841545194218 0 -0.0094190668584063792 -0.028005421143019783 0 -0.0095192402859642089 -0.027978911603839966 0 -0.0094190668584063792 -0.028005421143019783 0 -0.0095192402859642089 -0.027978911603839966 0 -0.0098455266080718397 -0.027960063427828145 0 -0.0095192402859642089 -0.027978911603839966 0 -0.0098455266080718397 -0.027960063427828145 0 -0.0095267796047240338 -0.027925283691627129 0 -0.0092893079341785541 -0.028010841545194218 0 -0.0095192402859642089 -0.027978911603839966 0 -0.0095267796047240338 -0.027925283691627129 0 -0.0098455266080718397 -0.027960063427828145 0 -0.0095267796047240338 -0.027925283691627129 0 -0.0098197783950916412 -0.027641867478791486 0 -0.0098455266080718397 -0.027960063427828145 0 -0.0098197783950916412 -0.027641867478791486 0 -0.010683483750862626 -0.027383198453521388 0 -0.0093266501198318343 -0.027961576742661233 0 -0.00939739194180759 -0.027274524470541985 0 -0.0098197783950916412 -0.027641867478791486 0 -0.0093266501198318343 -0.027961576742661233 0 -0.0095267796047240338 -0.027925283691627129 0 -0.0098197783950916412 -0.027641867478791486 0 -0.008931152268522511 -0.027645779128652272 0 -0.0080309658548854326 -0.027698672923418648 0 -0.0081406590281286988 -0.026978301536751015 0 -0.0091026935130727269 -0.027801241349103195 0 -0.0083788400116300149 -0.027225774970182921 0 -0.0080309658548854326 -0.027698672923418648 0 -0.0070953020728132983 -0.027157375589327862 0 -0.0081406590281286988 -0.026978301536751015 0 -0.0077116244063705833 -0.027301372727654892 0 -0.0075583445320574535 -0.02767648484485102 0 -0.0071760671812789575 -0.027556566957760296 0 -0.0077116244063705833 -0.027301372727654892 0 -0.0075583445320574535 -0.02767648484485102 0 -0.0079567456872947986 -0.027634246840223906 0 -0.0083580567340041604 -0.027515483320684736 0 -0.0077116244063705833 -0.027301372727654892 0 -0.0079567456872947986 -0.027634246840223906 0 -0.0089995810021151253 -0.028019258970697861 0 -0.008931152268522511 -0.027645779128652272 0 -0.0080309658548854326 -0.027698672923418648 0 -0.0086686153644352296 -0.027776987696193214 0 -0.0078672141808283375 -0.027489449054091255 0 -0.0083580567340041604 -0.027515483320684736 0 -0.0079567456872947986 -0.027634246840223906 0 -0.0082107374676168091 -0.02789124082578771 0 -0.0079567456872947986 -0.027634246840223906 0 -0.0082107374676168091 -0.02789124082578771 0 -0.0078259684251842515 -0.027884364766239889 0 -0.0082107374676168091 -0.02789124082578771 0 -0.0080808842833001888 -0.028095591885890212 0 -0.0078259684251842515 -0.027884364766239889 0 -0.0084052774321776227 -0.0281040553800764 0 -0.0082107374676168091 -0.02789124082578771 0 -0.0080808842833001888 -0.028095591885890212 0 -0.0083384478549331422 -0.028310896728857522 0 -0.0080808842833001888 -0.028095591885890212 0 -0.0079764516032773472 -0.028282556450029677 0 -0.0083384478549331422 -0.028310896728857522 0 -0.0084052774321776227 -0.0281040553800764 0 -0.0080808842833001888 -0.028095591885890212 0 -0.0080808842833001888 -0.028095591885890212 0 -0.0079764516032773472 -0.028282556450029677 0 -0.00762794172764889 -0.028093719877796276 0 -0.0075789314785354635 -0.028284179055310953 0 -0.0079764516032773472 -0.028282556450029677 0 -0.00762794172764889 -0.028093719877796276 0 -0.0080808842833001888 -0.028095591885890212 0 -0.00762794172764889 -0.028093719877796276 0 -0.0078259684251842515 -0.027884364766239889 0 -0.00762794172764889 -0.028093719877796276 0 -0.0078259684251842515 -0.027884364766239889 0 -0.0071307213700576282 -0.027985764632236589 0 -0.0075583445320574535 -0.02767648484485102 0 -0.0078259684251842515 -0.027884364766239889 0 -0.0071307213700576282 -0.027985764632236589 0 -0.0075583445320574535 -0.02767648484485102 0 -0.0079567456872947986 -0.027634246840223906 0 -0.0078259684251842515 -0.027884364766239889 0 -0.0075789314785354635 -0.028284179055310953 0 -0.00762794172764889 -0.028093719877796276 0 -0.0071307213700576282 -0.027985764632236589 0 -0.0076609724800001536 -0.028291178510761836 0 -0.0075789314785354635 -0.028284179055310953 0 -0.0071307213700576282 -0.027985764632236589 0 -0.0065058007733118303 -0.028024445835556556 0 -0.0071307213700576282 -0.027985764632236589 0 -0.0066550271792418843 -0.028011262911124945 0 -0.0065404251574264971 -0.027996173312277401 0 -0.0065058007733118303 -0.028024445835556556 0 -0.0066550271792418843 -0.028011262911124945 0 -0.0070991472959790547 -0.028097089170444452 0 -0.007143487965046688 -0.027945455418643936 0 -0.0071307213700576282 -0.027985764632236589 0 -0.0066517743974684974 -0.027781493403475296 0 -0.0071760671812789575 -0.027556566957760296 0 -0.0071307213700576282 -0.027985764632236589 0 -0.0066550271792418843 -0.028011262911124945 0 -0.0066517743974684974 -0.027781493403475296 0 -0.0066517743974684974 -0.027781493403475296 0 -0.0071760671812789575 -0.027556566957760296 0 -0.0065275599932241527 -0.027365368105956706 0 -0.0075583445320574535 -0.02767648484485102 0 -0.0071307213700576282 -0.027985764632236589 0 -0.0071760671812789575 -0.027556566957760296 0 -0.0078672141808283375 -0.027489449054091255 0 -0.0071574203548034178 -0.027173093658376633 0 -0.0077116244063705833 -0.027301372727654892 0 -0.0071760671812789575 -0.027556566957760296 0 -0.0070953020728132983 -0.027157375589327862 0 -0.0071760671812789575 -0.027556566957760296 0 -0.0065275599932241527 -0.027365368105956706 0 -0.0070953020728132983 -0.027157375589327862 0 -0.0065275599932241527 -0.027365368105956706 0 -0.0070953020728132983 -0.027157375589327862 0 -0.0066098941004003658 -0.026665887654716433 0 -0.0070953020728132983 -0.027157375589327862 0 -0.0074018988647724712 -0.026439834694770931 0 -0.0081406590281286988 -0.026978301536751015 0 -0.0070953020728132983 -0.027157375589327862 0 -0.0074018988647724712 -0.026439834694770931 0 -0.0066098941004003658 -0.026665887654716433 0 -0.0074018988647724712 -0.026439834694770931 0 -0.0066098941004003658 -0.026665887654716433 0 -0.0068020733367928675 -0.025928408803858567 0 -0.0066098941004003658 -0.026665887654716433 0 -0.0068020733367928675 -0.025928408803858567 0 -0.0055881561314172551 -0.026065040754762847 0 -0.0068020733367928675 -0.025928408803858567 0 -0.0075346109848037062 -0.024999898909571251 0 -0.0061236509887696595 -0.024999972680442517 0 -0.0068020733367928675 -0.025928408803858567 0 -0.0075346109848037062 -0.024999898909571251 0 -0.0079497418135977844 -0.025757166643989089 0 -0.0075654528877107255 -0.026595402933446866 0 -0.0068573759488487068 -0.025965313445217932 0 -0.0077411316450009104 -0.026780287703101702 0 -0.0068020733367928675 -0.025928408803858567 0 -0.0079497418135977844 -0.025757166643989089 0 -0.0077411316450009104 -0.026780287703101702 0 -0.0079497418135977844 -0.025757166643989089 0 -0.0087110757984248371 -0.026075862920829772 0 -0.0079497418135977844 -0.025757166643989089 0 -0.0089456349925739771 -0.024999965542649383 0 -0.0087110757984248371 -0.026075862920829772 0 -0.0075346109848037062 -0.024999898909571251 0 -0.0079497418135977844 -0.025757166643989089 0 -0.0089456349925739771 -0.024999965542649383 0 -0.0089456349925739771 -0.024999965542649383 0 -0.0087110757984248371 -0.026075862920829772 0 -0.0096475233126299704 -0.025672584321931504 0 -0.0087110757984248371 -0.026075862920829772 0 -0.0095917923737860612 -0.026472777147316523 0 -0.0096475233126299704 -0.025672584321931504 0 -0.0087110757984248371 -0.026075862920829772 0 -0.0088958888234822609 -0.026835938066872494 0 -0.0095917923737860612 -0.026472777147316523 0 -0.0088958888234822609 -0.026835938066872494 0 -0.00939739194180759 -0.027274524470541985 0 -0.0095917923737860612 -0.026472777147316523 0 -0.0077411316450009104 -0.026780287703101702 0 -0.0088958888234822609 -0.026835938066872494 0 -0.0086128611483762465 -0.027467873663115903 0 -0.0077411316450009104 -0.026780287703101702 0 -0.0087110757984248371 -0.026075862920829772 0 -0.0088958888234822609 -0.026835938066872494 0 -0.0075654528877107255 -0.026595402933446866 0 -0.0083788400116300149 -0.027225774970182921 0 -0.0088958888234822609 -0.026835938066872494 0 -0.0086128611483762465 -0.027467873663115903 0 -0.00939739194180759 -0.027274524470541985 0 -0.0093266501198318343 -0.027961576742661233 0 -0.0086128611483762465 -0.027467873663115903 0 -0.00939739194180759 -0.027274524470541985 0 -0.00939739194180759 -0.027274524470541985 0 -0.0098197783950916412 -0.027641867478791486 0 -0.010030637437605181 -0.027015724189162968 0 -0.0098197783950916412 -0.027641867478791486 0 -0.010030637437605181 -0.027015724189162968 0 -0.010683483750862626 -0.027383198453521388 0 -0.010030637437605181 -0.027015724189162968 0 -0.010758493993814086 -0.026222928873878504 0 -0.010683483750862626 -0.027383198453521388 0 -0.010030637437605181 -0.027015724189162968 0 -0.0095917923737860612 -0.026472777147316523 0 -0.010758493993814086 -0.026222928873878504 0 -0.00939739194180759 -0.027274524470541985 0 -0.010030637437605181 -0.027015724189162968 0 -0.0095917923737860612 -0.026472777147316523 0 -0.0095917923737860612 -0.026472777147316523 0 -0.0096475233126299704 -0.025672584321931504 0 -0.010758493993814086 -0.026222928873878504 0 -0.0089456349925739771 -0.024999965542649383 0 -0.0096475233126299704 -0.025672584321931504 0 -0.010356553222633996 -0.024999947870996606 0 -0.0096475233126299704 -0.025672584321931504 0 -0.010356553222633996 -0.024999947870996606 0 -0.010758493993814086 -0.026222928873878504 0 -0.010758493993814086 -0.026222928873878504 0 -0.011767562129053699 -0.024999911131803734 0 -0.01201486991331613 -0.026281975798158188 0 -0.010356553222633996 -0.024999947870996606 0 -0.010758493993814086 -0.026222928873878504 0 -0.011767562129053699 -0.024999911131803734 0 -0.01304489144593883 -0.025986056877488371 0 -0.011767562129053699 -0.024999911131803734 0 -0.01201486991331613 -0.026281975798158188 0 -0.012666230195322965 -0.027138134402594868 0 -0.01201486991331613 -0.026281975798158188 0 -0.011634744450697008 -0.02701549280621332 0 -0.010758493993814086 -0.026222928873878504 0 -0.011634744450697008 -0.02701549280621332 0 -0.010683483750862626 -0.027383198453521388 0 -0.010758493993814086 -0.026222928873878504 0 -0.01201486991331613 -0.026281975798158188 0 -0.011634744450697008 -0.02701549280621332 0 -0.012073410200032775 -0.027755398982283967 0 -0.011634744450697008 -0.02701549280621332 0 -0.010683483750862626 -0.027383198453521388 0 -0.012666230195322965 -0.027138134402594868 0 -0.012073410200032775 -0.027755398982283967 0 -0.011634744450697008 -0.02701549280621332 0 -0.005266540180336763 -0.027640371739362023 0 -0.0049007157087373092 -0.027904257277303602 0 -0.0053865043578280028 -0.028061379628683939 0 -0.0040042513876361588 -0.027965417246192011 0 -0.0050257611120021793 -0.027691244522851009 0 -0.0040040037301514895 -0.027790194427769185 0 -0.0044465612069262495 -0.027719203887217877 0 -0.0047069921043372638 -0.028115145287367978 0 -0.005266540180336763 -0.027640371739362023 0 -0.0053865043578280028 -0.028061379628683939 0 -0.0058139089466812642 -0.028078140257936205 0 -0.0040042513876361588 -0.027965417246192011 0 -0.0053780527177449819 -0.028066282798220384 0 -0.0022687829591544781 -0.029114688429261022 0 -0.0033672694149498071 -0.028029635017858746 0 -0.0018935103438670012 -0.027940061072123407 0 -0.0040040037301514895 -0.027790194427769185 0 -0.0044465612069262495 -0.027719203887217877 0 -0.0044766309063269489 -0.027297202425976563 0 -0.0040042513876361588 -0.027965417246192011 0 -0.0037355224103042452 -0.02777968214416442 0 -0.0022687829591544781 -0.029114688429261022 0 -0.0008618818332096097 -0.028433995656158392 0 -0.0018935103438670012 -0.027940061072123407 0 -0.0040042513876361588 -0.027965417246192011 0 -0.0027503114124971988 -0.02772920302065756 0 -0.0043567271925296948 -0.026858593716104395 0 -0.0041891216524128179 -0.027603516315448679 0 -0.0035669504302756928 -0.02732504688508379 0 -0.0043567271925296948 -0.026858593716104395 0 -0.0041891216524128179 -0.027603516315448679 0 -0.004811421424588843 -0.027764227726779476 0 -0.0052545156817461114 -0.027304184841671037 0 -0.0043567271925296948 -0.026858593716104395 0 -0.004811421424588843 -0.027764227726779476 0 -0.0049007157087373092 -0.027904257277303602 0 -0.004400333941214629 -0.028231099007892065 0 -0.004847899305080729 -0.028380208133622881 0 -0.0041891216524128179 -0.027603516315448679 0 -0.004811421424588843 -0.027764227726779476 0 -0.004400333941214629 -0.028231099007892065 0 -0.0050257611120021793 -0.027691244522851009 0 -0.0043784607121722862 -0.028268389717038458 0 -0.0041891216524128179 -0.027603516315448679 0 -0.004400333941214629 -0.028231099007892065 0 -0.0037533322068673625 -0.028218020666806277 0 -0.0039204213824382463 -0.029095145878605001 0 -0.0042473904678241511 -0.028621957851968652 0 -0.0037533322068673625 -0.028218020666806277 0 -0.004400333941214629 -0.028231099007892065 0 -0.0042473904678241511 -0.028621957851968652 0 -0.0037533322068673625 -0.028218020666806277 0 -0.004400333941214629 -0.028231099007892065 0 -0.0042473904678241511 -0.028621957851968652 0 -0.004587658424102887 -0.028553356475701844 0 -0.004400333941214629 -0.028231099007892065 0 -0.004847899305080729 -0.028380208133622881 0 -0.004587658424102887 -0.028553356475701844 0 -0.0046698018601105422 -0.028895442283365252 0 -0.0042473904678241511 -0.028621957851968652 0 -0.004587658424102887 -0.028553356475701844 0 -0.0046698018601105422 -0.028895442283365252 0 -0.004587658424102887 -0.028553356475701844 0 -0.0047993691049254602 -0.028609115321255388 0 -0.0046698018601105422 -0.028895442283365252 0 -0.0047993691049254602 -0.028609115321255388 0 -0.0050114524954055807 -0.028584381315889234 0 -0.004847899305080729 -0.028380208133622881 0 -0.004587658424102887 -0.028553356475701844 0 -0.0047993691049254602 -0.028609115321255388 0 -0.004847899305080729 -0.028380208133622881 0 -0.0047993691049254602 -0.028609115321255388 0 -0.0050114524954055807 -0.028584381315889234 0 -0.0050114524954055807 -0.028584381315889234 0 -0.0053386664474673988 -0.028646025547045421 0 -0.0052421836151476681 -0.028359607325624633 0 -0.004847899305080729 -0.028380208133622881 0 -0.0050114524954055807 -0.028584381315889234 0 -0.0052421836151476681 -0.028359607325624633 0 -0.0049007157087373092 -0.027904257277303602 0 -0.0052421836151476681 -0.028359607325624633 0 -0.0053865043578280028 -0.028061379628683939 0 -0.0049007157087373092 -0.027904257277303602 0 -0.004847899305080729 -0.028380208133622881 0 -0.0052421836151476681 -0.028359607325624633 0 -0.0053865043578280028 -0.028061379628683939 0 -0.0055647006163182964 -0.028299793092195796 0 -0.0058139089466812642 -0.028078140257936205 0 -0.0052421836151476681 -0.028359607325624633 0 -0.0053865043578280028 -0.028061379628683939 0 -0.0055647006163182964 -0.028299793092195796 0 -0.0060558268368885995 -0.028490216543137607 0 -0.005924256815405593 -0.028373907136001499 0 -0.0053386664474673988 -0.028646025547045421 0 -0.0055647006163182964 -0.028299793092195796 0 -0.0058504870461754416 -0.028333855815561013 0 -0.0053386664474673988 -0.028646025547045421 0 -0.0052421836151476681 -0.028359607325624633 0 -0.0055647006163182964 -0.028299793092195796 0 -0.0056621954102039698 -0.028111091375200643 0 -0.0058504870461754416 -0.028333855815561013 0 -0.0057518140498273055 -0.028210823443252479 0 -0.0056621954102039698 -0.028111091375200643 0 -0.0057518140498273055 -0.028210823443252479 0 -0.0057086910579283862 -0.028116404713538625 0 -0.0057518140498273055 -0.028210823443252479 0 -0.0057086910579283862 -0.028116404713538625 0 -0.0055870800917470582 -0.028273252154977137 0 -0.0057518140498273055 -0.028210823443252479 0 -0.0058139089466812642 -0.028078140257936205 0 -0.0055870800917470582 -0.028273252154977137 0 -0.0053780527177449819 -0.028066282798220384 0 -0.0055006330945395069 -0.028253831927288742 0 -0.0047069921043372638 -0.028115145287367978 0 -0.0055870800917470582 -0.028273252154977137 0 -0.0051901977105701189 -0.027915953934354129 0 -0.0055647006163182964 -0.028299793092195796 0 -0.0058504870461754416 -0.028333855815561013 0 -0.0058139089466812642 -0.028078140257936205 0 -0.0058504870461754416 -0.028333855815561013 0 -0.0057518140498273055 -0.028210823443252479 0 -0.0058139089466812642 -0.028078140257936205 0 -0.0065404251574264971 -0.027996173312277401 0 -0.0066550271792418843 -0.028011262911124945 0 -0.0064704556186293066 -0.028011761291769317 0 -0.0066108723967946582 -0.027884825770005183 0 -0.0065404251574264971 -0.027996173312277401 0 -0.0064704556186293066 -0.028011761291769317 0 -0.0058045225974833938 -0.027955481824072689 0 -0.0056475415352853992 -0.028288898922993581 0 -0.0057071943334329935 -0.028143159191901034 0 -0.0062432528005361846 -0.027807242803625211 0 -0.0060690671276088966 -0.028131290734871407 0 -0.0056475415352853992 -0.028288898922993581 0 -0.0057071943334329935 -0.028143159191901034 0 -0.0055870800917470582 -0.028273252154977137 0 -0.0058045225974833938 -0.027955481824072689 0 -0.0057086910579283862 -0.028116404713538625 0 -0.0057071943334329935 -0.028143159191901034 0 -0.0057086910579283862 -0.028116404713538625 0 -0.0057071943334329935 -0.028143159191901034 0 -0.0055870800917470582 -0.028273252154977137 0 -0.0056475415352853992 -0.028288898922993581 0 -0.0055870800917470582 -0.028273252154977137 0 -0.0056977340439479749 -0.027845590578485818 0 -0.0060690671276088966 -0.028131290734871407 0 -0.0059715101188703556 -0.027704906040793661 0 -0.0066550271792418843 -0.028011262911124945 0 -0.0066517743974684974 -0.027781493403475296 0 -0.0064704556186293066 -0.028011761291769317 0 -0.0066517743974684974 -0.027781493403475296 0 -0.0064704556186293066 -0.028011761291769317 0 -0.006269014031130218 -0.027622281544170131 0 -0.0066517743974684974 -0.027781493403475296 0 -0.0065275599932241527 -0.027365368105956706 0 -0.006269014031130218 -0.027622281544170131 0 -0.0056977340439479749 -0.027845590578485818 0 -0.0051901977105701189 -0.027915953934354129 0 -0.005009008708753677 -0.027456992033945016 0 -0.0055870800917470582 -0.028273252154977137 0 -0.0056977340439479749 -0.027845590578485818 0 -0.0051901977105701189 -0.027915953934354129 0 -0.0056977340439479749 -0.027845590578485818 0 -0.005009008708753677 -0.027456992033945016 0 -0.0058233748257576524 -0.027063855751423907 0 -0.0059715101188703556 -0.027704906040793661 0 -0.0058558213236490084 -0.027071575465568792 0 -0.0065275599932241527 -0.027365368105956706 0 -0.006269014031130218 -0.027622281544170131 0 -0.0058233748257576524 -0.027063855751423907 0 -0.0044465612069262495 -0.027719203887217877 0 -0.0047069921043372638 -0.028115145287367978 0 -0.0051901977105701189 -0.027915953934354129 0 -0.0044465612069262495 -0.027719203887217877 0 -0.0051901977105701189 -0.027915953934354129 0 -0.005009008708753677 -0.027456992033945016 0 -0.0044465612069262495 -0.027719203887217877 0 -0.005009008708753677 -0.027456992033945016 0 -0.0044766309063269489 -0.027297202425976563 0 -0.0037355224103042452 -0.02777968214416442 0 -0.0047252957748709834 -0.026745427045073107 0 -0.0033672694149498071 -0.028029635017858746 0 -0.0046598330944318742 -0.026769346023705169 0 -0.003214020887870588 -0.026164557301484037 0 -0.005009008708753677 -0.027456992033945016 0 -0.0044766309063269489 -0.027297202425976563 0 -0.0046598330944318742 -0.026769346023705169 0 -0.005009008708753677 -0.027456992033945016 0 -0.0046598330944318742 -0.026769346023705169 0 -0.0058233748257576524 -0.027063855751423907 0 -0.0065275599932241527 -0.027365368105956706 0 -0.0066098941004003658 -0.026665887654716433 0 -0.0058233748257576524 -0.027063855751423907 0 -0.0046598330944318742 -0.026769346023705169 0 -0.0058233748257576524 -0.027063855751423907 0 -0.0055881561314172551 -0.026065040754762847 0 -0.0066098941004003658 -0.026665887654716433 0 -0.0058233748257576524 -0.027063855751423907 0 -0.0055881561314172551 -0.026065040754762847 0 -0.0055881561314172551 -0.026065040754762847 0 -0.0047128469701624666 -0.024999928723979218 0 -0.0061236509887696595 -0.024999972680442517 0 -0.0055881561314172551 -0.026065040754762847 0 -0.0047128469701624666 -0.024999928723979218 0 -0.0042119635402770132 -0.025788061279438564 0 -0.0068020733367928675 -0.025928408803858567 0 -0.0055881561314172551 -0.026065040754762847 0 -0.0061236509887696595 -0.024999972680442517 0 -0.0046598330944318742 -0.026769346023705169 0 -0.0042119635402770132 -0.025788061279438564 0 -0.003214020887870588 -0.026164557301484037 0 -0.0046598330944318742 -0.026769346023705169 0 -0.0055881561314172551 -0.026065040754762847 0 -0.0042119635402770132 -0.025788061279438564 0 -0.0047128469701624666 -0.024999928723979218 0 -0.0042119635402770132 -0.025788061279438564 0 -0.0033017322633260527 -0.024999892118376922 0 -0.0042119635402770132 -0.025788061279438564 0 -0.0033017322633260527 -0.024999892118376922 0 -0.003214020887870588 -0.026164557301484037 0 -0.0018905748071289885 -0.024999939023678003 0 -0.003214020887870588 -0.026164557301484037 0 -0.0019288997771354569 -0.026699739822195305 0 -0.0033017322633260527 -0.024999892118376922 0 -0.0018905748071289885 -0.024999939023678003 0 -0.003214020887870588 -0.026164557301484037 0 -0.0018905748071289885 -0.024999939023678003 0 -0.0019288997771354569 -0.026699739822195305 0 -0.00099174097847441311 -0.025905827826569482 0 -0.0033672694149498071 -0.028029635017858746 0 -0.003214020887870588 -0.026164557301484037 0 -0.0019288997771354569 -0.026699739822195305 0 -0.0033672694149498071 -0.028029635017858746 0 -0.0019288997771354569 -0.026699739822195305 0 -0.0018935103438670012 -0.027940061072123407 0 -0.0027503114124971988 -0.02772920302065756 0 -0.00056419534210989063 -0.026922628996805021 0 -0.0008618818332096097 -0.028433995656158392 0 -0.00049202969098086535 -0.026925989345021665 0 0.00051714080980852387 -0.027763249269151434 0 -0.0008618818332096097 -0.028433995656158392 0 -0.0018935103438670012 -0.027940061072123407 0 -0.00049202969098086535 -0.026925989345021665 0 -0.0019288997771354569 -0.026699739822195305 0 -0.0018935103438670012 -0.027940061072123407 0 -0.00049202969098086535 -0.026925989345021665 0 -0.00049202969098086535 -0.026925989345021665 0 -0.00099174097847441311 -0.025905827826569482 0 0.00016930106657777659 -0.025671754282308522 0 -0.0019288997771354569 -0.026699739822195305 0 -0.00049202969098086535 -0.026925989345021665 0 -0.00099174097847441311 -0.025905827826569482 0 -0.0018905748071289885 -0.024999939023678003 0 -0.00099174097847441311 -0.025905827826569482 0 -0.00047950725749273769 -0.024999989623913543 0 -0.00099174097847441311 -0.025905827826569482 0 -0.00047950725749273769 -0.024999989623913543 0 0.00016930106657777659 -0.025671754282308522 0 0.00016930106657777659 -0.025671754282308522 0 0.00094467670747415031 -0.025113275330206387 0 0.00072449246844420354 -0.0264265879140239 0 -0.00047950725749273769 -0.024999989623913543 0 0.00016930106657777659 -0.025671754282308522 0 0.00093149774442398685 -0.024999983934962437 0 0.00016930106657777659 -0.025671754282308522 0 0.00094467670747415031 -0.025113275330206387 0 0.00093149774442398685 -0.024999983934962437 0 0.00096190815703868396 -0.025114129553837048 0 0.0018213754974519575 -0.024999980410762821 0 0.0015634303570360218 -0.025769641014348921 0 0.00096190815703868396 -0.025114129553837048 0 0.00093170349534482015 -0.024999998442936846 0 0.0018213754974519575 -0.024999980410762821 0 0.00098967571374571225 -0.025228701154700064 0 0.00093171570786421739 -0.025000455967578463 0 0.00098967571374571225 -0.025228701154700064 0 0.0012697075256477648 -0.026333580297044912 0 0.00098967571374571225 -0.025228701154700064 0 0.0010250774766468911 -0.026413074139364865 0 0.00096190815703868396 -0.025114129553837048 0 0.0015634303570360218 -0.025769641014348921 0 0.0012856250599870172 -0.026334792552251685 0 0.0011229539728575542 -0.025439007317590964 0 0.0010107164586230588 -0.026224872822473166 0 0.0012484371711722342 -0.026309031793454646 0 0.0015634303570360218 -0.025769641014348921 0 0.001653303648977337 -0.026302306470336725 0 0.0012856250599870172 -0.026334792552251685 0 -0.00049202969098086535 -0.026925989345021665 0 0.00016930106657777659 -0.025671754282308522 0 0.00072449246844420354 -0.0264265879140239 0 0.0026787757799754432 -0.025000070952042923 0 0.0033070259176468156 -0.025812951530408811 0 0.0035335163155839487 -0.025540146315237412 0 0.0026774429189359659 -0.025000032108228314 0 0.0026951805363032524 -0.025949042333743708 0 0.0018213754974519575 -0.024999980410762821 0 0.0015634303570360218 -0.025769641014348921 0 0.0020922015170941935 -0.026198155773936246 0 0.0026771176575244968 -0.02499996402988457 0 0.0018213754974519575 -0.024999980410762821 0 0.0020922015170941935 -0.026198155773936246 0 0.0015634303570360218 -0.025769641014348921 0 0.0020922015170941935 -0.026198155773936246 0 0.001653303648977337 -0.026302306470336725 0 0.0033070259176468156 -0.025812951530408811 0 0.0038539734826038563 -0.026037542494104369 0 0.0035335163155839487 -0.025540146315237412 0 0.0033070259176468156 -0.025812951530408811 0 0.0038850942460305509 -0.026203940846171319 0 0.0038539734826038563 -0.026037542494104369 0 0.0020922015170941935 -0.026198155773936246 0 0.001653303648977337 -0.026302306470336725 0 0.0016302903602239845 -0.02700836789530054 0 0.0026951805363032524 -0.025949042333743708 0 0.0025588184036722749 -0.02659788286822334 0 0.0033070259176468156 -0.025812951530408811 0 0.0034806788166321877 -0.026199734047168591 0 0.0038850942460305509 -0.026203940846171319 0 0.0034806788166321877 -0.026199734047168591 0 0.0038850942460305509 -0.026203940846171319 0 0.0036323987857597648 -0.026366799984790058 0 -0.00049202969098086535 -0.026925989345021665 0 0.00072449246844420354 -0.0264265879140239 0 0.00051714080980852387 -0.027763249269151434 0 0.0010250774766468911 -0.026413074139364865 0 -0.00056419534210989063 -0.026922628996805021 0 0.0012697075256477648 -0.026333580297044912 0 0.0013771975661442891 -0.027105667136087461 0 0.0010107164586230588 -0.026224872822473166 0 0.0012670915164277048 -0.026812441728786322 0 0.00089651397013653354 -0.026987265801333354 0 0.0010107164586230588 -0.026224872822473166 0 0.0012484371711722342 -0.026309031793454646 0 0.0012670915164277048 -0.026812441728786322 0 0.001653303648977337 -0.026302306470336725 0 0.0016302903602239845 -0.02700836789530054 0 0.0012856250599870172 -0.026334792552251685 0 0.0016302903602239845 -0.02700836789530054 0 0.0012856250599870172 -0.026334792552251685 0 0.0013821452008469398 -0.02714184726166452 0 0.0012484371711722342 -0.026309031793454646 0 0.0012670915164277048 -0.026812441728786322 0 0.0013821452008469398 -0.02714184726166452 0 0.0014768535409069173 -0.026598999180565647 0 -0.00056419534210989063 -0.026922628996805021 0 0.0012670915164277048 -0.026812441728786322 0 0.0013821452008469398 -0.02714184726166452 0 0.0011782560448175246 -0.027088176065945723 0 0.0012670915164277048 -0.026812441728786322 0 0.0011782560448175246 -0.027088176065945723 0 0.00095981257364177166 -0.026996463735058453 0 0.00095981257364177166 -0.026996463735058453 0 0.00089609229795503144 -0.027575354004041253 0 0.0011176325233622423 -0.027367054672309502 0 -0.0043567271925296948 -0.026858593716104395 0 -0.0033891924524604533 -0.02640146707967984 0 -0.0035669504302756928 -0.02732504688508379 0 -0.00056419534210989063 -0.026922628996805021 0 -0.0014548254058396155 -0.02737386831169825 0 0.00089609229795503144 -0.027575354004041253 0 0.0012953513881806785 -0.027594639491658749 0 0.0011176325233622423 -0.027367054672309502 0 0.00089609229795503144 -0.027575354004041253 0 0.0012953513881806785 -0.027594639491658749 0 0.00099301988230453557 -0.027804793953299246 0 0.0016302903602239845 -0.02700836789530054 0 0.0013821452008469398 -0.02714184726166452 0 0.0012953513881806785 -0.027594639491658749 0 0.0013821452008469398 -0.02714184726166452 0 0.0012953513881806785 -0.027594639491658749 0 0.0011176325233622423 -0.027367054672309502 0 0.0011782560448175246 -0.027088176065945723 0 0.00095981257364177166 -0.026996463735058453 0 0.0011176325233622423 -0.027367054672309502 0 0.0013821452008469398 -0.02714184726166452 0 0.0011782560448175246 -0.027088176065945723 0 0.0011176325233622423 -0.027367054672309502 0 0.0034806788166321877 -0.026199734047168591 0 0.003423530177304858 -0.02652972961704388 0 0.0036323987857597648 -0.026366799984790058 0 0.0025588184036722749 -0.02659788286822334 0 0.0023291028517527746 -0.027029968889670734 0 0.003423530177304858 -0.02652972961704388 0 0.0036323987857597648 -0.026366799984790058 0 0.0036988878576910706 -0.026499722415123775 0 0.0038850942460305509 -0.026203940846171319 0 0.0044348988360365486 -0.025867129717583474 0 0.004220312047605799 -0.025985289582902523 0 0.003928558529486979 -0.026159116343367674 0 0.0040511666932934766 -0.026160639010039368 0 0.0038850942460305509 -0.026203940846171319 0 0.0036323987857597648 -0.026366799984790058 0 0.0036988878576910706 -0.026499722415123775 0 0.0040511666932934766 -0.026160639010039368 0 0.0041025504772562284 -0.02600193515988344 0 0.003423530177304858 -0.02652972961704388 0 0.0036988878576910706 -0.026499722415123775 0 0.0035055012494828665 -0.026622376176797073 0 0.0035055012494828665 -0.026622376176797073 0 0.0034899853592798027 -0.026702107530776845 0 0.0033654269045171894 -0.026688188701001366 0 0.0035055012494828665 -0.026622376176797073 0 0.0036012206616158476 -0.026648574053769487 0 0.0034899853592798027 -0.026702107530776845 0 0.0044348988360365486 -0.025867129717583474 0 0.0046366271039985935 -0.025447895969969887 0 0.0044569633860096032 -0.025467281897898226 0 0.0036988878576910706 -0.026499722415123775 0 0.0035055012494828665 -0.026622376176797073 0 0.0036012206616158476 -0.026648574053769487 0 0.0046366271039985935 -0.025447895969969887 0 0.0045627961681961185 -0.025288013965991403 0 0.0044569633860096032 -0.025467281897898226 0 0.0036012206616158476 -0.026648574053769487 0 0.0034899853592798027 -0.026702107530776845 0 0.0035381785683068104 -0.026749055597858916 0 0.0041025504772562284 -0.02600193515988344 0 0.004224679819040544 -0.02616507223517648 0 0.0046366271039985935 -0.025447895969969887 0 0.0045627961681961185 -0.025288013965991403 0 0.0046581038905326895 -0.025187168703467679 0 0.0034899853592798027 -0.026702107530776845 0 0.0034829899530770697 -0.026750593496790823 0 0.0035381785683068104 -0.026749055597858916 0 0.0034899853592798027 -0.026702107530776845 0 0.0034097365026003164 -0.026767662642531644 0 0.0034829899530770697 -0.026750593496790823 0 0.0034899853592798027 -0.026702107530776845 0 0.0033654269045171894 -0.026688188701001366 0 0.0034097365026003164 -0.026767662642531644 0 0.0010585224195967925 -0.028018497530455735 0 0.00087488366309845941 -0.028178168234922165 0 0.0008814398621089846 -0.02836577850440844 0 -0.00430611031289039 -0.027803146324912195 0 -0.001123814877082286 -0.028275036352702669 0 0.00073544899747749067 -0.028331961534603552 0 0.00087488366309845941 -0.028178168234922165 0 0.00082523571759657354 -0.027993385278461441 0 0.0010585224195967925 -0.028018497530455735 0 0.00087488366309845941 -0.028178168234922165 0 0.00082523571759657354 -0.027993385278461441 0 0.0010585224195967925 -0.028018497530455735 0 0.00082523571759657354 -0.027993385278461441 0 0.00099301988230453557 -0.027804793953299246 0 0.00089609229795503144 -0.027575354004041253 0 0.00082523571759657354 -0.027993385278461441 0 0.00099301988230453557 -0.027804793953299246 0 -0.0041891216524128179 -0.027603516315448679 0 -0.0035669504302756928 -0.02732504688508379 0 -0.0037533322068673625 -0.028218020666806277 0 -0.0014548254058396155 -0.02737386831169825 0 -0.001123814877082286 -0.028275036352702669 0 0.0023291028517527746 -0.027029968889670734 0 0.0024618574385014765 -0.027483879230988981 0 0.0012953513881806785 -0.027594639491658749 0 0.0010585224195967925 -0.028018497530455735 0 0.00099301988230453557 -0.027804793953299246 0 0.003423530177304858 -0.02652972961704388 0 0.0035055012494828665 -0.026622376176797073 0 0.0033654269045171894 -0.026688188701001366 0 0.0042097082265480238 -0.025517715655888094 0 0.0039873741615047012 -0.025384774889336419 0 0.0043341333188831113 -0.025190080845925583 0 0.0039873741615047012 -0.025384774889336419 0 0.0036640079499288577 -0.025403860931919407 0 0.0038018720999995217 -0.025006743933742373 0 0.0039873741615047012 -0.025384774889336419 0 0.0043341333188831113 -0.025190080845925583 0 0.0038018720999995217 -0.025006743933742373 0 0.0043341333188831113 -0.025190080845925583 0 0.0038018720999995217 -0.025006743933742373 0 0.0039717006692868047 -0.024487449331310394 0 0.0043341333188831113 -0.025190080845925583 0 0.0044125731087037512 -0.025318305038018078 0 0.0044768824532863041 -0.025114334583100705 0 0.0044125731087037512 -0.025318305038018078 0 0.0045627961681961185 -0.025288013965991403 0 0.0045632993197061138 -0.025157456524816438 0 0.0045828654760775587 -0.025250485996444461 0 0.0046243951756971217 -0.025114998154126433 0 0.0044125731087037512 -0.025318305038018078 0 0.0045632993197061138 -0.025157456524816438 0 0.0044768824532863041 -0.025114334583100705 0 0.0044125731087037512 -0.025318305038018078 0 0.0044569633860096032 -0.025467281897898226 0 0.0043006298814862723 -0.025672046354573895 0 0.0044125731087037512 -0.025318305038018078 0 0.0045627961681961185 -0.025288013965991403 0 0.0044569633860096032 -0.025467281897898226 0 0.0042097082265480238 -0.025517715655888094 0 0.0044125731087037512 -0.025318305038018078 0 0.0043006298814862723 -0.025672046354573895 0 0.0042097082265480238 -0.025517715655888094 0 0.0043341333188831113 -0.025190080845925583 0 0.0044125731087037512 -0.025318305038018078 0 0.0042097082265480238 -0.025517715655888094 0 0.0043006298814862723 -0.025672046354573895 0 0.0041282929594391319 -0.025883798174872793 0 0.0043006298814862723 -0.025672046354573895 0 0.004220312047605799 -0.025985289582902523 0 0.0041282929594391319 -0.025883798174872793 0 0.0044348988360365486 -0.025867129717583474 0 0.0044569633860096032 -0.025467281897898226 0 0.0043006298814862723 -0.025672046354573895 0 0.0044348988360365486 -0.025867129717583474 0 0.0043006298814862723 -0.025672046354573895 0 0.004220312047605799 -0.025985289582902523 0 0.004220312047605799 -0.025985289582902523 0 0.0041282929594391319 -0.025883798174872793 0 0.0041154031875705946 -0.026199488750672878 0 0.0041282929594391319 -0.025883798174872793 0 0.0039530335419174492 -0.025896257258664568 0 0.0040580111063966686 -0.026050481369435521 0 0.0041282929594391319 -0.025883798174872793 0 0.0040193417288157049 -0.025704340732974416 0 0.0039530335419174492 -0.025896257258664568 0 0.0042097082265480238 -0.025517715655888094 0 0.0039873741615047012 -0.025384774889336419 0 0.0040193417288157049 -0.025704340732974416 0 0.0042097082265480238 -0.025517715655888094 0 0.0041282929594391319 -0.025883798174872793 0 0.0040193417288157049 -0.025704340732974416 0 0.0039873741615047012 -0.025384774889336419 0 0.0040193417288157049 -0.025704340732974416 0 0.0038664858327220292 -0.025583228138308836 0 0.0039873741615047012 -0.025384774889336419 0 0.0038664858327220292 -0.025583228138308836 0 0.0036640079499288577 -0.025403860931919407 0 0.0040193417288157049 -0.025704340732974416 0 0.0038664858327220292 -0.025583228138308836 0 0.0038379780095590416 -0.025758390332202157 0 0.0038664858327220292 -0.025583228138308836 0 0.0038379780095590416 -0.025758390332202157 0 0.0036771422305908463 -0.02567759041909283 0 0.0039530335419174492 -0.025896257258664568 0 0.0038379780095590416 -0.025758390332202157 0 0.0037174287334866018 -0.025891007159344934 0 0.0040193417288157049 -0.025704340732974416 0 0.0039530335419174492 -0.025896257258664568 0 0.0038379780095590416 -0.025758390332202157 0 0.0039530335419174492 -0.025896257258664568 0 0.0038045250540346453 -0.026080797122262741 0 0.0037174287334866018 -0.025891007159344934 0 0.004695630193572508 -0.026328034973898146 0 0.0044623020435551131 -0.026278340846949223 0 0.0039530335419174492 -0.025896257258664568 0 0.0038045250540346453 -0.026080797122262741 0 0.0040580111063966686 -0.026050481369435521 0 0.0047987927847357587 -0.026538094760438936 0 0.0043371746668417494 -0.026150601973280188 0 0.0049527098248588301 -0.02582308224939011 0 0.0047987927847357587 -0.026538094760438936 0 0.0055100118606632061 -0.026055204558094999 0 0.0049527098248588301 -0.02582308224939011 0 0.0057577105058054809 -0.026533350814142237 0 0.0047987927847357587 -0.026538094760438936 0 0.0055100118606632061 -0.026055204558094999 0 0.0057577105058054809 -0.026533350814142237 0 0.0055100118606632061 -0.026055204558094999 0 0.005966082282601079 -0.026193526756439395 0 0.0038850942460305509 -0.026203940846171319 0 0.004220312047605799 -0.025985289582902523 0 0.0041154031875705946 -0.026199488750672878 0 0.0038850942460305509 -0.026203940846171319 0 0.0041154031875705946 -0.026199488750672878 0 0.0038539734826038563 -0.026037542494104369 0 0.0041282929594391319 -0.025883798174872793 0 0.0040580111063966686 -0.026050481369435521 0 0.0041154031875705946 -0.026199488750672878 0 0.0047987927847357587 -0.026538094760438936 0 0.0041154031875705946 -0.026199488750672878 0 0.0043371746668417494 -0.026150601973280188 0 0.0044623020435551131 -0.026278340846949223 0 0.0041608770172354296 -0.026221649407245161 0 0.0043371746668417494 -0.026150601973280188 0 0.0038539734826038563 -0.026037542494104369 0 0.0040279970486231933 -0.025836951150019764 0 0.0041154031875705946 -0.026199488750672878 0 0.0043371746668417494 -0.026150601973280188 0 0.0038539734826038563 -0.026037542494104369 0 0.0040279970486231933 -0.025836951150019764 0 0.0035335163155839487 -0.025540146315237412 0 0.0044256990816803907 -0.025546806514670489 0 0.0038539734826038563 -0.026037542494104369 0 0.0040279970486231933 -0.025836951150019764 0 0.0035335163155839487 -0.025540146315237412 0 0.0043371746668417494 -0.026150601973280188 0 0.0044256990816803907 -0.025546806514670489 0 0.0049527098248588301 -0.02582308224939011 0 0.0043371746668417494 -0.026150601973280188 0 0.0040279970486231933 -0.025836951150019764 0 0.0044256990816803907 -0.025546806514670489 0 0.0044256990816803907 -0.025546806514670489 0 0.0037973052585918098 -0.024999825651352572 0 0.0049176778949932979 -0.024999861215444591 0 0.0026787757799754432 -0.025000070952042923 0 0.0035335163155839487 -0.025540146315237412 0 0.0037973052585918098 -0.024999825651352572 0 0.0035335163155839487 -0.025540146315237412 0 0.0044256990816803907 -0.025546806514670489 0 0.0037973052585918098 -0.024999825651352572 0 0.0055100118606632061 -0.026055204558094999 0 0.0055796154874565409 -0.025527363613744167 0 0.0049527098248588301 -0.02582308224939011 0 0.0055100118606632061 -0.026055204558094999 0 0.0055796154874565409 -0.025527363613744167 0 0.0060270163807288092 -0.025757933626144328 0 0.0044256990816803907 -0.025546806514670489 0 0.0049527098248588301 -0.02582308224939011 0 0.0049176778949932979 -0.024999861215444591 0 0.0055796154874565409 -0.025527363613744167 0 0.0049527098248588301 -0.02582308224939011 0 0.0049176778949932979 -0.024999861215444591 0 0.0055796154874565409 -0.025527363613744167 0 0.0049176778949932979 -0.024999861215444591 0 0.0060364933541396286 -0.024999919847782808 0 0.0055796154874565409 -0.025527363613744167 0 0.0060364933541396286 -0.024999919847782808 0 0.0060270163807288092 -0.025757933626144328 0 0.0060375794912187969 -0.02500010894878996 0 0.0066007323063023747 -0.025870174095778783 0 0.006037626758141768 -0.025000008496128285 0 0.0072247267336779993 -0.025513022018005919 0 0.0073360473194615458 -0.024999908795578181 0 0.006037626758141768 -0.025000008496128285 0 0.007058301410462659 -0.026063110524673121 0 0.0072247267336779993 -0.025513022018005919 0 0.0060364933541396286 -0.024999919847782808 0 0.006158085377733831 -0.025744671197944404 0 0.0060270163807288092 -0.025757933626144328 0 0.007058301410462659 -0.026063110524673121 0 0.0077491927607522063 -0.025930670616556527 0 0.008006856018863525 -0.026429327223187592 0 0.007058301410462659 -0.026063110524673121 0 0.0077491927607522063 -0.025930670616556527 0 0.0072247267336779993 -0.025513022018005919 0 0.0077491927607522063 -0.025930670616556527 0 0.0072247267336779993 -0.025513022018005919 0 0.0079107775953208628 -0.025552562654627308 0 0.0072247267336779993 -0.025513022018005919 0 0.0073360473194615458 -0.024999908795578181 0 0.0079107775953208628 -0.025552562654627308 0 0.0073360473194615458 -0.024999908795578181 0 0.0079107775953208628 -0.025552562654627308 0 0.0086343528585842762 -0.024999964297010388 0 0.0079107775953208628 -0.025552562654627308 0 0.0086343528585842762 -0.024999964297010388 0 0.0084139789189171844 -0.026027045700244601 0 0.0086343528585842762 -0.024999964297010388 0 0.0092110813376746793 -0.025874527167664516 0 0.0099321247200201308 -0.0250000393311181 0 0.0086343528585842762 -0.024999964297010388 0 0.0092110813376746793 -0.025874527167664516 0 0.0084139789189171844 -0.026027045700244601 0 0.0092110813376746793 -0.025874527167664516 0 0.0084139789189171844 -0.026027045700244601 0 0.0088776894253577276 -0.026436443225913667 0 0.0092110813376746793 -0.025874527167664516 0 0.0088776894253577276 -0.026436443225913667 0 0.0093846647523142396 -0.026535096163612566 0 0.0077491927607522063 -0.025930670616556527 0 0.0079107775953208628 -0.025552562654627308 0 0.0084139789189171844 -0.026027045700244601 0 0.0077491927607522063 -0.025930670616556527 0 0.0084139789189171844 -0.026027045700244601 0 0.008006856018863525 -0.026429327223187592 0 0.0084139789189171844 -0.026027045700244601 0 0.008006856018863525 -0.026429327223187592 0 0.0084476256074739464 -0.026522783033871844 0 0.008006856018863525 -0.026429327223187592 0 0.0084476256074739464 -0.026522783033871844 0 0.0082414626642740591 -0.026654371578331979 0 0.0084139789189171844 -0.026027045700244601 0 0.0084476256074739464 -0.026522783033871844 0 0.0088776894253577276 -0.026436443225913667 0 0.0084476256074739464 -0.026522783033871844 0 0.0084156854323317667 -0.026758668247479259 0 0.0082414626642740591 -0.026654371578331979 0 0.0084476256074739464 -0.026522783033871844 0 0.0084156854323317667 -0.026758668247479259 0 0.00870554044228628 -0.026714154521355338 0 0.0084156854323317667 -0.026758668247479259 0 0.00870554044228628 -0.026714154521355338 0 0.0086675113091197915 -0.026933249782420659 0 0.0084156854323317667 -0.026758668247479259 0 0.0082414626642740591 -0.026654371578331979 0 0.0080887165435045826 -0.026901626347044197 0 0.008006856018863525 -0.026429327223187592 0 0.0082414626642740591 -0.026654371578331979 0 0.0080887165435045826 -0.026901626347044197 0 0.0084476256074739464 -0.026522783033871844 0 0.0088776894253577276 -0.026436443225913667 0 0.00870554044228628 -0.026714154521355338 0 0.0088776894253577276 -0.026436443225913667 0 0.00870554044228628 -0.026714154521355338 0 0.0090363838319962586 -0.026817435722169092 0 0.0088776894253577276 -0.026436443225913667 0 0.0090363838319962586 -0.026817435722169092 0 0.0093846647523142396 -0.026535096163612566 0 0.00870554044228628 -0.026714154521355338 0 0.0090363838319962586 -0.026817435722169092 0 0.0086675113091197915 -0.026933249782420659 0 0.0090363838319962586 -0.026817435722169092 0 0.0090230454911070703 -0.027115228573984494 0 0.0086675113091197915 -0.026933249782420659 0 0.0090230454911070703 -0.027115228573984494 0 0.0086675113091197915 -0.026933249782420659 0 0.0086888647539416462 -0.027077366797215955 0 0.0090230454911070703 -0.027115228573984494 0 0.0086888647539416462 -0.027077366797215955 0 0.0089311599803453944 -0.027364093791137821 0 0.0090363838319962586 -0.026817435722169092 0 0.0090230454911070703 -0.027115228573984494 0 0.0093856535666945948 -0.027089705417080476 0 0.0063148865098593219 -0.026072756858383127 0 0.0062734805830278037 -0.026064190203904318 0 0.0063149821500850765 -0.026114983572025567 0 0.0063148865098593219 -0.026072756858383127 0 0.0063149821500850765 -0.026114983572025567 0 0.0063161557234739495 -0.026121340640732533 0 0.0080887165435045826 -0.026901626347044197 0 0.0086888647539416462 -0.027077366797215955 0 0.0089311599803453944 -0.027364093791137821 0 0.0072036614884740972 -0.026480235254120348 0 0.0075496029591443558 -0.026683109786438369 0 0.0053512103770680698 -0.026111820691294529 0 0.0046444954309042457 -0.025934018409835429 0 0.0084156854323317667 -0.026758668247479259 0 0.0080887165435045826 -0.026901626347044197 0 0.0086675113091197915 -0.026933249782420659 0 0.0080887165435045826 -0.026901626347044197 0 0.0086675113091197915 -0.026933249782420659 0 0.0086888647539416462 -0.027077366797215955 0 0.0034070688560552012 -0.025984678009528386 0 0.0033423940572362182 -0.025870360484464651 0 0.0031454429840755607 -0.025830878427553917 0 0.0034070688560552012 -0.025984678009528386 0 0.0034409379834325648 -0.026149459899585985 0 0.0031454429840755607 -0.025830878427553917 0 0.0034070688560552012 -0.025984678009528386 0 0.0034550109938655481 -0.025886580400983131 0 0.0033423940572362182 -0.025870360484464651 0 0.0034070688560552012 -0.025984678009528386 0 0.0035663522208602611 -0.025982708999096143 0 0.0034409379834325648 -0.026149459899585985 0 0.0034070688560552012 -0.025984678009528386 0 0.0035663522208602611 -0.025982708999096143 0 0.0034550109938655481 -0.025886580400983131 0 0.0035663522208602611 -0.025982708999096143 0 0.0035456140305269316 -0.025810267146875749 0 0.0034550109938655481 -0.025886580400983131 0 0.0038045250540346453 -0.026080797122262741 0 0.0035663522208602611 -0.025982708999096143 0 0.0034409379834325648 -0.026149459899585985 0 0.0038045250540346453 -0.026080797122262741 0 0.0035663522208602611 -0.025982708999096143 0 0.0037174287334866018 -0.025891007159344934 0 0.004695630193572508 -0.026328034973898146 0 0.0053512103770680698 -0.026111820691294529 0 0.0063975019798950504 -0.025914545009516728 0 0.0053512103770680698 -0.026111820691294529 0 0.0060270163807288092 -0.025757933626144328 0 0.005966082282601079 -0.026193526756439395 0 0.0065369063861243784 -0.026417984681924397 0 0.0057577105058054809 -0.026533350814142237 0 0.005966082282601079 -0.026193526756439395 0 0.0065369063861243784 -0.026417984681924397 0 0.006158085377733831 -0.025744671197944404 0 0.0060270163807288092 -0.025757933626144328 0 0.0062499077219025697 -0.026057093422559276 0 0.0055100118606632061 -0.026055204558094999 0 0.0060270163807288092 -0.025757933626144328 0 0.005966082282601079 -0.026193526756439395 0 0.0066007323063023747 -0.025870174095778783 0 0.0072036614884740972 -0.026480235254120348 0 0.007058301410462659 -0.026063110524673121 0 0.008006856018863525 -0.026429327223187592 0 0.0080887165435045826 -0.026901626347044197 0 0.006158085377733831 -0.025744671197944404 0 0.0062820739447180139 -0.026052866116503596 0 0.0062499077219025697 -0.026057093422559276 0 0.006158085377733831 -0.025744671197944404 0 0.0063148865098593219 -0.026072756858383127 0 0.0062820739447180139 -0.026052866116503596 0 0.0063148865098593219 -0.026072756858383127 0 0.0062820739447180139 -0.026052866116503596 0 0.0062734805830278037 -0.026064190203904318 0 0.0056257916360695735 -0.026080359508312598 0 0.0053512103770680698 -0.026111820691294529 0 0.011353742041478942 -0.024999986835965174 0 0.012774725970589273 -0.024999979113014832 0 0.012503624856365742 -0.026372936224916269 0 0.011353742041478942 -0.024999986835965174 0 0.011201657970538183 -0.025968967724102319 0 0.012503624856365742 -0.026372936224916269 0 0.011201657970538183 -0.025968967724102319 0 0.011383411606043158 -0.026954832631227135 0 0.012503624856365742 -0.026372936224916269 0 0.011201657970538183 -0.025968967724102319 0 0.010234924026382347 -0.026178896417540443 0 0.011383411606043158 -0.026954832631227135 0 0.011201657970538183 -0.025968967724102319 0 0.010234924026382347 -0.026178896417540443 0 0.0099327105170879254 -0.024999989672219995 0 0.011353742041478942 -0.024999986835965174 0 0.011201657970538183 -0.025968967724102319 0 0.0099327105170879254 -0.024999989672219995 0 0.010037161580771618 -0.026108617336066082 0 0.0099326198904121886 -0.02500016918651321 0 0.0092110813376746793 -0.025874527167664516 0 0.0098459114042472543 -0.026074275068379844 0 0.0099321247200201308 -0.0250000393311181 0 0.0092110813376746793 -0.025874527167664516 0 0.0098459114042472543 -0.026074275068379844 0 0.0093846647523142396 -0.026535096163612566 0 0.0098459114042472543 -0.026074275068379844 0 0.0093846647523142396 -0.026535096163612566 0 0.0097262929349028974 -0.026868468074981142 0 0.0093846647523142396 -0.026535096163612566 0 0.0093856535666945948 -0.027089705417080476 0 0.0097262929349028974 -0.026868468074981142 0 0.0090363838319962586 -0.026817435722169092 0 0.0093846647523142396 -0.026535096163612566 0 0.0093856535666945948 -0.027089705417080476 0 0.0093856535666945948 -0.027089705417080476 0 0.0097262929349028974 -0.026868468074981142 0 0.0095881428202620571 -0.027329033781974228 0 0.010520837634145741 -0.027338370792041988 0 0.011483044973912537 -0.027972098499296511 0 0.010791900766689537 -0.028487261969376326 0 0.010114161223053104 -0.027055377347801016 0 0.010227025288111364 -0.028035435696327767 0 0.010037161580771618 -0.026108617336066082 0 0.010114161223053104 -0.027055377347801016 0 0.010234924026382347 -0.026178896417540443 0 0.010520837634145741 -0.027338370792041988 0 0.011383411606043158 -0.026954832631227135 0 0.011383411606043158 -0.026954832631227135 0 0.011483044973912537 -0.027972098499296511 0 0.012277752716168806 -0.027708288750656659 0 0.010520837634145741 -0.027338370792041988 0 0.011383411606043158 -0.026954832631227135 0 0.011483044973912537 -0.027972098499296511 0 0.011383411606043158 -0.026954832631227135 0 0.012277752716168806 -0.027708288750656659 0 0.012503624856365742 -0.026372936224916269 0 0.012290029194457531 -0.027648137856737975 0 0.012526581848418337 -0.026380094735889974 0 0.011832665868127276 -0.027800112907748992 0 0.012391666934394998 -0.029186958377 0 0.012357048982397629 -0.029378325948786515 0 0.012322933547963398 -0.028500856989035955 0 0.011613355706409159 -0.028831269622199753 0 0.012381311550844674 -0.029499587494489717 0 0.012322933547963398 -0.028500856989035955 0 0.012819966584382439 -0.028889109787025816 0 0.011483044973912537 -0.027972098499296511 0 0.012277752716168806 -0.027708288750656659 0 0.012322933547963398 -0.028500856989035955 0 0.011483044973912537 -0.027972098499296511 0 0.012322933547963398 -0.028500856989035955 0 0.011613355706409159 -0.028831269622199753 0 0.012277752716168806 -0.027708288750656659 0 0.012322933547963398 -0.028500856989035955 0 0.012791300527822791 -0.028102589902209631 0 0.011483044973912537 -0.027972098499296511 0 0.011613355706409159 -0.028831269622199753 0 0.010791900766689537 -0.028487261969376326 0 0.012357048982397629 -0.029378325948786515 0 0.011613355706409159 -0.028831269622199753 0 0.011042621142406714 -0.029614795915757563 0 0.011613355706409159 -0.028831269622199753 0 0.010791900766689537 -0.028487261969376326 0 0.011042621142406714 -0.029614795915757563 0 0.010227025288111364 -0.028035435696327767 0 0.010020499625825978 -0.027828162340190164 0 0.0094646481582846605 -0.027381293377740815 0 0.0095881428202620571 -0.027329033781974228 0 0.0094125658599662591 -0.027347082499202115 0 0.0094646481582846605 -0.027381293377740815 0 0.0095881428202620571 -0.027329033781974228 0 0.0094250558410471329 -0.027367973617651749 0 0.0093856535666945948 -0.027089705417080476 0 0.0094125658599662591 -0.027347082499202115 0 0.0092340385242009135 -0.027317523597649239 0 0.0093856535666945948 -0.027089705417080476 0 0.0095881428202620571 -0.027329033781974228 0 0.0094125658599662591 -0.027347082499202115 0 0.0090230454911070703 -0.027115228573984494 0 0.0093856535666945948 -0.027089705417080476 0 0.0092340385242009135 -0.027317523597649239 0 0.0094646481582846605 -0.027381293377740815 0 0.0094125658599662591 -0.027347082499202115 0 0.0094360506201857878 -0.027444350612303423 0 0.0094125658599662591 -0.027347082499202115 0 0.0092340385242009135 -0.027317523597649239 0 0.0094360506201857878 -0.027444350612303423 0 0.0062912705140737608 -0.026098331432016151 0 0.0062809049198172557 -0.026078889956740594 0 0.0063042317699012976 -0.026109335714039495 0 0.0081604638949164168 -0.026911482933004598 0 0.0062023002739131205 -0.026079045705458135 0 0.0024998107498530012 -0.024889453998576932 0 0.0026370918107540969 -0.024639084136232312 0 0.0029377037977704303 -0.024980274641479033 0 0.0062912705140737608 -0.026098331432016151 0 0.0062809049198172557 -0.026078889956740594 0 0.006263664406818764 -0.026054100860552203 0 0.0094360506201857878 -0.027444350612303423 0 0.0095083359315158607 -0.027033259932069294 0 0.0094522560079440179 -0.027355646088193103 0 0.0042172265614531523 -0.025275036571827468 0 0.0046316451116756308 -0.025825883113535612 0 0.0094646481582846605 -0.027381293377740815 0 0.0094360506201857878 -0.027444350612303423 0 0.0094522560079440179 -0.027355646088193103 0 0.0026370918107540969 -0.024639084136232312 0 0.0024610172156097941 -0.024459014676585317 0 0.0028185550979416604 -0.024414458058226493 0 0.0024610172156097941 -0.024459014676585317 0 0.0028185550979416604 -0.024414458058226493 0 0.0026060835232698497 -0.024135945016089889 0 0.0024998107498530012 -0.024889453998576932 0 0.0026370918107540969 -0.024639084136232312 0 0.0024610172156097941 -0.024459014676585317 0 0.0042172265614531523 -0.025275036571827468 0 0.0062023002739131205 -0.026079045705458135 0 0.0024998107498530012 -0.024889453998576932 0 0.0024610172156097941 -0.024459014676585317 0 0.0023292024009113894 -0.024463319929450285 0 0.0024610172156097941 -0.024459014676585317 0 0.002287233738369815 -0.024273866675658642 0 0.0024044279102791318 -0.024276293822422988 0 0.0024610172156097941 -0.024459014676585317 0 0.0023292024009113894 -0.024463319929450285 0 0.002287233738369815 -0.024273866675658642 0 0.0095083359315158607 -0.027033259932069294 0 0.0094333266779561154 -0.026859121941413485 0 0.009418771824644484 -0.027032268633456629 0 0.0094333266779561154 -0.026859121941413485 0 0.009418771824644484 -0.027032268633456629 0 0.0093132072244993709 -0.027063070856664359 0 0.0062023002739131205 -0.026079045705458135 0 0.0057861014877072054 -0.026047034826120679 0 0.009418771824644484 -0.027032268633456629 0 0.0094244567849425583 -0.02714752063163519 0 0.0093132072244993709 -0.027063070856664359 0 0.0095083359315158607 -0.027033259932069294 0 0.009418771824644484 -0.027032268633456629 0 0.0094244567849425583 -0.02714752063163519 0 0.0095083359315158607 -0.027033259932069294 0 0.0094244567849425583 -0.02714752063163519 0 0.0094430477908023051 -0.027256990894914856 0 0.0094244567849425583 -0.02714752063163519 0 0.0094211534792806514 -0.027267547634448157 0 0.0093132072244993709 -0.027063070856664359 0 0.0095083359315158607 -0.027033259932069294 0 0.0094430477908023051 -0.027256990894914856 0 0.0094522560079440179 -0.027355646088193103 0 0.0094211534792806514 -0.027267547634448157 0 0.0094430477908023051 -0.027256990894914856 0 0.0094242789749925619 -0.027353977672960859 0 0.0094244567849425583 -0.02714752063163519 0 0.0094211534792806514 -0.027267547634448157 0 0.0094430477908023051 -0.027256990894914856 0 0.0094430477908023051 -0.027256990894914856 0 0.0094522560079440179 -0.027355646088193103 0 0.0094481249764275434 -0.027345912197118582 0 0.0094646481582846605 -0.027381293377740815 0 0.0094522560079440179 -0.027355646088193103 0 0.0094481249764275434 -0.027345912197118582 0 0.0094646481582846605 -0.027381293377740815 0 0.0094481249764275434 -0.027345912197118582 0 0.0094242789749925619 -0.027353977672960859 0 0.0094646481582846605 -0.027381293377740815 0 0.0094242789749925619 -0.027353977672960859 0 0.0094250558410471329 -0.027367973617651749 0 0.0094211534792806514 -0.027267547634448157 0 0.0094242789749925619 -0.027353977672960859 0 0.0093551157074646309 -0.027363806276259402 0 0.0098224451857182524 -0.027797887540310505 0 0.010020499625825978 -0.027828162340190164 0 0.0094430477908023051 -0.027256990894914856 0 0.0094481249764275434 -0.027345912197118582 0 0.0094242789749925619 -0.027353977672960859 0 0.011832665868127276 -0.027800112907748992 0 0.010020499625825978 -0.027828162340190164 0 0.0094211534792806514 -0.027267547634448157 0 0.0093551157074646309 -0.027363806276259402 0 0.0093132072244993709 -0.027063070856664359 0 0.0097232375953854554 -0.026326536786737718 0 0.009390511713306347 -0.026390732297219346 0 0.0095598125602520487 -0.026506788125071956 0 0.009390511713306347 -0.026390732297219346 0 0.0094181168469127663 -0.026570112621090654 0 0.0095598125602520487 -0.026506788125071956 0 0.010020499625825978 -0.027828162340190164 0 0.0093469936562322713 -0.026645555231684836 0 0.0094333266779561154 -0.026859121941413485 0 0.0093132072244993709 -0.027063070856664359 0 0.0094415102302783868 -0.026778114240348861 0 0.0094181168469127663 -0.026570112621090654 0 0.0095443986256128731 -0.026660701151675965 0 0.0094415102302783868 -0.026778114240348861 0 0.0093469936562322713 -0.026645555231684836 0 0.0094303316617572221 -0.026860550464981089 0 0.0094181168469127663 -0.026570112621090654 0 0.0095443986256128731 -0.026660701151675965 0 0.0095598125602520487 -0.026506788125071956 0 0.0095443986256128731 -0.026660701151675965 0 0.0097225275632125165 -0.026592626991201525 0 0.0095598125602520487 -0.026506788125071956 0 0.0095443986256128731 -0.026660701151675965 0 0.0097225275632125165 -0.026592626991201525 0 0.0095874788246653915 -0.026728572719440225 0 0.014200388699562751 -0.023302594723975067 0 0.013067228022602639 -0.023845980163033024 0 0.0097232375953854554 -0.026326536786737718 0 0.0097225275632125165 -0.026592626991201525 0 0.0095598125602520487 -0.026506788125071956 0 0.011832665868127276 -0.027800112907748992 0 0.014200388699562751 -0.023302594723975067 0 0.014472946990166982 -0.026712088900327897 0 0.014278132384461368 -0.023509118452052287 0 0.014132318074714267 -0.024196947947910774 0 0.0034668498989926253 -0.02558018776494762 0 0.0033976244260892174 -0.025316762499225778 0 0.0036640079499288577 -0.025403860931919407 0 0.0034668498989926253 -0.02558018776494762 0 0.0032859815991388287 -0.025628874998547182 0 0.0032607310634617751 -0.025406293517335879 0 0.0034668498989926253 -0.02558018776494762 0 0.0032607310634617751 -0.025406293517335879 0 0.0033976244260892174 -0.025316762499225778 0 0.0038664858327220292 -0.025583228138308836 0 0.0036771422305908463 -0.02567759041909283 0 0.0036640079499288577 -0.025403860931919407 0 0.0034668498989926253 -0.02558018776494762 0 0.0036771422305908463 -0.02567759041909283 0 0.0036640079499288577 -0.025403860931919407 0 0.0034668498989926253 -0.02558018776494762 0 0.0036771422305908463 -0.02567759041909283 0 0.0035456140305269316 -0.025810267146875749 0 0.0038379780095590416 -0.025758390332202157 0 0.0036771422305908463 -0.02567759041909283 0 0.0037174287334866018 -0.025891007159344934 0 0.0036771422305908463 -0.02567759041909283 0 0.0037174287334866018 -0.025891007159344934 0 0.0035456140305269316 -0.025810267146875749 0 0.0035663522208602611 -0.025982708999096143 0 0.0037174287334866018 -0.025891007159344934 0 0.0035456140305269316 -0.025810267146875749 0 0.0035456140305269316 -0.025810267146875749 0 0.0034550109938655481 -0.025886580400983131 0 0.0033962005833323649 -0.025756209299601047 0 0.0034668498989926253 -0.02558018776494762 0 0.0035456140305269316 -0.025810267146875749 0 0.0033962005833323649 -0.025756209299601047 0 0.0034668498989926253 -0.02558018776494762 0 0.0033962005833323649 -0.025756209299601047 0 0.0032859815991388287 -0.025628874998547182 0 0.0033962005833323649 -0.025756209299601047 0 0.0032730678975120995 -0.025758289733169296 0 0.0032859815991388287 -0.025628874998547182 0 0.0033962005833323649 -0.025756209299601047 0 0.0033423940572362182 -0.025870360484464651 0 0.0032730678975120995 -0.025758289733169296 0 0.0034550109938655481 -0.025886580400983131 0 0.0033962005833323649 -0.025756209299601047 0 0.0033423940572362182 -0.025870360484464651 0 0.0033423940572362182 -0.025870360484464651 0 0.0032730678975120995 -0.025758289733169296 0 0.0031454429840755607 -0.025830878427553917 0 0.0032730678975120995 -0.025758289733169296 0 0.0031454429840755607 -0.025830878427553917 0 0.0032003020384139386 -0.025691003755305229 0 0.0031454429840755607 -0.025830878427553917 0 0.0032003020384139386 -0.025691003755305229 0 0.0030926583292416069 -0.025548220668886755 0 0.0032859815991388287 -0.025628874998547182 0 0.0032003020384139386 -0.025691003755305229 0 0.0030926583292416069 -0.025548220668886755 0 0.0032730678975120995 -0.025758289733169296 0 0.0032859815991388287 -0.025628874998547182 0 0.0032003020384139386 -0.025691003755305229 0 0.0046444954309042457 -0.025934018409835429 0 0.0046316451116756308 -0.025825883113535612 0 0.0031454429840755607 -0.025830878427553917 0 0.0028493733739492337 -0.025434700672433818 0 0.0030926583292416069 -0.025548220668886755 0 0.0063149821500850765 -0.026114983572025567 0 0.0063161557234739495 -0.026121340640732533 0 0.0063042317699012976 -0.026109335714039495 0 0.0090230454911070703 -0.027115228573984494 0 0.0092340385242009135 -0.027317523597649239 0 0.0089311599803453944 -0.027364093791137821 0 0.0092340385242009135 -0.027317523597649239 0 0.0094360506201857878 -0.027444350612303423 0 0.0089311599803453944 -0.027364093791137821 0 0.0062912705140737608 -0.026098331432016151 0 0.0063161557234739495 -0.026121340640732533 0 0.0063042317699012976 -0.026109335714039495 0 0.0081604638949164168 -0.026911482933004598 0 0.0075496029591443558 -0.026683109786438369 0 0.0028493733739492337 -0.025434700672433818 0 0.0030926583292416069 -0.025548220668886755 0 0.0030748910039742126 -0.025292624024859562 0 0.0032859815991388287 -0.025628874998547182 0 0.0030926583292416069 -0.025548220668886755 0 0.0032607310634617751 -0.025406293517335879 0 0.0030926583292416069 -0.025548220668886755 0 0.0030748910039742126 -0.025292624024859562 0 0.0032607310634617751 -0.025406293517335879 0 0.0030748910039742126 -0.025292624024859562 0 0.0031860553964793994 -0.025116251681826452 0 0.0029377037977704303 -0.024980274641479033 0 0.0030748910039742126 -0.025292624024859562 0 0.0032607310634617751 -0.025406293517335879 0 0.0031860553964793994 -0.025116251681826452 0 0.0024998107498530012 -0.024889453998576932 0 0.0028493733739492337 -0.025434700672433818 0 0.0029377037977704303 -0.024980274641479033 0 0.0028493733739492337 -0.025434700672433818 0 0.0030748910039742126 -0.025292624024859562 0 0.0029377037977704303 -0.024980274641479033 0 0.0026370918107540969 -0.024639084136232312 0 0.0029377037977704303 -0.024980274641479033 0 0.0028185550979416604 -0.024414458058226493 0 0.0029377037977704303 -0.024980274641479033 0 0.0028185550979416604 -0.024414458058226493 0 0.0033977632773451133 -0.024321188694656815 0 0.0029474995513790779 -0.024958107889096109 0 0.0032436644462134605 -0.024566086019453419 0 0.0031860553964793994 -0.025116251681826452 0 0.0029377037977704303 -0.024980274641479033 0 0.0031184141741953243 -0.024806995877232351 0 0.0031184141741953243 -0.024806995877232351 0 0.0034547319101091078 -0.024756179467794341 0 0.0034161379429808931 -0.025071153983883331 0 0.0031860553964793994 -0.025116251681826452 0 0.0031184141741953243 -0.024806995877232351 0 0.0034161379429808931 -0.025071153983883331 0 0.0031860553964793994 -0.025116251681826452 0 0.0034161379429808931 -0.025071153983883331 0 0.0033976244260892174 -0.025316762499225778 0 0.0034161379429808931 -0.025071153983883331 0 0.0033976244260892174 -0.025316762499225778 0 0.0036640079499288577 -0.025403860931919407 0 0.0032607310634617751 -0.025406293517335879 0 0.0031860553964793994 -0.025116251681826452 0 0.0033976244260892174 -0.025316762499225778 0 0.0034161379429808931 -0.025071153983883331 0 0.0036640079499288577 -0.025403860931919407 0 0.0038018720999995217 -0.025006743933742373 0 0.0034547319101091078 -0.024756179467794341 0 0.0034161379429808931 -0.025071153983883331 0 0.0038018720999995217 -0.025006743933742373 0 0.0034547319101091078 -0.024756179467794341 0 0.0033543101041462685 -0.024304742664825258 0 0.0039717006692868047 -0.024487449331310394 0 0.0034547319101091078 -0.024756179467794341 0 0.0038018720999995217 -0.025006743933742373 0 0.0039717006692868047 -0.024487449331310394 0 0.0035286090139074731 -0.024057639179393218 0 0.0038759684796400708 -0.023576555398812513 0 0.0033543101041462685 -0.024304742664825258 0 0.0038877875315853926 -0.023541793024217612 0 0.0039717006692868047 -0.024487449331310394 0 0.0036720360662184869 -0.023827118783190819 0 0.0038877875315853926 -0.023541793024217612 0 0.0035019322641735642 -0.023384047859700725 0 0.0036720360662184869 -0.023827118783190819 0 0.0032477555754068764 -0.023770478517189109 0 0.0035019322641735642 -0.023384047859700725 0 0.0031184141741953243 -0.024806995877232351 0 0.0034547319101091078 -0.024756179467794341 0 0.0033543101041462685 -0.024304742664825258 0 0.0032436644462134605 -0.024566086019453419 0 0.0035286090139074731 -0.024057639179393218 0 0.0033977632773451133 -0.024321188694656815 0 0.0036720360662184869 -0.023827118783190819 0 0.0032477555754068764 -0.023770478517189109 0 0.0033977632773451133 -0.024321188694656815 0 0.0029782520639257287 -0.024065997089935176 0 0.0032477555754068764 -0.023770478517189109 0 0.0028185550979416604 -0.024414458058226493 0 0.0029782520639257287 -0.024065997089935176 0 0.0026060835232698497 -0.024135945016089889 0 0.0028185550979416604 -0.024414458058226493 0 0.0033977632773451133 -0.024321188694656815 0 0.0029782520639257287 -0.024065997089935176 0 0.0028380785033894837 -0.02372246791071379 0 0.0032477555754068764 -0.023770478517189109 0 0.0030960768906849504 -0.023287004033037351 0 0.0029782520639257287 -0.024065997089935176 0 0.0028380785033894837 -0.02372246791071379 0 0.0032477555754068764 -0.023770478517189109 0 0.0030960768906849504 -0.023287004033037351 0 0.0034218021242075607 -0.022978072426967176 0 0.0035019322641735642 -0.023384047859700725 0 0.0032477555754068764 -0.023770478517189109 0 0.0030960768906849504 -0.023287004033037351 0 0.0035019322641735642 -0.023384047859700725 0 0.0028380785033894837 -0.02372246791071379 0 0.0030960768906849504 -0.023287004033037351 0 0.0025998079911185227 -0.023417356068538574 0 0.0030960768906849504 -0.023287004033037351 0 0.0031460216842090598 -0.022843688197725327 0 0.002715219358879918 -0.022976866339318558 0 0.0030960768906849504 -0.023287004033037351 0 0.0031460216842090598 -0.022843688197725327 0 0.0034218021242075607 -0.022978072426967176 0 0.0031460216842090598 -0.022843688197725327 0 0.0034218021242075607 -0.022978072426967176 0 0.0033897286408806513 -0.022732162394754344 0 0.0034218021242075607 -0.022978072426967176 0 0.0036095590795939712 -0.022909005576790438 0 0.0035229054989804331 -0.022747806523885049 0 0.0034218021242075607 -0.022978072426967176 0 0.0036095590795939712 -0.022909005576790438 0 0.0035019322641735642 -0.023384047859700725 0 0.0036095590795939712 -0.022909005576790438 0 0.0038877875315853926 -0.023541793024217612 0 0.0042420271919096798 -0.023027349763359888 0 0.0036095590795939712 -0.022909005576790438 0 0.0038877875315853926 -0.023541793024217612 0 0.0035019322641735642 -0.023384047859700725 0 0.016668303175341435 -0.020062016583447174 0 0.017084841316575932 -0.019873635880879204 0 0.01642886488144768 -0.019640547115548291 0 0.016127262347155089 -0.019377979689678044 0 0.016134972841197432 -0.018991541734251032 0 0.015923739858425316 -0.019052042161719625 0 0.017084841316575932 -0.019873635880879204 0 0.016242992135521672 -0.019400628418627788 0 0.01642886488144768 -0.019640547115548291 0 0.011819176060610179 -0.0221092984433949 0 0.016848600279931431 -0.019094735783675307 0 0.015950856948950126 -0.019147656968083217 0 0.015875137350553008 -0.018979295184810122 0 0.015766970086442449 -0.01902065492973045 0 0.016668303175341435 -0.020062016583447174 0 0.01642886488144768 -0.019640547115548291 0 0.01634563426933849 -0.020446144205520295 0 0.011819176060610179 -0.0221092984433949 0 0.016020581975589782 -0.019041113547190087 0 0.016668303175341435 -0.020062016583447174 0 0.016793274165264088 -0.020581539562646797 0 0.01634563426933849 -0.020446144205520295 0 0.016363321681829059 -0.021398786537226881 0 0.016793274165264088 -0.020581539562646797 0 0.01634563426933849 -0.020446144205520295 0 0.014200388699562751 -0.023302594723975067 0 0.01635741935981766 -0.019973677570823984 0 0.0095443986256128731 -0.026660701151675965 0 0.0095874788246653915 -0.026728572719440225 0 0.0095022874824174808 -0.026744937838079502 0 0.013067228022602639 -0.023845980163033024 0 0.011819176060610179 -0.0221092984433949 0 0.0095874788246653915 -0.026728572719440225 0 0.0095022874824174808 -0.026744937838079502 0 0.0094772307643248739 -0.026719446774740405 0 0.016668303175341435 -0.020062016583447174 0 0.016793274165264088 -0.020581539562646797 0 0.017084841316575932 -0.019873635880879204 0 0.0057861014877072054 -0.026047034826120679 0 0.0074554734657022691 -0.02270383738128727 0 0.0095022874824174808 -0.026744937838079502 0 0.0094415102302783868 -0.026778114240348861 0 0.0094795045691744243 -0.026718444788735463 0 0.0094333266779561154 -0.026859121941413485 0 0.0094415102302783868 -0.026778114240348861 0 0.0094795045691744243 -0.026718444788735463 0 0.0074554734657022691 -0.02270383738128727 0 0.00034261094938364161 -0.024106538472997312 0 0.002287233738369815 -0.024273866675658642 0 0.0022790569451523893 -0.024090576109379633 0 0.0023733624342760816 -0.024149996991131725 0 0.0095443986256128731 -0.026660701151675965 0 0.0095022874824174808 -0.026744937838079502 0 0.0094415102302783868 -0.026778114240348861 0 0.0019105012781581875 -0.023798128490218999 0 0.0018879864223072032 -0.023765416019278219 0 0.0022313299911083449 -0.023675225811600375 0 0.0018879864223072032 -0.023765416019278219 0 0.0022313299911083449 -0.023675225811600375 0 0.0021602333324942857 -0.023182643646286461 0 0.0019105012781581875 -0.023798128490218999 0 0.0022313299911083449 -0.023675225811600375 0 0.0023733624342760816 -0.024149996991131725 0 0.0095022874824174808 -0.026744937838079502 0 0.0094795045691744243 -0.026718444788735463 0 0.0094772307643248739 -0.026719446774740405 0 0.0074554734657022691 -0.02270383738128727 0 0.011819176060610179 -0.0221092984433949 0 0.0022313299911083449 -0.023675225811600375 0 0.0023733624342760816 -0.024149996991131725 0 0.0025180242061455752 -0.023820038248647066 0 0.0022313299911083449 -0.023675225811600375 0 0.0025180242061455752 -0.023820038248647066 0 0.0025998079911185227 -0.023417356068538574 0 0.002287233738369815 -0.024273866675658642 0 0.0024044279102791318 -0.024276293822422988 0 0.0023733624342760816 -0.024149996991131725 0 0.0024044279102791318 -0.024276293822422988 0 0.0023733624342760816 -0.024149996991131725 0 0.0026060835232698497 -0.024135945016089889 0 0.0029782520639257287 -0.024065997089935176 0 0.0028380785033894837 -0.02372246791071379 0 0.0026060835232698497 -0.024135945016089889 0 0.0023733624342760816 -0.024149996991131725 0 0.0026060835232698497 -0.024135945016089889 0 0.0025180242061455752 -0.023820038248647066 0 0.0024610172156097941 -0.024459014676585317 0 0.0024044279102791318 -0.024276293822422988 0 0.0026060835232698497 -0.024135945016089889 0 0.0028380785033894837 -0.02372246791071379 0 0.0026060835232698497 -0.024135945016089889 0 0.0025180242061455752 -0.023820038248647066 0 0.0028380785033894837 -0.02372246791071379 0 0.0025180242061455752 -0.023820038248647066 0 0.0025998079911185227 -0.023417356068538574 0 0.0030960768906849504 -0.023287004033037351 0 0.0025998079911185227 -0.023417356068538574 0 0.002715219358879918 -0.022976866339318558 0 0.0088932216508058656 -0.020992240379655785 0 0.0096602691996003024 -0.020345215942437263 0 0.002715219358879918 -0.022976866339318558 0 0.0021602333324942857 -0.023182643646286461 0 0.0024303377742592399 -0.022574062401935577 0 0.0025998079911185227 -0.023417356068538574 0 0.002715219358879918 -0.022976866339318558 0 0.0021602333324942857 -0.023182643646286461 0 0.0022313299911083449 -0.023675225811600375 0 0.0025998079911185227 -0.023417356068538574 0 0.0021602333324942857 -0.023182643646286461 0 0.016127262347155089 -0.019377979689678044 0 0.016452993257775789 -0.018834463191688199 0 0.016134972841197432 -0.018991541734251032 0 0.011819176060610179 -0.0221092984433949 0 0.0088932216508058656 -0.020992240379655785 0 0.016452993257775789 -0.018834463191688199 0 0.016039839731541435 -0.018697527873165285 0 0.016134972841197432 -0.018991541734251032 0 0.016452993257775789 -0.018834463191688199 0 0.01621823411204883 -0.018330280412131236 0 0.016871524140751729 -0.018123200180897261 0 0.016452993257775789 -0.018834463191688199 0 0.016039839731541435 -0.018697527873165285 0 0.01621823411204883 -0.018330280412131236 0 0.016039839731541435 -0.018697527873165285 0 0.01621823411204883 -0.018330280412131236 0 0.015853206887638877 -0.018478800543928545 0 0.016039839731541435 -0.018697527873165285 0 0.016134972841197432 -0.018991541734251032 0 0.015923739858425316 -0.019052042161719625 0 0.016039839731541435 -0.018697527873165285 0 0.015923739858425316 -0.019052042161719625 0 0.015763118616806286 -0.018759212892399919 0 0.015713860099662341 -0.017814402979028518 0 0.016417673752629397 -0.017597129734752925 0 0.01588741774413694 -0.017125772907409964 0 0.015898416005707034 -0.01801768509067779 0 0.0161747768554804 -0.018295779541266308 0 0.015713860099662341 -0.017814402979028518 0 0.01621823411204883 -0.018330280412131236 0 0.016417673752629397 -0.017597129734752925 0 0.01591542108829061 -0.018168739247200295 0 0.01621823411204883 -0.018330280412131236 0 0.015853206887638877 -0.018478800543928545 0 0.01621823411204883 -0.018330280412131236 0 0.016417673752629397 -0.017597129734752925 0 0.016871524140751729 -0.018123200180897261 0 0.016417673752629397 -0.017597129734752925 0 0.016871524140751729 -0.018123200180897261 0 0.017258041660786393 -0.017316308161194036 0 0.002715219358879918 -0.022976866339318558 0 0.0024303377742592399 -0.022574062401935577 0 0.0028653154756932394 -0.022528717710606237 0 0.0024303377742592399 -0.022574062401935577 0 0.0026817108173130318 -0.021868806292579656 0 0.0028653154756932394 -0.022528717710606237 0 0.0096602691996003024 -0.020345215942437263 0 0.010304362208941219 -0.019572256786074767 0 0.017258041660786393 -0.017316308161194036 0 0.01703166592933952 -0.01659724673255138 0 0.017616027304569418 -0.01655312754404788 0 0.017258041660786393 -0.017316308161194036 0 0.01703166592933952 -0.01659724673255138 0 0.016543879434694351 -0.016877692976385833 0 0.01703166592933952 -0.01659724673255138 0 0.016543879434694351 -0.016877692976385833 0 0.016622330138894158 -0.016252540243677505 0 0.016417673752629397 -0.017597129734752925 0 0.017258041660786393 -0.017316308161194036 0 0.016543879434694351 -0.016877692976385833 0 0.016417673752629397 -0.017597129734752925 0 0.016543879434694351 -0.016877692976385833 0 0.01588741774413694 -0.017125772907409964 0 0.016543879434694351 -0.016877692976385833 0 0.016105457827784057 -0.016471479269997442 0 0.01588741774413694 -0.017125772907409964 0 0.016543879434694351 -0.016877692976385833 0 0.016105457827784057 -0.016471479269997442 0 0.016622330138894158 -0.016252540243677505 0 0.016105457827784057 -0.016471479269997442 0 0.01588741774413694 -0.017125772907409964 0 0.015403145266187511 -0.016643246528775323 0 0.0032152267858121188 -0.022264774882802953 0 0.0034310374745738473 -0.021705285641487316 0 0.0030441137565451418 -0.021314654322920547 0 0.0029322538781795843 -0.02205465108706876 0 0.0023365727320199033 -0.020991070359682704 0 0.003614939029931871 -0.022557558898957528 0 0.0035328954504972847 -0.0225576274869091 0 0.0035072753366774847 -0.022318295192235396 0 0.0030441137565451418 -0.021314654322920547 0 0.0034312308610509033 -0.021816274687522536 0 0.0029322538781795843 -0.02205465108706876 0 0.0034687784299899469 -0.021758584939365382 0 0.0042396998699819732 -0.020931136445410999 0 0.0034312308610509033 -0.021816274687522536 0 0.0036690565563314934 -0.022237903658156581 0 0.0039711653312011824 -0.021725748931476607 0 0.0030441137565451418 -0.021314654322920547 0 0.0034312308610509033 -0.021816274687522536 0 0.003456119037191085 -0.020955280962167422 0 0.0034312308610509033 -0.021816274687522536 0 0.0040634980579389276 -0.021087583119317053 0 0.0039711653312011824 -0.021725748931476607 0 0.0036095590795939712 -0.022909005576790438 0 0.0036690565563314934 -0.022237903658156581 0 0.0029322538781795843 -0.02205465108706876 0 0.0036095590795939712 -0.022909005576790438 0 0.0036690565563314934 -0.022237903658156581 0 0.0041426670460729684 -0.022369421601161819 0 0.0034312308610509033 -0.021816274687522536 0 0.0036690565563314934 -0.022237903658156581 0 0.0029322538781795843 -0.02205465108706876 0 0.003586123970033557 -0.022863226554187682 0 0.0032152267858121188 -0.022264774882802953 0 0.0036095590795939712 -0.022909005576790438 0 0.003614939029931871 -0.022557558898957528 0 0.0035229054989804331 -0.022747806523885049 0 0.003614939029931871 -0.022557558898957528 0 0.0035328954504972847 -0.0225576274869091 0 0.0035229054989804331 -0.022747806523885049 0 0.0035328954504972847 -0.0225576274869091 0 0.0035229054989804331 -0.022747806523885049 0 0.0033897286408806513 -0.022732162394754344 0 0.0034218021242075607 -0.022978072426967176 0 0.0035229054989804331 -0.022747806523885049 0 0.0033897286408806513 -0.022732162394754344 0 0.0031460216842090598 -0.022843688197725327 0 0.0033897286408806513 -0.022732162394754344 0 0.0032867023850272395 -0.022526718046785809 0 0.0035328954504972847 -0.0225576274869091 0 0.0033897286408806513 -0.022732162394754344 0 0.0032867023850272395 -0.022526718046785809 0 0.0031460216842090598 -0.022843688197725327 0 0.002715219358879918 -0.022976866339318558 0 0.0028653154756932394 -0.022528717710606237 0 0.0031460216842090598 -0.022843688197725327 0 0.0032867023850272395 -0.022526718046785809 0 0.0028653154756932394 -0.022528717710606237 0 0.0026817108173130318 -0.021868806292579656 0 0.0028653154756932394 -0.022528717710606237 0 0.0031359609210500116 -0.022178796004350694 0 0.0032867023850272395 -0.022526718046785809 0 0.0028653154756932394 -0.022528717710606237 0 0.0031359609210500116 -0.022178796004350694 0 0.0035328954504972847 -0.0225576274869091 0 0.0034059089487157653 -0.022222640106430994 0 0.0036981118774269341 -0.021856533712039689 0 0.0035876750526955895 -0.022654463993051734 0 0.0034310374745738473 -0.021705285641487316 0 0.0035328954504972847 -0.0225576274869091 0 0.0032867023850272395 -0.022526718046785809 0 0.0034059089487157653 -0.022222640106430994 0 0.0032867023850272395 -0.022526718046785809 0 0.0031359609210500116 -0.022178796004350694 0 0.0034059089487157653 -0.022222640106430994 0 0.0031359609210500116 -0.022178796004350694 0 0.0034059089487157653 -0.022222640106430994 0 0.0033895708581257859 -0.021904444839689674 0 0.0034059089487157653 -0.022222640106430994 0 0.0036981118774269341 -0.021856533712039689 0 0.0033895708581257859 -0.021904444839689674 0 0.0036981118774269341 -0.021856533712039689 0 0.0033895708581257859 -0.021904444839689674 0 0.0035694396701298073 -0.021339446419239527 0 0.0033895708581257859 -0.021904444839689674 0 0.0031600859504620159 -0.021713580650555966 0 0.0035694396701298073 -0.021339446419239527 0 0.0034310374745738473 -0.021705285641487316 0 0.0036892904410195946 -0.021399066157604205 0 0.0026817108173130318 -0.021868806292579656 0 0.0031600859504620159 -0.021713580650555966 0 0.0030771843547388981 -0.021157779371928625 0 0.0026817108173130318 -0.021868806292579656 0 0.0031359609210500116 -0.022178796004350694 0 0.0031600859504620159 -0.021713580650555966 0 0.0031359609210500116 -0.022178796004350694 0 0.0033895708581257859 -0.021904444839689674 0 0.0031600859504620159 -0.021713580650555966 0 0.010304362208941219 -0.019572256786074767 0 0.0080956369137575018 -0.018420285619414126 0 0.0026817108173130318 -0.021868806292579656 0 0.0030771843547388981 -0.021157779371928625 0 0.0030431563874571696 -0.020910310961241449 0 0.0031600859504620159 -0.021713580650555966 0 0.0030771843547388981 -0.021157779371928625 0 0.0035694396701298073 -0.021339446419239527 0 0.0030771843547388981 -0.021157779371928625 0 0.0030157782069214103 -0.020805682921610356 0 0.0033733439716795454 -0.020613687433228625 0 0.0030771843547388981 -0.021157779371928625 0 0.0035694396701298073 -0.021339446419239527 0 0.0033733439716795454 -0.020613687433228625 0 0.0064687880613668479 -0.020273423591014979 0 0.0080956369137575018 -0.018420285619414126 0 0.0041596631988243312 -0.022133492395517845 0 0.0037887950192167872 -0.021376756683494473 0 0.0040635206599942183 -0.020647110667525458 0 0.0034310374745738473 -0.021705285641487316 0 0.0028295784434167496 -0.020229914362642491 0 0.0037887950192167872 -0.021376756683494473 0 0.0040635206599942183 -0.020647110667525458 0 0.0033733439716795454 -0.020613687433228625 0 0.0036892904410195946 -0.021399066157604205 0 0.0033830417889916062 -0.020690229646989276 0 0.0027740600227410019 -0.020180656556694768 0 0.0029635874493852271 -0.019470426774177037 0 0.0022028158502764576 -0.019537445217672842 0 0.0023365727320199033 -0.020991070359682704 0 0.0027740600227410019 -0.020180656556694768 0 0.0022028158502764576 -0.019537445217672842 0 0.0027740600227410019 -0.020180656556694768 0 0.0034644177013048037 -0.020157914749869804 0 0.0029635874493852271 -0.019470426774177037 0 0.0027740600227410019 -0.020180656556694768 0 0.0029824233471688897 -0.020727220748514845 0 0.0034644177013048037 -0.020157914749869804 0 0.0023365727320199033 -0.020991070359682704 0 0.0027740600227410019 -0.020180656556694768 0 0.0029824233471688897 -0.020727220748514845 0 0.0030441137565451418 -0.021314654322920547 0 0.0029824233471688897 -0.020727220748514845 0 0.003456119037191085 -0.020955280962167422 0 0.0030441137565451418 -0.021314654322920547 0 0.0023365727320199033 -0.020991070359682704 0 0.0029824233471688897 -0.020727220748514845 0 0.003456119037191085 -0.020955280962167422 0 0.0034644177013048037 -0.020157914749869804 0 0.0044418848772595507 -0.020760795350941951 0 0.0034312308610509033 -0.021816274687522536 0 0.003456119037191085 -0.020955280962167422 0 0.0044418848772595507 -0.020760795350941951 0 0.0029824233471688897 -0.020727220748514845 0 0.003456119037191085 -0.020955280962167422 0 0.0034644177013048037 -0.020157914749869804 0 0.0034644177013048037 -0.020157914749869804 0 0.0043570240742314978 -0.019629279513507771 0 0.0036695262355776444 -0.019435422325289251 0 0.0034644177013048037 -0.020157914749869804 0 0.0036695262355776444 -0.019435422325289251 0 0.0029635874493852271 -0.019470426774177037 0 0.0043570240742314978 -0.019629279513507771 0 0.0053292295384877878 -0.019758510630040457 0 0.0044418848772595507 -0.020760795350941951 0 0.0034644177013048037 -0.020157914749869804 0 0.0043570240742314978 -0.019629279513507771 0 0.0044418848772595507 -0.020760795350941951 0 0.0051115703328625728 -0.019928074567025708 0 0.0042396998699819732 -0.020931136445410999 0 0.0048587135022626852 -0.020113096657041023 0 0.0040634980579389276 -0.021087583119317053 0 0.0049588779982569159 -0.021620007474746756 0 0.0040634980579389276 -0.021087583119317053 0 0.0039711653312011824 -0.021725748931476607 0 0.0049588779982569159 -0.021620007474746756 0 0.0039711653312011824 -0.021725748931476607 0 0.0049588779982569159 -0.021620007474746756 0 0.0041426670460729684 -0.022369421601161819 0 0.004930480375581579 -0.021705997246308596 0 0.0047990462943943973 -0.022802739930299631 0 0.0049588779982569159 -0.021620007474746756 0 0.0049330923275528417 -0.022604040536858171 0 0.0041426670460729684 -0.022369421601161819 0 0.0036690565563314934 -0.022237903658156581 0 0.0039711653312011824 -0.021725748931476607 0 0.0041426670460729684 -0.022369421601161819 0 0.0065441031305586896 -0.022433311430305327 0 0.0059610813465882269 -0.022634150078388905 0 0.0064534424101362125 -0.021848906700592936 0 0.0065441031305586896 -0.022433311430305327 0 0.0059610813465882269 -0.022634150078388905 0 0.0065648347406056231 -0.023027244746965599 0 0.0059610813465882269 -0.022634150078388905 0 0.0065648347406056231 -0.023027244746965599 0 0.0058043318594462037 -0.023256120773542249 0 0.0046548757115834564 -0.02300330245241574 0 0.0059610813465882269 -0.022634150078388905 0 0.0058043318594462037 -0.023256120773542249 0 0.0046548757115834564 -0.02300330245241574 0 0.0059610813465882269 -0.022634150078388905 0 0.0055809089998444814 -0.021998606335021265 0 0.0049588779982569159 -0.021620007474746756 0 0.0046548757115834564 -0.02300330245241574 0 0.0055809089998444814 -0.021998606335021265 0 0.0049588779982569159 -0.021620007474746756 0 0.0055809089998444814 -0.021998606335021265 0 0.0058187016426442294 -0.020997887061774374 0 0.0055809089998444814 -0.021998606335021265 0 0.0064534424101362125 -0.021848906700592936 0 0.0058187016426442294 -0.020997887061774374 0 0.0059610813465882269 -0.022634150078388905 0 0.0055809089998444814 -0.021998606335021265 0 0.0064534424101362125 -0.021848906700592936 0 0.0064534424101362125 -0.021848906700592936 0 0.0066067185581167656 -0.020940789960021813 0 0.0058187016426442294 -0.020997887061774374 0 0.0066067185581167656 -0.020940789960021813 0 0.0058187016426442294 -0.020997887061774374 0 0.0062194690531501068 -0.020024323126611999 0 0.0048587135022626852 -0.020113096657041023 0 0.0049588779982569159 -0.021620007474746756 0 0.0058187016426442294 -0.020997887061774374 0 0.0048587135022626852 -0.020113096657041023 0 0.0062194690531501068 -0.020024323126611999 0 0.0059842379689862626 -0.019015931849389597 0 0.0048587135022626852 -0.020113096657041023 0 0.0058187016426442294 -0.020997887061774374 0 0.0062194690531501068 -0.020024323126611999 0 0.0062194690531501068 -0.020024323126611999 0 0.0073080185370955177 -0.020200757499902987 0 0.0066448377379881712 -0.019232112088837093 0 0.0066067185581167656 -0.020940789960021813 0 0.0062194690531501068 -0.020024323126611999 0 0.0073080185370955177 -0.020200757499902987 0 -5.5246683272107695e-05 -0.020130957262954798 0 0.0003527422985005406 -0.019932319537986003 0 0.0003200733012747059 -0.020475858714732783 0 -5.5246683272107695e-05 -0.020130957262954798 0 0.0003200733012747059 -0.020475858714732783 0 -0.00013790861677535611 -0.020905916325874054 0 0.0066067185581167656 -0.020940789960021813 0 0.0073080185370955177 -0.020200757499902987 0 0.0072292162554972485 -0.021797783752994904 0 0.0035892929245857456 -0.020182321424049916 0 0.0035634543767594051 -0.021356200236372063 0 0.0010752922281935028 -0.019935472651239548 0 0.0010712603116762303 -0.020329727911163289 0 0.00074384463948048431 -0.020259820945772122 0 0.0010752922281935028 -0.019935472651239548 0 0.00074384463948048431 -0.020259820945772122 0 0.00074153873657474285 -0.019742652725559796 0 0.0003527422985005406 -0.019932319537986003 0 0.0003200733012747059 -0.020475858714732783 0 0.00074384463948048431 -0.020259820945772122 0 0.0003527422985005406 -0.019932319537986003 0 0.00074384463948048431 -0.020259820945772122 0 0.00074153873657474285 -0.019742652725559796 0 0.0003200733012747059 -0.020475858714732783 0 0.00074384463948048431 -0.020259820945772122 0 0.00063226868212383556 -0.020662446399426607 0 0.00074384463948048431 -0.020259820945772122 0 0.00063226868212383556 -0.020662446399426607 0 0.00092044717916383505 -0.020595668330647184 0 0.0010712603116762303 -0.020329727911163289 0 0.00074384463948048431 -0.020259820945772122 0 0.00092044717916383505 -0.020595668330647184 0 0.0013354742646602921 -0.02064716535044538 0 0.00092044717916383505 -0.020595668330647184 0 0.00083569308605963564 -0.02101753968696041 0 0.00063226868212383556 -0.020662446399426607 0 0.00092044717916383505 -0.020595668330647184 0 0.00083569308605963564 -0.02101753968696041 0 0.0003200733012747059 -0.020475858714732783 0 0.00063226868212383556 -0.020662446399426607 0 0.00032191953723518759 -0.020947846467299958 0 0.00063226868212383556 -0.020662446399426607 0 0.00083569308605963564 -0.02101753968696041 0 0.00032191953723518759 -0.020947846467299958 0 0.00083569308605963564 -0.02101753968696041 0 0.00032191953723518759 -0.020947846467299958 0 0.00035490107644470844 -0.021367164548613263 0 0.00043344806607961835 -0.022373397446976796 0 2.6667353798378998e-05 -0.022464887584746848 0 -0.00030800749324133884 -0.023621230051377229 0 -0.0008103371171635877 -0.023949234883555975 0 -0.00041793675005685088 -0.024215344760291628 0 -1.4850928165356371e-06 -0.024087816125664276 0 -0.00030800749324133884 -0.023621230051377229 0 -0.00041793675005685088 -0.024215344760291628 0 0.0064534424101362125 -0.021848906700592936 0 0.0066067185581167656 -0.020940789960021813 0 0.0072292162554972485 -0.021797783752994904 0 0.0035634543767594051 -0.021356200236372063 0 0.0035721165861721227 -0.02174830792979569 0 0.0065441031305586896 -0.022433311430305327 0 0.0064534424101362125 -0.021848906700592936 0 0.0072163895266044902 -0.022231910002731982 0 0.0064534424101362125 -0.021848906700592936 0 0.0072292162554972485 -0.021797783752994904 0 0.0072163895266044902 -0.022231910002731982 0 -0.00013790861677535611 -0.020905916325874054 0 0.00032191953723518759 -0.020947846467299958 0 0.00012865690879166789 -0.021563137932137644 0 0.0003200733012747059 -0.020475858714732783 0 -0.00013790861677535611 -0.020905916325874054 0 0.00032191953723518759 -0.020947846467299958 0 0.00032191953723518759 -0.020947846467299958 0 0.0005327369942205206 -0.021795356684618294 0 0.00012865690879166789 -0.021563137932137644 0 0.00036013816348678246 -0.020698603574986433 0 2.6667353798378998e-05 -0.022464887584746848 0 0.0005327369942205206 -0.021795356684618294 0 0.00012865690879166789 -0.021563137932137644 0 0.00014464358102939321 -0.02211957812802116 0 0.0035721165861721227 -0.02174830792979569 0 0.0013767008377770366 -0.022497634507281435 0 0.0072163895266044902 -0.022231910002731982 0 0.0065648347406056231 -0.023027244746965599 0 0.0069921040644644441 -0.023689398112929826 0 0.00012865690879166789 -0.021563137932137644 0 -0.00017483604273686449 -0.021225286687802821 0 -0.00029732038112741625 -0.022245873539596492 0 -0.00013790861677535611 -0.020905916325874054 0 0.00012865690879166789 -0.021563137932137644 0 -0.00017483604273686449 -0.021225286687802821 0 0.0035721165861721227 -0.02174830792979569 0 0.0054185808004824651 -0.023502447688885396 0 0.0065441031305586896 -0.022433311430305327 0 0.0072163895266044902 -0.022231910002731982 0 0.0065648347406056231 -0.023027244746965599 0 0.0036439539657415411 -0.021726276165234149 0 0.0034016102945992797 -0.023208961207635829 0 0.0036044926726773274 -0.023021329093781514 0 0.0065648347406056231 -0.023027244746965599 0 0.0069921040644644441 -0.023689398112929826 0 0.0062596546895028332 -0.023688561149391999 0 0.0069921040644644441 -0.023689398112929826 0 0.0062596546895028332 -0.023688561149391999 0 0.0063849109280280482 -0.024375801621843374 0 0.00014464358102939321 -0.02211957812802116 0 0.00015024855265897573 -0.022915787620524226 0 0.00093560413297906692 -0.023128056458215779 0 0.00012865690879166789 -0.021563137932137644 0 -0.00029732038112741625 -0.022245873539596492 0 0.00014464358102939321 -0.02211957812802116 0 2.6667353798378998e-05 -0.022464887584746848 0 -5.2584521449051212e-05 -0.023694702802239356 0 0.00076025032403929428 -0.021719787255507252 0 0.00014464358102939321 -0.02211957812802116 0 0.00093560413297906692 -0.023128056458215779 0 2.6667353798378998e-05 -0.022464887584746848 0 0.00041397898188984543 -0.022014136482234728 0 -0.00029732038112741625 -0.022245873539596492 0 0.00014464358102939321 -0.02211957812802116 0 0.00015024855265897573 -0.022915787620524226 0 0.00015024855265897573 -0.022915787620524226 0 0.00093560413297906692 -0.023128056458215779 0 -0.00037483062395038852 -0.02416684236101678 0 0.0069921040644644441 -0.023689398112929826 0 0.0067587726822832756 -0.025257481609364536 0 0.0063849109280280482 -0.024375801621843374 0 0.0054185808004824651 -0.023502447688885396 0 0.0048651366284713417 -0.024807936106930821 0 0.0013767008377770366 -0.022497634507281435 0 0.0026250652174119207 -0.024919487965112962 0 -0.00029732038112741625 -0.022245873539596492 0 0.00015024855265897573 -0.022915787620524226 0 -0.00037483062395038852 -0.02416684236101678 0 0.0034016102945992797 -0.023208961207635829 0 0.0031830569948204904 -0.024697356705142257 0 0.0035494083551452656 -0.024794105609215619 0 0.0034016102945992797 -0.023208961207635829 0 0.0036044926726773274 -0.023021329093781514 0 0.0035494083551452656 -0.024794105609215619 0 -1.4850928165356371e-06 -0.024087816125664276 0 -0.00041793675005685088 -0.024215344760291628 0 -0.00013344718505536337 -0.024596981011073493 0 -0.0008103371171635877 -0.023949234883555975 0 -0.00076865623850254545 -0.024464028911038486 0 -0.00041793675005685088 -0.024215344760291628 0 -0.00076865623850254545 -0.024464028911038486 0 -0.00041793675005685088 -0.024215344760291628 0 -0.00047705662641824606 -0.024705213289010045 0 -0.00041793675005685088 -0.024215344760291628 0 -0.00047705662641824606 -0.024705213289010045 0 -0.00013344718505536337 -0.024596981011073493 0 -0.00047705662641824606 -0.024705213289010045 0 -0.00013344718505536337 -0.024596981011073493 0 -0.00027192405899413791 -0.02511815720419187 0 -0.0035111739542237124 -0.026025712943454835 0 -0.0037233657244032494 -0.025966788694770447 0 -0.0039036372248122697 -0.026655490670046706 0 -0.0035886430560869063 -0.026743102106679652 0 -0.0035111739542237124 -0.026025712943454835 0 -0.0039036372248122697 -0.026655490670046706 0 -0.0021533828141857333 -0.025223619289186539 0 0.00026219433766165953 -0.026783665591775554 0 -5.2584521449051212e-05 -0.023694702802239356 0 0.0017878902578650567 -0.025585086548139322 0 0.0017878902578650567 -0.025585086548139322 0 0.00026219433766165953 -0.026783665591775554 0 -0.00047705662641824606 -0.024705213289010045 0 -0.00071170625304111561 -0.02499551267281469 0 -0.00027192405899413791 -0.02511815720419187 0 -0.00076865623850254545 -0.024464028911038486 0 -0.00047705662641824606 -0.024705213289010045 0 -0.00071170625304111561 -0.02499551267281469 0 0.0033654269045171894 -0.026688188701001366 0 0.0034097365026003164 -0.026767662642531644 0 0.0032840363032480779 -0.026821674758218724 0 0.0033986307512167452 -0.026844758672480637 0 0.0034097365026003164 -0.026767662642531644 0 0.0032840363032480779 -0.026821674758218724 0 0.0017878902578650567 -0.025585086548139322 0 0.0032958744483599753 -0.027182019621229413 0 0.0024618574385014765 -0.027483879230988981 0 0.00026219433766165953 -0.026783665591775554 0 -0.00430611031289039 -0.027803146324912195 0 0.00026219433766165953 -0.026783665591775554 0 0.00073544899747749067 -0.028331961534603552 0 0.00087488366309845941 -0.028178168234922165 0 0.0008814398621089846 -0.02836577850440844 0 0.0045934687327023032 -0.024953621318151702 0 0.0046490427866420951 -0.024969097833566014 0 0.0045788816843919927 -0.02512167701070088 0 0.0048651366284713417 -0.024807936106930821 0 0.0046243951756971217 -0.025114998154126433 0 0.0048651366284713417 -0.024807936106930821 0 0.0026250652174119207 -0.024919487965112962 0 0.0034209465242507229 -0.026807272658823215 0 0.0035076893488945652 -0.026816639464590623 0 0.0034820441170786542 -0.026787018676287428 0 0.00093560413297906692 -0.023128056458215779 0 0.001090792668181517 -0.024562054784386583 0 -0.00037483062395038852 -0.02416684236101678 0 0.0017878902578650567 -0.025585086548139322 0 0.0026250652174119207 -0.024919487965112962 0 0.0034209465242507229 -0.026807272658823215 0 0.0034097365026003164 -0.026767662642531644 0 0.0034820441170786542 -0.026787018676287428 0 0.0034097365026003164 -0.026767662642531644 0 0.0034820441170786542 -0.026787018676287428 0 0.0034829899530770697 -0.026750593496790823 0 0.0034820441170786542 -0.026787018676287428 0 0.0034829899530770697 -0.026750593496790823 0 0.0035381785683068104 -0.026749055597858916 0 0.0046490427866420951 -0.024969097833566014 0 0.0045788816843919927 -0.02512167701070088 0 0.0046581038905326895 -0.025187168703467679 0 0.0035076893488945652 -0.026816639464590623 0 0.0034820441170786542 -0.026787018676287428 0 0.0035381785683068104 -0.026749055597858916 0 0.0045627961681961185 -0.025288013965991403 0 0.0045788816843919927 -0.02512167701070088 0 0.0046581038905326895 -0.025187168703467679 0 0.0026250652174119207 -0.024919487965112962 0 0.004224679819040544 -0.02616507223517648 0 0.0046971195035048529 -0.025058810043221632 0 0.0045632993197061138 -0.025157456524816438 0 0.0046323308870209034 -0.024965882855998951 0 0.0045632993197061138 -0.025157456524816438 0 0.0046323308870209034 -0.024965882855998951 0 0.0044768824532863041 -0.025114334583100705 0 0.0045627961681961185 -0.025288013965991403 0 0.0046971195035048529 -0.025058810043221632 0 0.0045632993197061138 -0.025157456524816438 0 0.0047408693222484831 -0.024882742902712918 0 0.0046971195035048529 -0.025058810043221632 0 0.0046323308870209034 -0.024965882855998951 0 0.0046323308870209034 -0.024965882855998951 0 0.0046368224651788517 -0.024844668921200144 0 0.0045735058473281793 -0.024931929675383584 0 0.0047408693222484831 -0.024882742902712918 0 0.0046323308870209034 -0.024965882855998951 0 0.0046368224651788517 -0.024844668921200144 0 0.0048651366284713417 -0.024807936106930821 0 0.0053437397535199584 -0.024955008944008993 0 0.0045735058473281793 -0.024931929675383584 0 0.0044034385210770105 -0.025043048767781403 0 0.0046547887468238293 -0.024718412488765884 0 0.0046368224651788517 -0.024844668921200144 0 0.0045735058473281793 -0.024931929675383584 0 0.0046547887468238293 -0.024718412488765884 0 0.0045735058473281793 -0.024931929675383584 0 0.0044768824532863041 -0.025114334583100705 0 0.0044034385210770105 -0.025043048767781403 0 0.0046323308870209034 -0.024965882855998951 0 0.0045735058473281793 -0.024931929675383584 0 0.0044768824532863041 -0.025114334583100705 0 0.0043341333188831113 -0.025190080845925583 0 0.0044768824532863041 -0.025114334583100705 0 0.0044034385210770105 -0.025043048767781403 0 0.0043341333188831113 -0.025190080845925583 0 0.0046509849028929318 -0.024372999370883604 0 0.0039717006692868047 -0.024487449331310394 0 0.0043722423494146978 -0.025149569392908119 0 0.0045162938553435315 -0.024702757228594885 0 0.0038877875315853926 -0.023541793024217612 0 0.0039717006692868047 -0.024487449331310394 0 0.0043491131390665187 -0.023908414086849405 0 0.0044034385210770105 -0.025043048767781403 0 0.0044667231190149131 -0.024584715531069504 0 0.0046547887468238293 -0.024718412488765884 0 0.0045162938553435315 -0.024702757228594885 0 0.0046530647999080054 -0.024027572055936797 0 0.0046509849028929318 -0.024372999370883604 0 0.0043491131390665187 -0.023908414086849405 0 0.004837406725026968 -0.023503510089198574 0 0.0046509849028929318 -0.024372999370883604 0 0.0039717006692868047 -0.024487449331310394 0 0.0043491131390665187 -0.023908414086849405 0 0.0043491131390665187 -0.023908414086849405 0 0.004837406725026968 -0.023503510089198574 0 0.0043913317195557943 -0.023447814235207441 0 0.0043913317195557943 -0.023447814235207441 0 0.0042420271919096798 -0.023027349763359888 0 0.0045984908805218787 -0.023147932356646431 0 0.004837406725026968 -0.023503510089198574 0 0.0043913317195557943 -0.023447814235207441 0 0.0045984908805218787 -0.023147932356646431 0 0.0038877875315853926 -0.023541793024217612 0 0.0043491131390665187 -0.023908414086849405 0 0.0043913317195557943 -0.023447814235207441 0 0.0038877875315853926 -0.023541793024217612 0 0.0043913317195557943 -0.023447814235207441 0 0.0042420271919096798 -0.023027349763359888 0 0.0036095590795939712 -0.022909005576790438 0 0.0041426670460729684 -0.022369421601161819 0 0.0042420271919096798 -0.023027349763359888 0 0.0049330923275528417 -0.022604040536858171 0 0.0041426670460729684 -0.022369421601161819 0 0.0042420271919096798 -0.023027349763359888 0 0.0049330923275528417 -0.022604040536858171 0 0.0042420271919096798 -0.023027349763359888 0 0.0045984908805218787 -0.023147932356646431 0 0.0047990462943943973 -0.022802739930299631 0 0.0046530647999080054 -0.024027572055936797 0 0.0049330923275528417 -0.022604040536858171 0 0.004837406725026968 -0.023503510089198574 0 0.0045984908805218787 -0.023147932356646431 0 0.0046548757115834564 -0.02300330245241574 0 0.0054952891716663422 -0.023809357540817398 0 0.0058043318594462037 -0.023256120773542249 0 0.0046548757115834564 -0.02300330245241574 0 0.0054952891716663422 -0.023809357540817398 0 0.0049400249962084633 -0.024152469141482322 0 0.0046548757115834564 -0.02300330245241574 0 0.0044667231190149131 -0.024584715531069504 0 0.0049400249962084633 -0.024152469141482322 0 0.0065648347406056231 -0.023027244746965599 0 0.0058043318594462037 -0.023256120773542249 0 0.0062596546895028332 -0.023688561149391999 0 0.0054952891716663422 -0.023809357540817398 0 0.0058043318594462037 -0.023256120773542249 0 0.0062596546895028332 -0.023688561149391999 0 0.0054952891716663422 -0.023809357540817398 0 0.0062596546895028332 -0.023688561149391999 0 0.0058581932066063573 -0.024273025226760683 0 0.0054952891716663422 -0.023809357540817398 0 0.0058581932066063573 -0.024273025226760683 0 0.005345912135442072 -0.024417868788442029 0 0.0062596546895028332 -0.023688561149391999 0 0.0058581932066063573 -0.024273025226760683 0 0.0063849109280280482 -0.024375801621843374 0 0.0067587726822832756 -0.025257481609364536 0 0.0057940729209170804 -0.0250261152581308 0 0.0063849109280280482 -0.024375801621843374 0 0.0057940729209170804 -0.0250261152581308 0 0.0058581932066063573 -0.024273025226760683 0 0.005345912135442072 -0.024417868788442029 0 0.0057940729209170804 -0.0250261152581308 0 0.0058581932066063573 -0.024273025226760683 0 0.0063849109280280482 -0.024375801621843374 0 0.0057940729209170804 -0.0250261152581308 0 0.0046547887468238293 -0.024718412488765884 0 0.005345912135442072 -0.024417868788442029 0 0.0053437397535199584 -0.024955008944008993 0 0.0046713253866315033 -0.024747800231789002 0 0.0046547887468238293 -0.024718412488765884 0 0.0049400249962084633 -0.024152469141482322 0 0.005345912135442072 -0.024417868788442029 0 0.0044667231190149131 -0.024584715531069504 0 0.0046547887468238293 -0.024718412488765884 0 0.0049400249962084633 -0.024152469141482322 0 0.0054952891716663422 -0.023809357540817398 0 0.0049400249962084633 -0.024152469141482322 0 0.005345912135442072 -0.024417868788442029 0 0.026019761165933148 -0.01999577017048455 0 0.025000004291411731 -0.020184837277291413 0 0.024999815897508115 -0.018810154919123773 0 0.026019761165933148 -0.01999577017048455 0 0.024999815897508115 -0.018810154919123773 0 0.026362514263051424 -0.018813948890745735 0 0.026362514263051424 -0.018813948890745735 0 0.027177743116654295 -0.019651333902037226 0 0.027652888057464901 -0.018177938938650315 0 0.02336868592960871 -0.01764588728676297 0 0.024181434475130239 -0.017352145103608222 0 0.023739484374001564 -0.016581603362043878 0 0.025270818823525564 -0.018596824317350189 0 0.025768468783610117 -0.017571732609661436 0 0.02336868592960871 -0.01764588728676297 0 0.024046514721432825 -0.018157149189619668 0 0.024181434475130239 -0.017352145103608222 0 0.026019761165933148 -0.01999577017048455 0 0.027177743116654295 -0.019651333902037226 0 0.026751972467270266 -0.021021170032579587 0 0.026019761165933148 -0.01999577017048455 0 0.026362514263051424 -0.018813948890745735 0 0.027177743116654295 -0.019651333902037226 0 0.025270818823525564 -0.018596824317350189 0 0.024846678055566503 -0.01996509366369139 0 0.022964747241298666 -0.018763626426093472 0 0.024046514721432825 -0.018157149189619668 0 0.024095850419009881 -0.018959232467543431 0 0.02336868592960871 -0.01764588728676297 0 0.022964747241298666 -0.018763626426093472 0 0.024046514721432825 -0.018157149189619668 0 0.024095850419009881 -0.018959232467543431 0 0.023475487707880219 -0.019493915825585958 0 0.024144242422475152 -0.019420051914398009 0 0.022964747241298666 -0.018763626426093472 0 0.024095850419009881 -0.018959232467543431 0 0.023475487707880219 -0.019493915825585958 0 0.024846678055566503 -0.01996509366369139 0 0.024461802068553914 -0.020904573371347823 0 0.022964747241298666 -0.018763626426093472 0 0.023475487707880219 -0.019493915825585958 0 0.022536154716450148 -0.019989423201578819 0 0.026751972467270266 -0.021021170032579587 0 0.025766699409725907 -0.021229970124233218 0 0.026340136335425177 -0.022367686426552867 0 0.026019761165933148 -0.01999577017048455 0 0.026751972467270266 -0.021021170032579587 0 0.025766699409725907 -0.021229970124233218 0 0.026019761165933148 -0.01999577017048455 0 0.025000004291411731 -0.020184837277291413 0 0.025766699409725907 -0.021229970124233218 0 0.025000004291411731 -0.020184837277291413 0 0.025766699409725907 -0.021229970124233218 0 0.024999972498147168 -0.021559244370082012 0 0.025766699409725907 -0.021229970124233218 0 0.024999972498147168 -0.021559244370082012 0 0.025508471898459315 -0.022247863280359177 0 0.024999972498147168 -0.021559244370082012 0 0.025508471898459315 -0.022247863280359177 0 0.024999983903334307 -0.022933704317194856 0 0.025766699409725907 -0.021229970124233218 0 0.025508471898459315 -0.022247863280359177 0 0.026340136335425177 -0.022367686426552867 0 0.02412169372592048 -0.023784969881996149 0 0.022844312721804191 -0.023788810465965472 0 0.022536154716450148 -0.019989423201578819 0 0.022137468364089526 -0.021322600840348278 0 0.023093099648272837 -0.020672270126609365 0 0.024461802068553914 -0.020904573371347823 0 0.02412169372592048 -0.023784969881996149 0 0.025508471898459315 -0.022247863280359177 0 0.026340136335425177 -0.022367686426552867 0 0.025925647122275918 -0.023713610917898417 0 0.025508471898459315 -0.022247863280359177 0 0.024999983903334307 -0.022933704317194856 0 0.025925647122275918 -0.023713610917898417 0 0.024999983903334307 -0.022933704317194856 0 0.025925647122275918 -0.023713610917898417 0 0.024999988183505684 -0.024308134609809205 0 0.02412169372592048 -0.023784969881996149 0 0.025001407811399666 -0.024307588878467342 0 0.024025048697743061 -0.026207411420185647 0 0.024456250304815536 -0.024999961795875252 0 0.023087413628987884 -0.024999971055177497 0 0.02412169372592048 -0.023784969881996149 0 0.024456251317412036 -0.025001965434357589 0 0.025113035467938291 -0.024244823311517418 0 0.024459125495991805 -0.024999401013723388 0 0.024999239893707295 -0.024310361785690019 0 0.024459125495991805 -0.024999401013723388 0 0.024998975599160124 -0.024999192165365603 0 0.024999239893707295 -0.024310361785690019 0 0.022764940785848165 -0.025919658159849108 0 0.021913089368545066 -0.026137002026047903 0 0.021718619397477837 -0.024999989720368501 0 0.023087413628987884 -0.024999971055177497 0 0.022764940785848165 -0.025919658159849108 0 0.021718619397477837 -0.024999989720368501 0 0.024025048697743061 -0.026207411420185647 0 0.023087413628987884 -0.024999971055177497 0 0.022764940785848165 -0.025919658159849108 0 0.022764940785848165 -0.025919658159849108 0 0.022454315963024881 -0.026632512748206674 0 0.023031404827089524 -0.026783822548072319 0 0.024025048697743061 -0.026207411420185647 0 0.022764940785848165 -0.025919658159849108 0 0.023031404827089524 -0.026783822548072319 0 0.022764940785848165 -0.025919658159849108 0 0.022454315963024881 -0.026632512748206674 0 0.021913089368545066 -0.026137002026047903 0 0.022416728841116926 -0.025272016154216505 0 0.021827439095322421 -0.026511880121352853 0 0.022454315963024881 -0.026632512748206674 0 0.022075880491079457 -0.027220012111322571 0 0.021913089368545066 -0.026137002026047903 0 0.022454315963024881 -0.026632512748206674 0 0.022503524873831188 -0.027087970207851773 0 0.023031404827089524 -0.026783822548072319 0 0.022454315963024881 -0.026632512748206674 0 0.022503524873831188 -0.027087970207851773 0 0.022075880491079457 -0.027220012111322571 0 0.023001980137146886 -0.023696667767689968 0 0.022416728841116926 -0.025272016154216505 0 0.023001980137146886 -0.023696667767689968 0 0.022844312721804191 -0.023788810465965472 0 0.023592275151565645 -0.020313253133689171 0 0.023093099648272837 -0.020672270126609365 0 0.023392915329906974 -0.020043404067698334 0 0.022536154716450148 -0.019989423201578819 0 0.023093099648272837 -0.020672270126609365 0 0.023392915329906974 -0.020043404067698334 0 0.023475487707880219 -0.019493915825585958 0 0.022536154716450148 -0.019989423201578819 0 0.023392915329906974 -0.020043404067698334 0 0.023475487707880219 -0.019493915825585958 0 0.023730419506975558 -0.019804371056993311 0 0.024144242422475152 -0.019420051914398009 0 0.023228119883846418 -0.023792441907300795 0 0.022229556542184146 -0.024406563895573153 0 0.022195488701526912 -0.024115379248623288 0 0.023001980137146886 -0.023696667767689968 0 0.023013691270335035 -0.022800519523500561 0 0.023013691270335035 -0.022800519523500561 0 0.022416728841116926 -0.025272016154216505 0 0.023592275151565645 -0.020313253133689171 0 0.023392915329906974 -0.020043404067698334 0 0.023986932510495308 -0.020020203425549686 0 0.023392915329906974 -0.020043404067698334 0 0.023986932510495308 -0.020020203425549686 0 0.023730419506975558 -0.019804371056993311 0 0.023475487707880219 -0.019493915825585958 0 0.023392915329906974 -0.020043404067698334 0 0.023730419506975558 -0.019804371056993311 0 0.023986932510495308 -0.020020203425549686 0 0.023730419506975558 -0.019804371056993311 0 0.024144242422475152 -0.019420051914398009 0 0.021897272024980877 -0.027219548998376576 0 0.020708189530703001 -0.027611335488068576 0 0.021075347527931148 -0.026722728276709757 0 0.022413145752011643 -0.022702996677345488 0 0.022412237340433207 -0.022698753489217138 0 0.022329723049310992 -0.022686414030346762 0 0.023986932510495308 -0.020020203425549686 0 0.024816355825337689 -0.019384657927808791 0 0.024144242422475152 -0.019420051914398009 0 0.022413145752011643 -0.022702996677345488 0 0.022329723049310992 -0.022686414030346762 0 0.0223481036903132 -0.022701994849334967 0 0.023013691270335035 -0.022800519523500561 0 0.023686596637749514 -0.020851690982575763 0 0.022416728841116926 -0.025272016154216505 0 0.021466051185784592 -0.025120818039622368 0 0.021075347527931148 -0.026722728276709757 0 0.020315980708303042 -0.026184592115149483 0 0.019852865919497791 -0.02707884236400707 0 0.020708189530703001 -0.027611335488068576 0 0.021075347527931148 -0.026722728276709757 0 0.019852865919497791 -0.02707884236400707 0 0.021897272024980877 -0.027219548998376576 0 0.021075347527931148 -0.026722728276709757 0 0.021776852637754841 -0.026119219627400905 0 0.021075347527931148 -0.026722728276709757 0 0.021776852637754841 -0.026119219627400905 0 0.020973966636903599 -0.025650159483034004 0 0.021075347527931148 -0.026722728276709757 0 0.020315980708303042 -0.026184592115149483 0 0.020973966636903599 -0.025650159483034004 0 0.020315980708303042 -0.026184592115149483 0 0.020973966636903599 -0.025650159483034004 0 0.020227892146216547 -0.024999956732269252 0 0.020973966636903599 -0.025650159483034004 0 0.021718329102087056 -0.024999966785762294 0 0.020227892146216547 -0.024999956732269252 0 0.021827439095322421 -0.026511880121352853 0 0.021718485429928075 -0.024999666118666566 0 0.021776852637754841 -0.026119219627400905 0 0.020973966636903599 -0.025650159483034004 0 0.021718329102087056 -0.024999966785762294 0 0.020227892146216547 -0.024999956732269252 0 0.019379400660211151 -0.026013358920972646 0 0.018737261639831668 -0.024999947809104476 0 0.020315980708303042 -0.026184592115149483 0 0.019379400660211151 -0.026013358920972646 0 0.019852865919497791 -0.02707884236400707 0 0.020315980708303042 -0.026184592115149483 0 0.020227892146216547 -0.024999956732269252 0 0.019379400660211151 -0.026013358920972646 0 0.019379400660211151 -0.026013358920972646 0 0.018440383151616814 -0.026283478688286736 0 0.018737261639831668 -0.024999947809104476 0 0.019379400660211151 -0.026013358920972646 0 0.018955725697444629 -0.026793555101547292 0 0.018440383151616814 -0.026283478688286736 0 0.019379400660211151 -0.026013358920972646 0 0.018955725697444629 -0.026793555101547292 0 0.019852865919497791 -0.02707884236400707 0 0.018955725697444629 -0.026793555101547292 0 0.019852865919497791 -0.02707884236400707 0 0.018835517646053609 -0.027484957403101157 0 0.021466051185784592 -0.025120818039622368 0 0.020882554566309806 -0.025295866470069196 0 0.020708189530703001 -0.027611335488068576 0 0.019852865919497791 -0.02707884236400707 0 0.019476084359828325 -0.027972709823296783 0 0.019852865919497791 -0.02707884236400707 0 0.018835517646053609 -0.027484957403101157 0 0.019476084359828325 -0.027972709823296783 0 0.020882554566309806 -0.025295866470069196 0 0.020228183707888824 -0.025724028447487259 0 0.022230086286232981 -0.022686900819068326 0 0.022192901682941583 -0.022748935334341035 0 0.02227488429263369 -0.022718338113939647 0 0.022230086286232981 -0.022686900819068326 0 0.022192901682941583 -0.022748935334341035 0 0.02211568936039857 -0.022699675070399331 0 0.018835517646053609 -0.027484957403101157 0 0.019476084359828325 -0.027972709823296783 0 0.018624009545881847 -0.028120689409692295 0 0.024224943571547624 -0.02051230318901677 0 0.023878591440723674 -0.020765691714148406 0 0.026178646998731986 -0.018162652800759446 0 0.025568767929525477 -0.018755080121565494 0 0.025534771140548591 -0.017953968221088978 0 0.025568767929525477 -0.018755080121565494 0 0.024958290244985096 -0.018661223606692281 0 0.025534771140548591 -0.017953968221088978 0 0.022329723049310992 -0.022686414030346762 0 0.022230086286232981 -0.022686900819068326 0 0.02227488429263369 -0.022718338113939647 0 0.022329723049310992 -0.022686414030346762 0 0.02227488429263369 -0.022718338113939647 0 0.0223481036903132 -0.022701994849334967 0 0.023878591440723674 -0.020765691714148406 0 0.023686596637749514 -0.020851690982575763 0 0.025568767929525477 -0.018755080121565494 0 0.024816355825337689 -0.019384657927808791 0 0.024958290244985096 -0.018661223606692281 0 0.024095850419009881 -0.018959232467543431 0 0.024816355825337689 -0.019384657927808791 0 0.024144242422475152 -0.019420051914398009 0 0.024095850419009881 -0.018959232467543431 0 0.024816355825337689 -0.019384657927808791 0 0.024958290244985096 -0.018661223606692281 0 0.024046514721432825 -0.018157149189619668 0 0.024958290244985096 -0.018661223606692281 0 0.024799024466088556 -0.01800638472915542 0 0.024046514721432825 -0.018157149189619668 0 0.024095850419009881 -0.018959232467543431 0 0.024958290244985096 -0.018661223606692281 0 0.024958290244985096 -0.018661223606692281 0 0.024799024466088556 -0.01800638472915542 0 0.025534771140548591 -0.017953968221088978 0 0.024799024466088556 -0.01800638472915542 0 0.02505552966682063 -0.017451170492531212 0 0.025534771140548591 -0.017953968221088978 0 0.024799024466088556 -0.01800638472915542 0 0.024181434475130239 -0.017352145103608222 0 0.02505552966682063 -0.017451170492531212 0 0.024046514721432825 -0.018157149189619668 0 0.024799024466088556 -0.01800638472915542 0 0.024181434475130239 -0.017352145103608222 0 0.024181434475130239 -0.017352145103608222 0 0.024724310268797563 -0.016860827271633266 0 0.023739484374001564 -0.016581603362043878 0 0.024181434475130239 -0.017352145103608222 0 0.02505552966682063 -0.017451170492531212 0 0.024724310268797563 -0.016860827271633266 0 0.02581796284302898 -0.017185310458274948 0 0.024997176929493988 -0.016809070684775253 0 0.02505552966682063 -0.017451170492531212 0 0.025754452805765146 -0.017172179751936675 0 0.024724310268797563 -0.016860827271633266 0 0.025754452805765146 -0.017172179751936675 0 0.026043171078353831 -0.017597117450420977 0 0.026082399735409514 -0.017079410668097567 0 0.026043171078353831 -0.017597117450420977 0 0.026321385183876323 -0.017346670023890055 0 0.026082399735409514 -0.017079410668097567 0 0.026178646998731986 -0.018162652800759446 0 0.026043171078353831 -0.017597117450420977 0 0.025534771140548591 -0.017953968221088978 0 0.025754452805765146 -0.017172179751936675 0 0.026043171078353831 -0.017597117450420977 0 0.025534771140548591 -0.017953968221088978 0 0.02505552966682063 -0.017451170492531212 0 0.025754452805765146 -0.017172179751936675 0 0.025534771140548591 -0.017953968221088978 0 0.023986560830405637 -0.019675252886978273 0 0.023604376763529542 -0.019045329517795809 0 0.020687835054140118 -0.021004444397261179 0 0.020937773383463393 -0.02080862798476165 0 0.020948416659572644 -0.021082726528424425 0 0.024224943571547624 -0.02051230318901677 0 0.023986560830405637 -0.019675252886978273 0 0.026178646998731986 -0.018162652800759446 0 0.026043171078353831 -0.017597117450420977 0 0.026656435167107247 -0.017712891470033767 0 0.026043171078353831 -0.017597117450420977 0 0.026656435167107247 -0.017712891470033767 0 0.026321385183876323 -0.017346670023890055 0 0.023986560830405637 -0.019675252886978273 0 0.026244822462817022 -0.017570524897785024 0 0.026321385183876323 -0.017346670023890055 0 0.026437224018547097 -0.016960775644166464 0 0.026082399735409514 -0.017079410668097567 0 0.026321385183876323 -0.017346670023890055 0 0.026453161587097214 -0.017237625428956092 0 0.026437224018547097 -0.016960775644166464 0 0.026394707774931275 -0.017438475216217948 0 0.026321385183876323 -0.017346670023890055 0 0.026453161587097214 -0.017237625428956092 0 0.026394707774931275 -0.017438475216217948 0 0.026453161587097214 -0.017237625428956092 0 0.026655634996138117 -0.017254032912999893 0 0.026453161587097214 -0.017237625428956092 0 0.026655634996138117 -0.017254032912999893 0 0.026437224018547097 -0.016960775644166464 0 0.021171327238017481 -0.020904305695718193 0 0.021342188056021127 -0.020932601646297649 0 0.021251990159371049 -0.02052658308812684 0 0.020937773383463393 -0.02080862798476165 0 0.021171327238017481 -0.020904305695718193 0 0.021251990159371049 -0.02052658308812684 0 0.023604376763529542 -0.019045329517795809 0 0.024811693854299596 -0.01856744233818091 0 0.020937773383463393 -0.02080862798476165 0 0.021171327238017481 -0.020904305695718193 0 0.021090143597294012 -0.021064015214519432 0 0.021171327238017481 -0.020904305695718193 0 0.021090143597294012 -0.021064015214519432 0 0.021221307057238733 -0.021096031891445391 0 0.021171327238017481 -0.020904305695718193 0 0.021221307057238733 -0.021096031891445391 0 0.021342188056021127 -0.020932601646297649 0 0.021090143597294012 -0.021064015214519432 0 0.020948416659572644 -0.021082726528424425 0 0.021134803031608095 -0.021221698482155674 0 0.021090143597294012 -0.021064015214519432 0 0.021221307057238733 -0.021096031891445391 0 0.021134803031608095 -0.021221698482155674 0 0.020937773383463393 -0.02080862798476165 0 0.021090143597294012 -0.021064015214519432 0 0.020948416659572644 -0.021082726528424425 0 0.019597079173049838 -0.021826456843689692 0 0.020541209334118894 -0.021493372829910089 0 0.019860867712553295 -0.022100248262375336 0 0.019777869979692293 -0.023522140464583507 0 0.021029393457135091 -0.021249496474152776 0 0.020948416659572644 -0.021082726528424425 0 0.020903708805773337 -0.021284774661910966 0 0.021134803031608095 -0.021221698482155674 0 0.019777869979692293 -0.023522140464583507 0 0.017775004853074507 -0.026713308792279438 0 0.021221307057238733 -0.021096031891445391 0 0.021134803031608095 -0.021221698482155674 0 0.021383883151630426 -0.021255987409306818 0 0.021029393457135091 -0.021249496474152776 0 0.021261471309846198 -0.021276288874574702 0 0.020776295021841258 -0.021867633857897306 0 0.020541209334118894 -0.021493372829910089 0 0.021383883151630426 -0.021255987409306818 0 0.020776295021841258 -0.021867633857897306 0 0.020541209334118894 -0.021493372829910089 0 0.019860867712553295 -0.022100248262375336 0 0.015887671226598468 -0.027619714736187316 0 0.015968854600462063 -0.027427458002021982 0 0.016144867203898069 -0.02758119247954759 0 0.018637096484896205 -0.024672086439158056 0 0.017775004853074507 -0.026713308792279438 0 0.015887671226598468 -0.027619714736187316 0 0.015968854600462063 -0.027427458002021982 0 0.015786708854211615 -0.027507548669762402 0 0.015968854600462063 -0.027427458002021982 0 0.015708403302147383 -0.027391039544657627 0 0.015786708854211615 -0.027507548669762402 0 0.017703374953376101 -0.028364621709508531 0 0.017569447306443893 -0.028218071086524969 0 0.018051776688129229 -0.0281828380156782 0 0.0168806133727986 -0.028463836385099379 0 0.017258738603921898 -0.028035238549413886 0 0.017729885188614066 -0.028322893298092379 0 0.017775004853074507 -0.026713308792279438 0 0.017756155108030587 -0.028291541678669554 0 0.016122254102970805 -0.027638336231668587 0 0.017775004853074507 -0.026713308792279438 0 0.016291089564559644 -0.027827078621281708 0 0.0168806133727986 -0.028463836385099379 0 0.01685635078943367 -0.027893626111804713 0 0.0168806133727986 -0.028463836385099379 0 0.01685635078943367 -0.027893626111804713 0 0.017258738603921898 -0.028035238549413886 0 0.01685635078943367 -0.027893626111804713 0 0.017258738603921898 -0.028035238549413886 0 0.017229648754861025 -0.027613690570747227 0 0.019777869979692293 -0.023522140464583507 0 0.020228183707888824 -0.025724028447487259 0 0.017703374953376101 -0.028364621709508531 0 0.018051776688129229 -0.0281828380156782 0 0.018423083306881242 -0.028238443274314337 0 0.017258738603921898 -0.028035238549413886 0 0.017729885188614066 -0.028322893298092379 0 0.017672345931366469 -0.027804162588100083 0 0.017729885188614066 -0.028322893298092379 0 0.018120489694022902 -0.027891054410470413 0 0.017672345931366469 -0.027804162588100083 0 0.023986560830405637 -0.019675252886978273 0 0.019777869979692293 -0.023522140464583507 0 0.022104166460646921 -0.022789531900054481 0 0.021992655417629094 -0.022725499931096033 0 0.02211568936039857 -0.022699675070399331 0 0.020687835054140118 -0.021004444397261179 0 0.020948416659572644 -0.021082726528424425 0 0.020903708805773337 -0.021284774661910966 0 0.022192901682941583 -0.022748935334341035 0 0.022104166460646921 -0.022789531900054481 0 0.02211568936039857 -0.022699675070399331 0 0.017756155108030587 -0.028291541678669554 0 0.018587443385145234 -0.028125735815310075 0 0.017729885188614066 -0.028322893298092379 0 0.018120489694022902 -0.027891054410470413 0 0.018624009545881847 -0.028120689409692295 0 0.019476084359828325 -0.027972709823296783 0 0.018423083306881242 -0.028238443274314337 0 0.018624009545881847 -0.028120689409692295 0 0.018051776688129229 -0.0281828380156782 0 0.018423083306881242 -0.028238443274314337 0 0.018624009545881847 -0.028120689409692295 0 0.018120489694022902 -0.027891054410470413 0 0.018624009545881847 -0.028120689409692295 0 0.018441835353168998 -0.027750290478380967 0 0.018835517646053609 -0.027484957403101157 0 0.018109531422728746 -0.027485775081596574 0 0.018441835353168998 -0.027750290478380967 0 0.018835517646053609 -0.027484957403101157 0 0.018624009545881847 -0.028120689409692295 0 0.018441835353168998 -0.027750290478380967 0 0.018120489694022902 -0.027891054410470413 0 0.018109531422728746 -0.027485775081596574 0 0.018441835353168998 -0.027750290478380967 0 0.018835517646053609 -0.027484957403101157 0 0.018109531422728746 -0.027485775081596574 0 0.018322002925738993 -0.02696733232485073 0 0.018109531422728746 -0.027485775081596574 0 0.017829759884362271 -0.027119036414901508 0 0.018322002925738993 -0.02696733232485073 0 0.017672345931366469 -0.027804162588100083 0 0.01762416186657121 -0.02741036777182275 0 0.017229648754861025 -0.027613690570747227 0 0.017258738603921898 -0.028035238549413886 0 0.017672345931366469 -0.027804162588100083 0 0.017229648754861025 -0.027613690570747227 0 0.018109531422728746 -0.027485775081596574 0 0.017672345931366469 -0.027804162588100083 0 0.01762416186657121 -0.02741036777182275 0 0.018120489694022902 -0.027891054410470413 0 0.018109531422728746 -0.027485775081596574 0 0.017672345931366469 -0.027804162588100083 0 0.018109531422728746 -0.027485775081596574 0 0.01762416186657121 -0.02741036777182275 0 0.017829759884362271 -0.027119036414901508 0 0.01762416186657121 -0.02741036777182275 0 0.017353073143884127 -0.027066174898519983 0 0.017829759884362271 -0.027119036414901508 0 0.01762416186657121 -0.02741036777182275 0 0.017353073143884127 -0.027066174898519983 0 0.017229648754861025 -0.027613690570747227 0 0.017353073143884127 -0.027066174898519983 0 0.017829759884362271 -0.027119036414901508 0 0.017772862737201588 -0.026686719472649775 0 0.017829759884362271 -0.027119036414901508 0 0.017772862737201588 -0.026686719472649775 0 0.018322002925738993 -0.02696733232485073 0 0.017353073143884127 -0.027066174898519983 0 0.017772862737201588 -0.026686719472649775 0 0.017150593511307159 -0.026512229870407533 0 0.017772862737201588 -0.026686719472649775 0 0.017615828544323402 -0.026158273720418724 0 0.017150593511307159 -0.026512229870407533 0 0.018955725697444629 -0.026793555101547292 0 0.018835517646053609 -0.027484957403101157 0 0.018322002925738993 -0.02696733232485073 0 0.017772862737201588 -0.026686719472649775 0 0.018322002925738993 -0.02696733232485073 0 0.018440383151616814 -0.026283478688286736 0 0.018955725697444629 -0.026793555101547292 0 0.018322002925738993 -0.02696733232485073 0 0.018440383151616814 -0.026283478688286736 0 0.017772862737201588 -0.026686719472649775 0 0.018440383151616814 -0.026283478688286736 0 0.017615828544323402 -0.026158273720418724 0 0.018440383151616814 -0.026283478688286736 0 0.017615828544323402 -0.026158273720418724 0 0.017935221799298347 -0.025696379051676634 0 0.017615828544323402 -0.026158273720418724 0 0.017014093026758836 -0.025998787753034866 0 0.017150593511307159 -0.026512229870407533 0 0.017615828544323402 -0.026158273720418724 0 0.017348473831424596 -0.025679322391143872 0 0.017014093026758836 -0.025998787753034866 0 0.017615828544323402 -0.026158273720418724 0 0.017935221799298347 -0.025696379051676634 0 0.017348473831424596 -0.025679322391143872 0 0.017935221799298347 -0.025696379051676634 0 0.017246778622961034 -0.024999961999003343 0 0.018737261639831668 -0.024999947809104476 0 0.017935221799298347 -0.025696379051676634 0 0.017348473831424596 -0.025679322391143872 0 0.017246778622961034 -0.024999961999003343 0 0.018440383151616814 -0.026283478688286736 0 0.017935221799298347 -0.025696379051676634 0 0.018737261639831668 -0.024999947809104476 0 0.016517459015830228 -0.02519689283680759 0 0.015829760141193073 -0.025945730152157061 0 0.015756036828690423 -0.024999989182150167 0 0.01655833674304864 -0.025143622938511766 0 0.015704603996560484 -0.026000633595021909 0 0.01655833674304864 -0.025143622938511766 0 0.016586488026396382 -0.025781159571043533 0 0.015935688155243981 -0.025925327536112566 0 0.017246778622961034 -0.024999961999003343 0 0.015756036828690423 -0.024999989182150167 0 0.01655833674304864 -0.025143622938511766 0 0.017246778622961034 -0.024999961999003343 0 0.01655833674304864 -0.025143622938511766 0 0.016936323586892829 -0.025528174740185112 0 0.017348473831424596 -0.025679322391143872 0 0.017246778622961034 -0.024999961999003343 0 0.016936323586892829 -0.025528174740185112 0 0.01655833674304864 -0.025143622938511766 0 0.016936323586892829 -0.025528174740185112 0 0.016586488026396382 -0.025781159571043533 0 0.016586488026396382 -0.025781159571043533 0 0.017014093026758836 -0.025998787753034866 0 0.016521758464795269 -0.026299778840994405 0 0.016936323586892829 -0.025528174740185112 0 0.016586488026396382 -0.025781159571043533 0 0.017014093026758836 -0.025998787753034866 0 0.017348473831424596 -0.025679322391143872 0 0.016936323586892829 -0.025528174740185112 0 0.017014093026758836 -0.025998787753034866 0 0.017014093026758836 -0.025998787753034866 0 0.016521758464795269 -0.026299778840994405 0 0.017150593511307159 -0.026512229870407533 0 0.016521758464795269 -0.026299778840994405 0 0.015935688155243981 -0.025925327536112566 0 0.0160450485459811 -0.026645465554626126 0 0.016586488026396382 -0.025781159571043533 0 0.016521758464795269 -0.026299778840994405 0 0.015935688155243981 -0.025925327536112566 0 0.016521758464795269 -0.026299778840994405 0 0.0160450485459811 -0.026645465554626126 0 0.016420029685042557 -0.026659846390894838 0 0.0160450485459811 -0.026645465554626126 0 0.016420029685042557 -0.026659846390894838 0 0.016272666301327034 -0.027140441627109678 0 0.016420029685042557 -0.026659846390894838 0 0.016745846941318979 -0.026835957850937273 0 0.016272666301327034 -0.027140441627109678 0 0.0160450485459811 -0.026645465554626126 0 0.015962351814336129 -0.026963043840187578 0 0.016272666301327034 -0.027140441627109678 0 0.0160450485459811 -0.026645465554626126 0 0.015962351814336129 -0.026963043840187578 0 0.015752181491275906 -0.026831355032276443 0 0.016521758464795269 -0.026299778840994405 0 0.016420029685042557 -0.026659846390894838 0 0.016745846941318979 -0.026835957850937273 0 0.016521758464795269 -0.026299778840994405 0 0.017150593511307159 -0.026512229870407533 0 0.016745846941318979 -0.026835957850937273 0 0.017353073143884127 -0.027066174898519983 0 0.016745846941318979 -0.026835957850937273 0 0.0167641934973679 -0.027374801094064517 0 0.017353073143884127 -0.027066174898519983 0 0.017150593511307159 -0.026512229870407533 0 0.016745846941318979 -0.026835957850937273 0 0.017353073143884127 -0.027066174898519983 0 0.0167641934973679 -0.027374801094064517 0 0.017229648754861025 -0.027613690570747227 0 0.016745846941318979 -0.026835957850937273 0 0.0167641934973679 -0.027374801094064517 0 0.016272666301327034 -0.027140441627109678 0 0.016291089564559644 -0.027827078621281708 0 0.01685635078943367 -0.027893626111804713 0 0.0167641934973679 -0.027374801094064517 0 0.01685635078943367 -0.027893626111804713 0 0.0167641934973679 -0.027374801094064517 0 0.017229648754861025 -0.027613690570747227 0 0.015962351814336129 -0.026963043840187578 0 0.016272666301327034 -0.027140441627109678 0 0.015751790679437255 -0.027147221531230604 0 0.016291089564559644 -0.027827078621281708 0 0.016272666301327034 -0.027140441627109678 0 0.015751790679437255 -0.027147221531230604 0 0.016291089564559644 -0.027827078621281708 0 0.0167641934973679 -0.027374801094064517 0 0.016272666301327034 -0.027140441627109678 0 0.015968854600462063 -0.027427458002021982 0 0.015708403302147383 -0.027391039544657627 0 0.015751790679437255 -0.027147221531230604 0 0.016122254102970805 -0.027638336231668587 0 0.015784549232590268 -0.027207222024728511 0 0.015708403302147383 -0.027391039544657627 0 0.015751790679437255 -0.027147221531230604 0 0.015495411459850426 -0.027626974053501684 0 0.015107986176059301 -0.027557516091146907 0 0.014989290805079533 -0.02732188294677414 0 0.015434553505809292 -0.02667221182964314 0 0.015751790679437255 -0.027147221531230604 0 0.015434553505809292 -0.02667221182964314 0 0.015495411459850426 -0.027626974053501684 0 0.015107986176059301 -0.027557516091146907 0 0.015434553505809292 -0.02667221182964314 0 0.01526087911104008 -0.028061515800758038 0 0.015424878039543181 -0.026810880151044009 0 0.015413347542246275 -0.027614432897816333 0 0.01567814072266863 -0.027407925261836875 0 0.015413347542246275 -0.027614432897816333 0 0.014305069691267084 -0.027512893788419084 0 0.014989290805079533 -0.02732188294677414 0 0.015203870593664501 -0.026702637943063653 0 0.014305069691267084 -0.027512893788419084 0 0.014733054284437296 -0.027890775469136864 0 0.01401503636239008 -0.028125891375602296 0 0.014305069691267084 -0.027512893788419084 0 0.014733054284437296 -0.027890775469136864 0 0.014989290805079533 -0.02732188294677414 0 0.014733054284437296 -0.027890775469136864 0 0.015107986176059301 -0.027557516091146907 0 0.014989290805079533 -0.02732188294677414 0 0.014733054284437296 -0.027890775469136864 0 0.015107986176059301 -0.027557516091146907 0 0.01526087911104008 -0.028061515800758038 0 0.014056254167338758 -0.02764024134837784 0 0.014211943725055643 -0.026999416217593834 0 0.014867157214853748 -0.026828464380119901 0 0.014166770794673822 -0.027595700001962643 0 0.015031137859833583 -0.026763641190641615 0 0.014211943725055643 -0.026999416217593834 0 0.01443924005016441 -0.026674676452209729 0 0.014867157214853748 -0.026828464380119901 0 0.01443924005016441 -0.026674676452209729 0 0.014867157214853748 -0.026828464380119901 0 0.014687302532008473 -0.026482414182238918 0 0.014211943725055643 -0.026999416217593834 0 0.01443924005016441 -0.026674676452209729 0 0.013723423083162338 -0.026612471844287139 0 0.015935688155243981 -0.025925327536112566 0 0.0160450485459811 -0.026645465554626126 0 0.015434553505809292 -0.02667221182964314 0 0.015935688155243981 -0.025925327536112566 0 0.015203870593664501 -0.026702637943063653 0 0.015434553505809292 -0.02667221182964314 0 0.015962351814336129 -0.026963043840187578 0 0.015751790679437255 -0.027147221531230604 0 0.015752181491275906 -0.026831355032276443 0 0.015751790679437255 -0.027147221531230604 0 0.015752181491275906 -0.026831355032276443 0 0.015434553505809292 -0.02667221182964314 0 0.014989290805079533 -0.02732188294677414 0 0.015203870593664501 -0.026702637943063653 0 0.015434553505809292 -0.02667221182964314 0 0.0160450485459811 -0.026645465554626126 0 0.015752181491275906 -0.026831355032276443 0 0.015434553505809292 -0.02667221182964314 0 0.015829760141193073 -0.025945730152157061 0 0.015031137859833583 -0.026763641190641615 0 0.015704603996560484 -0.026000633595021909 0 0.014867157214853748 -0.026828464380119901 0 0.015042530453422171 -0.026185431353324299 0 0.015704603996560484 -0.026000633595021909 0 0.015042530453422171 -0.026185431353324299 0 0.015102697423408237 -0.025552945748339093 0 0.015042530453422171 -0.026185431353324299 0 0.014515583116413667 -0.025751112195003145 0 0.015102697423408237 -0.025552945748339093 0 0.014867157214853748 -0.026828464380119901 0 0.015042530453422171 -0.026185431353324299 0 0.014687302532008473 -0.026482414182238918 0 0.01443924005016441 -0.026674676452209729 0 0.014687302532008473 -0.026482414182238918 0 0.014401303637471406 -0.026239073715033527 0 0.015042530453422171 -0.026185431353324299 0 0.014687302532008473 -0.026482414182238918 0 0.014401303637471406 -0.026239073715033527 0 0.01443924005016441 -0.026674676452209729 0 0.014401303637471406 -0.026239073715033527 0 0.013723423083162338 -0.026612471844287139 0 0.014401303637471406 -0.026239073715033527 0 0.014515583116413667 -0.025751112195003145 0 0.013767699312427965 -0.025775134115053163 0 0.015042530453422171 -0.026185431353324299 0 0.014401303637471406 -0.026239073715033527 0 0.014515583116413667 -0.025751112195003145 0 0.01426536880500778 -0.024999982264455961 0 0.014515583116413667 -0.025751112195003145 0 0.015102697423408237 -0.025552945748339093 0 0.01426536880500778 -0.024999982264455961 0 0.014515583116413667 -0.025751112195003145 0 0.013767699312427965 -0.025775134115053163 0 0.015756036828690423 -0.024999989182150167 0 0.01426536880500778 -0.024999982264455961 0 0.015102697423408237 -0.025552945748339093 0 0.015756036828690423 -0.024999989182150167 0 0.015704603996560484 -0.026000633595021909 0 0.015102697423408237 -0.025552945748339093 0 0.012774754602557774 -0.025000202491601252 0 0.012526581848418337 -0.026380094735889974 0 0.012774883979450339 -0.024999990739497355 0 0.013767699312427965 -0.025775134115053163 0 0.012556297221281267 -0.026362541514485867 0 0.01426536880500778 -0.024999982264455961 0 0.012774883979450339 -0.024999990739497355 0 0.013767699312427965 -0.025775134115053163 0 0.014401303637471406 -0.026239073715033527 0 0.013767699312427965 -0.025775134115053163 0 0.013723423083162338 -0.026612471844287139 0 0.013767699312427965 -0.025775134115053163 0 0.012556297221281267 -0.026362541514485867 0 0.013723423083162338 -0.026612471844287139 0 0.012277752716168806 -0.027708288750656659 0 0.012556297221281267 -0.026362541514485867 0 0.013051059520725602 -0.027046764362053746 0 0.012556297221281267 -0.026362541514485867 0 0.013051059520725602 -0.027046764362053746 0 0.013723423083162338 -0.026612471844287139 0 0.013051059520725602 -0.027046764362053746 0 0.013723423083162338 -0.026612471844287139 0 0.013635424922526637 -0.027188426874978501 0 0.014211943725055643 -0.026999416217593834 0 0.013723423083162338 -0.026612471844287139 0 0.013635424922526637 -0.027188426874978501 0 0.014056254167338758 -0.02764024134837784 0 0.013635424922526637 -0.027188426874978501 0 0.013185931431083278 -0.027614901203565051 0 0.014056254167338758 -0.02764024134837784 0 0.013185931431083278 -0.027614901203565051 0 0.013304534800496155 -0.028455076846261213 0 0.014056254167338758 -0.02764024134837784 0 0.014211943725055643 -0.026999416217593834 0 0.013635424922526637 -0.027188426874978501 0 0.012277752716168806 -0.027708288750656659 0 0.013185931431083278 -0.027614901203565051 0 0.012791300527822791 -0.028102589902209631 0 0.012277752716168806 -0.027708288750656659 0 0.013051059520725602 -0.027046764362053746 0 0.013185931431083278 -0.027614901203565051 0 0.013051059520725602 -0.027046764362053746 0 0.013635424922526637 -0.027188426874978501 0 0.013185931431083278 -0.027614901203565051 0 0.013185931431083278 -0.027614901203565051 0 0.012791300527822791 -0.028102589902209631 0 0.013304534800496155 -0.028455076846261213 0 0.012791300527822791 -0.028102589902209631 0 0.013304534800496155 -0.028455076846261213 0 0.012819966584382439 -0.028889109787025816 0 0.012322933547963398 -0.028500856989035955 0 0.012791300527822791 -0.028102589902209631 0 0.012819966584382439 -0.028889109787025816 0 0.013304534800496155 -0.028455076846261213 0 0.012819966584382439 -0.028889109787025816 0 0.013265850896087188 -0.02935775320735361 0 0.011832665868127276 -0.027800112907748992 0 0.013589527525602815 -0.02764154553814626 0 0.012381311550844674 -0.029499587494489717 0 0.012819966584382439 -0.028889109787025816 0 0.013265850896087188 -0.02935775320735361 0 0.013508985795994138 -0.02915385263368395 0 0.014062021137816167 -0.028730412028577311 0 0.01401503636239008 -0.028125891375602296 0 0.014695962211262967 -0.025262960484294328 0 0.013859186702423917 -0.025423538804533484 0 0.014603435957275045 -0.024714646118839195 0 0.014725986971094106 -0.025472492035560436 0 0.01558580435665897 -0.022871604605906443 0 0.013589527525602815 -0.02764154553814626 0 0.014725986971094106 -0.025472492035560436 0 0.013508985795994138 -0.02915385263368395 0 0.014102527061831861 -0.029045987863510276 0 0.014062021137816167 -0.028730412028577311 0 0.014102527061831861 -0.029045987863510276 0 0.014062021137816167 -0.028730412028577311 0 0.014666542269915801 -0.028589242399149617 0 0.013589527525602815 -0.02764154553814626 0 0.013797874486733485 -0.028802240634517827 0 0.013304534800496155 -0.028455076846261213 0 0.013265850896087188 -0.02935775320735361 0 0.01401503636239008 -0.028125891375602296 0 0.014062021137816167 -0.028730412028577311 0 0.01401503636239008 -0.028125891375602296 0 0.014666542269915801 -0.028589242399149617 0 0.014305069691267084 -0.027512893788419084 0 0.013304534800496155 -0.028455076846261213 0 0.01401503636239008 -0.028125891375602296 0 0.014166770794673822 -0.027595700001962643 0 0.013362718755242144 -0.028401862849557723 0 0.015651223638590717 -0.025847196499825635 0 0.01546980211039801 -0.026031221402992143 0 0.015496926778570942 -0.025736687681121782 0 0.014733054284437296 -0.027890775469136864 0 0.01401503636239008 -0.028125891375602296 0 0.014666542269915801 -0.028589242399149617 0 0.014733054284437296 -0.027890775469136864 0 0.014666542269915801 -0.028589242399149617 0 0.01526087911104008 -0.028061515800758038 0 0.015047201356283624 -0.027255877752846637 0 0.015413347542246275 -0.027614432897816333 0 0.015413347542246275 -0.027614432897816333 0 0.017070627382356256 -0.023462551761142647 0 0.015887671226598468 -0.027619714736187316 0 0.015786708854211615 -0.027507548669762402 0 0.015675102986349648 -0.02761935760811 0 0.015786708854211615 -0.027507548669762402 0 0.015671303734746744 -0.02746017037186195 0 0.015675102986349648 -0.02761935760811 0 0.015708403302147383 -0.027391039544657627 0 0.015786708854211615 -0.027507548669762402 0 0.015671303734746744 -0.02746017037186195 0 0.020776295021841258 -0.021867633857897306 0 0.021510813907462577 -0.021598020188417756 0 0.021383883151630426 -0.021255987409306818 0 0.018637096484896205 -0.024672086439158056 0 0.017070627382356256 -0.023462551761142647 0 0.015821865830267203 -0.025677089472207246 0 0.015651223638590717 -0.025847196499825635 0 0.015496926778570942 -0.025736687681121782 0 0.015545626377263276 -0.021924200707417872 0 0.01478704850439712 -0.022076735590708579 0 0.015448864005417347 -0.021405389942691561 0 0.014725986971094106 -0.025472492035560436 0 0.017070627382356256 -0.023462551761142647 0 0.014725986971094106 -0.025472492035560436 0 0.015047201356283624 -0.027255877752846637 0 0.014868835217194966 -0.020963053049844603 0 0.015581244759460062 -0.020876009031977234 0 0.015448864005417347 -0.021405389942691561 0 0.01478704850439712 -0.022076735590708579 0 0.014868835217194966 -0.020963053049844603 0 0.015448864005417347 -0.021405389942691561 0 0.017070627382356256 -0.023462551761142647 0 0.017998479797819506 -0.020793964681926604 0 0.021383883151630426 -0.021255987409306818 0 0.021342188056021127 -0.020932601646297649 0 0.021572425425140054 -0.020791643027091418 0 0.021510813907462577 -0.021598020188417756 0 0.021383883151630426 -0.021255987409306818 0 0.021572425425140054 -0.020791643027091418 0 0.021221307057238733 -0.021096031891445391 0 0.021383883151630426 -0.021255987409306818 0 0.021342188056021127 -0.020932601646297649 0 0.021342188056021127 -0.020932601646297649 0 0.021572425425140054 -0.020791643027091418 0 0.021251990159371049 -0.02052658308812684 0 0.014868835217194966 -0.020963053049844603 0 0.015581244759460062 -0.020876009031977234 0 0.015332419420801463 -0.020384901861896298 0 0.015581244759460062 -0.020876009031977234 0 0.015756277349652896 -0.020369994049975141 0 0.015332419420801463 -0.020384901861896298 0 0.015581244759460062 -0.020876009031977234 0 0.015905659198378736 -0.020726744935253925 0 0.015931034808204108 -0.021087034826459784 0 0.015905659198378736 -0.020726744935253925 0 0.016056947574447748 -0.020509563179387971 0 0.015756277349652896 -0.020369994049975141 0 0.015581244759460062 -0.020876009031977234 0 0.015905659198378736 -0.020726744935253925 0 0.015756277349652896 -0.020369994049975141 0 0.016056947574447748 -0.020509563179387971 0 0.016202540424906361 -0.020791457556798169 0 0.016275146289230491 -0.020426374849376882 0 0.015905659198378736 -0.020726744935253925 0 0.016056947574447748 -0.020509563179387971 0 0.016202540424906361 -0.020791457556798169 0 0.016556449490208191 -0.020782528465520211 0 0.016202540424906361 -0.020791457556798169 0 0.016275146289230491 -0.020426374849376882 0 0.016556449490208191 -0.020782528465520211 0 0.016202540424906361 -0.020791457556798169 0 0.016392902452776449 -0.021099310748386488 0 0.014200388699562751 -0.023302594723975067 0 0.01492568200704451 -0.023326544861857864 0 0.014278132384461368 -0.023509118452052287 0 0.014132318074714267 -0.024196947947910774 0 0.01369212985678334 -0.024604220397038471 0 0.014373007411328265 -0.023863540450697138 0 0.01492568200704451 -0.023326544861857864 0 0.016202540424906361 -0.020791457556798169 0 0.016392902452776449 -0.021099310748386488 0 0.015931034808204108 -0.021087034826459784 0 0.015905659198378736 -0.020726744935253925 0 0.016202540424906361 -0.020791457556798169 0 0.015931034808204108 -0.021087034826459784 0 0.014472946990166982 -0.026712088900327897 0 0.014132318074714267 -0.024196947947910774 0 0.013689804855424557 -0.024607381418161132 0 0.014472946990166982 -0.026712088900327897 0 0.012356549271088445 -0.0271101742123914 0 0.013689804855424557 -0.024607381418161132 0 0.016392902452776449 -0.021099310748386488 0 0.015971954618597514 -0.021506913291938101 0 0.015931034808204108 -0.021087034826459784 0 0.01492568200704451 -0.023326544861857864 0 0.01558580435665897 -0.022871604605906443 0 0.014695962211262967 -0.025262960484294328 0 0.015352772199314373 -0.024001089311065902 0 0.014603435957275045 -0.024714646118839195 0 0.013589527525602815 -0.02764154553814626 0 0.01492568200704451 -0.023326544861857864 0 0.015545626377263276 -0.021924200707417872 0 0.015971954618597514 -0.021506913291938101 0 0.015448864005417347 -0.021405389942691561 0 0.015581244759460062 -0.020876009031977234 0 0.015448864005417347 -0.021405389942691561 0 0.015931034808204108 -0.021087034826459784 0 0.015971954618597514 -0.021506913291938101 0 0.015448864005417347 -0.021405389942691561 0 0.015931034808204108 -0.021087034826459784 0 0.01566555700257061 -0.019350190703213324 0 0.015877886062234725 -0.019539132093856017 0 0.016242992135521672 -0.019400628418627788 0 0.01575580519453576 -0.019756228810972366 0 0.01594377735255996 -0.019779315058424844 0 0.015877886062234725 -0.019539132093856017 0 0.01594377735255996 -0.019779315058424844 0 0.016000939133418227 -0.0200027211356185 0 0.015782058067019437 -0.019942172423754661 0 0.01575580519453576 -0.019756228810972366 0 0.01594377735255996 -0.019779315058424844 0 0.015782058067019437 -0.019942172423754661 0 0.01575580519453576 -0.019756228810972366 0 0.015592898525987095 -0.019875594313447084 0 0.015782058067019437 -0.019942172423754661 0 0.01575580519453576 -0.019756228810972366 0 0.015592898525987095 -0.019875594313447084 0 0.015600847058678436 -0.019715965082415909 0 0.015592898525987095 -0.019875594313447084 0 0.015446665142704392 -0.019733582140932189 0 0.015600847058678436 -0.019715965082415909 0 0.015592898525987095 -0.019875594313447084 0 0.015446665142704392 -0.019733582140932189 0 0.015410259272703382 -0.019899861773751464 0 0.015446665142704392 -0.019733582140932189 0 0.015600847058678436 -0.019715965082415909 0 0.015465780266558643 -0.019497189749228622 0 0.01575580519453576 -0.019756228810972366 0 0.015600847058678436 -0.019715965082415909 0 0.015671246189265835 -0.019552425509123939 0 0.015671246189265835 -0.019552425509123939 0 0.015465780266558643 -0.019497189749228622 0 0.01566555700257061 -0.019350190703213324 0 0.015465780266558643 -0.019497189749228622 0 0.01566555700257061 -0.019350190703213324 0 0.015386183662423353 -0.01923859646558311 0 0.015600847058678436 -0.019715965082415909 0 0.015671246189265835 -0.019552425509123939 0 0.015465780266558643 -0.019497189749228622 0 0.01575580519453576 -0.019756228810972366 0 0.015671246189265835 -0.019552425509123939 0 0.015877886062234725 -0.019539132093856017 0 0.015671246189265835 -0.019552425509123939 0 0.01566555700257061 -0.019350190703213324 0 0.015877886062234725 -0.019539132093856017 0 0.015877886062234725 -0.019539132093856017 0 0.016242992135521672 -0.019400628418627788 0 0.016099196086367385 -0.019659486707722336 0 0.01642886488144768 -0.019640547115548291 0 0.016316191376102678 -0.019890608218695972 0 0.016502085179154816 -0.020168244210930084 0 0.016422951148035422 -0.01984719775268428 0 0.01635741935981766 -0.019973677570823984 0 0.016242992135521672 -0.019400628418627788 0 0.016273989044244073 -0.019719450280351734 0 0.016099196086367385 -0.019659486707722336 0 0.016242992135521672 -0.019400628418627788 0 0.01642886488144768 -0.019640547115548291 0 0.016273989044244073 -0.019719450280351734 0 0.01642886488144768 -0.019640547115548291 0 0.016273989044244073 -0.019719450280351734 0 0.016316191376102678 -0.019890608218695972 0 0.016273989044244073 -0.019719450280351734 0 0.016316191376102678 -0.019890608218695972 0 0.016150049228799243 -0.019843017819078858 0 0.01594377735255996 -0.019779315058424844 0 0.015877886062234725 -0.019539132093856017 0 0.016099196086367385 -0.019659486707722336 0 0.01594377735255996 -0.019779315058424844 0 0.016099196086367385 -0.019659486707722336 0 0.016150049228799243 -0.019843017819078858 0 0.016273989044244073 -0.019719450280351734 0 0.016099196086367385 -0.019659486707722336 0 0.016150049228799243 -0.019843017819078858 0 0.01594377735255996 -0.019779315058424844 0 0.016150049228799243 -0.019843017819078858 0 0.016000939133418227 -0.0200027211356185 0 0.016556449490208191 -0.020782528465520211 0 0.016502085179154816 -0.020168244210930084 0 0.016275146289230491 -0.020426374849376882 0 0.016150049228799243 -0.019843017819078858 0 0.016000939133418227 -0.0200027211356185 0 0.016213166579165394 -0.020090418267188555 0 0.016000939133418227 -0.0200027211356185 0 0.016213166579165394 -0.020090418267188555 0 0.016045045104711816 -0.020243429640723461 0 0.016316191376102678 -0.019890608218695972 0 0.016213166579165394 -0.020090418267188555 0 0.016502085179154816 -0.020168244210930084 0 0.016316191376102678 -0.019890608218695972 0 0.016150049228799243 -0.019843017819078858 0 0.016213166579165394 -0.020090418267188555 0 0.016213166579165394 -0.020090418267188555 0 0.016502085179154816 -0.020168244210930084 0 0.016275146289230491 -0.020426374849376882 0 0.016213166579165394 -0.020090418267188555 0 0.016275146289230491 -0.020426374849376882 0 0.016045045104711816 -0.020243429640723461 0 0.016056947574447748 -0.020509563179387971 0 0.016275146289230491 -0.020426374849376882 0 0.016045045104711816 -0.020243429640723461 0 0.016045045104711816 -0.020243429640723461 0 0.015756277349652896 -0.020369994049975141 0 0.015832886725682727 -0.020130560925524791 0 0.016056947574447748 -0.020509563179387971 0 0.016045045104711816 -0.020243429640723461 0 0.015756277349652896 -0.020369994049975141 0 0.015756277349652896 -0.020369994049975141 0 0.015832886725682727 -0.020130560925524791 0 0.015579095027220349 -0.020096343127228564 0 0.016000939133418227 -0.0200027211356185 0 0.016045045104711816 -0.020243429640723461 0 0.015832886725682727 -0.020130560925524791 0 0.015832886725682727 -0.020130560925524791 0 0.015782058067019437 -0.019942172423754661 0 0.015579095027220349 -0.020096343127228564 0 0.016000939133418227 -0.0200027211356185 0 0.015832886725682727 -0.020130560925524791 0 0.015782058067019437 -0.019942172423754661 0 0.015579095027220349 -0.020096343127228564 0 0.015410259272703382 -0.019899861773751464 0 0.01529852560733804 -0.020042810659999657 0 0.015592898525987095 -0.019875594313447084 0 0.015579095027220349 -0.020096343127228564 0 0.015410259272703382 -0.019899861773751464 0 0.015592898525987095 -0.019875594313447084 0 0.015782058067019437 -0.019942172423754661 0 0.015579095027220349 -0.020096343127228564 0 0.015756277349652896 -0.020369994049975141 0 0.015579095027220349 -0.020096343127228564 0 0.015332419420801463 -0.020384901861896298 0 0.014868835217194966 -0.020963053049844603 0 0.015332419420801463 -0.020384901861896298 0 0.014975449797867222 -0.019836554377455701 0 0.017998479797819506 -0.020793964681926604 0 0.020980747834821019 -0.018868323573152667 0 0.015579095027220349 -0.020096343127228564 0 0.015332419420801463 -0.020384901861896298 0 0.01529852560733804 -0.020042810659999657 0 0.015332419420801463 -0.020384901861896298 0 0.01529852560733804 -0.020042810659999657 0 0.014975449797867222 -0.019836554377455701 0 0.01529852560733804 -0.020042810659999657 0 0.015227954452663317 -0.019846823124641293 0 0.014975449797867222 -0.019836554377455701 0 0.015410259272703382 -0.019899861773751464 0 0.01529852560733804 -0.020042810659999657 0 0.015227954452663317 -0.019846823124641293 0 0.020980747834821019 -0.018868323573152667 0 0.024811693854299596 -0.01856744233818091 0 0.027064582533146402 -0.016660936200429348 0 0.027378109380030977 -0.016806849399745465 0 0.026983188923531465 -0.017034329324299026 0 0.021572425425140054 -0.020791643027091418 0 0.021620347930653299 -0.020265275912936923 0 0.021251990159371049 -0.02052658308812684 0 0.027064582533146402 -0.016660936200429348 0 0.027378109380030977 -0.016806849399745465 0 0.027472053888130128 -0.016339970341917021 0 0.015052887757019828 -0.019784200286437053 0 0.015274799866561523 -0.019427379883348923 0 0.015108858825034552 -0.01900458138538438 0 0.015052887757019828 -0.019784200286437053 0 0.014979297149559801 -0.019830496761587504 0 0.015108858825034552 -0.01900458138538438 0 0.020980747834821019 -0.018868323573152667 0 0.021314233689122272 -0.017564426030514248 0 0.015302859180820453 -0.019671649278450512 0 0.015052887757019828 -0.019784200286437053 0 0.015274799866561523 -0.019427379883348923 0 0.015446665142704392 -0.019733582140932189 0 0.015302859180820453 -0.019671649278450512 0 0.015347242276725848 -0.019787803276220269 0 0.015446665142704392 -0.019733582140932189 0 0.015465780266558643 -0.019497189749228622 0 0.015302859180820453 -0.019671649278450512 0 0.015410259272703382 -0.019899861773751464 0 0.015347242276725848 -0.019787803276220269 0 0.015227954452663317 -0.019846823124641293 0 0.015302859180820453 -0.019671649278450512 0 0.015347242276725848 -0.019787803276220269 0 0.015227954452663317 -0.019846823124641293 0 0.015446665142704392 -0.019733582140932189 0 0.015410259272703382 -0.019899861773751464 0 0.015347242276725848 -0.019787803276220269 0 0.015302859180820453 -0.019671649278450512 0 0.015227954452663317 -0.019846823124641293 0 0.015052887757019828 -0.019784200286437053 0 0.015227954452663317 -0.019846823124641293 0 0.015052887757019828 -0.019784200286437053 0 0.014975449797867222 -0.019836554377455701 0 0.01992893827786172 -0.019360810142947285 0 0.020980747834821019 -0.018868323573152667 0 0.015465780266558643 -0.019497189749228622 0 0.015302859180820453 -0.019671649278450512 0 0.015274799866561523 -0.019427379883348923 0 0.015465780266558643 -0.019497189749228622 0 0.015274799866561523 -0.019427379883348923 0 0.015386183662423353 -0.01923859646558311 0 0.015386183662423353 -0.01923859646558311 0 0.015108858825034552 -0.01900458138538438 0 0.015462884014958147 -0.018939925998921674 0 0.015274799866561523 -0.019427379883348923 0 0.015386183662423353 -0.01923859646558311 0 0.015108858825034552 -0.01900458138538438 0 0.027064582533146402 -0.016660936200429348 0 0.027472053888130128 -0.016339970341917021 0 0.027042928327370711 -0.016247564326135416 0 0.027472053888130128 -0.016339970341917021 0 0.027567663161692221 -0.015770176140002132 0 0.027132803247338612 -0.015727497477137007 0 0.027472053888130128 -0.016339970341917021 0 0.027132803247338612 -0.015727497477137007 0 0.027042928327370711 -0.016247564326135416 0 0.015108858825034552 -0.01900458138538438 0 0.015233687615034819 -0.018466604228900889 0 0.015462884014958147 -0.018939925998921674 0 0.021314233689122272 -0.017564426030514248 0 0.021374875629102313 -0.017126424209649816 0 0.015233687615034819 -0.018466604228900889 0 0.015601141365536624 -0.018645012613490868 0 0.015603002567066227 -0.018327639733645238 0 0.015233687615034819 -0.018466604228900889 0 0.015601141365536624 -0.018645012613490868 0 0.015462884014958147 -0.018939925998921674 0 0.015766970086442449 -0.01902065492973045 0 0.015462884014958147 -0.018939925998921674 0 0.015652941791623871 -0.018848940853309487 0 0.01566555700257061 -0.019350190703213324 0 0.016242992135521672 -0.019400628418627788 0 0.015462884014958147 -0.018939925998921674 0 0.016848600279931431 -0.019094735783675307 0 0.015178341194207964 -0.018912574129684612 0 0.015601141365536624 -0.018645012613490868 0 0.015462884014958147 -0.018939925998921674 0 0.015652941791623871 -0.018848940853309487 0 0.01566555700257061 -0.019350190703213324 0 0.015386183662423353 -0.01923859646558311 0 0.015462884014958147 -0.018939925998921674 0 0.015766970086442449 -0.01902065492973045 0 0.015652941791623871 -0.018848940853309487 0 0.015763118616806286 -0.018759212892399919 0 0.015875137350553008 -0.018979295184810122 0 0.015766970086442449 -0.01902065492973045 0 0.015763118616806286 -0.018759212892399919 0 0.016020581975589782 -0.019041113547190087 0 0.015744141896524348 -0.018770320303203355 0 0.015601141365536624 -0.018645012613490868 0 0.015853206887638877 -0.018478800543928545 0 0.015603002567066227 -0.018327639733645238 0 0.015601141365536624 -0.018645012613490868 0 0.015853206887638877 -0.018478800543928545 0 0.015763118616806286 -0.018759212892399919 0 0.016039839731541435 -0.018697527873165285 0 0.015853206887638877 -0.018478800543928545 0 0.015763118616806286 -0.018759212892399919 0 0.015601141365536624 -0.018645012613490868 0 0.015652941791623871 -0.018848940853309487 0 0.015763118616806286 -0.018759212892399919 0 0.01591542108829061 -0.018168739247200295 0 0.015853206887638877 -0.018478800543928545 0 0.015603002567066227 -0.018327639733645238 0 0.015603002567066227 -0.018327639733645238 0 0.015636688263944643 -0.01792172131592918 0 0.015304927677669137 -0.018059606592034698 0 0.015898416005707034 -0.01801768509067779 0 0.015013624897748688 -0.017699770817799162 0 0.01591542108829061 -0.018168739247200295 0 0.015603002567066227 -0.018327639733645238 0 0.015636688263944643 -0.01792172131592918 0 0.015713860099662341 -0.017814402979028518 0 0.01588741774413694 -0.017125772907409964 0 0.015255980100104552 -0.017360338671753715 0 0.01588741774413694 -0.017125772907409964 0 0.015255980100104552 -0.017360338671753715 0 0.015403145266187511 -0.016643246528775323 0 0.015013624897748688 -0.017699770817799162 0 0.0183900075483567 -0.015333401697162031 0 0.015636688263944643 -0.01792172131592918 0 0.015360235494544522 -0.017661836249494717 0 0.015304927677669137 -0.018059606592034698 0 0.015255980100104552 -0.017360338671753715 0 0.015403145266187511 -0.016643246528775323 0 0.014780464945849196 -0.016936213399932076 0 0.015403145266187511 -0.016643246528775323 0 0.014780464945849196 -0.016936213399932076 0 0.014875693982779015 -0.016143179719558254 0 0.027124152794382985 -0.013793496196912464 0 0.027312574482294776 -0.014193813633495939 0 0.026946904381108177 -0.013807578559421179 0 0.027124152794382985 -0.013793496196912464 0 0.02763662137654288 -0.014261765042925926 0 0.027312574482294776 -0.014193813633495939 0 0.0183900075483567 -0.015333401697162031 0 0.015462475152614388 -0.013590957070739597 0 0.022717126598288031 -0.012372183360840392 0 0.0183900075483567 -0.015333401697162031 0 0.017222399352736797 -0.011302337463768266 0 0.016818152710635501 -0.011076124096801313 0 0.016681773713765211 -0.011567952051732363 0 0.0183900075483567 -0.015333401697162031 0 0.021711055741849068 -0.016676601488876275 0 0.02763662137654288 -0.014261765042925926 0 0.027435110243156747 -0.014671848045856294 0 0.027312574482294776 -0.014193813633495939 0 0.02763662137654288 -0.014261765042925926 0 0.027435110243156747 -0.014671848045856294 0 0.027637992847062583 -0.015107742374427515 0 0.027310691624370168 -0.014195944110783711 0 0.026872836847858357 -0.014293884878790939 0 0.027312574482294776 -0.014193813633495939 0 0.02712362114290686 -0.014916897752914264 0 0.026695977543218837 -0.014797150277179684 0 0.027435110243156747 -0.014671848045856294 0 0.027312574482294776 -0.014193813633495939 0 0.02712362114290686 -0.014916897752914264 0 0.02712362114290686 -0.014916897752914264 0 0.027637992847062583 -0.015107742374427515 0 0.027132803247338612 -0.015727497477137007 0 0.027435110243156747 -0.014671848045856294 0 0.02712362114290686 -0.014916897752914264 0 0.027637992847062583 -0.015107742374427515 0 0.027567663161692221 -0.015770176140002132 0 0.027637992847062583 -0.015107742374427515 0 0.027132803247338612 -0.015727497477137007 0 0.015233687615034819 -0.018466604228900889 0 0.015603002567066227 -0.018327639733645238 0 0.015304927677669137 -0.018059606592034698 0 0.021374875629102313 -0.017126424209649816 0 0.021711055741849068 -0.016676601488876275 0 0.02712362114290686 -0.014916897752914264 0 0.027132803247338612 -0.015727497477137007 0 0.026830772060959532 -0.015354756265896743 0 0.026830772060959532 -0.015354756265896743 0 0.02655400219286538 -0.015444251994616475 0 0.026771832962291874 -0.015913733221712561 0 0.027132803247338612 -0.015727497477137007 0 0.026830772060959532 -0.015354756265896743 0 0.026771832962291874 -0.015913733221712561 0 0.02655400219286538 -0.015444251994616475 0 0.026360218394713253 -0.015682702252671519 0 0.026771832962291874 -0.015913733221712561 0 0.02655400219286538 -0.015444251994616475 0 0.026311406709225247 -0.015361006016894253 0 0.026360218394713253 -0.015682702252671519 0 0.026872836847858357 -0.014293884878790939 0 0.026519339393375706 -0.0145932091889108 0 0.026830772060959532 -0.015354756265896743 0 0.026429685673632408 -0.01511119918625415 0 0.026695977543218837 -0.014797150277179684 0 0.026429685673632408 -0.01511119918625415 0 0.026695977543218837 -0.014797150277179684 0 0.026185564639982811 -0.01514471330456443 0 0.026830772060959532 -0.015354756265896743 0 0.02655400219286538 -0.015444251994616475 0 0.026429685673632408 -0.01511119918625415 0 0.02655400219286538 -0.015444251994616475 0 0.026429685673632408 -0.01511119918625415 0 0.026311406709225247 -0.015361006016894253 0 0.02712362114290686 -0.014916897752914264 0 0.026830772060959532 -0.015354756265896743 0 0.026695977543218837 -0.014797150277179684 0 0.027312574482294776 -0.014193813633495939 0 0.026941724783969747 -0.013879694637918388 0 0.026946904381108177 -0.013807578559421179 0 0.026941724783969747 -0.013879694637918388 0 0.026928045443433496 -0.013751812058388765 0 0.026946447072505802 -0.013645369766646896 0 0.026941724783969747 -0.013879694637918388 0 0.026928045443433496 -0.013751812058388765 0 0.026946904381108177 -0.013807578559421179 0 0.026922097685706543 -0.013740134747326245 0 0.026946904381108177 -0.013807578559421179 0 0.026919086431090256 -0.013674339886128756 0 0.026928045443433496 -0.013751812058388765 0 0.026922097685706543 -0.013740134747326245 0 0.026946904381108177 -0.013807578559421179 0 0.027124152794382985 -0.013793496196912464 0 0.026946904381108177 -0.013807578559421179 0 0.026919086431090256 -0.013674339886128756 0 0.027001443721341851 -0.013697798464416417 0 0.026946259562568568 -0.013711204024872048 0 0.02693977043603285 -0.013697548158817716 0 0.027001443721341851 -0.013697798464416417 0 0.026946259562568568 -0.013711204024872048 0 0.027024363878768217 -0.013652681792738746 0 0.026946259562568568 -0.013711204024872048 0 0.026966512887969814 -0.013693040908480256 0 0.027024363878768217 -0.013652681792738746 0 0.027001443721341851 -0.013697798464416417 0 0.027024363878768217 -0.013652681792738746 0 0.027177023099810359 -0.01359040074697195 0 0.026928045443433496 -0.013751812058388765 0 0.026922097685706543 -0.013740134747326245 0 0.026946259562568568 -0.013711204024872048 0 0.026922097685706543 -0.013740134747326245 0 0.026946259562568568 -0.013711204024872048 0 0.02691924989150369 -0.013696184914255496 0 0.026928045443433496 -0.013751812058388765 0 0.026946259562568568 -0.013711204024872048 0 0.026966512887969814 -0.013693040908480256 0 0.026966512887969814 -0.013693040908480256 0 0.027029149560400118 -0.013627888259800635 0 0.026946447072505802 -0.013645369766646896 0 0.026928045443433496 -0.013751812058388765 0 0.026966512887969814 -0.013693040908480256 0 0.026946447072505802 -0.013645369766646896 0 0.026966512887969814 -0.013693040908480256 0 0.027029149560400118 -0.013627888259800635 0 0.027024363878768217 -0.013652681792738746 0 0.027029149560400118 -0.013627888259800635 0 0.027024363878768217 -0.013652681792738746 0 0.027103771165149726 -0.013585012100607927 0 0.026519339393375706 -0.0145932091889108 0 0.026215486908025554 -0.015342913456945446 0 0.026519339393375706 -0.0145932091889108 0 0.026877502514164441 -0.01422465451945624 0 0.026537304684597193 -0.014658172843499078 0 0.026553245839996482 -0.014654241450071511 0 0.026557725809428633 -0.014658956230840924 0 0.026196744893024981 -0.015134612811031468 0 0.026000446724041119 -0.015453403653926735 0 0.025639195327394084 -0.015346956890155214 0 0.027029149560400118 -0.013627888259800635 0 0.026946447072505802 -0.013645369766646896 0 0.027122490803028344 -0.013546467336156987 0 0.026322061387096828 -0.014996380936567286 0 0.026519339393375706 -0.0145932091889108 0 0.026196744893024981 -0.015134612811031468 0 0.026311406709225247 -0.015361006016894253 0 0.026000446724041119 -0.015453403653926735 0 0.026429685673632408 -0.01511119918625415 0 0.026196744893024981 -0.015134612811031468 0 0.026311406709225247 -0.015361006016894253 0 0.026360218394713253 -0.015682702252671519 0 0.026000446724041119 -0.015453403653926735 0 0.025917891773850427 -0.015880450591045207 0 0.026311406709225247 -0.015361006016894253 0 0.026360218394713253 -0.015682702252671519 0 0.026000446724041119 -0.015453403653926735 0 0.026000446724041119 -0.015453403653926735 0 0.025917891773850427 -0.015880450591045207 0 0.025639195327394084 -0.015346956890155214 0 0.026450958610195738 -0.016134646855501741 0 0.026292446098198741 -0.015953851896466014 0 0.026381179460930153 -0.015607265198398404 0 0.026163288445819607 -0.016011817208488332 0 0.026215486908025554 -0.015342913456945446 0 0.026163288445819607 -0.016011817208488332 0 0.026353161291416547 -0.016400718838583468 0 0.026450958610195738 -0.016134646855501741 0 0.026249261950525987 -0.016493133854909723 0 0.026365574197706219 -0.016452729063301745 0 0.026360218394713253 -0.015682702252671519 0 0.025917891773850427 -0.015880450591045207 0 0.026457077348392984 -0.016085297757894981 0 0.025917891773850427 -0.015880450591045207 0 0.026365574197706219 -0.016452729063301745 0 0.026457077348392984 -0.016085297757894981 0 0.026360218394713253 -0.015682702252671519 0 0.026457077348392984 -0.016085297757894981 0 0.026771832962291874 -0.015913733221712561 0 0.026457077348392984 -0.016085297757894981 0 0.026771832962291874 -0.015913733221712561 0 0.026735604437835857 -0.016411410550290131 0 0.027132803247338612 -0.015727497477137007 0 0.026771832962291874 -0.015913733221712561 0 0.027042928327370711 -0.016247564326135416 0 0.026771832962291874 -0.015913733221712561 0 0.027042928327370711 -0.016247564326135416 0 0.026735604437835857 -0.016411410550290131 0 0.027064582533146402 -0.016660936200429348 0 0.027042928327370711 -0.016247564326135416 0 0.026735604437835857 -0.016411410550290131 0 0.026365574197706219 -0.016452729063301745 0 0.026457077348392984 -0.016085297757894981 0 0.026735604437835857 -0.016411410550290131 0 0.026365574197706219 -0.016452729063301745 0 0.026735604437835857 -0.016411410550290131 0 0.026699533069966783 -0.016809302198456808 0 0.027064582533146402 -0.016660936200429348 0 0.026735604437835857 -0.016411410550290131 0 0.026699533069966783 -0.016809302198456808 0 0.027064582533146402 -0.016660936200429348 0 0.026699533069966783 -0.016809302198456808 0 0.026983188923531465 -0.017034329324299026 0 0.026655634996138117 -0.017254032912999893 0 0.026699533069966783 -0.016809302198456808 0 0.026983188923531465 -0.017034329324299026 0 0.026655634996138117 -0.017254032912999893 0 0.026699533069966783 -0.016809302198456808 0 0.026437224018547097 -0.016960775644166464 0 0.026437224018547097 -0.016960775644166464 0 0.026159042762561698 -0.016775782485426327 0 0.026082399735409514 -0.017079410668097567 0 0.026365574197706219 -0.016452729063301745 0 0.026437224018547097 -0.016960775644166464 0 0.026159042762561698 -0.016775782485426327 0 0.026249261950525987 -0.016493133854909723 0 0.026365574197706219 -0.016452729063301745 0 0.026159042762561698 -0.016775782485426327 0 0.026365574197706219 -0.016452729063301745 0 0.026699533069966783 -0.016809302198456808 0 0.026437224018547097 -0.016960775644166464 0 0.025894718841422699 -0.016903962864141631 0 0.025798401385878116 -0.016810067276655499 0 0.026071972522536176 -0.016410958411325137 0 0.026159042762561698 -0.016775782485426327 0 0.025894718841422699 -0.016903962864141631 0 0.026071972522536176 -0.016410958411325137 0 0.026159042762561698 -0.016775782485426327 0 0.026082399735409514 -0.017079410668097567 0 0.025894718841422699 -0.016903962864141631 0 0.025754452805765146 -0.017172179751936675 0 0.026082399735409514 -0.017079410668097567 0 0.025894718841422699 -0.016903962864141631 0 0.025754452805765146 -0.017172179751936675 0 0.025894718841422699 -0.016903962864141631 0 0.025639809733069834 -0.016967254612179163 0 0.025894718841422699 -0.016903962864141631 0 0.025639809733069834 -0.016967254612179163 0 0.025798401385878116 -0.016810067276655499 0 0.025639809733069834 -0.016967254612179163 0 0.025798401385878116 -0.016810067276655499 0 0.025721277295344153 -0.016889478751107613 0 0.024997176929493988 -0.016809070684775253 0 0.025768468783610117 -0.017571732609661436 0 0.025639809733069834 -0.016967254612179163 0 0.025763577376147685 -0.01700681608610994 0 0.025721277295344153 -0.016889478751107613 0 0.025639809733069834 -0.016967254612179163 0 0.025763577376147685 -0.01700681608610994 0 0.026025245445486817 -0.017084479490604307 0 0.025639809733069834 -0.016967254612179163 0 0.026025245445486817 -0.017084479490604307 0 0.026153808746011351 -0.017059679702884481 0 0.025763577376147685 -0.01700681608610994 0 0.025730199490229342 -0.016944224262062393 0 0.025721277295344153 -0.016889478751107613 0 0.025763577376147685 -0.01700681608610994 0 0.025748080410922594 -0.01697451063222077 0 0.025730199490229342 -0.016944224262062393 0 0.025763577376147685 -0.01700681608610994 0 0.025785195040975373 -0.01699044695834339 0 0.026025245445486817 -0.017084479490604307 0 0.025678735438910378 -0.016923994024021883 0 0.025785195040975373 -0.01699044695834339 0 0.026025245445486817 -0.017084479490604307 0 0.025763577376147685 -0.01700681608610994 0 0.025785195040975373 -0.01699044695834339 0 0.025748080410922594 -0.01697451063222077 0 0.025678735438910378 -0.016923994024021883 0 0.025721277295344153 -0.016889478751107613 0 0.025597426230137742 -0.016491174357421725 0 0.025678735438910378 -0.016923994024021883 0 0.025785195040975373 -0.01699044695834339 0 0.025748080410922594 -0.01697451063222077 0 0.025678735438910378 -0.016923994024021883 0 0.025748080410922594 -0.01697451063222077 0 0.025730199490229342 -0.016944224262062393 0 0.025678735438910378 -0.016923994024021883 0 0.025730199490229342 -0.016944224262062393 0 0.025721277295344153 -0.016889478751107613 0 0.025798401385878116 -0.016810067276655499 0 0.025721277295344153 -0.016889478751107613 0 0.025597426230137742 -0.016491174357421725 0 0.025798401385878116 -0.016810067276655499 0 0.025597426230137742 -0.016491174357421725 0 0.025828854869988593 -0.016333224042781695 0 0.02642082935274211 -0.015590807273770196 0 0.026539550723448543 -0.015268574211713563 0 0.026364482741233739 -0.015280506382698329 0 0.026198681816261848 -0.016650999034385269 0 0.026070146416137138 -0.015800396215881116 0 0.026539550723448543 -0.015268574211713563 0 0.026459866595196342 -0.015054757819595432 0 0.026364482741233739 -0.015280506382698329 0 0.026539550723448543 -0.015268574211713563 0 0.026494835032628943 -0.014976383975983039 0 0.026459866595196342 -0.015054757819595432 0 0.025597426230137742 -0.016491174357421725 0 0.025828854869988593 -0.016333224042781695 0 0.02572436371512413 -0.015936152313622685 0 0.026070146416137138 -0.015800396215881116 0 0.026118691151987845 -0.015489083363274123 0 0.025828854869988593 -0.016333224042781695 0 0.026134963707939166 -0.015794385114555505 0 0.02572436371512413 -0.015936152313622685 0 0.025828854869988593 -0.016333224042781695 0 0.026071972522536176 -0.016410958411325137 0 0.026134963707939166 -0.015794385114555505 0 0.025798401385878116 -0.016810067276655499 0 0.025828854869988593 -0.016333224042781695 0 0.026071972522536176 -0.016410958411325137 0 0.026450958610195738 -0.016134646855501741 0 0.026249261950525987 -0.016493133854909723 0 0.026071972522536176 -0.016410958411325137 0 0.026249261950525987 -0.016493133854909723 0 0.026159042762561698 -0.016775782485426327 0 0.026071972522536176 -0.016410958411325137 0 0.026450958610195738 -0.016134646855501741 0 0.026071972522536176 -0.016410958411325137 0 0.026292446098198741 -0.015953851896466014 0 0.026071972522536176 -0.016410958411325137 0 0.026292446098198741 -0.015953851896466014 0 0.026134963707939166 -0.015794385114555505 0 0.026134963707939166 -0.015794385114555505 0 0.026381179460930153 -0.015607265198398404 0 0.026234477346898662 -0.015513242022456065 0 0.026292446098198741 -0.015953851896466014 0 0.026134963707939166 -0.015794385114555505 0 0.026381179460930153 -0.015607265198398404 0 0.026134963707939166 -0.015794385114555505 0 0.026236230572564957 -0.015284876025181171 0 0.02572436371512413 -0.015936152313622685 0 0.026219389936359919 -0.015293933942853189 0 0.026118691151987845 -0.015489083363274123 0 0.026236230572564957 -0.015284876025181171 0 0.026234467505598803 -0.015441720061150398 0 0.026294976756718706 -0.015189316009010504 0 0.027433148024716074 -0.013754331658705566 0 0.027292032166964849 -0.013672883266850445 0 0.027168635516323512 -0.013770913192362975 0 0.026134963707939166 -0.015794385114555505 0 0.026236230572564957 -0.015284876025181171 0 0.026234477346898662 -0.015513242022456065 0 0.026236230572564957 -0.015284876025181171 0 0.026294976756718706 -0.015189316009010504 0 0.026494835032628943 -0.014976383975983039 0 0.026877502514164441 -0.01422465451945624 0 0.026705081759127718 -0.014514396550045293 0 0.026236230572564957 -0.015284876025181171 0 0.026234477346898662 -0.015513242022456065 0 0.026234467505598803 -0.015441720061150398 0 0.026215486908025554 -0.015342913456945446 0 0.026877502514164441 -0.01422465451945624 0 0.026381179460930153 -0.015607265198398404 0 0.026234477346898662 -0.015513242022456065 0 0.026234467505598803 -0.015441720061150398 0 0.027029149560400118 -0.013627888259800635 0 0.027122490803028344 -0.013546467336156987 0 0.027103771165149726 -0.013585012100607927 0 0.026877502514164441 -0.01422465451945624 0 0.027319969114836931 -0.013364703990856288 0 0.027122490803028344 -0.013546467336156987 0 0.027103771165149726 -0.013585012100607927 0 0.027177023099810359 -0.01359040074697195 0 0.027122490803028344 -0.013546467336156987 0 0.027177023099810359 -0.01359040074697195 0 0.027279427625447692 -0.013512227629133584 0 0.027433148024716074 -0.013754331658705566 0 0.027292032166964849 -0.013672883266850445 0 0.027279427625447692 -0.013512227629133584 0 0.027024363878768217 -0.013652681792738746 0 0.027103771165149726 -0.013585012100607927 0 0.027177023099810359 -0.01359040074697195 0 0.027292032166964849 -0.013672883266850445 0 0.027211811185359595 -0.013671281216124518 0 0.027168635516323512 -0.013770913192362975 0 0.027292032166964849 -0.013672883266850445 0 0.027211811185359595 -0.013671281216124518 0 0.02724535678748221 -0.013581909872304215 0 0.027211811185359595 -0.013671281216124518 0 0.027183462578079468 -0.013581901047334638 0 0.02724535678748221 -0.013581909872304215 0 0.027183462578079468 -0.013581901047334638 0 0.02724535678748221 -0.013581909872304215 0 0.027238305757758569 -0.013479520573486512 0 0.027292032166964849 -0.013672883266850445 0 0.02724535678748221 -0.013581909872304215 0 0.027279427625447692 -0.013512227629133584 0 0.02724535678748221 -0.013581909872304215 0 0.027279427625447692 -0.013512227629133584 0 0.027238305757758569 -0.013479520573486512 0 0.027279427625447692 -0.013512227629133584 0 0.027238305757758569 -0.013479520573486512 0 0.027325765728673831 -0.013367807552702874 0 0.027183462578079468 -0.013581901047334638 0 0.027238305757758569 -0.013479520573486512 0 0.027133612797574421 -0.013451496396182641 0 0.027238305757758569 -0.013479520573486512 0 0.027206756367117467 -0.013313261649236815 0 0.027133612797574421 -0.013451496396182641 0 0.027206756367117467 -0.013313261649236815 0 0.027325765728673831 -0.013367807552702874 0 0.027268313009065306 -0.013134221584617731 0 0.027238305757758569 -0.013479520573486512 0 0.027206756367117467 -0.013313261649236815 0 0.027325765728673831 -0.013367807552702874 0 0.027189398533239324 -0.013547419341576196 0 0.027210127338586798 -0.013418212380483876 0 0.027177023099810359 -0.01359040074697195 0 0.027325765728673831 -0.013367807552702874 0 0.027463341490130851 -0.013210511063085278 0 0.027001443721341851 -0.013697798464416417 0 0.027177023099810359 -0.01359040074697195 0 0.02700505231806 -0.013701813538160001 0 0.027177023099810359 -0.01359040074697195 0 0.027279427625447692 -0.013512227629133584 0 0.027325765728673831 -0.013367807552702874 0 0.02678396327888442 -0.013223208360614278 0 0.026981079771488715 -0.013400659965000429 0 0.026847829438570118 -0.013556804952852683 0 0.02678396327888442 -0.013223208360614278 0 0.026847829438570118 -0.013556804952852683 0 0.026577211956613802 -0.013505038868152614 0 0.02678396327888442 -0.013223208360614278 0 0.026981079771488715 -0.013400659965000429 0 0.026968346951963283 -0.013134125328531429 0 0.027089228084184999 -0.013284422099941694 0 0.026981079771488715 -0.013400659965000429 0 0.026968346951963283 -0.013134125328531429 0 0.027206756367117467 -0.013313261649236815 0 0.027089228084184999 -0.013284422099941694 0 0.027133612797574421 -0.013451496396182641 0 0.027206756367117467 -0.013313261649236815 0 0.027089228084184999 -0.013284422099941694 0 0.027132052665455011 -0.013092072413355546 0 0.027089228084184999 -0.013284422099941694 0 0.027133612797574421 -0.013451496396182641 0 0.026981079771488715 -0.013400659965000429 0 0.027133612797574421 -0.013451496396182641 0 0.026981079771488715 -0.013400659965000429 0 0.027070951931978018 -0.013632320621110699 0 0.027070951931978018 -0.013632320621110699 0 0.026838292798262071 -0.013927215087729969 0 0.027168635516323512 -0.013770913192362975 0 0.027183462578079468 -0.013581901047334638 0 0.027133612797574421 -0.013451496396182641 0 0.027070951931978018 -0.013632320621110699 0 0.027211811185359595 -0.013671281216124518 0 0.027070951931978018 -0.013632320621110699 0 0.027168635516323512 -0.013770913192362975 0 0.027211811185359595 -0.013671281216124518 0 0.027183462578079468 -0.013581901047334638 0 0.027070951931978018 -0.013632320621110699 0 0.027070951931978018 -0.013632320621110699 0 0.026847829438570118 -0.013556804952852683 0 0.026838292798262071 -0.013927215087729969 0 0.026847829438570118 -0.013556804952852683 0 0.026838292798262071 -0.013927215087729969 0 0.026577211956613802 -0.013505038868152614 0 0.026981079771488715 -0.013400659965000429 0 0.027070951931978018 -0.013632320621110699 0 0.026847829438570118 -0.013556804952852683 0 0.026635108149513129 -0.014328907053432703 0 0.026705081759127718 -0.014514396550045293 0 0.026544157364974629 -0.014724534526094544 0 0.026294976756718706 -0.015189316009010504 0 0.026496737031575825 -0.01495552362898093 0 0.026496737031575825 -0.01495552362898093 0 0.026494835032628943 -0.014976383975983039 0 0.026459866595196342 -0.015054757819595432 0 0.026294976756718706 -0.015189316009010504 0 0.026496737031575825 -0.01495552362898093 0 0.026494835032628943 -0.014976383975983039 0 0.026544157364974629 -0.014724534526094544 0 0.026496737031575825 -0.01495552362898093 0 0.026459866595196342 -0.015054757819595432 0 0.026544157364974629 -0.014724534526094544 0 0.026459866595196342 -0.015054757819595432 0 0.026213419248172044 -0.015035182113725369 0 0.026213419248172044 -0.015035182113725369 0 0.026232460700759602 -0.014257596424426467 0 0.025834784017843688 -0.01461408697191895 0 0.026635108149513129 -0.014328907053432703 0 0.026224322331053977 -0.014265963503209286 0 0.026544157364974629 -0.014724534526094544 0 0.026213419248172044 -0.015035182113725369 0 0.026232460700759602 -0.014257596424426467 0 0.026838292798262071 -0.013927215087729969 0 0.026232460700759602 -0.014257596424426467 0 0.026577211956613802 -0.013505038868152614 0 0.026232460700759602 -0.014257596424426467 0 0.026164839467046917 -0.01341488903445971 0 0.026577211956613802 -0.013505038868152614 0 0.026232460700759602 -0.014257596424426467 0 0.026164839467046917 -0.01341488903445971 0 0.025759271667136357 -0.01381910769863161 0 0.026164839467046917 -0.01341488903445971 0 0.025766830510285114 -0.012946996472813412 0 0.026402437485765706 -0.012787677443822618 0 0.026164839467046917 -0.01341488903445971 0 0.026577211956613802 -0.013505038868152614 0 0.026402437485765706 -0.012787677443822618 0 0.02678396327888442 -0.013223208360614278 0 0.026577211956613802 -0.013505038868152614 0 0.026402437485765706 -0.012787677443822618 0 0.025766830510285114 -0.012946996472813412 0 0.024999721665698298 -0.013312703397624375 0 0.025321493347502468 -0.012420349364278346 0 0.026164839467046917 -0.01341488903445971 0 0.025766830510285114 -0.012946996472813412 0 0.025759271667136357 -0.01381910769863161 0 0.025766830510285114 -0.012946996472813412 0 0.025759271667136357 -0.01381910769863161 0 0.024999721665698298 -0.013312703397624375 0 0.025759271667136357 -0.01381910769863161 0 0.024999721665698298 -0.013312703397624375 0 0.025433894703002474 -0.014272124659204643 0 0.024999721665698298 -0.013312703397624375 0 0.025433894703002474 -0.014272124659204643 0 0.024999904764806076 -0.014686793014704956 0 0.025433894703002474 -0.014272124659204643 0 0.024999904764806076 -0.014686793014704956 0 0.025451839955002938 -0.014848421955715481 0 0.026232460700759602 -0.014257596424426467 0 0.025759271667136357 -0.01381910769863161 0 0.025834784017843688 -0.01461408697191895 0 0.025759271667136357 -0.01381910769863161 0 0.025433894703002474 -0.014272124659204643 0 0.025834784017843688 -0.01461408697191895 0 0.025433894703002474 -0.014272124659204643 0 0.025834784017843688 -0.01461408697191895 0 0.025451839955002938 -0.014848421955715481 0 0.026213419248172044 -0.015035182113725369 0 0.025834784017843688 -0.01461408697191895 0 0.02571166188026457 -0.015121213682128957 0 0.025834784017843688 -0.01461408697191895 0 0.02571166188026457 -0.015121213682128957 0 0.025451839955002938 -0.014848421955715481 0 0.02571166188026457 -0.015121213682128957 0 0.025176259501309813 -0.015453351449393738 0 0.025451839955002938 -0.014848421955715481 0 0.024999904764806076 -0.014686793014704956 0 0.025176259501309813 -0.015453351449393738 0 0.024999899560051411 -0.016061513803610119 0 0.024999904764806076 -0.014686793014704956 0 0.025176259501309813 -0.015453351449393738 0 0.025451839955002938 -0.014848421955715481 0 0.024999899560051411 -0.016061513803610119 0 0.025493422456177531 -0.016789810721984891 0 0.026075119378189057 -0.016426618588955489 0 0.025176259501309813 -0.015453351449393738 0 0.024999899560051411 -0.016061513803610119 0 0.026075119378189057 -0.016426618588955489 0 0.025204412837918206 -0.015448958402819797 0 0.025884161951224494 -0.015887307981708839 0 0.024999899560051411 -0.016061513803610119 0 0.025493422456177531 -0.016789810721984891 0 0.025000083216260592 -0.017435913718712063 0 0.025493422456177531 -0.016789810721984891 0 0.026120815506427884 -0.017135577078186401 0 0.025000083216260592 -0.017435913718712063 0 0.025493422456177531 -0.016789810721984891 0 0.026120815506427884 -0.017135577078186401 0 0.026075119378189057 -0.016426618588955489 0 0.026213419248172044 -0.015035182113725369 0 0.02571166188026457 -0.015121213682128957 0 0.025808534838863421 -0.015365071553893241 0 0.02571166188026457 -0.015121213682128957 0 0.025176259501309813 -0.015453351449393738 0 0.025808534838863421 -0.015365071553893241 0 0.026213419248172044 -0.015035182113725369 0 0.025808534838863421 -0.015365071553893241 0 0.026167483820165441 -0.015454700062545656 0 0.026459866595196342 -0.015054757819595432 0 0.026213419248172044 -0.015035182113725369 0 0.026364482741233739 -0.015280506382698329 0 0.026213419248172044 -0.015035182113725369 0 0.026364482741233739 -0.015280506382698329 0 0.026167483820165441 -0.015454700062545656 0 0.02642082935274211 -0.015590807273770196 0 0.026364482741233739 -0.015280506382698329 0 0.026167483820165441 -0.015454700062545656 0 0.025884161951224494 -0.015887307981708839 0 0.026253847783699741 -0.016261842366401481 0 0.026120815506427884 -0.017135577078186401 0 0.026075119378189057 -0.016426618588955489 0 0.026374418776977611 -0.017151862929476819 0 0.026120815506427884 -0.017135577078186401 0 0.026299544638422649 -0.017358920388129102 0 0.026200843414367188 -0.017728127380273268 0 0.026120815506427884 -0.017135577078186401 0 0.026374418776977611 -0.017151862929476819 0 0.026299544638422649 -0.017358920388129102 0 0.026149301958431057 -0.017361023689327695 0 0.026374418776977611 -0.017151862929476819 0 0.026211217958152001 -0.017318044340045344 0 0.026374418776977611 -0.017151862929476819 0 0.026299544638422649 -0.017358920388129102 0 0.026211217958152001 -0.017318044340045344 0 0.026198681816261848 -0.016650999034385269 0 0.026253847783699741 -0.016261842366401481 0 0.026299544638422649 -0.017358920388129102 0 0.026211217958152001 -0.017318044340045344 0 0.026240389358083996 -0.017267106741057921 0 0.026149301958431057 -0.017361023689327695 0 0.026211217958152001 -0.017318044340045344 0 0.026144386464148045 -0.0172398679104326 0 0.026211217958152001 -0.017318044340045344 0 0.026144386464148045 -0.0172398679104326 0 0.026240389358083996 -0.017267106741057921 0 0.026198681816261848 -0.016650999034385269 0 0.025949686540840854 -0.017164519531429244 0 0.026149301958431057 -0.017361023689327695 0 0.026144386464148045 -0.0172398679104326 0 0.026025245445486817 -0.017084479490604307 0 0.026144386464148045 -0.0172398679104326 0 0.026120090021925127 -0.017162315125439875 0 0.026240389358083996 -0.017267106741057921 0 0.026025245445486817 -0.017084479490604307 0 0.026120090021925127 -0.017162315125439875 0 0.026153808746011351 -0.017059679702884481 0 0.026144386464148045 -0.0172398679104326 0 0.026025245445486817 -0.017084479490604307 0 0.026120090021925127 -0.017162315125439875 0 0.026299544638422649 -0.017358920388129102 0 0.026240389358083996 -0.017267106741057921 0 0.026252991207643173 -0.017174746572284599 0 0.026204826692733895 -0.017181381963328371 0 0.026240389358083996 -0.017267106741057921 0 0.026252991207643173 -0.017174746572284599 0 0.026120090021925127 -0.017162315125439875 0 0.026204826692733895 -0.017181381963328371 0 0.026240389358083996 -0.017267106741057921 0 0.026120090021925127 -0.017162315125439875 0 0.026204826692733895 -0.017181381963328371 0 0.026153808746011351 -0.017059679702884481 0 0.025806508390054005 -0.017498811808296825 0 0.025768468783610117 -0.017571732609661436 0 0.026299544638422649 -0.017358920388129102 0 0.026252991207643173 -0.017174746572284599 0 0.026200843414367188 -0.017728127380273268 0 0.025768468783610117 -0.017571732609661436 0 0.026700070525751754 -0.017769084315492446 0 0.026362514263051424 -0.018813948890745735 0 0.027652888057464901 -0.018177938938650315 0 0.026200843414367188 -0.017728127380273268 0 0.024999815897508115 -0.018810154919123773 0 0.026362514263051424 -0.018813948890745735 0 0.026200843414367188 -0.017728127380273268 0 0.024999815897508115 -0.018810154919123773 0 0.026200843414367188 -0.017728127380273268 0 0.025000083216260592 -0.017435913718712063 0 0.026120815506427884 -0.017135577078186401 0 0.026200843414367188 -0.017728127380273268 0 0.025000083216260592 -0.017435913718712063 0 0.025837686500534415 -0.0075286500802328434 0 0.025680063473196502 -0.0066177866575106914 0 0.026721253477528649 -0.0074730821939050958 0 0.025837686500534415 -0.0075286500802328434 0 0.026721253477528649 -0.0074730821939050958 0 0.026059300915004271 -0.0084380618728548164 0 0.025837686500534415 -0.0075286500802328434 0 0.02499998706544139 -0.0068407653991269515 0 0.024999978655653361 -0.0078715170903677252 0 0.025837686500534415 -0.0075286500802328434 0 0.02499998706544139 -0.0068407653991269515 0 0.025680063473196502 -0.0066177866575106914 0 0.025000238661011923 -0.0068405568095891139 0 0.025588957777860109 -0.0064181290789615594 0 0.02499999480919789 -0.006840647988245404 0 0.025711797307285934 -0.0065815777474569912 0 0.025238789984264008 -0.0062163114412326203 0 0.025588957777860109 -0.0064181290789615594 0 0.025370723452297569 -0.0062986229629719238 0 0.025588957777860109 -0.0064181290789615594 0 0.026016324209831933 -0.0065352001989514227 0 0.025588957777860109 -0.0064181290789615594 0 0.025845191447371862 -0.0056903372315866146 0 0.025744748851563155 -0.0062636613333506728 0 0.02523082148163918 -0.0064459503952941487 0 0.024692213625527516 -0.0054645192005732465 0 0.025694495237743475 -0.0065582679554630641 0 0.026213851422714703 -0.0063669179695247397 0 0.02561818746631802 -0.0059197672824311699 0 0.025845191447371862 -0.0056903372315866146 0 0.023781049617719315 -0.0046641253700378258 0 0.02523082148163918 -0.0064459503952941487 0 0.024478213200218688 -0.0058920305411872525 0 0.024692213625527516 -0.0054645192005732465 0 0.024311115260641572 -0.0043898707432369118 0 0.022926476171207442 -0.0033625285880381 0 0.021915707087310703 -0.0052196827555942085 0 0.01876307097679597 -0.0024546671338631183 0 0.021092282574954855 -0.0029870049347674879 0 0.022926476171207442 -0.0033625285880381 0 0.021735300170978914 -0.0037817019918142377 0 0.021915707087310703 -0.0052196827555942085 0 0.01580655924947522 -0.0016829818835217339 0 0.016123767182763711 -0.0014351138070161295 0 0.015765818309584449 -0.0011951626915176624 0 0.022926476171207442 -0.0033625285880381 0 0.021735300170978914 -0.0037817019918142377 0 0.021549982500999557 -0.002355400740183589 0 0.01580655924947522 -0.0016829818835217339 0 0.015862516385372602 -0.0021976137223878112 0 0.016343839242435182 -0.0019220661655297811 0 0.01876307097679597 -0.0024546671338631183 0 0.020949696440247519 -0.0036453922331746214 0 0.023781049617719315 -0.0046641253700378258 0 0.020949696440247519 -0.0036453922331746214 0 0.023732668977426246 -0.0053474324913497561 0 0.024692213625527516 -0.0054645192005732465 0 0.023648477219940466 -0.0046895436142668102 0 0.024478213200218688 -0.0058920305411872525 0 0.023732668977426246 -0.0053474324913497561 0 0.024692213625527516 -0.0054645192005732465 0 0.026721253477528649 -0.0074730821939050958 0 0.0269048621889546 -0.0084134340177186538 0 0.027708860093199627 -0.0082819657464867236 0 0.026721253477528649 -0.0074730821939050958 0 0.0269048621889546 -0.0084134340177186538 0 0.026059300915004271 -0.0084380618728548164 0 0.026016324209831933 -0.0065352001989514227 0 0.024111590379816004 -0.0065228205756337216 0 0.020949696440247519 -0.0036453922331746214 0 0.024111590379816004 -0.0065228205756337216 0 0.0269048621889546 -0.0084134340177186538 0 0.027796049015004168 -0.0089809425017600523 0 0.026898577385115412 -0.0092714921209202869 0 0.025368257519827419 -0.0078384969491776188 0 0.027025740604604706 -0.0094533811970300401 0 0.027005297837276631 -0.0094296485812476617 0 0.026493535789605432 -0.0095854980949031353 0 0.027030808667965638 -0.0096108336209070003 0 0.0269048621889546 -0.0084134340177186538 0 0.027708860093199627 -0.0082819657464867236 0 0.027796049015004168 -0.0089809425017600523 0 0.024111590379816004 -0.0065228205756337216 0 0.025368257519827419 -0.0078384969491776188 0 0.021958413716529093 -0.0056833771267978811 0 0.021929498419864121 -0.0055958748859935457 0 0.021889506170653699 -0.0056348821367693102 0 0.025368257519827419 -0.0078384969491776188 0 0.026095744794938428 -0.0095900848507773293 0 0.0269048621889546 -0.0084134340177186538 0 0.026898577385115412 -0.0092714921209202869 0 0.026059300915004271 -0.0084380618728548164 0 0.026898577385115412 -0.0092714921209202869 0 0.026059300915004271 -0.0084380618728548164 0 0.025968371823809386 -0.0095915089675048821 0 0.025837686500534415 -0.0075286500802328434 0 0.026059300915004271 -0.0084380618728548164 0 0.024999978655653361 -0.0078715170903677252 0 0.026059300915004271 -0.0084380618728548164 0 0.024999978655653361 -0.0078715170903677252 0 0.024999989159017157 -0.0089023712409710531 0 0.026059300915004271 -0.0084380618728548164 0 0.024999989159017157 -0.0089023712409710531 0 0.025968371823809386 -0.0095915089675048821 0 0.0250000152282111 -0.0099335028250268822 0 0.025856135840589236 -0.0097463152306121563 0 0.025872625927076908 -0.010147101085784836 0 0.024999989159017157 -0.0089023712409710531 0 0.024999979030767311 -0.0099331702699395081 0 0.025968371823809386 -0.0095915089675048821 0 0.025000268495848608 -0.0099331789264748976 0 0.02584018351769558 -0.0096805281775705892 0 0.027025740604604706 -0.0094533811970300401 0 0.02584018351769558 -0.0096805281775705892 0 0.025856135840589236 -0.0097463152306121563 0 0.025872625927076908 -0.010147101085784836 0 0.026514103485505227 -0.0098413230254329048 0 0.025775768479436852 -0.0103166776768792 0 0.026496780307188841 -0.010136929296406813 0 0.025768291979716144 -0.010459952902468556 0 0.025927295132079607 -0.011269114390222377 0 0.026149609828522685 -0.010711057689539253 0 0.025768291979716144 -0.010459952902468556 0 0.024999718551066294 -0.010564342356185539 0 0.025350193439562928 -0.01117530568450772 0 0.025775768479436852 -0.0103166776768792 0 0.025000182654569405 -0.010563709472614227 0 0.0250000152282111 -0.0099335028250268822 0 0.025872625927076908 -0.010147101085784836 0 0.024999963135941449 -0.010563502043289213 0 0.024999718551066294 -0.010564342356185539 0 0.025350193439562928 -0.01117530568450772 0 0.024947820165539904 -0.011897548978461245 0 0.025825891575552311 -0.011753321071782407 0 0.024969903775224424 -0.01193527081707574 0 0.025350193439562928 -0.01117530568450772 0 0.025927295132079607 -0.011269114390222377 0 0.024947820165539904 -0.011897548978461245 0 0.025768291979716144 -0.010459952902468556 0 0.025350193439562928 -0.01117530568450772 0 0.025927295132079607 -0.011269114390222377 0 0.025766830510285114 -0.012946996472813412 0 0.025818941751336331 -0.012242238681031099 0 0.025321493347502468 -0.012420349364278346 0 0.025818941751336331 -0.012242238681031099 0 0.025321493347502468 -0.012420349364278346 0 0.024947739258037806 -0.011899472982734428 0 0.024999721665698298 -0.013312703397624375 0 0.025321493347502468 -0.012420349364278346 0 0.024947739258037806 -0.011899472982734428 0 0.026402437485765706 -0.012787677443822618 0 0.026701367332690178 -0.012628247325871512 0 0.026825348252609956 -0.012914066269134522 0 0.025766830510285114 -0.012946996472813412 0 0.025818941751336331 -0.012242238681031099 0 0.026402437485765706 -0.012787677443822618 0 0.025927295132079607 -0.011269114390222377 0 0.026443217314999722 -0.010849919814867652 0 0.026149609828522685 -0.010711057689539253 0 0.025818941751336331 -0.012242238681031099 0 0.026402437485765706 -0.012787677443822618 0 0.026380231713726748 -0.012332706075115529 0 0.025825891575552311 -0.011753321071782407 0 0.026347830666439438 -0.011615530965260199 0 0.026380231713726748 -0.012332706075115529 0 0.026748494554622283 -0.012454611410595236 0 0.026701367332690178 -0.012628247325871512 0 0.026402437485765706 -0.012787677443822618 0 0.026380231713726748 -0.012332706075115529 0 0.026701367332690178 -0.012628247325871512 0 0.026443217314999722 -0.010849919814867652 0 0.026573944178032344 -0.010639564780496361 0 0.026616346736736355 -0.010628449164056333 0 0.026347830666439438 -0.011615530965260199 0 0.026915525245803477 -0.011377092235474801 0 0.026443217314999722 -0.010849919814867652 0 0.026421164198049994 -0.010588475436490387 0 0.026573944178032344 -0.010639564780496361 0 0.025768291979716144 -0.010459952902468556 0 0.026149609828522685 -0.010711057689539253 0 0.02627325204882841 -0.010422970763389074 0 0.026443217314999722 -0.010849919814867652 0 0.026421164198049994 -0.010588475436490387 0 0.026149609828522685 -0.010711057689539253 0 0.026421164198049994 -0.010588475436490387 0 0.026149609828522685 -0.010711057689539253 0 0.02627325204882841 -0.010422970763389074 0 0.026493535789605432 -0.0095854980949031353 0 0.025856135840589236 -0.0097463152306121563 0 0.026514103485505227 -0.0098413230254329048 0 0.026493535789605432 -0.0095854980949031353 0 0.026514103485505227 -0.0098413230254329048 0 0.027030808667965638 -0.0096108336209070003 0 0.026496780307188841 -0.010136929296406813 0 0.026095744794938428 -0.0095900848507773293 0 0.026421164198049994 -0.010588475436490387 0 0.026574094048858313 -0.010357099207948434 0 0.026573944178032344 -0.010639564780496361 0 0.026421164198049994 -0.010588475436490387 0 0.02627325204882841 -0.010422970763389074 0 0.026574094048858313 -0.010357099207948434 0 0.0265857275470943 -0.010637736547285967 0 0.026583893546204634 -0.010634771670229005 0 0.026573944178032344 -0.010639564780496361 0 0.0265857275470943 -0.010637736547285967 0 0.026583893546204634 -0.010634771670229005 0 0.026561840816716843 -0.010660249523364616 0 0.026095744794938428 -0.0095900848507773293 0 0.026644899457633483 -0.01096396699134578 0 0.026583893546204634 -0.010634771670229005 0 0.026561467716149246 -0.010639919184840229 0 0.026561840816716843 -0.010660249523364616 0 0.026583893546204634 -0.010634771670229005 0 0.026561467716149246 -0.010639919184840229 0 0.026616346736736355 -0.010628449164056333 0 0.026561467716149246 -0.010639919184840229 0 0.026616346736736355 -0.010628449164056333 0 0.026495039514482257 -0.010626158403788806 0 0.026534756601158008 -0.010652810037244838 0 0.026495039514482257 -0.010626158403788806 0 0.026507519960018478 -0.010681540197531805 0 0.026534756601158008 -0.010652810037244838 0 0.026561467716149246 -0.010639919184840229 0 0.026495039514482257 -0.010626158403788806 0 0.026534756601158008 -0.010652810037244838 0 0.026561467716149246 -0.010639919184840229 0 0.026561840816716843 -0.010660249523364616 0 0.026959928249378425 -0.01242719370462597 0 0.026825828855989723 -0.01230366146124265 0 0.027293984610112385 -0.012121780950970837 0 0.026959928249378425 -0.01242719370462597 0 0.027150279816137414 -0.012413755532848821 0 0.027293984610112385 -0.012121780950970837 0 0.026915525245803477 -0.011377092235474801 0 0.026007909879497942 -0.011809496922247182 0 0.026959928249378425 -0.01242719370462597 0 0.027150279816137414 -0.012413755532848821 0 0.02703633092637912 -0.012601781695438781 0 0.026380231713726748 -0.012332706075115529 0 0.026825828855989723 -0.01230366146124265 0 0.026748494554622283 -0.012454611410595236 0 0.026583893546204634 -0.010634771670229005 0 0.026573944178032344 -0.010639564780496361 0 0.026616346736736355 -0.010628449164056333 0 0.026959928249378425 -0.01242719370462597 0 0.026825828855989723 -0.01230366146124265 0 0.026748494554622283 -0.012454611410595236 0 0.026748494554622283 -0.012454611410595236 0 0.026701367332690178 -0.012628247325871512 0 0.026863078691938713 -0.012571661396873582 0 0.026701367332690178 -0.012628247325871512 0 0.026932985508095302 -0.012751693717570971 0 0.026825348252609956 -0.012914066269134522 0 0.026701367332690178 -0.012628247325871512 0 0.026863078691938713 -0.012571661396873582 0 0.026932985508095302 -0.012751693717570971 0 0.026959928249378425 -0.01242719370462597 0 0.026748494554622283 -0.012454611410595236 0 0.026863078691938713 -0.012571661396873582 0 0.026959928249378425 -0.01242719370462597 0 0.026863078691938713 -0.012571661396873582 0 0.02703633092637912 -0.012601781695438781 0 0.026863078691938713 -0.012571661396873582 0 0.02703633092637912 -0.012601781695438781 0 0.026932985508095302 -0.012751693717570971 0 0.02703633092637912 -0.012601781695438781 0 0.02719154228926704 -0.012598800493183807 0 0.027086619492912693 -0.012787179544149959 0 0.027150279816137414 -0.012413755532848821 0 0.02703633092637912 -0.012601781695438781 0 0.02719154228926704 -0.012598800493183807 0 0.02719154228926704 -0.012598800493183807 0 0.027086619492912693 -0.012787179544149959 0 0.027216250079923437 -0.012787496234716651 0 0.027086619492912693 -0.012787179544149959 0 0.027187566417435003 -0.012937084468077044 0 0.027216250079923437 -0.012787496234716651 0 0.02703633092637912 -0.012601781695438781 0 0.027086619492912693 -0.012787179544149959 0 0.026932985508095302 -0.012751693717570971 0 0.027086619492912693 -0.012787179544149959 0 0.026996693808228465 -0.01294151322149217 0 0.027100455119285067 -0.012939256216932831 0 0.027086619492912693 -0.012787179544149959 0 0.026932985508095302 -0.012751693717570971 0 0.026996693808228465 -0.01294151322149217 0 0.026996693808228465 -0.01294151322149217 0 0.027100455119285067 -0.012939256216932831 0 0.027132052665455011 -0.013092072413355546 0 0.027086619492912693 -0.012787179544149959 0 0.027187566417435003 -0.012937084468077044 0 0.027100455119285067 -0.012939256216932831 0 0.027187566417435003 -0.012937084468077044 0 0.027100455119285067 -0.012939256216932831 0 0.027132052665455011 -0.013092072413355546 0 0.027089228084184999 -0.013284422099941694 0 0.027132052665455011 -0.013092072413355546 0 0.026968346951963283 -0.013134125328531429 0 0.026996693808228465 -0.01294151322149217 0 0.027132052665455011 -0.013092072413355546 0 0.026968346951963283 -0.013134125328531429 0 0.026996693808228465 -0.01294151322149217 0 0.026968346951963283 -0.013134125328531429 0 0.026825348252609956 -0.012914066269134522 0 0.02678396327888442 -0.013223208360614278 0 0.026968346951963283 -0.013134125328531429 0 0.026825348252609956 -0.012914066269134522 0 0.02678396327888442 -0.013223208360614278 0 0.026402437485765706 -0.012787677443822618 0 0.026825348252609956 -0.012914066269134522 0 0.026932985508095302 -0.012751693717570971 0 0.026996693808228465 -0.01294151322149217 0 0.026825348252609956 -0.012914066269134522 0 0.027001443721341851 -0.013697798464416417 0 0.02700505231806 -0.013701813538160001 0 0.026943239559664642 -0.013684267401863216 0 0.02700505231806 -0.013701813538160001 0 0.026932823051667342 -0.013675737694400005 0 0.026943239559664642 -0.013684267401863216 0 0.027463341490130851 -0.013210511063085278 0 0.027317091064921892 -0.012921155262672771 0 0.02742693821640434 -0.012691860383511435 0 0.027325765728673831 -0.013367807552702874 0 0.027463341490130851 -0.013210511063085278 0 0.027268313009065306 -0.013134221584617731 0 0.027210127338586798 -0.013418212380483876 0 0.027178232472687927 -0.013241087316149118 0 0.027463341490130851 -0.013210511063085278 0 0.027268313009065306 -0.013134221584617731 0 0.027317091064921892 -0.012921155262672771 0 0.027206756367117467 -0.013313261649236815 0 0.027132052665455011 -0.013092072413355546 0 0.027268313009065306 -0.013134221584617731 0 0.027187566417435003 -0.012937084468077044 0 0.027132052665455011 -0.013092072413355546 0 0.027268313009065306 -0.013134221584617731 0 0.027187566417435003 -0.012937084468077044 0 0.027268313009065306 -0.013134221584617731 0 0.027317091064921892 -0.012921155262672771 0 0.027187566417435003 -0.012937084468077044 0 0.027317091064921892 -0.012921155262672771 0 0.027216250079923437 -0.012787496234716651 0 0.027335493949318574 -0.012754322546265989 0 0.02742693821640434 -0.012691860383511435 0 0.02729754413145145 -0.012297866369874174 0 0.02719154228926704 -0.012598800493183807 0 0.027335493949318574 -0.012754322546265989 0 0.027306807393620149 -0.012229998253047996 0 0.027317091064921892 -0.012921155262672771 0 0.027335493949318574 -0.012754322546265989 0 0.02742693821640434 -0.012691860383511435 0 0.02719154228926704 -0.012598800493183807 0 0.027216250079923437 -0.012787496234716651 0 0.027335493949318574 -0.012754322546265989 0 0.027317091064921892 -0.012921155262672771 0 0.027216250079923437 -0.012787496234716651 0 0.027335493949318574 -0.012754322546265989 0 0.026889857695978441 -0.013668095575542164 0 0.026899372864301475 -0.013647904616793374 0 0.026869601906270663 -0.013623279816690023 0 0.02700505231806 -0.013701813538160001 0 0.026889857695978441 -0.013668095575542164 0 0.026932823051667342 -0.013675737694400005 0 0.026889857695978441 -0.013668095575542164 0 0.026899372864301475 -0.013647904616793374 0 0.026932823051667342 -0.013675737694400005 0 0.026899372864301475 -0.013647904616793374 0 0.026932823051667342 -0.013675737694400005 0 0.026915833250753144 -0.013654406512766894 0 0.026932823051667342 -0.013675737694400005 0 0.026915833250753144 -0.013654406512766894 0 0.026943239559664642 -0.013684267401863216 0 0.026884954254478781 -0.013617079289439874 0 0.026858277804630452 -0.0135610274967342 0 0.0269140104575133 -0.01363127356608375 0 0.026915833250753144 -0.013654406512766894 0 0.026884954254478781 -0.013617079289439874 0 0.0269140104575133 -0.01363127356608375 0 0.026899372864301475 -0.013647904616793374 0 0.026884954254478781 -0.013617079289439874 0 0.026869601906270663 -0.013623279816690023 0 0.026899372864301475 -0.013647904616793374 0 0.026915833250753144 -0.013654406512766894 0 0.026884954254478781 -0.013617079289439874 0 0.026884954254478781 -0.013617079289439874 0 0.026869601906270663 -0.013623279816690023 0 0.026852854728070422 -0.013588618361527532 0 0.027404505818462193 -0.012572292905880467 0 0.026904308226429158 -0.012649963461411994 0 0.027150279816137414 -0.012413755532848821 0 0.02719154228926704 -0.012598800493183807 0 0.027306807393620149 -0.012229998253047996 0 0.026889857695978441 -0.013668095575542164 0 0.026869601906270663 -0.013623279816690023 0 0.026826205640124782 -0.013595478776068157 0 0.027178232472687927 -0.013241087316149118 0 0.026904308226429158 -0.012649963461411994 0 0.026869601906270663 -0.013623279816690023 0 0.026826205640124782 -0.013595478776068157 0 0.026852854728070422 -0.013588618361527532 0 0.027150279816137414 -0.012413755532848821 0 0.027306807393620149 -0.012229998253047996 0 0.027293984610112385 -0.012121780950970837 0 0.026007909879497942 -0.011809496922247182 0 0.02292282387526794 -0.0093096435220137996 0 0.023498653684502054 -0.011907164658645509 0 0.023608251840679148 -0.011864184280581594 0 0.023476534244974798 -0.011758521270934135 0 0.026007909879497942 -0.011809496922247182 0 0.022240435683895794 -0.010959275868260374 0 0.026826205640124782 -0.013595478776068157 0 0.026821170961698806 -0.013574456627353883 0 0.026852854728070422 -0.013588618361527532 0 0.026904308226429158 -0.012649963461411994 0 0.026007909879497942 -0.011809496922247182 0 0.026821170961698806 -0.013574456627353883 0 0.026852854728070422 -0.013588618361527532 0 0.026858277804630452 -0.0135610274967342 0 0.026007909879497942 -0.011809496922247182 0 0.022519831953073305 -0.012790644111698645 0 0.022519831953073305 -0.012790644111698645 0 0.023135105304196209 -0.013070565463859554 0 0.022519831953073305 -0.012790644111698645 0 0.018622615468778157 -0.013070485582703821 0 0.026884954254478781 -0.013617079289439874 0 0.026852854728070422 -0.013588618361527532 0 0.026858277804630452 -0.0135610274967342 0 0.019677023840953128 -0.01258895852549132 0 0.019772733500865794 -0.013095519547010295 0 0.019301000188759465 -0.013163944969586054 0 0.019677023840953128 -0.01258895852549132 0 0.019301000188759465 -0.013163944969586054 0 0.019091742047750292 -0.012840187848671221 0 0.019772733500865794 -0.013095519547010295 0 0.019301000188759465 -0.013163944969586054 0 0.019564034378466665 -0.013452554959331627 0 0.017561264594015535 -0.0028887378625447819 0 0.017112973832182445 -0.0026568675314402319 0 0.017277043341103641 -0.0022155204103057663 0 0.017112973832182445 -0.0026568675314402319 0 0.016826508738219826 -0.0031086231929777814 0 0.016786299694958335 -0.0024208954927859732 0 0.018475862983429795 -0.0082852319919308089 0 0.018619765370421475 -0.0067300998384032945 0 0.017561264594015535 -0.0028887378625447819 0 0.017112973832182445 -0.0026568675314402319 0 0.016826508738219826 -0.0031086231929777814 0 0.018619765370421475 -0.0067300998384032945 0 0.016831121276636333 -0.0016726400130625898 0 0.019772733500865794 -0.013095519547010295 0 0.019564034378466665 -0.013452554959331627 0 0.020207056182805151 -0.013239171713569184 0 0.024459440509087257 -0.012085399364650674 0 0.024283318119802617 -0.0099525380096911233 0 0.023537234658337926 -0.009555647798149703 0 0.021566473670355257 -0.0079317490363447225 0 0.021416475628268296 -0.0083620991237490505 0 0.021636450723029933 -0.0087953865953653287 0 0.021566473670355257 -0.0079317490363447225 0 0.021416475628268296 -0.0083620991237490505 0 0.0212314019690031 -0.0082352598254321185 0 0.019677023840953128 -0.01258895852549132 0 0.019772733500865794 -0.013095519547010295 0 0.020190730970497329 -0.012952296340812101 0 0.018619765370421475 -0.0067300998384032945 0 0.022240435683895794 -0.010959275868260374 0 0.019772733500865794 -0.013095519547010295 0 0.020207056182805151 -0.013239171713569184 0 0.020190730970497329 -0.012952296340812101 0 0.022519831953073305 -0.012790644111698645 0 0.022240435683895794 -0.010959275868260374 0 0.021416475628268296 -0.0083620991237490505 0 0.021636450723029933 -0.0087953865953653287 0 0.021075789524738098 -0.0084914269210955174 0 0.02292282387526794 -0.0093096435220137996 0 0.025255468542170059 -0.0092120999262507493 0 0.026534756601158008 -0.010652810037244838 0 0.026507519960018478 -0.010681540197531805 0 0.026561840816716843 -0.010660249523364616 0 0.022257248981770558 -0.0089896121612876353 0 0.021863557537676617 -0.0085312433258002817 0 0.023626570768838125 -0.0078917286137974735 0 0.019826294055871562 -0.0057576779039725271 0 0.021522302392861674 -0.0074988526017090744 0 0.02037467574167786 -0.0061295276230161943 0 0.020273432002335019 -0.0061589388991993227 0 0.020235200063749011 -0.0060281394573412361 0 0.020281633162650338 -0.0059448799959505609 0 0.021522302392861674 -0.0074988526017090744 0 0.020281633162650338 -0.0059448799959505609 0 0.019826294055871562 -0.0057576779039725271 0 0.021566473670355257 -0.0079317490363447225 0 0.020961500807052794 -0.0081034759771919911 0 0.0212314019690031 -0.0082352598254321185 0 0.018619765370421475 -0.0067300998384032945 0 0.019826294055871562 -0.0057576779039725271 0 0.020961500807052794 -0.0081034759771919911 0 0.0212314019690031 -0.0082352598254321185 0 0.021031455977397941 -0.0083301234080915207 0 0.021416475628268296 -0.0083620991237490505 0 0.0212314019690031 -0.0082352598254321185 0 0.021078088539341636 -0.0084831809795545797 0 0.0212314019690031 -0.0082352598254321185 0 0.021031455977397941 -0.0083301234080915207 0 0.021078088539341636 -0.0084831809795545797 0 0.022240435683895794 -0.010959275868260374 0 0.02292282387526794 -0.0093096435220137996 0 0.022309909598479859 -0.0093014892239654257 0 0.02292282387526794 -0.0093096435220137996 0 0.021522302392861674 -0.0074988526017090744 0 0.02292282387526794 -0.0093096435220137996 0 0.022257248981770558 -0.0089896121612876353 0 0.021925634890950375 -0.0087436583354685033 0 0.021863557537676617 -0.0085312433258002817 0 0.021929498419864121 -0.0055958748859935457 0 0.02180067337399114 -0.0056248420496760191 0 0.021889506170653699 -0.0056348821367693102 0 0.025491584296164178 -0.0080978156860417282 0 0.022257248981770558 -0.0089896121612876353 0 0.023626570768838125 -0.0078917286137974735 0 0.025368257519827419 -0.0078384969491776188 0 0.020281633162650338 -0.0059448799959505609 0 0.026095744794938428 -0.0095900848507773293 0 0.025255468542170059 -0.0092120999262507493 0 0.025491584296164178 -0.0080978156860417282 0 0.025387122021911977 -0.0072553458694410659 0 0.023626570768838125 -0.0078917286137974735 0 0.02180067337399114 -0.0056248420496760191 0 0.021889506170653699 -0.0056348821367693102 0 0.021869383348226825 -0.0056327607417141446 0 0.024111590379816004 -0.0065228205756337216 0 0.021880304679053372 -0.0053020046938226329 0 0.021861605306581728 -0.0056289995645571276 0 0.021889506170653699 -0.0056348821367693102 0 0.021869383348226825 -0.0056327607417141446 0 0.020949696440247519 -0.0036453922331746214 0 0.018591346771159045 -0.0037570439476545098 0 0.021844857537315993 -0.0055777419084338045 0 0.021861605306581728 -0.0056289995645571276 0 0.021869383348226825 -0.0056327607417141446 0 0.017076216575985556 -0.0028957385847356593 0 0.016759882395586779 -0.0027105199030451016 0 0.016973591130680289 -0.002282474488519108 0 0.017076216575985556 -0.0028957385847356593 0 0.016836453092970743 -0.0029673653019190917 0 0.016759882395586779 -0.0027105199030451016 0 0.016773071177352862 -0.00297426208835844 0 0.016843550965177305 -0.0029569843520549552 0 0.016759882395586779 -0.0027105199030451016 0 0.019826294055871562 -0.0057576779039725271 0 0.018146532200565318 -0.0028975084083498626 0 0.016773071177352862 -0.00297426208835844 0 0.016285327449038066 -0.0025552101336238395 0 0.016759882395586779 -0.0027105199030451016 0 0.020281633162650338 -0.0059448799959505609 0 0.018591346771159045 -0.0037570439476545098 0 0.016285327449038066 -0.0025552101336238395 0 0.016759882395586779 -0.0027105199030451016 0 0.016580267773422037 -0.0022988728332476618 0 0.016759882395586779 -0.0027105199030451016 0 0.016580267773422037 -0.0022988728332476618 0 0.016973591130680289 -0.002282474488519108 0 0.016580267773422037 -0.0022988728332476618 0 0.016343839242435182 -0.0019220661655297811 0 0.016825726002066124 -0.0017304981832794314 0 0.016580267773422037 -0.0022988728332476618 0 0.016825726002066124 -0.0017304981832794314 0 0.016973591130680289 -0.002282474488519108 0 0.015862516385372602 -0.0021976137223878112 0 0.016285327449038066 -0.0025552101336238395 0 0.016343839242435182 -0.0019220661655297811 0 0.016285327449038066 -0.0025552101336238395 0 0.016580267773422037 -0.0022988728332476618 0 0.016343839242435182 -0.0019220661655297811 0 0.01580655924947522 -0.0016829818835217339 0 0.016343839242435182 -0.0019220661655297811 0 0.016123767182763711 -0.0014351138070161295 0 0.016343839242435182 -0.0019220661655297811 0 0.016123767182763711 -0.0014351138070161295 0 0.016477175321040021 -0.0014026334556196951 0 0.016343839242435182 -0.0019220661655297811 0 0.016825726002066124 -0.0017304981832794314 0 0.016477175321040021 -0.0014026334556196951 0 0.016825726002066124 -0.0017304981832794314 0 0.016477175321040021 -0.0014026334556196951 0 0.01675771987711468 -0.0013056564705566179 0 0.016825726002066124 -0.0017304981832794314 0 0.017163641206151537 -0.0016233613465574089 0 0.016980259322111078 -0.0012445866599813972 0 0.016825726002066124 -0.0017304981832794314 0 0.016980259322111078 -0.0012445866599813972 0 0.01675771987711468 -0.0013056564705566179 0 0.016825726002066124 -0.0017304981832794314 0 0.017163641206151537 -0.0016233613465574089 0 0.017277043341103641 -0.0022155204103057663 0 0.017163641206151537 -0.0016233613465574089 0 0.017294840394515024 -0.0011861237715331369 0 0.016980259322111078 -0.0012445866599813972 0 0.017163641206151537 -0.0016233613465574089 0 0.017487894647278974 -0.0015090930395179314 0 0.017294840394515024 -0.0011861237715331369 0 0.017487894647278974 -0.0015090930395179314 0 0.017692815770980655 -0.0012873979928929209 0 0.017294840394515024 -0.0011861237715331369 0 0.017487894647278974 -0.0015090930395179314 0 0.01805781527592136 -0.0017214721757773631 0 0.017692815770980655 -0.0012873979928929209 0 0.017487894647278974 -0.0015090930395179314 0 0.017647434510659338 -0.0018883262461098405 0 0.01805781527592136 -0.0017214721757773631 0 0.017163641206151537 -0.0016233613465574089 0 0.017647434510659338 -0.0018883262461098405 0 0.017277043341103641 -0.0022155204103057663 0 0.017163641206151537 -0.0016233613465574089 0 0.017487894647278974 -0.0015090930395179314 0 0.017647434510659338 -0.0018883262461098405 0 0.017561264594015535 -0.0028887378625447819 0 0.017277043341103641 -0.0022155204103057663 0 0.017885562016380006 -0.0022810911588033735 0 0.017647434510659338 -0.0018883262461098405 0 0.017277043341103641 -0.0022155204103057663 0 0.017885562016380006 -0.0022810911588033735 0 0.016851555292856573 -0.0020448889492629954 0 0.016831121276636333 -0.0016726400130625898 0 0.016825726002066124 -0.0017304981832794314 0 0.017277043341103641 -0.0022155204103057663 0 0.016786299694958335 -0.0024208954927859732 0 0.017112973832182445 -0.0026568675314402319 0 0.017277043341103641 -0.0022155204103057663 0 0.016786299694958335 -0.0024208954927859732 0 0.0184831747227934 -0.0022423109474746044 0 0.019147072023531046 -0.0019782776426841781 0 0.019007189522994454 -0.0025356809413998749 0 0.0184831747227934 -0.0022423109474746044 0 0.019007189522994454 -0.0025356809413998749 0 0.018275163243960869 -0.0027072259204280538 0 0.0184831747227934 -0.0022423109474746044 0 0.017885562016380006 -0.0022810911588033735 0 0.01805781527592136 -0.0017214721757773631 0 0.0184831747227934 -0.0022423109474746044 0 0.017885562016380006 -0.0022810911588033735 0 0.018275163243960869 -0.0027072259204280538 0 0.017647434510659338 -0.0018883262461098405 0 0.017885562016380006 -0.0022810911588033735 0 0.01805781527592136 -0.0017214721757773631 0 0.01805781527592136 -0.0017214721757773631 0 0.018358957352825247 -0.0011733804542875766 0 0.017692815770980655 -0.0012873979928929209 0 0.01805781527592136 -0.0017214721757773631 0 0.018744212017248834 -0.0015539853745743641 0 0.018358957352825247 -0.0011733804542875766 0 0.0184831747227934 -0.0022423109474746044 0 0.01805781527592136 -0.0017214721757773631 0 0.019147072023531046 -0.0019782776426841781 0 0.018417873204192886 -0.001171544262913054 0 0.018307173959042869 -0.0039284266755544393 0 0.01805781527592136 -0.0017214721757773631 0 0.018744212017248834 -0.0015539853745743641 0 0.019160525396962069 -0.0018951504666923473 0 0.018744212017248834 -0.0015539853745743641 0 0.019257520259208412 -0.0014724820873925142 0 0.018358957352825247 -0.0011733804542875766 0 0.018744212017248834 -0.0015539853745743641 0 0.019257520259208412 -0.0014724820873925142 0 0.019160525396962069 -0.0018951504666923473 0 0.017174770828204941 -0.0052748236130866653 0 0.017181857199397521 -0.0052631628102269568 0 0.017171461608574051 -0.0052853687657652094 0 0.017180404321283049 -0.0052568983469091241 0 0.017174770828204941 -0.0052748236130866653 0 0.017181857199397521 -0.0052631628102269568 0 0.01758215351484212 -0.0019582857726549866 0 0.018307173959042869 -0.0039284266755544393 0 0.016893406295354355 -0.0011063651035069222 0 0.017281286220854241 -0.0012179118969881152 0 0.017130666282809806 -0.00097392891507311287 0 0.017163835974659432 -0.0052948325260862225 0 0.017171461608574051 -0.0052853687657652094 0 0.017154905417400664 -0.0053119337251462213 0 0.017180404321283049 -0.0052568983469091241 0 0.017174770828204941 -0.0052748236130866653 0 0.017163835974659432 -0.0052948325260862225 0 0.01758215351484212 -0.0019582857726549866 0 0.017169309972319535 -0.0030141569301777404 0 0.017174770828204941 -0.0052748236130866653 0 0.017163835974659432 -0.0052948325260862225 0 0.017171461608574051 -0.0052853687657652094 0 0.017330449562807496 -0.007000432621008649 0 0.01673021745169502 -0.010615116352931534 0 0.017666492726119608 -0.0084625109891090754 0 0.017603224471893997 -0.0087045478476963714 0 0.017076786736299455 -0.0086463095783909268 0 0.017711143754820958 -0.014192138056340869 0 0.017267033028132765 -0.013965453868837092 0 0.01705794403709698 -0.014417364400919655 0 0.017569604302971265 -0.011408223399018279 0 0.01673021745169502 -0.010615116352931534 0 0.018116616284007847 -0.0087633105789807764 0 0.017666492726119608 -0.0084625109891090754 0 0.017603224471893997 -0.0087045478476963714 0 0.018116616284007847 -0.0087633105789807764 0 0.017666492726119608 -0.0084625109891090754 0 0.018238250178211138 -0.0082992560787501848 0 0.018307173959042869 -0.0039284266755544393 0 0.017330449562807496 -0.007000432621008649 0 0.017569604302971265 -0.011408223399018279 0 0.018734471153472279 -0.0096638581371155993 0 0.018307173959042869 -0.0039284266755544393 0 0.018734471153472279 -0.0096638581371155993 0 0.018328650626725684 -0.013990838352109855 0 0.017982740468258547 -0.013519568629918613 0 0.018463004372728922 -0.013382998257369955 0 0.017711143754820958 -0.014192138056340869 0 0.018328650626725684 -0.013990838352109855 0 0.017982740468258547 -0.013519568629918613 0 0.017711143754820958 -0.014192138056340869 0 0.017982740468258547 -0.013519568629918613 0 0.017497451395127064 -0.013555258222885549 0 0.017711143754820958 -0.014192138056340869 0 0.017267033028132765 -0.013965453868837092 0 0.017497451395127064 -0.013555258222885549 0 0.017267033028132765 -0.013965453868837092 0 0.017497451395127064 -0.013555258222885549 0 0.017131876048718638 -0.013633993935463724 0 0.017982740468258547 -0.013519568629918613 0 0.017497451395127064 -0.013555258222885549 0 0.01760400622340963 -0.013241205151080246 0 0.017497451395127064 -0.013555258222885549 0 0.017201511874791509 -0.01324867960181989 0 0.017131876048718638 -0.013633993935463724 0 0.017497451395127064 -0.013555258222885549 0 0.01760400622340963 -0.013241205151080246 0 0.017201511874791509 -0.01324867960181989 0 0.01760400622340963 -0.013241205151080246 0 0.017918184478292309 -0.013056299394881529 0 0.01741852175272391 -0.012840261233803272 0 0.01760400622340963 -0.013241205151080246 0 0.01741852175272391 -0.012840261233803272 0 0.017201511874791509 -0.01324867960181989 0 0.017982740468258547 -0.013519568629918613 0 0.018253930081854247 -0.013186323895936472 0 0.018463004372728922 -0.013382998257369955 0 0.017982740468258547 -0.013519568629918613 0 0.01760400622340963 -0.013241205151080246 0 0.017918184478292309 -0.013056299394881529 0 0.017982740468258547 -0.013519568629918613 0 0.018253930081854247 -0.013186323895936472 0 0.017918184478292309 -0.013056299394881529 0 0.018253930081854247 -0.013186323895936472 0 0.017918184478292309 -0.013056299394881529 0 0.0182949364767553 -0.012893927165699572 0 0.018544487700117112 -0.013149272307230732 0 0.018672655973492117 -0.012785558385818305 0 0.0182949364767553 -0.012893927165699572 0 0.018253930081854247 -0.013186323895936472 0 0.018544487700117112 -0.013149272307230732 0 0.0182949364767553 -0.012893927165699572 0 0.018544487700117112 -0.013149272307230732 0 0.019110402900080189 -0.012999375974944683 0 0.018672655973492117 -0.012785558385818305 0 0.018544487700117112 -0.013149272307230732 0 0.018463004372728922 -0.013382998257369955 0 0.018808201227925384 -0.013325658159782212 0 0.018253930081854247 -0.013186323895936472 0 0.018544487700117112 -0.013149272307230732 0 0.018463004372728922 -0.013382998257369955 0 0.018734471153472279 -0.0096638581371155993 0 0.018116037642370072 -0.014803066052636831 0 0.018734471153472279 -0.0096638581371155993 0 0.018661961947758196 -0.0080589402048359231 0 0.018463004372728922 -0.013382998257369955 0 0.018909577050338949 -0.013644148677185747 0 0.018808201227925384 -0.013325658159782212 0 0.018377907204219352 -0.013764962109106505 0 0.018463004372728922 -0.013382998257369955 0 0.018909577050338949 -0.013644148677185747 0 0.017561264594015535 -0.0028887378625447819 0 0.017885562016380006 -0.0022810911588033735 0 0.018275163243960869 -0.0027072259204280538 0 0.019301000188759465 -0.013163944969586054 0 0.018909577050338949 -0.013644148677185747 0 0.018808201227925384 -0.013325658159782212 0 0.018475862983429795 -0.0082852319919308089 0 0.018661961947758196 -0.0080589402048359231 0 0.019301000188759465 -0.013163944969586054 0 0.019564034378466665 -0.013452554959331627 0 0.018909577050338949 -0.013644148677185747 0 0.018544487700117112 -0.013149272307230732 0 0.019091742047750292 -0.012840187848671221 0 0.018808201227925384 -0.013325658159782212 0 0.01877708932978563 -0.013057131721480783 0 0.018622615468778157 -0.013070485582703821 0 0.019301000188759465 -0.013163944969586054 0 0.019091742047750292 -0.012840187848671221 0 0.018808201227925384 -0.013325658159782212 0 0.019110402900080189 -0.012999375974944683 0 0.018672655973492117 -0.012785558385818305 0 0.019047752631069649 -0.012314419507400013 0 0.019730485204208937 -0.012779897468867454 0 0.019110402900080189 -0.012999375974944683 0 0.019047752631069649 -0.012314419507400013 0 0.018672655973492117 -0.012785558385818305 0 0.018317615404748147 -0.012462922224327593 0 0.019047752631069649 -0.012314419507400013 0 0.018672655973492117 -0.012785558385818305 0 0.018317615404748147 -0.012462922224327593 0 0.0182949364767553 -0.012893927165699572 0 0.023135105304196209 -0.013070565463859554 0 0.022636013975051543 -0.012775918215947327 0 0.018317615404748147 -0.012462922224327593 0 0.019047752631069649 -0.012314419507400013 0 0.018391006565809272 -0.011912184756351443 0 0.026915833250753144 -0.013654406512766894 0 0.0269140104575133 -0.01363127356608375 0 0.026943239559664642 -0.013684267401863216 0 0.0269140104575133 -0.01363127356608375 0 0.026943239559664642 -0.013684267401863216 0 0.026911079500642879 -0.013672022573432762 0 0.026943239559664642 -0.013684267401863216 0 0.026911079500642879 -0.013672022573432762 0 0.02693977043603285 -0.013697548158817716 0 0.026911079500642879 -0.013672022573432762 0 0.02691924989150369 -0.013696184914255496 0 0.02693977043603285 -0.013697548158817716 0 0.026946259562568568 -0.013711204024872048 0 0.02691924989150369 -0.013696184914255496 0 0.02693977043603285 -0.013697548158817716 0 0.027001443721341851 -0.013697798464416417 0 0.026943239559664642 -0.013684267401863216 0 0.02693977043603285 -0.013697548158817716 0 0.022717126598288031 -0.012372183360840392 0 0.022270826987677503 -0.012629470819233274 0 0.026922097685706543 -0.013740134747326245 0 0.02691924989150369 -0.013696184914255496 0 0.026919086431090256 -0.013674339886128756 0 0.018391006565809272 -0.011912184756351443 0 0.017761737140139271 -0.011567526436953706 0 0.017669202160169959 -0.012212511785761373 0 0.022636013975051543 -0.012775918215947327 0 0.022270826987677503 -0.012629470819233274 0 0.026911079500642879 -0.013672022573432762 0 0.02691924989150369 -0.013696184914255496 0 0.026919086431090256 -0.013674339886128756 0 0.017761737140139271 -0.011567526436953706 0 0.017669202160169959 -0.012212511785761373 0 0.017128523388864659 -0.011842597348780629 0 0.017669202160169959 -0.012212511785761373 0 0.01741852175272391 -0.012840261233803272 0 0.017085519599556453 -0.012385934756387095 0 0.018317615404748147 -0.012462922224327593 0 0.017669202160169959 -0.012212511785761373 0 0.017901640784851278 -0.012675633183960165 0 0.018317615404748147 -0.012462922224327593 0 0.018391006565809272 -0.011912184756351443 0 0.017669202160169959 -0.012212511785761373 0 0.018317615404748147 -0.012462922224327593 0 0.017901640784851278 -0.012675633183960165 0 0.0182949364767553 -0.012893927165699572 0 0.017918184478292309 -0.013056299394881529 0 0.017901640784851278 -0.012675633183960165 0 0.0182949364767553 -0.012893927165699572 0 0.017669202160169959 -0.012212511785761373 0 0.017901640784851278 -0.012675633183960165 0 0.01741852175272391 -0.012840261233803272 0 0.017918184478292309 -0.013056299394881529 0 0.017901640784851278 -0.012675633183960165 0 0.01741852175272391 -0.012840261233803272 0 0.01741852175272391 -0.012840261233803272 0 0.016788752447939394 -0.012907104861842437 0 0.017085519599556453 -0.012385934756387095 0 0.016788752447939394 -0.012907104861842437 0 0.016464846014424765 -0.012189859246548021 0 0.017085519599556453 -0.012385934756387095 0 0.016788752447939394 -0.012907104861842437 0 0.016464846014424765 -0.012189859246548021 0 0.016191517964903496 -0.012930306931200397 0 0.016464846014424765 -0.012189859246548021 0 0.017085519599556453 -0.012385934756387095 0 0.017128523388864659 -0.011842597348780629 0 0.017669202160169959 -0.012212511785761373 0 0.017085519599556453 -0.012385934756387095 0 0.017128523388864659 -0.011842597348780629 0 0.016464846014424765 -0.012189859246548021 0 0.017128523388864659 -0.011842597348780629 0 0.016681773713765211 -0.011567952051732363 0 0.015785216499473228 -0.01384460694024778 0 0.015462475152614388 -0.013590957070739597 0 0.017222399352736797 -0.011302337463768266 0 0.017761737140139271 -0.011567526436953706 0 0.017128523388864659 -0.011842597348780629 0 0.017222399352736797 -0.011302337463768266 0 0.017128523388864659 -0.011842597348780629 0 0.016681773713765211 -0.011567952051732363 0 0.016105457827784057 -0.016471479269997442 0 0.015403145266187511 -0.016643246528775323 0 0.01564234159631871 -0.015824024406783883 0 0.015403145266187511 -0.016643246528775323 0 0.014875693982779015 -0.016143179719558254 0 0.01564234159631871 -0.015824024406783883 0 0.015030196448828907 -0.015353731542198516 0 0.014875693982779015 -0.016143179719558254 0 0.01564234159631871 -0.015824024406783883 0 0.01564234159631871 -0.015824024406783883 0 0.015616990037116375 -0.015117668432082124 0 0.016163495954326298 -0.015252031031717551 0 0.015030196448828907 -0.015353731542198516 0 0.01564234159631871 -0.015824024406783883 0 0.015616990037116375 -0.015117668432082124 0 0.015030196448828907 -0.015353731542198516 0 0.015616990037116375 -0.015117668432082124 0 0.015279174793513199 -0.014584663147685964 0 0.015785216499473228 -0.01384460694024778 0 0.015733524986288067 -0.013777249304005423 0 0.015616990037116375 -0.015117668432082124 0 0.015953466014871798 -0.014630538245952901 0 0.015279174793513199 -0.014584663147685964 0 0.015616990037116375 -0.015117668432082124 0 0.015953466014871798 -0.014630538245952901 0 0.016163495954326298 -0.015252031031717551 0 0.015953466014871798 -0.014630538245952901 0 0.015773998466214641 -0.014188501303018663 0 0.016061494667636816 -0.014272620520853848 0 0.015953466014871798 -0.014630538245952901 0 0.015773998466214641 -0.014188501303018663 0 0.015279174793513199 -0.014584663147685964 0 0.015773998466214641 -0.014188501303018663 0 0.015889534631566601 -0.014024208045051641 0 0.016061494667636816 -0.014272620520853848 0 0.015889534631566601 -0.014024208045051641 0 0.015778543189934238 -0.013966628102477346 0 0.015847126711944715 -0.013851821175079587 0 0.015773998466214641 -0.014188501303018663 0 0.015889534631566601 -0.014024208045051641 0 0.015778543189934238 -0.013966628102477346 0 0.015889534631566601 -0.014024208045051641 0 0.015847126711944715 -0.013851821175079587 0 0.016063854846526091 -0.013998692741213861 0 0.015773998466214641 -0.014188501303018663 0 0.015761757471287066 -0.013905674766378481 0 0.015778543189934238 -0.013966628102477346 0 0.015752361312985276 -0.013940223877100954 0 0.015733524986288067 -0.013777249304005423 0 0.015773998466214641 -0.014188501303018663 0 0.015761757471287066 -0.013905674766378481 0 0.015279174793513199 -0.014584663147685964 0 0.016788752447939394 -0.012907104861842437 0 0.016191517964903496 -0.012930306931200397 0 0.016394516741023532 -0.013396327590389522 0 0.016788752447939394 -0.012907104861842437 0 0.016394516741023532 -0.013396327590389522 0 0.016761981471781054 -0.01349702833539067 0 0.015761757471287066 -0.013905674766378481 0 0.016191517964903496 -0.012930306931200397 0 0.016394516741023532 -0.013396327590389522 0 0.016788752447939394 -0.012907104861842437 0 0.017201511874791509 -0.01324867960181989 0 0.016761981471781054 -0.01349702833539067 0 0.01741852175272391 -0.012840261233803272 0 0.016788752447939394 -0.012907104861842437 0 0.017201511874791509 -0.01324867960181989 0 0.017131876048718638 -0.013633993935463724 0 0.016761981471781054 -0.01349702833539067 0 0.016758649162017296 -0.01406748992413628 0 0.017201511874791509 -0.01324867960181989 0 0.017131876048718638 -0.013633993935463724 0 0.016761981471781054 -0.01349702833539067 0 0.017267033028132765 -0.013965453868837092 0 0.017131876048718638 -0.013633993935463724 0 0.016758649162017296 -0.01406748992413628 0 0.016761981471781054 -0.01349702833539067 0 0.016380336741716319 -0.013835891100260364 0 0.016758649162017296 -0.01406748992413628 0 0.015761757471287066 -0.013905674766378481 0 0.016394516741023532 -0.013396327590389522 0 0.016380336741716319 -0.013835891100260364 0 0.016394516741023532 -0.013396327590389522 0 0.016761981471781054 -0.01349702833539067 0 0.016380336741716319 -0.013835891100260364 0 0.015761757471287066 -0.013905674766378481 0 0.016380336741716319 -0.013835891100260364 0 0.016079806999732632 -0.014032398951941763 0 0.016380336741716319 -0.013835891100260364 0 0.016079806999732632 -0.014032398951941763 0 0.016362183056988777 -0.014064673734080563 0 0.016079806999732632 -0.014032398951941763 0 0.016319479964311184 -0.014322083096506818 0 0.015739266220739932 -0.01394491673289246 0 0.015599389104529956 -0.013752934715933637 0 0.015671781578930198 -0.013808401275574384 0 0.015759334112430048 -0.013777097588550502 0 0.016010050450842875 -0.014054234317471832 0 0.015784059712404166 -0.013975096055888328 0 0.015601265213722119 -0.013778896035061867 0 0.015671781578930198 -0.013808401275574384 0 0.015739266220739932 -0.01394491673289246 0 0.016079806999732632 -0.014032398951941763 0 0.016362183056988777 -0.014064673734080563 0 0.016319479964311184 -0.014322083096506818 0 0.016380336741716319 -0.013835891100260364 0 0.016362183056988777 -0.014064673734080563 0 0.016758649162017296 -0.01406748992413628 0 0.016362183056988777 -0.014064673734080563 0 0.016319479964311184 -0.014322083096506818 0 0.016758649162017296 -0.01406748992413628 0 0.015601265213722119 -0.013778896035061867 0 0.015599389104529956 -0.013752934715933637 0 0.015603047174267774 -0.013752232168780772 0 0.015601265213722119 -0.013778896035061867 0 0.015599389104529956 -0.013752934715933637 0 0.015671781578930198 -0.013808401275574384 0 0.016010050450842875 -0.014054234317471832 0 0.01673021745169502 -0.010615116352931534 0 0.015601265213722119 -0.013778896035061867 0 0.015626728638668531 -0.013709374037629497 0 0.015603047174267774 -0.013752232168780772 0 0.016319479964311184 -0.014322083096506818 0 0.016758649162017296 -0.01406748992413628 0 0.01705794403709698 -0.014417364400919655 0 0.017267033028132765 -0.013965453868837092 0 0.016758649162017296 -0.01406748992413628 0 0.01705794403709698 -0.014417364400919655 0 0.01673021745169502 -0.010615116352931534 0 0.016661883599935073 -0.0072945070793488343 0 0.017169309972319535 -0.0030141569301777404 0 0.016661883599935073 -0.0072945070793488343 0 0.017281286220854241 -0.0012179118969881152 0 0.017638717542716065 -0.0013369622355950666 0 0.01759837313768103 -0.00095452262773460905 0 0.017163835974659432 -0.0052948325260862225 0 0.017154905417400664 -0.0053119337251462213 0 0.017137999519384543 -0.005336539719515491 0 0.017638717542716065 -0.0013369622355950666 0 0.0179293114778768 -0.00096100119935331853 0 0.01759837313768103 -0.00095452262773460905 0 0.015599389104529956 -0.013752934715933637 0 0.015584579482264799 -0.013746087779796794 0 0.015833933910756395 -0.013673260041171526 0 0.016690647129967429 -0.0075197932633712505 0 0.016661883599935073 -0.0072945070793488343 0 0.017638717542716065 -0.0013369622355950666 0 0.018067955734093633 -0.0012055579673542114 0 0.0179293114778768 -0.00096100119935331853 0 0.015599389104529956 -0.013752934715933637 0 0.015833933910756395 -0.013673260041171526 0 0.015759334112430048 -0.013777097588550502 0 0.016661883599935073 -0.0072945070793488343 0 0.016806117512625431 -0.0077846986184233287 0 0.018067955734093633 -0.0012055579673542114 0 0.018149703697408832 -0.0011178755202224709 0 0.018309403744362608 -0.0012012630901036328 0 0.015833933910756395 -0.013673260041171526 0 0.015847126711944715 -0.013851821175079587 0 0.015934071168980556 -0.013727493261986566 0 0.015847126711944715 -0.013851821175079587 0 0.015916176550325758 -0.013806732933732415 0 0.015934071168980556 -0.013727493261986566 0 0.015813261523165013 -0.013824010880409117 0 0.016123836856238867 -0.01398401876425354 0 0.015833933910756395 -0.013673260041171526 0 0.015847126711944715 -0.013851821175079587 0 0.015759334112430048 -0.013777097588550502 0 0.015761757471287066 -0.013905674766378481 0 0.015778543189934238 -0.013966628102477346 0 0.015739266220739932 -0.01394491673289246 0 0.015778543189934238 -0.013966628102477346 0 0.015847126711944715 -0.013851821175079587 0 0.015739266220739932 -0.01394491673289246 0 0.015761757471287066 -0.013905674766378481 0 0.016079806999732632 -0.014032398951941763 0 0.015739266220739932 -0.01394491673289246 0 0.015671781578930198 -0.013808401275574384 0 0.015739266220739932 -0.01394491673289246 0 0.015759334112430048 -0.013777097588550502 0 0.015847126711944715 -0.013851821175079587 0 0.015739266220739932 -0.01394491673289246 0 0.015759334112430048 -0.013777097588550502 0 0.017964479345626949 -0.00072486011216719363 0 0.018106993522078431 -0.00065275500775960533 0 0.018095289477710105 -0.00079995584099422248 0 0.017964479345626949 -0.00072486011216719363 0 0.018018072580269284 -0.00053987294161613809 0 0.018106993522078431 -0.00065275500775960533 0 0.017964479345626949 -0.00072486011216719363 0 0.017851556561150745 -0.00054375206450641659 0 0.017787128909572587 -0.00074943442620558579 0 0.017964479345626949 -0.00072486011216719363 0 0.017851556561150745 -0.00054375206450641659 0 0.018018072580269284 -0.00053987294161613809 0 0.018018072580269284 -0.00053987294161613809 0 0.018106993522078431 -0.00065275500775960533 0 0.018155627287892693 -0.00047586327065487946 0 0.018106993522078431 -0.00065275500775960533 0 0.018155627287892693 -0.00047586327065487946 0 0.018254327166472788 -0.00071451591584586658 0 0.018155627287892693 -0.00047586327065487946 0 0.018254327166472788 -0.00071451591584586658 0 0.018317766203583954 -0.00049704551723909324 0 0.018106993522078431 -0.00065275500775960533 0 0.018095289477710105 -0.00079995584099422248 0 0.018254327166472788 -0.00071451591584586658 0 0.018095289477710105 -0.00079995584099422248 0 0.018190627888150041 -0.00090053150989065464 0 0.0179293114778768 -0.00096100119935331853 0 0.01822679684457678 -0.00082387368172432709 0 0.017916445897964969 -0.00098138493310265251 0 0.018067955734093633 -0.0012055579673542114 0 0.018149703697408832 -0.0011178755202224709 0 0.0179293114778768 -0.00096100119935331853 0 0.018095289477710105 -0.00079995584099422248 0 0.018190627888150041 -0.00090053150989065464 0 0.018254327166472788 -0.00071451591584586658 0 0.017964479345626949 -0.00072486011216719363 0 0.018095289477710105 -0.00079995584099422248 0 0.0179293114778768 -0.00096100119935331853 0 0.017964479345626949 -0.00072486011216719363 0 0.0179293114778768 -0.00096100119935331853 0 0.017787128909572587 -0.00074943442620558579 0 0.0179293114778768 -0.00096100119935331853 0 0.01759837313768103 -0.00095452262773460905 0 0.017787128909572587 -0.00074943442620558579 0 0.017281286220854241 -0.0012179118969881152 0 0.01759837313768103 -0.00095452262773460905 0 0.017322647677893637 -0.00081668877740380971 0 0.01759837313768103 -0.00095452262773460905 0 0.017588195530467025 -0.00057196097150697387 0 0.017322647677893637 -0.00081668877740380971 0 0.017588195530467025 -0.00057196097150697387 0 0.017319534569878576 -0.00047925607621544027 0 0.017322647677893637 -0.00081668877740380971 0 0.017851556561150745 -0.00054375206450641659 0 0.017588195530467025 -0.00057196097150697387 0 0.017787128909572587 -0.00074943442620558579 0 0.01759837313768103 -0.00095452262773460905 0 0.017588195530467025 -0.00057196097150697387 0 0.017787128909572587 -0.00074943442620558579 0 0.017588195530467025 -0.00057196097150697387 0 0.017758747891940839 -0.00028316790686388777 0 0.017504628394004091 -0.00012711330198570759 0 0.017851556561150745 -0.00054375206450641659 0 0.017588195530467025 -0.00057196097150697387 0 0.017758747891940839 -0.00028316790686388777 0 0.017588195530467025 -0.00057196097150697387 0 0.017504628394004091 -0.00012711330198570759 0 0.017319534569878576 -0.00047925607621544027 0 0.017504628394004091 -0.00012711330198570759 0 0.017746393277989395 2.923238465907812e-05 0 0.017585697261625191 0.00016874097988607973 0 0.017504628394004091 -0.00012711330198570759 0 0.017585697261625191 0.00016874097988607973 0 0.017440428857637625 0.00018994837126080311 0 0.017758747891940839 -0.00028316790686388777 0 0.017504628394004091 -0.00012711330198570759 0 0.017746393277989395 2.923238465907812e-05 0 0.017758747891940839 -0.00028316790686388777 0 0.017746393277989395 2.923238465907812e-05 0 0.0179181609129083 -9.4398786234076271e-05 0 0.01804422898805803 -5.4225345229074872e-06 0 0.0179181609129083 -9.4398786234076271e-05 0 0.017949743909445225 0.00017263103045336644 0 0.017746393277989395 2.923238465907812e-05 0 0.0179181609129083 -9.4398786234076271e-05 0 0.017949743909445225 0.00017263103045336644 0 0.01804422898805803 -5.4225345229074872e-06 0 0.01819243836451306 6.6066179445844822e-05 0 0.017949743909445225 0.00017263103045336644 0 0.01804422898805803 -5.4225345229074872e-06 0 0.018068102416447903 -0.00013948404096873721 0 0.0179181609129083 -9.4398786234076271e-05 0 0.018068102416447903 -0.00013948404096873721 0 0.018010508406304013 -0.0003390371825254167 0 0.018223173881335795 -0.00015423750720748014 0 0.018068102416447903 -0.00013948404096873721 0 0.0179181609129083 -9.4398786234076271e-05 0 0.018010508406304013 -0.0003390371825254167 0 0.01804422898805803 -5.4225345229074872e-06 0 0.018068102416447903 -0.00013948404096873721 0 0.018155094575667174 -0.00010835750056282401 0 0.017851556561150745 -0.00054375206450641659 0 0.017758747891940839 -0.00028316790686388777 0 0.018010508406304013 -0.0003390371825254167 0 0.017758747891940839 -0.00028316790686388777 0 0.0179181609129083 -9.4398786234076271e-05 0 0.018010508406304013 -0.0003390371825254167 0 0.018100704096351602 -0.00023529801346722803 0 0.01774308063204854 -0.00040382087565154562 0 0.018018072580269284 -0.00053987294161613809 0 0.018010508406304013 -0.0003390371825254167 0 0.018155627287892693 -0.00047586327065487946 0 0.017851556561150745 -0.00054375206450641659 0 0.018018072580269284 -0.00053987294161613809 0 0.018010508406304013 -0.0003390371825254167 0 0.018155627287892693 -0.00047586327065487946 0 0.018123415128353075 -0.00027937553079742538 0 0.018317766203583954 -0.00049704551723909324 0 0.01774308063204854 -0.00040382087565154562 0 0.017292609105030513 -0.00043311628353036915 0 0.018010508406304013 -0.0003390371825254167 0 0.018155627287892693 -0.00047586327065487946 0 0.018123415128353075 -0.00027937553079742538 0 0.01774308063204854 -0.00040382087565154562 0 0.017786256093003296 -0.00038082096140085853 0 0.018213402027899606 -0.00017034002551127191 0 0.01819243836451306 6.6066179445844822e-05 0 0.01831944339103074 0.0001905264430237963 0 0.018213402027899606 -0.00017034002551127191 0 0.01831944339103074 0.0001905264430237963 0 0.01875798155066883 0.00013418986851812626 0 0.018213402027899606 -0.00017034002551127191 0 0.018155094575667174 -0.00010835750056282401 0 0.01819243836451306 6.6066179445844822e-05 0 0.018068102416447903 -0.00013948404096873721 0 0.018223173881335795 -0.00015423750720748014 0 0.018155094575667174 -0.00010835750056282401 0 0.01774308063204854 -0.00040382087565154562 0 0.017848620651870855 -0.00039873911242394781 0 0.01804422898805803 -5.4225345229074872e-06 0 0.018155094575667174 -0.00010835750056282401 0 0.01819243836451306 6.6066179445844822e-05 0 0.01831944339103074 0.0001905264430237963 0 0.018359835660143521 0.00063871579115811102 0 0.01875798155066883 0.00013418986851812626 0 0.01819243836451306 6.6066179445844822e-05 0 0.01831944339103074 0.0001905264430237963 0 0.018117717368386514 0.00037154863647716478 0 0.01831944339103074 0.0001905264430237963 0 0.018117717368386514 0.00037154863647716478 0 0.018359835660143521 0.00063871579115811102 0 0.01819243836451306 6.6066179445844822e-05 0 0.018117717368386514 0.00037154863647716478 0 0.017949743909445225 0.00017263103045336644 0 0.018117717368386514 0.00037154863647716478 0 0.017921411841334223 0.0005184379842439529 0 0.018092616631882549 0.00066499884385991812 0 0.018117717368386514 0.00037154863647716478 0 0.017949743909445225 0.00017263103045336644 0 0.017921411841334223 0.0005184379842439529 0 0.017949743909445225 0.00017263103045336644 0 0.017921411841334223 0.0005184379842439529 0 0.017737444216967387 0.00032531793267045252 0 0.017921411841334223 0.0005184379842439529 0 0.017929411471827177 0.00082777342349964005 0 0.017742782198673486 0.00063012720813407049 0 0.017921411841334223 0.0005184379842439529 0 0.017929411471827177 0.00082777342349964005 0 0.018092616631882549 0.00066499884385991812 0 0.017929411471827177 0.00082777342349964005 0 0.018092616631882549 0.00066499884385991812 0 0.018156812640233427 0.00099913601698985968 0 0.018359835660143521 0.00063871579115811102 0 0.018156812640233427 0.00099913601698985968 0 0.018477656311976263 0.0013620364900131608 0 0.018117717368386514 0.00037154863647716478 0 0.018359835660143521 0.00063871579115811102 0 0.018092616631882549 0.00066499884385991812 0 0.018359835660143521 0.00063871579115811102 0 0.018092616631882549 0.00066499884385991812 0 0.018156812640233427 0.00099913601698985968 0 0.018156812640233427 0.00099913601698985968 0 0.018160665483997234 0.0013425166380337378 0 0.018477656311976263 0.0013620364900131608 0 0.018160665483997234 0.0013425166380337378 0 0.018146907171129927 0.001516396884217732 0 0.018477656311976263 0.0013620364900131608 0 0.018156812640233427 0.00099913601698985968 0 0.018160665483997234 0.0013425166380337378 0 0.017991101604051284 0.0010335752187770569 0 0.018160665483997234 0.0013425166380337378 0 0.018146907171129927 0.001516396884217732 0 0.017806921141618429 0.0014748228249628797 0 0.017929411471827177 0.00082777342349964005 0 0.017756208481604474 0.00093012352041047582 0 0.017742782198673486 0.00063012720813407049 0 0.018161659103538244 0.0013023510696656443 0 0.017814626970466582 0.0012114085255387347 0 0.017929411471827177 0.00082777342349964005 0 0.018156812640233427 0.00099913601698985968 0 0.017991101604051284 0.0010335752187770569 0 0.018160665483997234 0.0013425166380337378 0 0.017991101604051284 0.0010335752187770569 0 0.017756208481604474 0.00093012352041047582 0 0.017929411471827177 0.00082777342349964005 0 0.017991101604051284 0.0010335752187770569 0 0.017756208481604474 0.00093012352041047582 0 0.016289701312393719 0.003868032909142608 0 0.0158795991849092 0.0040249500012670926 0 0.016058840192828983 0.00409930647581906 0 0.017424068337266282 0.0024680208134009217 0 0.016692984576238121 0.0026720679332504224 0 0.016289701312393719 0.003868032909142608 0 0.016493426220083426 0.0033863492742600824 0 0.0158795991849092 0.0040249500012670926 0 0.018146907171129927 0.001516396884217732 0 0.017770482513419655 0.0016839623688751722 0 0.017806921141618429 0.0014748228249628797 0 0.016289701312393719 0.003868032909142608 0 0.016517710384079808 0.0039561136376320104 0 0.016365146934351087 0.004034432226868224 0 0.016517710384079808 0.0039561136376320104 0 0.016703267262043048 0.0040124508974743603 0 0.016365146934351087 0.004034432226868224 0 0.016289701312393719 0.003868032909142608 0 0.016518172720747803 0.0037210262638530706 0 0.016493426220083426 0.0033863492742600824 0 0.016289701312393719 0.003868032909142608 0 0.016518172720747803 0.0037210262638530706 0 0.016517710384079808 0.0039561136376320104 0 0.016518172720747803 0.0037210262638530706 0 0.016517710384079808 0.0039561136376320104 0 0.016818502451282899 0.0037349280331328209 0 0.016623448662889631 0.0044717199349279596 0 0.017134880293371631 0.0048901472388183358 0 0.016517710384079808 0.0039561136376320104 0 0.016919559585973291 0.0042250250336018169 0 0.016818502451282899 0.0037349280331328209 0 0.016919559585973291 0.0042250250336018169 0 0.016818502451282899 0.0037349280331328209 0 0.017392180128099122 0.0035389034381263142 0 0.016818502451282899 0.0037349280331328209 0 0.016493426220083426 0.0033863492742600824 0 0.017392180128099122 0.0035389034381263142 0 0.016518172720747803 0.0037210262638530706 0 0.016818502451282899 0.0037349280331328209 0 0.016493426220083426 0.0033863492742600824 0 0.017770482513419655 0.0016839623688751722 0 0.017608305455129886 0.0015701909462750268 0 0.017583407419370426 0.0017590737010538095 0 0.017770482513419655 0.0016839623688751722 0 0.017806921141618429 0.0014748228249628797 0 0.017608305455129886 0.0015701909462750268 0 0.017756208481604474 0.00093012352041047582 0 0.017548387188874161 0.00068756323589636383 0 0.017600644789767833 0.00061937024151276796 0 0.017756208481604474 0.00093012352041047582 0 0.017600644789767833 0.00061937024151276796 0 0.017742782198673486 0.00063012720813407049 0 0.017814626970466582 0.0012114085255387347 0 0.017607427633909364 0.0011317698174536351 0 0.017548387188874161 0.00068756323589636383 0 0.017600644789767833 0.00061937024151276796 0 0.017466937762238764 0.00045279531067291473 0 0.017600644789767833 0.00061937024151276796 0 0.017575864700972402 0.00040053493285200303 0 0.017466937762238764 0.00045279531067291473 0 0.017600644789767833 0.00061937024151276796 0 0.017575864700972402 0.00040053493285200303 0 0.017742782198673486 0.00063012720813407049 0 0.017575864700972402 0.00040053493285200303 0 0.017742782198673486 0.00063012720813407049 0 0.017737444216967387 0.00032531793267045252 0 0.017921411841334223 0.0005184379842439529 0 0.017742782198673486 0.00063012720813407049 0 0.017737444216967387 0.00032531793267045252 0 0.017575864700972402 0.00040053493285200303 0 0.017737444216967387 0.00032531793267045252 0 0.017585697261625191 0.00016874097988607973 0 0.017746393277989395 2.923238465907812e-05 0 0.017737444216967387 0.00032531793267045252 0 0.017585697261625191 0.00016874097988607973 0 0.017746393277989395 2.923238465907812e-05 0 0.017949743909445225 0.00017263103045336644 0 0.017737444216967387 0.00032531793267045252 0 0.017575864700972402 0.00040053493285200303 0 0.017585697261625191 0.00016874097988607973 0 0.017440428857637625 0.00018994837126080311 0 0.017440428857637625 0.00018994837126080311 0 0.017406277045624141 0.00024114492815532974 0 0.017466937762238764 0.00045279531067291473 0 0.017440428857637625 0.00018994837126080311 0 0.017406277045624141 0.00024114492815532974 0 0.0174473314766985 9.9511982173152463e-05 0 0.017406277045624141 0.00024114492815532974 0 0.017353867004994399 8.5929393938938758e-05 0 0.0174473314766985 9.9511982173152463e-05 0 0.017406277045624141 0.00024114492815532974 0 0.01736807094889849 0.00039476779062804759 0 0.017466937762238764 0.00045279531067291473 0 0.017575864700972402 0.00040053493285200303 0 0.017440428857637625 0.00018994837126080311 0 0.017466937762238764 0.00045279531067291473 0 0.017607427633909364 0.0011317698174536351 0 0.017392610497925551 0.0010794534948993446 0 0.017548387188874161 0.00068756323589636383 0 0.017466937762238764 0.00045279531067291473 0 0.017425038064643319 0.00056582960179828829 0 0.01736807094889849 0.00039476779062804759 0 0.017466937762238764 0.00045279531067291473 0 0.017425038064643319 0.00056582960179828829 0 0.01736807094889849 0.00039476779062804759 0 0.017425038064643319 0.00056582960179828829 0 0.017300636895384105 0.00053906992900768717 0 0.018777220034204935 0.0045290558464844343 0 0.018689619822578503 0.0045134777128073081 0 0.018749069127607137 0.0044991567597649461 0 0.017495666829111054 0.001619586518599971 0 0.017433352856760627 0.0016672101417526577 0 0.017488960374376323 0.0017037396152877833 0 0.018971466460389746 0.0032430644621556193 0 0.017993996089903416 0.0030090764119541716 0 0.017392610497925551 0.0010794534948993446 0 0.017730214667821254 0.0013242330616730792 0 0.017608305455129886 0.0015701909462750268 0 0.017495666829111054 0.001619586518599971 0 0.017488960374376323 0.0017037396152877833 0 0.017608305455129886 0.0015701909462750268 0 0.017488960374376323 0.0017037396152877833 0 0.017583407419370426 0.0017590737010538095 0 0.019249967464466642 0.0022303808971611879 0 0.018887987975234537 0.0010021576689546432 0 0.019977034760968081 0.0020354796933136662 0 0.019563892041456747 0.0020688741951308 0 0.019174679125234222 0.0016891638810617819 0 0.017539354726390961 0.00071724138124178573 0 0.017686296543103695 0.00070341139881652346 0 0.017444122068209823 0.00054635717309669282 0 0.021170390931537691 0.0042357685798014803 0 0.021173315205653145 0.0042271959380125197 0 0.02118137501050894 0.0042249212346541394 0 0.019249967464466642 0.0022303808971611879 0 0.020689669216293085 0.002834906792252536 0 0.021254488370927867 0.0042902832754929355 0 0.02127471993449551 0.004229277195434456 0 0.021311001236146682 0.0042830165658130966 0 0.020689669216293085 0.002834906792252536 0 0.018887987975234537 0.0010021576689546432 0 0.020846907075860743 0.0016657511261039194 0 0.020711840556943688 0.0015281636814706444 0 0.020760538718854242 0.0016544451904563927 0 0.020846907075860743 0.0016657511261039194 0 0.020723196875744643 0.0016735178384469989 0 0.020760538718854242 0.0016544451904563927 0 0.020689669216293085 0.002834906792252536 0 0.02118635612784691 0.0025275498749733677 0 0.021254488370927867 0.0042902832754929355 0 0.02127471993449551 0.004229277195434456 0 0.02118137501050894 0.0042249212346541394 0 0.020689669216293085 0.002834906792252536 0 0.021500010172239979 0.0043033600515373005 0 0.021170390931537691 0.0042357685798014803 0 0.02118137501050894 0.0042249212346541394 0 0.021120388994383815 0.0042376739032779307 0 0.02118137501050894 0.0042249212346541394 0 0.021120388994383815 0.0042376739032779307 0 0.021153633606907269 0.0041907701595227239 0 0.017495666829111054 0.001619586518599971 0 0.017433352856760627 0.0016672101417526577 0 0.017422671260275534 0.0016464341916635548 0 0.018971466460389746 0.0032430644621556193 0 0.020120398066411971 0.0046553779528647199 0 0.018971466460389746 0.0032430644621556193 0 0.017730214667821254 0.0013242330616730792 0 0.01870223807745185 0.002373244472793351 0 0.018519750349838816 0.002307152633205055 0 0.018571823217906347 0.0023885285600534316 0 0.019249967464466642 0.0022303808971611879 0 0.017730214667821254 0.0013242330616730792 0 0.019249967464466642 0.0022303808971611879 0 0.018971466460389746 0.0032430644621556193 0 0.017730214667821254 0.0013242330616730792 0 0.017279255154264192 0.00021734863993080452 0 0.01736807094889849 0.00039476779062804759 0 0.017300636895384105 0.00053906992900768717 0 0.01723561523535325 0.00035252284221421099 0 0.017686296543103695 0.00070341139881652346 0 0.017444122068209823 0.00054635717309669282 0 0.01745886943934646 0.00036710912922557405 0 0.017539354726390961 0.00071724138124178573 0 0.017444122068209823 0.00054635717309669282 0 0.017278216939001941 0.00059085208270501677 0 0.017444122068209823 0.00054635717309669282 0 0.01745886943934646 0.00036710912922557405 0 0.017242550591863373 0.00033829525073438672 0 0.01745886943934646 0.00036710912922557405 0 0.017215082890699295 0.00012510599341128038 0 0.017242550591863373 0.00033829525073438672 0 0.01723561523535325 0.00035252284221421099 0 0.017319626494718163 0.0002491196524571319 0 0.017215082890699295 0.00012510599341128038 0 0.017279255154264192 0.00021734863993080452 0 0.017259751787460323 0.00020801527576720809 0 0.017406277045624141 0.00024114492815532974 0 0.01736807094889849 0.00039476779062804759 0 0.017319626494718163 0.0002491196524571319 0 0.01736807094889849 0.00039476779062804759 0 0.01723561523535325 0.00035252284221421099 0 0.017319626494718163 0.0002491196524571319 0 0.017406277045624141 0.00024114492815532974 0 0.017319626494718163 0.0002491196524571319 0 0.017353867004994399 8.5929393938938758e-05 0 0.017353867004994399 8.5929393938938758e-05 0 0.017265695831987286 -3.6812383120615568e-05 0 0.017215082890699295 0.00012510599341128038 0 0.017319626494718163 0.0002491196524571319 0 0.017353867004994399 8.5929393938938758e-05 0 0.017215082890699295 0.00012510599341128038 0 0.017265695831987286 -3.6812383120615568e-05 0 0.017381335996223612 -0.00023576152030679826 0 0.017359493497800364 -6.2401223320083523e-05 0 0.017353867004994399 8.5929393938938758e-05 0 0.017265695831987286 -3.6812383120615568e-05 0 0.017359493497800364 -6.2401223320083523e-05 0 0.017381335996223612 -0.00023576152030679826 0 0.017351646013448095 -0.00044595078487267176 0 0.017271743062338349 -0.00028068083891128522 0 0.017265695831987286 -3.6812383120615568e-05 0 0.017381335996223612 -0.00023576152030679826 0 0.017271743062338349 -0.00028068083891128522 0 0.017381335996223612 -0.00023576152030679826 0 0.017432018423696165 -7.1329260628227531e-05 0 0.017359493497800364 -6.2401223320083523e-05 0 0.017381335996223612 -0.00023576152030679826 0 0.017432018423696165 -7.1329260628227531e-05 0 0.017486049698978913 -0.00026535261526426272 0 0.017353867004994399 8.5929393938938758e-05 0 0.017432018423696165 -7.1329260628227531e-05 0 0.0174473314766985 9.9511982173152463e-05 0 0.017353867004994399 8.5929393938938758e-05 0 0.017432018423696165 -7.1329260628227531e-05 0 0.017359493497800364 -6.2401223320083523e-05 0 0.017432018423696165 -7.1329260628227531e-05 0 0.0174473314766985 9.9511982173152463e-05 0 0.017602093162813089 -9.7850186833356478e-05 0 0.017438892272187728 0.00016195062401352451 0 0.017373917344537099 -0.00021384880786277647 0 0.017504628394004091 -0.00012711330198570759 0 0.017440428857637625 0.00018994837126080311 0 0.017165093602536895 -0.00021738641881232068 0 0.017440428857637625 0.00018994837126080311 0 0.0174473314766985 9.9511982173152463e-05 0 0.017602093162813089 -9.7850186833356478e-05 0 0.017165093602536895 -0.00021738641881232068 0 0.017002761322756348 -0.00066779408322183273 0 0.017319534569878576 -0.00047925607621544027 0 0.017373917344537099 -0.00021384880786277647 0 0.017304441907868662 -0.00032660316471563075 0 0.017504628394004091 -0.00012711330198570759 0 0.017165093602536895 -0.00021738641881232068 0 0.017319534569878576 -0.00047925607621544027 0 0.017602093162813089 -9.7850186833356478e-05 0 0.017486049698978913 -0.00026535261526426272 0 0.017620076677931907 -0.00041026239329123828 0 0.017432018423696165 -7.1329260628227531e-05 0 0.017602093162813089 -9.7850186833356478e-05 0 0.017486049698978913 -0.00026535261526426272 0 0.017486049698978913 -0.00026535261526426272 0 0.017620076677931907 -0.00041026239329123828 0 0.017457602077807121 -0.00043924287219293637 0 0.017002761322756348 -0.00066779408322183273 0 0.017319534569878576 -0.00047925607621544027 0 0.017322647677893637 -0.00081668877740380971 0 0.017002761322756348 -0.00066779408322183273 0 0.017322647677893637 -0.00081668877740380971 0 0.017130666282809806 -0.00097392891507311287 0 0.017281286220854241 -0.0012179118969881152 0 0.017322647677893637 -0.00081668877740380971 0 0.017130666282809806 -0.00097392891507311287 0 0.016893406295354355 -0.0011063651035069222 0 0.017002761322756348 -0.00066779408322183273 0 0.017130666282809806 -0.00097392891507311287 0 0.01758215351484212 -0.0019582857726549866 0 0.017304441907868662 -0.00032660316471563075 0 0.017575984509866121 -0.00064152237774272409 0 0.017620076677931907 -0.00041026239329123828 0 0.017457602077807121 -0.00043924287219293637 0 0.017575984509866121 -0.00064152237774272409 0 0.017385044198852451 -0.00058972301401918686 0 0.017457602077807121 -0.00043924287219293637 0 0.01758215351484212 -0.0019582857726549866 0 0.018013243299534742 -0.00079740696181414413 0 0.017385044198852451 -0.00058972301401918686 0 0.017351646013448095 -0.00044595078487267176 0 0.017302899722644861 -0.00059267040960697887 0 0.018013243299534742 -0.00079740696181414413 0 0.017229635616253312 -0.00079401932798293083 0 0.017385044198852451 -0.00058972301401918686 0 0.017351646013448095 -0.00044595078487267176 0 0.017457602077807121 -0.00043924287219293637 0 0.017351646013448095 -0.00044595078487267176 0 0.017259705873456415 -0.00043430227357924234 0 0.017302899722644861 -0.00059267040960697887 0 0.017351646013448095 -0.00044595078487267176 0 0.017259705873456415 -0.00043430227357924234 0 0.017271743062338349 -0.00028068083891128522 0 0.017381335996223612 -0.00023576152030679826 0 0.017486049698978913 -0.00026535261526426272 0 0.017457602077807121 -0.00043924287219293637 0 0.017381335996223612 -0.00023576152030679826 0 0.017351646013448095 -0.00044595078487267176 0 0.017457602077807121 -0.00043924287219293637 0 0.016973121209018734 -0.00083480826971672371 0 0.017237040730174097 -0.00067765710810328296 0 0.016738050835920351 -0.00093368729747188642 0 0.01711446945952497 -0.00052409912311268149 0 0.017237040730174097 -0.00067765710810328296 0 0.017028086121985638 -0.00049012161227371387 0 0.017358679729374115 -0.00075733531906537008 0 0.016599057986000969 -0.00062368240354876675 0 0.01711446945952497 -0.00052409912311268149 0 0.017202266100478654 -0.00051481793309474089 0 0.017038937131104773 -0.00049519799697262854 0 0.017252442253804064 -0.00052890937114802392 0 0.016816936701799828 -0.00038207112571956138 0 0.017202266100478654 -0.00051481793309474089 0 0.017090413061605522 -0.0003091366775306073 0 0.016916543223469607 -0.00031452764389094164 0 0.016973121209018734 -0.00083480826971672371 0 0.017237040730174097 -0.00067765710810328296 0 0.017109506125463081 -0.00079025402391669978 0 0.016973121209018734 -0.00083480826971672371 0 0.016898973991238481 -0.00091345957581294326 0 0.016832796065932996 -0.00087031628496486442 0 0.016973121209018734 -0.00083480826971672371 0 0.016832796065932996 -0.00087031628496486442 0 0.016738050835920351 -0.00093368729747188642 0 0.016898973991238481 -0.00091345957581294326 0 0.01681888752359504 -0.0009325820397679275 0 0.016832796065932996 -0.00087031628496486442 0 0.01711446945952497 -0.00052409912311268149 0 0.017028086121985638 -0.00049012161227371387 0 0.017038937131104773 -0.00049519799697262854 0 0.017202266100478654 -0.00051481793309474089 0 0.017259705873456415 -0.00043430227357924234 0 0.017187366541569861 -0.00031449308425205423 0 0.017202266100478654 -0.00051481793309474089 0 0.017090413061605522 -0.0003091366775306073 0 0.017187366541569861 -0.00031449308425205423 0 0.017202266100478654 -0.00051481793309474089 0 0.017259705873456415 -0.00043430227357924234 0 0.017302899722644861 -0.00059267040960697887 0 0.01711446945952497 -0.00052409912311268149 0 0.017202266100478654 -0.00051481793309474089 0 0.017237040730174097 -0.00067765710810328296 0 0.017202266100478654 -0.00051481793309474089 0 0.017302899722644861 -0.00059267040960697887 0 0.017237040730174097 -0.00067765710810328296 0 0.017268460822958333 -0.00079068151678975921 0 0.017294840394515024 -0.0011861237715331369 0 0.017152967302182402 -0.00089878183377181914 0 0.017194489018578493 -0.00078080446356162438 0 0.017237040730174097 -0.00067765710810328296 0 0.017268460822958333 -0.00079068151678975921 0 0.017385044198852451 -0.00058972301401918686 0 0.017302899722644861 -0.00059267040960697887 0 0.017268460822958333 -0.00079068151678975921 0 0.017194489018578493 -0.00078080446356162438 0 0.017237040730174097 -0.00067765710810328296 0 0.017109506125463081 -0.00079025402391669978 0 0.018358957352825247 -0.0011733804542875766 0 0.017268460822958333 -0.00079068151678975921 0 0.017692815770980655 -0.0012873979928929209 0 0.017302899722644861 -0.00059267040960697887 0 0.017237040730174097 -0.00067765710810328296 0 0.017268460822958333 -0.00079068151678975921 0 0.017194489018578493 -0.00078080446356162438 0 0.017268460822958333 -0.00079068151678975921 0 0.017152967302182402 -0.00089878183377181914 0 0.017268460822958333 -0.00079068151678975921 0 0.017692815770980655 -0.0012873979928929209 0 0.017294840394515024 -0.0011861237715331369 0 0.017108941970789715 -0.0010444068667103804 0 0.017005114441794596 -0.00095467078697375604 0 0.016980259322111078 -0.0012445866599813972 0 0.017294840394515024 -0.0011861237715331369 0 0.017108941970789715 -0.0010444068667103804 0 0.016980259322111078 -0.0012445866599813972 0 0.017294840394515024 -0.0011861237715331369 0 0.017108941970789715 -0.0010444068667103804 0 0.017152967302182402 -0.00089878183377181914 0 0.017108941970789715 -0.0010444068667103804 0 0.017152967302182402 -0.00089878183377181914 0 0.017005114441794596 -0.00095467078697375604 0 0.016973121209018734 -0.00083480826971672371 0 0.017005114441794596 -0.00095467078697375604 0 0.017109506125463081 -0.00079025402391669978 0 0.017194489018578493 -0.00078080446356162438 0 0.017152967302182402 -0.00089878183377181914 0 0.017109506125463081 -0.00079025402391669978 0 0.017152967302182402 -0.00089878183377181914 0 0.017005114441794596 -0.00095467078697375604 0 0.017109506125463081 -0.00079025402391669978 0 0.017005114441794596 -0.00095467078697375604 0 0.016898973991238481 -0.00091345957581294326 0 0.016848156013002907 -0.0010528498658770205 0 0.016898973991238481 -0.00091345957581294326 0 0.016848156013002907 -0.0010528498658770205 0 0.01681888752359504 -0.0009325820397679275 0 0.016973121209018734 -0.00083480826971672371 0 0.017005114441794596 -0.00095467078697375604 0 0.016898973991238481 -0.00091345957581294326 0 0.017005114441794596 -0.00095467078697375604 0 0.016848156013002907 -0.0010528498658770205 0 0.016980259322111078 -0.0012445866599813972 0 0.016848156013002907 -0.0010528498658770205 0 0.016980259322111078 -0.0012445866599813972 0 0.01675771987711468 -0.0013056564705566179 0 0.016674371901630378 -0.0010786590524025897 0 0.016235422446656034 -0.00099425790181501472 0 0.016808453647364212 -0.0007998696330477487 0 0.016848156013002907 -0.0010528498658770205 0 0.01675771987711468 -0.0013056564705566179 0 0.016674371901630378 -0.0010786590524025897 0 0.016477175321040021 -0.0014026334556196951 0 0.01675771987711468 -0.0013056564705566179 0 0.016674371901630378 -0.0010786590524025897 0 0.016477175321040021 -0.0014026334556196951 0 0.016674371901630378 -0.0010786590524025897 0 0.016235422446656034 -0.00099425790181501472 0 0.016848156013002907 -0.0010528498658770205 0 0.016674371901630378 -0.0010786590524025897 0 0.01681888752359504 -0.0009325820397679275 0 0.016674371901630378 -0.0010786590524025897 0 0.01681888752359504 -0.0009325820397679275 0 0.016808453647364212 -0.0007998696330477487 0 0.016123767182763711 -0.0014351138070161295 0 0.016235422446656034 -0.00099425790181501472 0 0.015765818309584449 -0.0011951626915176624 0 0.016123767182763711 -0.0014351138070161295 0 0.016477175321040021 -0.0014026334556196951 0 0.016235422446656034 -0.00099425790181501472 0 0.017412035867685725 -0.0010149867097768563 0 0.016738050835920351 -0.00093368729747188642 0 0.017834528606037296 -0.0015834717089209826 0 0.017698733423269976 -0.0004440167724109916 0 0.017412035867685725 -0.0010149867097768563 0 0.016808453647364212 -0.0007998696330477487 0 0.017698733423269976 -0.0004440167724109916 0 0.018059833151674982 -0.00085774188640367103 0 0.017412035867685725 -0.0010149867097768563 0 0.018059833151674982 -0.00085774188640367103 0 0.017412035867685725 -0.0010149867097768563 0 0.017834528606037296 -0.0015834717089209826 0 0.016436845495383035 -0.00083618686886125643 0 0.017004010850496819 -0.000725560676408981 0 0.016599057986000969 -0.00062368240354876675 0 0.019086481045925859 -0.0012884476892737152 0 0.016808453647364212 -0.0007998696330477487 0 0.016832796065932996 -0.00087031628496486442 0 0.016738050835920351 -0.00093368729747188642 0 0.01681888752359504 -0.0009325820397679275 0 0.016808453647364212 -0.0007998696330477487 0 0.016832796065932996 -0.00087031628496486442 0 0.017412035867685725 -0.0010149867097768563 0 0.016808453647364212 -0.0007998696330477487 0 0.016738050835920351 -0.00093368729747188642 0 0.017028086121985638 -0.00049012161227371387 0 0.017109617592908712 -0.00052598737860373355 0 0.017038937131104773 -0.00049519799697262854 0 0.017028086121985638 -0.00049012161227371387 0 0.017109617592908712 -0.00052598737860373355 0 0.01722423509174608 -0.00052946593410735962 0 0.017927615490348391 -0.00015107617368367867 0 0.016816936701799828 -0.00038207112571956138 0 0.016840731509405127 -0.00018602430995024182 0 0.016682911406740008 -0.00018923825459206612 0 0.016916543223469607 -0.00031452764389094164 0 0.017109617592908712 -0.00052598737860373355 0 0.017164142253582319 -0.00058326253486796402 0 0.017038937131104773 -0.00049519799697262854 0 0.016840731509405127 -0.00018602430995024182 0 0.016931696946984955 -0.00019812432191157321 0 0.016916543223469607 -0.00031452764389094164 0 0.016840731509405127 -0.00018602430995024182 0 0.016682911406740008 -0.00018923825459206612 0 0.016821921234813818 -4.4511924829182123e-05 0 0.016840731509405127 -0.00018602430995024182 0 0.016915220779693856 -0.00012401022684061563 0 0.016931696946984955 -0.00019812432191157321 0 0.017109617592908712 -0.00052598737860373355 0 0.01722423509174608 -0.00052946593410735962 0 0.017164142253582319 -0.00058326253486796402 0 0.019086481045925859 -0.0012884476892737152 0 0.017927615490348391 -0.00015107617368367867 0 0.020870615950188662 0.00030810476216034809 0 0.019434965386301968 -0.0009862079397256209 0 0.021347467891071212 -0.0018572041453931143 0 0.017927615490348391 -0.00015107617368367867 0 0.022468298620067988 0.00027632150078530943 0 0.018014807157918287 0.0010746687863800678 0 0.018417489810600252 0.00089917536318763968 0 0.017966022442242695 0.00037072168159979897 0 0.025611368981590013 0.0011055709272326912 0 0.025374313161884935 0.00080842719866195442 0 0.025765246509082886 0.00067689725381459833 0 0.022468298620067988 0.00027632150078530943 0 0.021704289542039353 0.00057744530813410677 0 0.018014807157918287 0.0010746687863800678 0 0.017966022442242695 0.00037072168159979897 0 0.017495277317345771 0.00061294567922265993 0 0.016840731509405127 -0.00018602430995024182 0 0.016915220779693856 -0.00012401022684061563 0 0.016821921234813818 -4.4511924829182123e-05 0 0.016915220779693856 -0.00012401022684061563 0 0.016821921234813818 -4.4511924829182123e-05 0 0.016980417128629254 -4.3142973761029724e-05 0 0.017927615490348391 -0.00015107617368367867 0 0.017180405470998163 0.0002569318774569578 0 0.017966022442242695 0.00037072168159979897 0 0.017495277317345771 0.00061294567922265993 0 0.017394648655953505 0.00019682898825492003 0 0.017180405470998163 0.0002569318774569578 0 0.017066217524469178 0.00016015910609500574 0 0.017495277317345771 0.00061294567922265993 0 0.017055548064463199 0.00013101546425713505 0 0.017394648655953505 0.00019682898825492003 0 0.016821921234813818 -4.4511924829182123e-05 0 0.016980417128629254 -4.3142973761029724e-05 0 0.017055548064463199 0.00013101546425713505 0 0.01708232481802004 -3.6855493411602949e-05 0 0.016980417128629254 -4.3142973761029724e-05 0 0.017055548064463199 0.00013101546425713505 0 0.01708232481802004 -3.6855493411602949e-05 0 0.017165072585832226 -1.5003000133039696e-05 0 0.017093219616740873 6.5574745148076427e-05 0 0.01708232481802004 -3.6855493411602949e-05 0 0.017055548064463199 0.00013101546425713505 0 0.017093219616740873 6.5574745148076427e-05 0 0.01708232481802004 -3.6855493411602949e-05 0 0.016994634817076807 -0.0001359754355825777 0 0.017089019384292713 -0.00019164593219124238 0 0.01708232481802004 -3.6855493411602949e-05 0 0.017089019384292713 -0.00019164593219124238 0 0.017177997940442717 -0.00014227738765018044 0 0.01708232481802004 -3.6855493411602949e-05 0 0.016980417128629254 -4.3142973761029724e-05 0 0.016994634817076807 -0.0001359754355825777 0 0.016915220779693856 -0.00012401022684061563 0 0.016980417128629254 -4.3142973761029724e-05 0 0.016994634817076807 -0.0001359754355825777 0 0.016915220779693856 -0.00012401022684061563 0 0.016931696946984955 -0.00019812432191157321 0 0.016994634817076807 -0.0001359754355825777 0 0.016994634817076807 -0.0001359754355825777 0 0.017089019384292713 -0.00019164593219124238 0 0.016997992374937664 -0.00023354298034303399 0 0.016931696946984955 -0.00019812432191157321 0 0.016994634817076807 -0.0001359754355825777 0 0.016997992374937664 -0.00023354298034303399 0 0.017089019384292713 -0.00019164593219124238 0 0.017090413061605522 -0.0003091366775306073 0 0.016997992374937664 -0.00023354298034303399 0 0.017089019384292713 -0.00019164593219124238 0 0.017090413061605522 -0.0003091366775306073 0 0.017187366541569861 -0.00031449308425205423 0 0.017090413061605522 -0.0003091366775306073 0 0.016916543223469607 -0.00031452764389094164 0 0.016997992374937664 -0.00023354298034303399 0 0.016931696946984955 -0.00019812432191157321 0 0.016916543223469607 -0.00031452764389094164 0 0.016997992374937664 -0.00023354298034303399 0 0.017265695831987286 -3.6812383120615568e-05 0 0.017271743062338349 -0.00028068083891128522 0 0.017177997940442717 -0.00014227738765018044 0 0.017271743062338349 -0.00028068083891128522 0 0.017187366541569861 -0.00031449308425205423 0 0.017177997940442717 -0.00014227738765018044 0 0.017259705873456415 -0.00043430227357924234 0 0.017271743062338349 -0.00028068083891128522 0 0.017187366541569861 -0.00031449308425205423 0 0.017089019384292713 -0.00019164593219124238 0 0.017187366541569861 -0.00031449308425205423 0 0.017177997940442717 -0.00014227738765018044 0 0.017265695831987286 -3.6812383120615568e-05 0 0.017177997940442717 -0.00014227738765018044 0 0.017165072585832226 -1.5003000133039696e-05 0 0.017265695831987286 -3.6812383120615568e-05 0 0.017165072585832226 -1.5003000133039696e-05 0 0.017215082890699295 0.00012510599341128038 0 0.01708232481802004 -3.6855493411602949e-05 0 0.017177997940442717 -0.00014227738765018044 0 0.017165072585832226 -1.5003000133039696e-05 0 0.017165072585832226 -1.5003000133039696e-05 0 0.017215082890699295 0.00012510599341128038 0 0.017093219616740873 6.5574745148076427e-05 0 0.017215082890699295 0.00012510599341128038 0 0.017093219616740873 6.5574745148076427e-05 0 0.017114026369535091 0.00016083485348564644 0 0.017039663649561509 4.2846871608179907e-05 0 0.016953648392910466 -0.00054701817164132217 0 0.017540331203746928 -4.5435622201996612e-05 0 0.017039663649561509 4.2846871608179907e-05 0 0.017114026369535091 0.00016083485348564644 0 0.017022155872125605 0.00029565816301621502 0 0.017055548064463199 0.00013101546425713505 0 0.017039663649561509 4.2846871608179907e-05 0 0.017093219616740873 6.5574745148076427e-05 0 0.017055548064463199 0.00013101546425713505 0 0.017039663649561509 4.2846871608179907e-05 0 0.017394648655953505 0.00019682898825492003 0 0.017039663649561509 4.2846871608179907e-05 0 0.017093219616740873 6.5574745148076427e-05 0 0.017114026369535091 0.00016083485348564644 0 0.02485198246486911 0.00021770932371110584 0 0.024538061260718516 -0.00014519774289885093 0 0.025099014263924312 -1.4233717696691898e-05 0 0.016951737324894817 -6.6272775615351098e-05 0 0.018483006661054766 -6.9328889643634217e-05 0 0.018483006661054766 -6.9328889643634217e-05 0 0.021651342213232772 0.00030176363955310126 0 0.021319775184467486 0.00013406579511587928 0 0.021098320819468695 2.213003745034914e-05 0 0.021058485825160563 -0.00017786949795058472 0 0.023162127164846721 0.00039858962826212519 0 0.021651342213232772 0.00030176363955310126 0 0.017114026369535091 0.00016083485348564644 0 0.017022155872125605 0.00029565816301621502 0 0.017242550591863373 0.00033829525073438672 0 0.017215082890699295 0.00012510599341128038 0 0.017114026369535091 0.00016083485348564644 0 0.017242550591863373 0.00033829525073438672 0 0.01945490164388429 0.00052569305310496122 0 0.019607973351482601 0.00069278379585041474 0 0.019496973723910616 0.00063693112490742867 0 0.017022155872125605 0.00029565816301621502 0 0.017242550591863373 0.00033829525073438672 0 0.017278216939001941 0.00059085208270501677 0 0.017444122068209823 0.00054635717309669282 0 0.017242550591863373 0.00033829525073438672 0 0.017278216939001941 0.00059085208270501677 0 0.018483006661054766 -6.9328889643634217e-05 0 0.018887987975234537 0.0010021576689546432 0 0.020711840556943688 0.0015281636814706444 0 0.020473959022083311 0.0014155916445228438 0 0.020656690449853091 0.0016765836377001051 0 0.02241505090473269 0.00085462782564652267 0 0.022417449860303671 0.0012002745283598421 0 0.022724416318585624 0.0012721526969744358 0 0.018887987975234537 0.0010021576689546432 0 0.021413991422760542 0.00063360694810331362 0 0.021413991422760542 0.00063360694810331362 0 0.02163525162247178 0.0019042203517325282 0 0.022807248562361233 0.00040322342763535001 0 0.025575683012657752 5.8766022949577967e-05 0 0.02462957429834076 -0.00018640569644430379 0 0.024896318307285323 -0.00025812336307856474 0 0.025099014263924312 -1.4233717696691898e-05 0 0.01945490164388429 0.00052569305310496122 0 0.019466867874288234 0.0005936595049829673 0 0.019496973723910616 0.00063693112490742867 0 0.024538061260718516 -0.00014519774289885093 0 0.02451534801977389 -0.00025849603792255809 0 0.025099014263924312 -1.4233717696691898e-05 0 0.021651342213232772 0.00030176363955310126 0 0.022807248562361233 0.00040322342763535001 0 0.021631953311866157 0.00054443927932988807 0 0.021672162771569779 0.00077199266782246106 0 0.021867808358985261 0.00085436465665270165 0 0.021651342213232772 0.00030176363955310126 0 0.021413991422760542 0.00063360694810331362 0 0.022807248562361233 0.00040322342763535001 0 0.021413991422760542 0.00063360694810331362 0 0.02462957429834076 -0.00018640569644430379 0 0.024708701581312761 -0.00040290228137287765 0 0.024896318307285323 -0.00025812336307856474 0 0.024708701581312761 -0.00040290228137287765 0 0.024932559238438946 -0.00043810653584038602 0 0.024896318307285323 -0.00025812336307856474 0 0.02232588619151538 0.00081651547536255452 0 0.022417449860303671 0.0012002745283598421 0 0.022404719367623706 0.0012463116931981672 0 0.02232588619151538 0.00081651547536255452 0 0.02241505090473269 0.00085462782564652267 0 0.022417449860303671 0.0012002745283598421 0 0.02462957429834076 -0.00018640569644430379 0 0.024708701581312761 -0.00040290228137287765 0 0.024555651776548854 -0.0005579049887039049 0 0.022807248562361233 0.00040322342763535001 0 0.023537893764671084 0.0010430314525832506 0 0.024708701581312761 -0.00040290228137287765 0 0.024546336043854915 -0.00060345168674629088 0 0.024555651776548854 -0.0005579049887039049 0 0.023496349123467958 0.0010833710883155726 0 0.023537893764671084 0.0010430314525832506 0 0.022417449860303671 0.0012002745283598421 0 0.022414944904265835 0.0012976596497249104 0 0.022405288839385473 0.0012458233090238727 0 0.023739531503863664 0.0017168511388803106 0 0.023537893764671084 0.0010430314525832506 0 0.024708701581312761 -0.00040290228137287765 0 0.024546336043854915 -0.00060345168674629088 0 0.024932559238438946 -0.00043810653584038602 0 0.025210523369380667 0.0027817327221069735 0 0.02514654225743607 0.0029476700903789213 0 0.024911540960349123 0.002945608498177512 0 0.023739531503863664 0.0017168511388803106 0 0.023389419471658183 0.003528898861731378 0 0.023477721680915331 0.0024238823821477978 0 0.023040105445460445 0.0035428372945919963 0 0.023625482771863729 0.0032407073176168423 0 0.023739531503863664 0.0017168511388803106 0 0.022420617164006444 0.0034865119272313059 0 0.023389419471658183 0.003528898861731378 0 0.022420617164006444 0.0034865119272313059 0 0.022938590169255195 0.0024815797167344676 0 0.022835597736036151 0.0019223022461340859 0 0.021853312627956967 0.0025792384240770089 0 0.022420617164006444 0.0034865119272313059 0 0.02118635612784691 0.0025275498749733677 0 0.021407697451109028 0.0042336842669465653 0 0.021340853998918538 0.0042185901513456707 0 0.021311001236146682 0.0042830165658130966 0 0.02127471993449551 0.004229277195434456 0 0.021340853998918538 0.0042185901513456707 0 0.021311001236146682 0.0042830165658130966 0 0.02163525162247178 0.0019042203517325282 0 0.02118635612784691 0.0025275498749733677 0 0.020711840556943688 0.0015281636814706444 0 0.020723613347794871 0.0016725245421197489 0 0.020760538718854242 0.0016544451904563927 0 0.020711840556943688 0.0015281636814706444 0 0.020656690449853091 0.0016765836377001051 0 0.020723613347794871 0.0016725245421197489 0 0.02118635612784691 0.0025275498749733677 0 0.021161097731501086 0.0024755091846883461 0 0.023739531503863664 0.0017168511388803106 0 0.02163525162247178 0.0019042203517325282 0 0.022835597736036151 0.0019223022461340859 0 0.021853312627956967 0.0025792384240770089 0 0.021471520047618414 0.0026131966494310249 0 0.022417449860303671 0.0012002745283598421 0 0.022414944904265835 0.0012976596497249104 0 0.022724416318585624 0.0012721526969744358 0 0.025054357769539449 0.0010378164869469214 0 0.02561698588230037 0.00061561022535967726 0 0.025249000970043789 -0.00067811775792022506 0 0.025367432314558212 -0.00030913580928473871 0 0.02578530459711317 -0.00038236833743150045 0 0.025249000970043789 -0.00067811775792022506 0 0.02578530459711317 -0.00038236833743150045 0 0.025915953783452801 -0.00073005627702449436 0 0.024651829180572082 0.002819136487525705 0 0.023969704559646181 0.0028322191131022437 0 0.024332541949065156 0.0031564164988476359 0 0.023739531503863664 0.0017168511388803106 0 0.025054357769539449 0.0010378164869469214 0 0.025210523369380667 0.0027817327221069735 0 0.024651829180572082 0.002819136487525705 0 0.024911540960349123 0.002945608498177512 0 0.025249000970043789 -0.00067811775792022506 0 0.025110118432048092 -0.00027610471099700622 0 0.024932559238438946 -0.00043810653584038602 0 0.024546336043854915 -0.00060345168674629088 0 0.025249000970043789 -0.00067811775792022506 0 0.024932559238438946 -0.00043810653584038602 0 0.025249000970043789 -0.00067811775792022506 0 0.025110118432048092 -0.00027610471099700622 0 0.025367432314558212 -0.00030913580928473871 0 0.025110118432048092 -0.00027610471099700622 0 0.024932559238438946 -0.00043810653584038602 0 0.024896318307285323 -0.00025812336307856474 0 0.025110118432048092 -0.00027610471099700622 0 0.024896318307285323 -0.00025812336307856474 0 0.025099014263924312 -1.4233717696691898e-05 0 0.025110118432048092 -0.00027610471099700622 0 0.025367432314558212 -0.00030913580928473871 0 0.025099014263924312 -1.4233717696691898e-05 0 0.025367432314558212 -0.00030913580928473871 0 0.025360058720002434 3.2874355301520719e-05 0 0.025099014263924312 -1.4233717696691898e-05 0 0.025367432314558212 -0.00030913580928473871 0 0.025678625300011276 -2.8078165399505057e-05 0 0.025360058720002434 3.2874355301520719e-05 0 0.025367432314558212 -0.00030913580928473871 0 0.025678625300011276 -2.8078165399505057e-05 0 0.02578530459711317 -0.00038236833743150045 0 0.025678625300011276 -2.8078165399505057e-05 0 0.025360058720002434 3.2874355301520719e-05 0 0.025468865323133156 0.0002694766384346992 0 0.025468865323133156 0.0002694766384346992 0 0.0251876209147853 0.0002507820657245738 0 0.025300418843006094 0.00041971717080436838 0 0.025360058720002434 3.2874355301520719e-05 0 0.025468865323133156 0.0002694766384346992 0 0.0251876209147853 0.0002507820657245738 0 0.025678625300011276 -2.8078165399505057e-05 0 0.025468865323133156 0.0002694766384346992 0 0.025786924429577793 0.00032201805131713964 0 0.018483006661054766 -6.9328889643634217e-05 0 0.021766630195073723 0.00023811397567247193 0 0.021319775184467486 0.00013406579511587928 0 0.021098320819468695 2.213003745034914e-05 0 0.021582733819134694 0.00044596857533594564 0 0.025360058720002434 3.2874355301520719e-05 0 0.025099014263924312 -1.4233717696691898e-05 0 0.0251876209147853 0.0002507820657245738 0 0.02485198246486911 0.00021770932371110584 0 0.025099014263924312 -1.4233717696691898e-05 0 0.0251876209147853 0.0002507820657245738 0 0.02485198246486911 0.00021770932371110584 0 0.0251876209147853 0.0002507820657245738 0 0.0251246464357479 0.00051671940352658802 0 0.023162127164846721 0.00039858962826212519 0 0.021766630195073723 0.00023811397567247193 0 0.0251876209147853 0.0002507820657245738 0 0.0251246464357479 0.00051671940352658802 0 0.025300418843006094 0.00041971717080436838 0 0.0251246464357479 0.00051671940352658802 0 0.025200744531190877 0.00058186627228554145 0 0.025300418843006094 0.00041971717080436838 0 0.017966022442242695 0.00037072168159979897 0 0.017540331203746928 -4.5435622201996612e-05 0 0.017394648655953505 0.00019682898825492003 0 0.021704289542039353 0.00057744530813410677 0 0.021766630195073723 0.00023811397567247193 0 0.025374313161884935 0.00080842719866195442 0 0.025116942639604713 0.00051150589887486689 0 0.025200744531190877 0.00058186627228554145 0 0.025200744531190877 0.00058186627228554145 0 0.025300418843006094 0.00041971717080436838 0 0.025356894844851666 0.00054819220200523369 0 0.021766630195073723 0.00023811397567247193 0 0.022958705767099834 0.000898450504915173 0 0.017039663649561509 4.2846871608179907e-05 0 0.017540331203746928 -4.5435622201996612e-05 0 0.017394648655953505 0.00019682898825492003 0 0.025468865323133156 0.0002694766384346992 0 0.025512577888921847 0.00055474400821929615 0 0.025786924429577793 0.00032201805131713964 0 0.025468865323133156 0.0002694766384346992 0 0.025300418843006094 0.00041971717080436838 0 0.025512577888921847 0.00055474400821929615 0 0.025300418843006094 0.00041971717080436838 0 0.025356894844851666 0.00054819220200523369 0 0.025512577888921847 0.00055474400821929615 0 0.025374313161884935 0.00080842719866195442 0 0.025200744531190877 0.00058186627228554145 0 0.025356894844851666 0.00054819220200523369 0 0.025374313161884935 0.00080842719866195442 0 0.025356894844851666 0.00054819220200523369 0 0.025512577888921847 0.00055474400821929615 0 0.025512577888921847 0.00055474400821929615 0 0.025765246509082886 0.00067689725381459833 0 0.025786924429577793 0.00032201805131713964 0 0.025374313161884935 0.00080842719866195442 0 0.025512577888921847 0.00055474400821929615 0 0.025765246509082886 0.00067689725381459833 0 0.025765246509082886 0.00067689725381459833 0 0.026180030073233693 0.00036932555464367543 0 0.026087928205434024 0.00089044682659828692 0 0.025765246509082886 0.00067689725381459833 0 0.025786924429577793 0.00032201805131713964 0 0.026180030073233693 0.00036932555464367543 0 0.026539881480252797 -0.0007660799661540357 0 0.026170297591306405 -0.0022072268016596498 0 0.026884025426710839 -0.0023086105431496936 0 0.026005970778454245 -0.0027888238556998983 0 0.026987041094152047 -0.0032056621370525904 0 0.026180030073233693 0.00036932555464367543 0 0.025980906000037499 3.5551345381121054e-05 0 0.026279798751334838 -0.00013606267756207058 0 0.026884025426710839 -0.0023086105431496936 0 0.026744335644513006 -0.0013395511148848699 0 0.026063603448603097 -0.0019008054167760702 0 0.026539881480252797 -0.0007660799661540357 0 0.026498310793409804 -0.0007870070450072714 0 0.025786924429577793 0.00032201805131713964 0 0.026180030073233693 0.00036932555464367543 0 0.025980906000037499 3.5551345381121054e-05 0 0.025678625300011276 -2.8078165399505057e-05 0 0.025786924429577793 0.00032201805131713964 0 0.025980906000037499 3.5551345381121054e-05 0 0.025919711242423042 -0.00032960107959387072 0 0.026279798751334838 -0.00013606267756207058 0 0.026183622103539167 -0.00038933957942650455 0 0.02569014818476606 -5.0313648340078985e-06 0 0.025923305614545162 -0.00052317185508840287 0 0.025678625300011276 -2.8078165399505057e-05 0 0.025980906000037499 3.5551345381121054e-05 0 0.025919711242423042 -0.00032960107959387072 0 0.025980906000037499 3.5551345381121054e-05 0 0.025919711242423042 -0.00032960107959387072 0 0.026279798751334838 -0.00013606267756207058 0 0.026279798751334838 -0.00013606267756207058 0 0.026361973507994494 -0.00048651035879879753 0 0.026183622103539167 -0.00038933957942650455 0 0.026744335644513006 -0.0013395511148848699 0 0.026271174980188983 -0.00073039672551856939 0 0.025994379901275236 -0.0010682953868499446 0 0.026498310793409804 -0.0007870070450072714 0 0.026396462101662941 -0.0005092277667189635 0 0.026744335644513006 -0.0013395511148848699 0 0.026271174980188983 -0.00073039672551856939 0 0.026361973507994494 -0.00048651035879879753 0 0.026676268778707577 -0.00031581463376510695 0 0.02561698588230037 0.00061561022535967726 0 0.026365946532963522 -0.00040818337804968781 0 0.026361973507994494 -0.00048651035879879753 0 0.026156835370690353 -0.00057584377761053958 0 0.026271174980188983 -0.00073039672551856939 0 0.026365946532963522 -0.00040818337804968781 0 0.026361973507994494 -0.00048651035879879753 0 0.025923305614545162 -0.00052317185508840287 0 0.02561698588230037 0.00061561022535967726 0 0.025919711242423042 -0.00032960107959387072 0 0.026156835370690353 -0.00057584377761053958 0 0.026183622103539167 -0.00038933957942650455 0 0.026361973507994494 -0.00048651035879879753 0 0.026156835370690353 -0.00057584377761053958 0 0.026183622103539167 -0.00038933957942650455 0 0.025461185737600193 -0.00067400250428297729 0 0.025474894904227621 -3.1222197956914973e-05 0 0.024999963574969006 0.00024698185000515872 0 0.025461185737600193 -0.00067400250428297729 0 0.024999939780568425 -0.0011107077831933483 0 0.024999963574969006 0.00024698185000515872 0 0.025461185737600193 -0.00067400250428297729 0 0.025474894904227621 -3.1222197956914973e-05 0 0.025924678264036136 -0.00056919412017744642 0 0.026676268778707577 -0.00031581463376510695 0 0.025427083318189124 -4.565625106239504e-05 0 0.026365946532963522 -0.00040818337804968781 0 0.025474894904227621 -3.1222197956914973e-05 0 0.025924678264036136 -0.00056919412017744642 0 0.026271174980188983 -0.00073039672551856939 0 0.026365946532963522 -0.00040818337804968781 0 0.025924678264036136 -0.00056919412017744642 0 0.026271174980188983 -0.00073039672551856939 0 0.025924678264036136 -0.00056919412017744642 0 0.025994379901275236 -0.0010682953868499446 0 0.025461185737600193 -0.00067400250428297729 0 0.025924678264036136 -0.00056919412017744642 0 0.025994379901275236 -0.0010682953868499446 0 0.025461185737600193 -0.00067400250428297729 0 0.025994379901275236 -0.0010682953868499446 0 0.025599845452121666 -0.0014329370662469699 0 0.025994379901275236 -0.0010682953868499446 0 0.025599845452121666 -0.0014329370662469699 0 0.026063603448603097 -0.0019008054167760702 0 0.026744335644513006 -0.0013395511148848699 0 0.025994379901275236 -0.0010682953868499446 0 0.026063603448603097 -0.0019008054167760702 0 0.025461185737600193 -0.00067400250428297729 0 0.025599845452121666 -0.0014329370662469699 0 0.024999939780568425 -0.0011107077831933483 0 0.025599845452121666 -0.0014329370662469699 0 0.026063603448603097 -0.0019008054167760702 0 0.024999963843646313 -0.0024677597372286661 0 0.025599845452121666 -0.0014329370662469699 0 0.024999939780568425 -0.0011107077831933483 0 0.024999963843646313 -0.0024677597372286661 0 0.026063603448603097 -0.0019008054167760702 0 0.026005970778454245 -0.0027888238556998983 0 0.024999963843646313 -0.0024677597372286661 0 0.026884025426710839 -0.0023086105431496936 0 0.026063603448603097 -0.0019008054167760702 0 0.026005970778454245 -0.0027888238556998983 0 0.026210393322254964 -0.003100509631390194 0 0.024999841892022819 -0.002468083874391343 0 0.026060776400552096 -0.0030732998673769561 0 0.02500000647432872 -0.0024682976478079682 0 0.025752499368958525 -0.0033855567673991105 0 0.02500000647432872 -0.0024682976478079682 0 0.025448192188673231 -0.0037378528039560179 0 0.025752499368958525 -0.0033855567673991105 0 0.02500000647432872 -0.0024682976478079682 0 0.025448192188673231 -0.0037378528039560179 0 0.024999904062889228 -0.0039569241046864207 0 0.025448192188673231 -0.0037378528039560179 0 0.025907349963227681 -0.0041174821517565617 0 0.025752499368958525 -0.0033855567673991105 0 0.025448192188673231 -0.0037378528039560179 0 0.024999904062889228 -0.0039569241046864207 0 0.025510169787888913 -0.0045537711356824113 0 0.024999904062889228 -0.0039569241046864207 0 0.025510169787888913 -0.0045537711356824113 0 0.025000030317133402 -0.005445117531228544 0 0.025448192188673231 -0.0037378528039560179 0 0.025510169787888913 -0.0045537711356824113 0 0.025907349963227681 -0.0041174821517565617 0 0.025907349963227681 -0.0041174821517565617 0 0.026335068783612324 -0.0042868743347584896 0 0.02605370339532577 -0.0047812762052869143 0 0.026335068783612324 -0.0042868743347584896 0 0.026666856663100248 -0.0046454661864674621 0 0.02605370339532577 -0.0047812762052869143 0 0.025510169787888913 -0.0045537711356824113 0 0.025907349963227681 -0.0041174821517565617 0 0.02605370339532577 -0.0047812762052869143 0 0.025907349963227681 -0.0041174821517565617 0 0.026335068783612324 -0.0042868743347584896 0 0.026422648154896016 -0.0037731012577769895 0 0.026060776400552096 -0.0030732998673769561 0 0.025752499368958525 -0.0033855567673991105 0 0.026373812009497555 -0.0035943408297169333 0 0.025907349963227681 -0.0041174821517565617 0 0.025752499368958525 -0.0033855567673991105 0 0.026422648154896016 -0.0037731012577769895 0 0.025741164093399563 -0.0033869979954097222 0 0.026603852623041626 -0.0037716704781863035 0 0.026210393322254964 -0.003100509631390194 0 0.026170297591306405 -0.0022072268016596498 0 0.026060776400552096 -0.0030732998673769561 0 0.026373812009497555 -0.0035943408297169333 0 0.026883490665499016 -0.0034756625473141957 0 0.026373812009497555 -0.0035943408297169333 0 0.026883490665499016 -0.0034756625473141957 0 0.026921078134756707 -0.0038232013404549611 0 0.026603852623041626 -0.0037716704781863035 0 0.025661147465148325 -0.0035069369268224595 0 0.021347467891071212 -0.0018572041453931143 0 0.025290218158787296 -0.0036501667232825994 0 0.025010008355644518 -0.0014747127732314003 0 0.025611368981590013 0.0011055709272326912 0 0.025765246509082886 0.00067689725381459833 0 0.026087928205434024 0.00089044682659828692 0 0.022468298620067988 0.00027632150078530943 0 0.026170297591306405 -0.0022072268016596498 0 0.026170297591306405 -0.0022072268016596498 0 0.025661147465148325 -0.0035069369268224595 0 0.020870615950188662 0.00030810476216034809 0 0.021347467891071212 -0.0018572041453931143 0 0.025010008355644518 -0.0014747127732314003 0 0.019086481045925859 -0.0012884476892737152 0 0.025661147465148325 -0.0035069369268224595 0 0.025661147465148325 -0.0035069369268224595 0 0.024118383850014687 -0.0034741131899321122 0 0.021829486618838222 -0.0030277282646406366 0 0.023628776567055611 -0.0038020120556013356 0 0.023353789460731331 -0.0016714707097888 0 0.026422648154896016 -0.0037731012577769895 0 0.027067323401469574 -0.0040874288475974191 0 0.026623262543088229 -0.0041991949865612648 0 0.027067323401469574 -0.0040874288475974191 0 0.026666856663100248 -0.0046454661864674621 0 0.0271639054267797 -0.0050795461004247014 0 0.026335068783612324 -0.0042868743347584896 0 0.026422648154896016 -0.0037731012577769895 0 0.026623262543088229 -0.0041991949865612648 0 0.027067323401469574 -0.0040874288475974191 0 0.026623262543088229 -0.0041991949865612648 0 0.026666856663100248 -0.0046454661864674621 0 0.026335068783612324 -0.0042868743347584896 0 0.026623262543088229 -0.0041991949865612648 0 0.026666856663100248 -0.0046454661864674621 0 0.026666856663100248 -0.0046454661864674621 0 0.026486976802869537 -0.0051134827842925371 0 0.0271639054267797 -0.0050795461004247014 0 0.026486976802869537 -0.0051134827842925371 0 0.0271639054267797 -0.0050795461004247014 0 0.026534283092626246 -0.0056077488716257048 0 0.026666856663100248 -0.0046454661864674621 0 0.026486976802869537 -0.0051134827842925371 0 0.02605370339532577 -0.0047812762052869143 0 0.019086481045925859 -0.0012884476892737152 0 0.024118383850014687 -0.0034741131899321122 0 0.018059833151674982 -0.00085774188640367103 0 0.017834528606037296 -0.0015834717089209826 0 0.018730956726968444 -0.00085317690324704474 0 0.018059833151674982 -0.00085774188640367103 0 0.018730956726968444 -0.00085317690324704474 0 0.018639651771297363 -0.00013142835161875031 0 0.017698733423269976 -0.0004440167724109916 0 0.018059833151674982 -0.00085774188640367103 0 0.018639651771297363 -0.00013142835161875031 0 0.016436845495383035 -0.00083618686886125643 0 0.021092282574954855 -0.0029870049347674879 0 0.026962072179955804 -0.0051592584145459574 0 0.027035007987040852 -0.0056315436327310092 0 0.026534283092626246 -0.0056077488716257048 0 0.024118383850014687 -0.0034741131899321122 0 0.021092282574954855 -0.0029870049347674879 0 0.025845191447371862 -0.0056903372315866146 0 0.021092282574954855 -0.0029870049347674879 0 0.026089877945201043 -0.0060488606269186763 0 0.027035007987040852 -0.0056315436327310092 0 0.026534283092626246 -0.0056077488716257048 0 0.026486976802869537 -0.0051134827842925371 0 0.026534283092626246 -0.0056077488716257048 0 0.026050837358464689 -0.0054335665447645225 0 0.024118383850014687 -0.0034741131899321122 0 0.026950435124932823 -0.0053890973235006029 0 0.026089877945201043 -0.0060488606269186763 0 0.026050837358464689 -0.0054335665447645225 0 0.025572203836894482 -0.0057320034445793883 0 0.026089877945201043 -0.0060488606269186763 0 0.026534283092626246 -0.0056077488716257048 0 0.026050837358464689 -0.0054335665447645225 0 0.026050837358464689 -0.0054335665447645225 0 0.025572203836894482 -0.0057320034445793883 0 0.025645241986734273 -0.0052021065441604612 0 0.025845191447371862 -0.0056903372315866146 0 0.025655298326838664 -0.0058669571628477959 0 0.02499999480919789 -0.006840647988245404 0 0.025238789984264008 -0.0062163114412326203 0 0.024999998660342838 -0.0054454854461292272 0 0.025694495237743475 -0.0065582679554630641 0 0.02561818746631802 -0.0059197672824311699 0 0.025238789984264008 -0.0062163114412326203 0 0.02561818746631802 -0.0059197672824311699 0 0.025238789984264008 -0.0062163114412326203 0 0.024999998660342838 -0.0054454854461292272 0 0.025655298326838664 -0.0058669571628477959 0 0.025000131320375582 -0.0054455273918772766 0 0.025572203836894482 -0.0057320034445793883 0 0.025645241986734273 -0.0052021065441604612 0 0.025000030317133402 -0.005445117531228544 0 0.025510169787888913 -0.0045537711356824113 0 0.025645241986734273 -0.0052021065441604612 0 0.025000030317133402 -0.005445117531228544 0 0.025510169787888913 -0.0045537711356824113 0 0.025645241986734273 -0.0052021065441604612 0 0.02605370339532577 -0.0047812762052869143 0 0.026486976802869537 -0.0051134827842925371 0 0.026050837358464689 -0.0054335665447645225 0 0.02605370339532577 -0.0047812762052869143 0 0.026050837358464689 -0.0054335665447645225 0 0.025645241986734273 -0.0052021065441604612 0 0.02605370339532577 -0.0047812762052869143 0 0.0057849036155958504 -0.014701412903810608 0 0.004688841977489009 -0.014206387770994295 0 0.0059318241371939884 -0.013563749340220801 0 0.0057849036155958504 -0.014701412903810608 0 0.0050141063421587431 -0.01494684710200659 0 0.004688841977489009 -0.014206387770994295 0 0.0057849036155958504 -0.014701412903810608 0 0.0069636926660862197 -0.014523332235508992 0 0.0059318241371939884 -0.013563749340220801 0 0.0057849036155958504 -0.014701412903810608 0 0.0069636926660862197 -0.014523332235508992 0 0.00658694792636023 -0.015541054325998052 0 0.0047765760610224669 -0.015608095688916834 0 0.0058457769940241586 -0.016290062179813453 0 0.0056125695174715495 -0.015413392339893394 0 0.0047056355893188278 -0.015559701514299362 0 0.0059097193020759891 -0.016325349365148487 0 0.00658694792636023 -0.015541054325998052 0 0.0056125695174715495 -0.015413392339893394 0 0.0059097193020759891 -0.016325349365148487 0 0.0057849036155958504 -0.014701412903810608 0 0.00658694792636023 -0.015541054325998052 0 0.0056125695174715495 -0.015413392339893394 0 0.0057849036155958504 -0.014701412903810608 0 0.0056125695174715495 -0.015413392339893394 0 0.0050141063421587431 -0.01494684710200659 0 0.0056125695174715495 -0.015413392339893394 0 0.0047056355893188278 -0.015559701514299362 0 0.0050141063421587431 -0.01494684710200659 0 0.0050485165589589601 -0.015754329121278932 0 0.0041723289442642166 -0.015151502468073178 0 0.0046593698483821562 -0.016325385996095097 0 0.0047056355893188278 -0.015559701514299362 0 0.0035620724021203816 -0.014773656311515707 0 0.0043945129947455105 -0.014783864895747982 0 0.0047765760610224669 -0.015608095688916834 0 0.0047372630478590399 -0.014877940052383456 0 0.0047056355893188278 -0.015559701514299362 0 0.0050141063421587431 -0.01494684710200659 0 0.0043945129947455105 -0.014783864895747982 0 0.0045445350313383362 -0.015792301105983963 0 0.0042063874386271613 -0.016539087547794845 0 0.0049171390748890178 -0.01670905647928609 0 0.0045122171655607593 -0.015716105224105607 0 0.0045445350313383362 -0.015792301105983963 0 0.0042063874386271613 -0.016539087547794845 0 0.0049136132769867303 -0.014490117261451588 0 0.0053706198320577405 -0.01404979939894733 0 0.0048635906755657207 -0.015626762000981256 0 0.0047372630478590399 -0.014877940052383456 0 0.0047840414555536132 -0.016631347435878172 0 0.0051778586470363399 -0.014449945868085699 0 0.0044633955947275357 -0.01618465149677743 0 0.0051778586470363399 -0.014449945868085699 0 0.005173035122121303 -0.013351536706609619 0 0.0035089166837743032 -0.014648606886176196 0 0.0040109078491438596 -0.014504985117486886 0 0.0039996284437018746 -0.013323231065955992 0 0.0051778586470363399 -0.014449945868085699 0 0.0053569024383169879 -0.013765519595013407 0 0.0049136132769867303 -0.014490117261451588 0 0.0053706198320577405 -0.01404979939894733 0 0.0048372876193807281 -0.014142855417341295 0 0.0035620724021203816 -0.014773656311515707 0 0.0043945129947455105 -0.014783864895747982 0 0.0040109078491438596 -0.014504985117486886 0 0.0035089166837743032 -0.014648606886176196 0 0.0035620724021203816 -0.014773656311515707 0 0.0040109078491438596 -0.014504985117486886 0 0.0051778586470363399 -0.014449945868085699 0 0.0047372630478590399 -0.014877940052383456 0 0.0040109078491438596 -0.014504985117486886 0 0.004688841977489009 -0.014206387770994295 0 0.0039996284437018746 -0.013323231065955992 0 0.0050141063421587431 -0.01494684710200659 0 0.0043945129947455105 -0.014783864895747982 0 0.004688841977489009 -0.014206387770994295 0 0.0043945129947455105 -0.014783864895747982 0 0.0040109078491438596 -0.014504985117486886 0 0.004688841977489009 -0.014206387770994295 0 0.0039996284437018746 -0.013323231065955992 0 0.0049395335815871121 -0.012925605977267964 0 0.004492071516010031 -0.012005239861568146 0 0.004688841977489009 -0.014206387770994295 0 0.0039996284437018746 -0.013323231065955992 0 0.0049395335815871121 -0.012925605977267964 0 0.005173035122121303 -0.013351536706609619 0 0.0050188966765441828 -0.012413872155922335 0 0.0061547947935554972 -0.013852322384944844 0 0.0063211652033572053 -0.013429916416234986 0 0.0059114461791316035 -0.013243114401795649 0 0.0062083463194569253 -0.013949177715401752 0 0.0058960584627952691 -0.013538043518594224 0 0.0059114461791316035 -0.013243114401795649 0 0.0063211652033572053 -0.013429916416234986 0 0.0062076274840635239 -0.013142349563728794 0 0.0059114461791316035 -0.013243114401795649 0 0.0051778586470363399 -0.014449945868085699 0 0.0061947746631688307 -0.013102680295470152 0 0.0062076274840635239 -0.013142349563728794 0 0.0060825686704277038 -0.012885393190692486 0 0.0064807994237756229 -0.013000515093177664 0 0.0071908690963929205 -0.0097949154861090883 0 0.0050188966765441828 -0.012413872155922335 0 0.0062076274840635239 -0.013142349563728794 0 0.0060825686704277038 -0.012885393190692486 0 0.0059114461791316035 -0.013243114401795649 0 0.004860068427057559 -0.011763849195442589 0 0.0048940883911929821 -0.011673614497651589 0 0.0059550813351030712 -0.012172655264785372 0 0.0063211652033572053 -0.013429916416234986 0 0.0062076274840635239 -0.013142349563728794 0 0.0064807994237756229 -0.013000515093177664 0 0.0038454191113738386 -0.011459339870598207 0 0.0048940883911929821 -0.011673614497651589 0 0.0048945008193222892 -0.011215628409540978 0 0.0049395335815871121 -0.012925605977267964 0 0.004492071516010031 -0.012005239861568146 0 0.0057923095277199578 -0.012337100701614352 0 0.0038454191113738386 -0.011459339870598207 0 0.0048633917018560281 -0.011756559969074721 0 0.0048940883911929821 -0.011673614497651589 0 0.0050188966765441828 -0.012413872155922335 0 0.0050305806451895847 -0.012356915908766012 0 0.0048940883911929821 -0.011673614497651589 0 0.0056477995815388347 -0.011275667170802153 0 0.0048945008193222892 -0.011215628409540978 0 0.0050188966765441828 -0.012413872155922335 0 0.0058272261324615344 -0.012226802039709418 0 0.0048940883911929821 -0.011673614497651589 0 0.0059550813351030712 -0.012172655264785372 0 0.0056477995815388347 -0.011275667170802153 0 0.0059550813351030712 -0.012172655264785372 0 0.0068054206643007138 -0.011034511141560696 0 0.0056477995815388347 -0.011275667170802153 0 0.0049395335815871121 -0.012925605977267964 0 0.0057923095277199578 -0.012337100701614352 0 0.0059318241371939884 -0.013563749340220801 0 0.004688841977489009 -0.014206387770994295 0 0.0049395335815871121 -0.012925605977267964 0 0.0059318241371939884 -0.013563749340220801 0 0.0069636926660862197 -0.014523332235508992 0 0.0059318241371939884 -0.013563749340220801 0 0.0071294718466986722 -0.012630243619452225 0 0.0057923095277199578 -0.012337100701614352 0 0.0059318241371939884 -0.013563749340220801 0 0.0071294718466986722 -0.012630243619452225 0 0.0059550813351030712 -0.012172655264785372 0 0.0071294718466986722 -0.012630243619452225 0 0.0068054206643007138 -0.011034511141560696 0 0.0058272261324615344 -0.012226802039709418 0 0.0070500342937695861 -0.012599722624313189 0 0.0071294718466986722 -0.012630243619452225 0 0.0085511326519828196 -0.011704322886344968 0 0.0068054206643007138 -0.011034511141560696 0 0.00066774099599750984 -0.01510359770295003 0 0.004036244120762188 -0.014540087275759537 0 0.0013626474359644274 -0.011682076756085914 0 0.0020610301751314702 -0.012254436822452858 0 0.0013456361458889297 -0.012572751283135829 0 0.0051867541817066107 -0.011853927927283753 0 0.004036244120762188 -0.014540087275759537 0 0.0069636926660862197 -0.014523332235508992 0 0.0071294718466986722 -0.012630243619452225 0 0.0085145277166473431 -0.013840897637273654 0 0.0071294718466986722 -0.012630243619452225 0 0.0085511326519828196 -0.011704322886344968 0 0.0085145277166473431 -0.013840897637273654 0 0.0027847577206198703 -0.011951226096615206 0 0.0023686960870183934 -0.011700546824928571 0 0.0025420008564729928 -0.011262155329467628 0 0.0027847577206198703 -0.011951226096615206 0 0.0023686960870183934 -0.011700546824928571 0 0.0020610301751314702 -0.012254436822452858 0 0.0023686960870183934 -0.011700546824928571 0 0.0019769535962884579 -0.011571875057150105 0 0.0020610301751314702 -0.012254436822452858 0 0.0013626474359644274 -0.011682076756085914 0 0.0019769535962884579 -0.011571875057150105 0 0.0020610301751314702 -0.012254436822452858 0 0.00023280017952614541 -0.01773925716310891 0 0.00044425868083294308 -0.017584883828444073 0 0.00030817851877240507 -0.017605061058938321 0 0.0009142344761738473 -0.014694334950494102 0 0.00066774099599750984 -0.01510359770295003 0 0.00044425868083294308 -0.017584883828444073 0 0.00030817851877240507 -0.017605061058938321 0 0.00038105501586741219 -0.01760013383355304 0 0.00030817851877240507 -0.017605061058938321 0 0.00038105501586741219 -0.01760013383355304 0 0.00027371438164346248 -0.017433407950608264 0 0.00051901244241868904 -0.017689132871270594 0 0.00048636885765244103 -0.017687837419602018 0 0.00038105501586741219 -0.01760013383355304 0 0.00027371438164346248 -0.017433407950608264 0 0.00043861212759779708 -0.017694474510939386 0 0.0010231118124731035 -0.017949207428205941 0 0.00043861212759779708 -0.017694474510939386 0 0.00072665312654159378 -0.018130874405290317 0 0.00044425868083294308 -0.017584883828444073 0 0.00043861212759779708 -0.017694474510939386 0 8.2240236550651651e-05 -0.017593893503259562 0 0.00044425868083294308 -0.017584883828444073 0 0.00038105501586741219 -0.01760013383355304 0 0.00043861212759779708 -0.017694474510939386 0 0.00043861212759779708 -0.017694474510939386 0 0.00034515811824383983 -0.018102512323251527 0 0.00072665312654159378 -0.018130874405290317 0 0.00034515811824383983 -0.018102512323251527 0 0.00072665312654159378 -0.018130874405290317 0 0.00067463295576307544 -0.018503500034093151 0 0.0011651270973917984 -0.018410812946143985 0 0.00072665312654159378 -0.018130874405290317 0 0.00067463295576307544 -0.018503500034093151 0 0.0011651270973917984 -0.018410812946143985 0 0.0010231118124731035 -0.017949207428205941 0 0.00072665312654159378 -0.018130874405290317 0 0.0086760984265438577 -0.014012007660444154 0 0.004036244120762188 -0.014540087275759537 0 0.0069636926660862197 -0.014523332235508992 0 0.0082041357111271845 -0.014050374239161072 0 0.0081703218809328227 -0.01556605239644895 0 0.00043861212759779708 -0.017694474510939386 0 0.00034515811824383983 -0.018102512323251527 0 8.2240236550651651e-05 -0.017593893503259562 0 0.004036244120762188 -0.014540087275759537 0 0.0040809757424968129 -0.017142016214463617 0 0.00034515811824383983 -0.018102512323251527 0 8.2240236550651651e-05 -0.017593893503259562 0 -1.4856391498610235e-05 -0.018160549970496261 0 0.00034515811824383983 -0.018102512323251527 0 -1.4856391498610235e-05 -0.018160549970496261 0 0.00028445909978988191 -0.018610011834305201 0 0.00658694792636023 -0.015541054325998052 0 0.0081703218809328227 -0.01556605239644895 0 0.0070422341355612468 -0.016553518362282037 0 0.0069636926660862197 -0.014523332235508992 0 0.00658694792636023 -0.015541054325998052 0 0.0081703218809328227 -0.01556605239644895 0 0.0081703218809328227 -0.01556605239644895 0 0.0080566167101334043 -0.017090601773669965 0 0.0070422341355612468 -0.016553518362282037 0 0.0040809757424968129 -0.017142016214463617 0 0.0040100253356630828 -0.017866314042004124 0 -1.4856391498610235e-05 -0.018160549970496261 0 0.00028445909978988191 -0.018610011834305201 0 -5.2831540976737076e-05 -0.018785369244576199 0 -5.2831540976737076e-05 -0.018785369244576199 0 -6.2584638292508674e-05 -0.019393478798530334 0 0.0002308205805781516 -0.019144365534437848 0 0.00028445909978988191 -0.018610011834305201 0 -5.2831540976737076e-05 -0.018785369244576199 0 0.0002308205805781516 -0.019144365534437848 0 0.0040100253356630828 -0.017866314042004124 0 0.003890672765555775 -0.018987973194750908 0 0.0072360972802799186 -0.017538463475896278 0 0.0080566167101334043 -0.017090601773669965 0 0.0070422341355612468 -0.016553518362282037 0 0.0072360972802799186 -0.017538463475896278 0 0.0080566167101334043 -0.017090601773669965 0 0.0079539239547706184 -0.018498266904624826 0 0.0011651270973917984 -0.018410812946143985 0 0.00067463295576307544 -0.018503500034093151 0 0.0010366319099315198 -0.01888009687755985 0 0.00028445909978988191 -0.018610011834305201 0 0.00067463295576307544 -0.018503500034093151 0 0.00053110805717543265 -0.018963236232445262 0 0.00034515811824383983 -0.018102512323251527 0 0.00028445909978988191 -0.018610011834305201 0 0.00067463295576307544 -0.018503500034093151 0 0.00028445909978988191 -0.018610011834305201 0 0.00053110805717543265 -0.018963236232445262 0 0.0002308205805781516 -0.019144365534437848 0 0.00067463295576307544 -0.018503500034093151 0 0.00053110805717543265 -0.018963236232445262 0 0.0010366319099315198 -0.01888009687755985 0 0.00053110805717543265 -0.018963236232445262 0 0.0010366319099315198 -0.01888009687755985 0 0.00083723525433446948 -0.019233543237578962 0 0.00083723525433446948 -0.019233543237578962 0 0.00074153873657474285 -0.019742652725559796 0 0.0010359808849746135 -0.019553616429063645 0 0.00053110805717543265 -0.018963236232445262 0 0.00042628747721884958 -0.0195228348754454 0 0.0002308205805781516 -0.019144365534437848 0 0.00053110805717543265 -0.018963236232445262 0 0.00083723525433446948 -0.019233543237578962 0 0.00042628747721884958 -0.0195228348754454 0 0.00083723525433446948 -0.019233543237578962 0 0.00042628747721884958 -0.0195228348754454 0 0.00074153873657474285 -0.019742652725559796 0 0.0003527422985005406 -0.019932319537986003 0 0.00042628747721884958 -0.0195228348754454 0 0.00074153873657474285 -0.019742652725559796 0 0.0010752922281935028 -0.019935472651239548 0 0.00074153873657474285 -0.019742652725559796 0 0.0010359808849746135 -0.019553616429063645 0 0.003890672765555775 -0.018987973194750908 0 0.0072965663747158373 -0.018423528902405395 0 0.0073465107990328309 -0.018671550166866179 0 0.0066448377379881712 -0.019232112088837093 0 0.0063694243387418378 -0.018468218512984119 0 0.0072360972802799186 -0.017538463475896278 0 0.0079539239547706184 -0.018498266904624826 0 0.0067738109095864156 -0.018225724508370806 0 -0.0010454195164406297 -0.019357825547824795 0 0.003890672765555775 -0.018987973194750908 0 0.00042628747721884958 -0.0195228348754454 0 -6.2584638292508674e-05 -0.019393478798530334 0 0.0002308205805781516 -0.019144365534437848 0 0.0003527422985005406 -0.019932319537986003 0 0.00042628747721884958 -0.0195228348754454 0 -8.945927371344864e-06 -0.01942631173369971 0 -5.5246683272107695e-05 -0.020130957262954798 0 0.0003527422985005406 -0.019932319537986003 0 -8.945927371344864e-06 -0.01942631173369971 0 0.0073080185370955177 -0.020200757499902987 0 0.0073465107990328309 -0.018671550166866179 0 0.0066448377379881712 -0.019232112088837093 0 0.0035892929245857456 -0.020182321424049916 0 0.003890672765555775 -0.018987973194750908 0 0.0066448377379881712 -0.019232112088837093 0 0.0059842379689862626 -0.019015931849389597 0 0.0063694243387418378 -0.018468218512984119 0 0.0062194690531501068 -0.020024323126611999 0 0.0066448377379881712 -0.019232112088837093 0 0.0059842379689862626 -0.019015931849389597 0 0.0053292295384877878 -0.019758510630040457 0 0.0059842379689862626 -0.019015931849389597 0 0.0054810366937479349 -0.01880633719277033 0 0.0051115703328625728 -0.019928074567025708 0 0.0059374759703070788 -0.019075185330013823 0 0.0058483998091718474 -0.018636816063787739 0 0.0055843356569395125 -0.018239889564078193 0 0.0063694243387418378 -0.018468218512984119 0 0.0054273117901176829 -0.018049249678269142 0 0.0072965663747158373 -0.018423528902405395 0 0.0054810366937479349 -0.01880633719277033 0 0.0058483998091718474 -0.018636816063787739 0 0.0055843356569395125 -0.018239889564078193 0 0.0059842379689862626 -0.019015931849389597 0 0.0054810366937479349 -0.01880633719277033 0 0.0058483998091718474 -0.018636816063787739 0 0.0059842379689862626 -0.019015931849389597 0 0.0058483998091718474 -0.018636816063787739 0 0.0063694243387418378 -0.018468218512984119 0 0.0072360972802799186 -0.017538463475896278 0 0.0063494446385496109 -0.017288615408792517 0 0.0070422341355612468 -0.016553518362282037 0 0.0072360972802799186 -0.017538463475896278 0 0.0067738109095864156 -0.018225724508370806 0 0.0063494446385496109 -0.017288615408792517 0 0.0063494446385496109 -0.017288615408792517 0 0.0057157689677058638 -0.017256030275133664 0 0.0059097193020759891 -0.016325349365148487 0 0.0055982146604424184 -0.017937105123231694 0 0.0067738109095864156 -0.018225724508370806 0 0.0063494446385496109 -0.017288615408792517 0 0.0055982146604424184 -0.017937105123231694 0 0.0063494446385496109 -0.017288615408792517 0 0.0057157689677058638 -0.017256030275133664 0 0.0055982146604424184 -0.017937105123231694 0 0.0057157689677058638 -0.017256030275133664 0 0.0052635874055498135 -0.017598044511548998 0 0.0057157689677058638 -0.017256030275133664 0 0.0053642684070762843 -0.016781441644522596 0 0.0052635874055498135 -0.017598044511548998 0 0.0050485165589589601 -0.015754329121278932 0 0.0059097193020759891 -0.016325349365148487 0 0.0052518307431221366 -0.016293082288463229 0 0.0057157689677058638 -0.017256030275133664 0 0.0059097193020759891 -0.016325349365148487 0 0.0053642684070762843 -0.016781441644522596 0 0.0059097193020759891 -0.016325349365148487 0 0.0052518307431221366 -0.016293082288463229 0 0.0053642684070762843 -0.016781441644522596 0 0.00658694792636023 -0.015541054325998052 0 0.0059097193020759891 -0.016325349365148487 0 0.0070422341355612468 -0.016553518362282037 0 0.0063494446385496109 -0.017288615408792517 0 0.0059097193020759891 -0.016325349365148487 0 0.0070422341355612468 -0.016553518362282037 0 0.0042063874386271613 -0.016539087547794845 0 0.0049171390748890178 -0.01670905647928609 0 0.0045020204210229012 -0.017147741734702765 0 0.0042063874386271613 -0.016539087547794845 0 0.0045020204210229012 -0.017147741734702765 0 0.0039562005331540686 -0.017212899514050254 0 0.0049171390748890178 -0.01670905647928609 0 0.0048630420107414448 -0.017304613089065835 0 0.0045020204210229012 -0.017147741734702765 0 0.0047840414555536132 -0.016631347435878172 0 0.0052206692391037748 -0.017481533951698922 0 0.0046593698483821562 -0.016325385996095097 0 0.0053642684070762843 -0.016781441644522596 0 0.0052635874055498135 -0.017598044511548998 0 0.0046593698483821562 -0.016325385996095097 0 0.0052518307431221366 -0.016293082288463229 0 0.0053642684070762843 -0.016781441644522596 0 0.0050485165589589601 -0.015754329121278932 0 0.0046593698483821562 -0.016325385996095097 0 0.0052518307431221366 -0.016293082288463229 0 0.0049171390748890178 -0.01670905647928609 0 0.0048630420107414448 -0.017304613089065835 0 0.0052635874055498135 -0.017598044511548998 0 0.0055982146604424184 -0.017937105123231694 0 0.0052635874055498135 -0.017598044511548998 0 0.0047405155078101471 -0.017800413054887727 0 0.0048630420107414448 -0.017304613089065835 0 0.0052635874055498135 -0.017598044511548998 0 0.0047405155078101471 -0.017800413054887727 0 0.0048630420107414448 -0.017304613089065835 0 0.0047405155078101471 -0.017800413054887727 0 0.0045020204210229012 -0.017147741734702765 0 0.0047405155078101471 -0.017800413054887727 0 0.0045020204210229012 -0.017147741734702765 0 0.004325220211690595 -0.017563105328674559 0 0.0045020204210229012 -0.017147741734702765 0 0.004325220211690595 -0.017563105328674559 0 0.0039562005331540686 -0.017212899514050254 0 0.0047405155078101471 -0.017800413054887727 0 0.004325220211690595 -0.017563105328674559 0 0.0040967795841012657 -0.018128958473155477 0 0.0047405155078101471 -0.017800413054887727 0 0.0040967795841012657 -0.018128958473155477 0 0.004630692523139998 -0.018439075918598079 0 0.0040967795841012657 -0.018128958473155477 0 0.004630692523139998 -0.018439075918598079 0 0.0042576464451047034 -0.018875188935472281 0 0.0055843356569395125 -0.018239889564078193 0 0.0047405155078101471 -0.017800413054887727 0 0.0050969000610966136 -0.01844094936694796 0 0.0054273117901176829 -0.018049249678269142 0 0.0048419174435241292 -0.017849205425135253 0 0.0047405155078101471 -0.017800413054887727 0 0.004630692523139998 -0.018439075918598079 0 0.0050969000610966136 -0.01844094936694796 0 0.004630692523139998 -0.018439075918598079 0 0.0050969000610966136 -0.01844094936694796 0 0.0049488571876174633 -0.018927385370044018 0 0.0054810366937479349 -0.01880633719277033 0 0.0055843356569395125 -0.018239889564078193 0 0.0050969000610966136 -0.01844094936694796 0 0.0054810366937479349 -0.01880633719277033 0 0.0050969000610966136 -0.01844094936694796 0 0.0049488571876174633 -0.018927385370044018 0 0.0043570240742314978 -0.019629279513507771 0 0.0053292295384877878 -0.019758510630040457 0 0.0049488571876174633 -0.018927385370044018 0 0.0053292295384877878 -0.019758510630040457 0 0.0054810366937479349 -0.01880633719277033 0 0.0049488571876174633 -0.018927385370044018 0 0.004630692523139998 -0.018439075918598079 0 0.0049488571876174633 -0.018927385370044018 0 0.0042576464451047034 -0.018875188935472281 0 0.0043570240742314978 -0.019629279513507771 0 0.0049488571876174633 -0.018927385370044018 0 0.0042576464451047034 -0.018875188935472281 0 0.0043570240742314978 -0.019629279513507771 0 0.0042576464451047034 -0.018875188935472281 0 0.0036695262355776444 -0.019435422325289251 0 0.0036695262355776444 -0.019435422325289251 0 0.0035127119309788487 -0.018783632886021352 0 0.0029635874493852271 -0.019470426774177037 0 0.0042576464451047034 -0.018875188935472281 0 0.0036695262355776444 -0.019435422325289251 0 0.0035127119309788487 -0.018783632886021352 0 0.0040967795841012657 -0.018128958473155477 0 0.0035127119309788487 -0.018783632886021352 0 0.0031929963780182972 -0.017966432609353013 0 0.0040967795841012657 -0.018128958473155477 0 0.0042576464451047034 -0.018875188935472281 0 0.0035127119309788487 -0.018783632886021352 0 0.0031929963780182972 -0.017966432609353013 0 0.0027978477379123567 -0.018777900055415058 0 0.0020089283055126296 -0.018060498668506085 0 0.0035127119309788487 -0.018783632886021352 0 0.0031929963780182972 -0.017966432609353013 0 0.0027978477379123567 -0.018777900055415058 0 0.0035127119309788487 -0.018783632886021352 0 0.0027978477379123567 -0.018777900055415058 0 0.0029635874493852271 -0.019470426774177037 0 0.0027978477379123567 -0.018777900055415058 0 0.0029635874493852271 -0.019470426774177037 0 0.0022028158502764576 -0.019537445217672842 0 0.0027978477379123567 -0.018777900055415058 0 0.0022028158502764576 -0.019537445217672842 0 0.0020089283055126296 -0.018060498668506085 0 0.0040635206599942183 -0.020647110667525458 0 0.0034476599113364924 -0.019902952556831242 0 0.0039586400438177951 -0.018966028052434324 0 0.0028295784434167496 -0.020229914362642491 0 0.0051875541058983609 -0.017607874630529874 0 0.0040635206599942183 -0.020647110667525458 0 0.0034476599113364924 -0.019902952556831242 0 0.0033733439716795454 -0.020613687433228625 0 0.0080956369137575018 -0.018420285619414126 0 0.012762273443612551 -0.016108044636873986 0 0.017616027304569418 -0.01655312754404788 0 0.01755873502781807 -0.015942629314922588 0 0.017100462657984733 -0.016055306804392256 0 0.0075379079798689845 -0.016990901620615027 0 0.0076022719547621112 -0.016821245008158844 0 0.0075173884955337129 -0.016766138137928027 0 0.0080956369137575018 -0.018420285619414126 0 0.0053973690139246843 -0.018607702133983484 0 0.0030157782069214103 -0.020805682921610356 0 0.0034476599113364924 -0.019902952556831242 0 0.0033733439716795454 -0.020613687433228625 0 0.012762273443612551 -0.016108044636873986 0 0.012544706279436761 -0.016044539590000535 0 0.0076022719547621112 -0.016821245008158844 0 0.0075173884955337129 -0.016766138137928027 0 0.0075665532584392025 -0.016666321042322487 0 0.0075173884955337129 -0.016766138137928027 0 0.0075665532584392025 -0.016666321042322487 0 0.0075284803410781594 -0.016600935991940454 0 0.0076022719547621112 -0.016821245008158844 0 0.0075665532584392025 -0.016666321042322487 0 0.0076319216539628299 -0.016685474413917923 0 0.0053973690139246843 -0.018607702133983484 0 0.0051875541058983609 -0.017607874630529874 0 0.0051875541058983609 -0.017607874630529874 0 0.0074106957772334704 -0.016391802325075672 0 0.0073966072094387098 -0.016346588120743352 0 0.0074216981524716282 -0.016444835222668427 0 0.0073060795360233967 -0.01649939215865057 0 0.0075665532584392025 -0.016666321042322487 0 0.0076319216539628299 -0.016685474413917923 0 0.0075818167262133975 -0.016573065719689407 0 0.0051875541058983609 -0.017607874630529874 0 0.0049219610024075783 -0.016459048695844046 0 0.0075665532584392025 -0.016666321042322487 0 0.0075818167262133975 -0.016573065719689407 0 0.0075574204911833679 -0.016585139105285574 0 0.0075818167262133975 -0.016573065719689407 0 0.0075574204911833679 -0.016585139105285574 0 0.0075560016821942747 -0.016550340706943344 0 0.0075665532584392025 -0.016666321042322487 0 0.0075284803410781594 -0.016600935991940454 0 0.0075574204911833679 -0.016585139105285574 0 0.0075284803410781594 -0.016600935991940454 0 0.0075574204911833679 -0.016585139105285574 0 0.0075560016821942747 -0.016550340706943344 0 0.012544706279436761 -0.016044539590000535 0 0.011627397536761334 -0.015671978859980812 0 0.0075284803410781594 -0.016600935991940454 0 0.0075560016821942747 -0.016550340706943344 0 0.0075564608397220819 -0.016533316929126608 0 0.0075560016821942747 -0.016550340706943344 0 0.0074811098728307778 -0.016571961879752271 0 0.0075606435829765071 -0.016641250293349674 0 0.0075560016821942747 -0.016550340706943344 0 0.0076436598227102781 -0.016575028486557734 0 0.0075606435829765071 -0.016641250293349674 0 0.0073824782209081265 -0.015638356629516542 0 0.011627397536761334 -0.015671978859980812 0 0.0075818167262133975 -0.016573065719689407 0 0.0075560016821942747 -0.016550340706943344 0 0.0074811098728307778 -0.016571961879752271 0 0.0074216981524716282 -0.016444835222668427 0 0.0074811098728307778 -0.016571961879752271 0 0.0073060795360233967 -0.01649939215865057 0 0.0074106957772334704 -0.016391802325075672 0 0.0074899173639168528 -0.016616560445554568 0 0.0074811098728307778 -0.016571961879752271 0 0.0073060795360233967 -0.01649939215865057 0 0.0073455025898970256 -0.016633311942873017 0 0.0026504544905932171 -0.016560855579332793 0 0.0037746587830273372 -0.016097329505303088 0 0.003637638110450479 -0.014418427813146995 0 0.0048635906755657207 -0.015626762000981256 0 0.0037746587830273372 -0.016097329505303088 0 0.0039562005331540686 -0.017212899514050254 0 0.0026504544905932171 -0.016560855579332793 0 0.0037746587830273372 -0.016097329505303088 0 0.0039562005331540686 -0.017212899514050254 0 0.0044633955947275357 -0.01618465149677743 0 0.0040606889755626869 -0.017056558860363478 0 0.0048635906755657207 -0.015626762000981256 0 0.0037746587830273372 -0.016097329505303088 0 0.0042908262940387926 -0.015183484340112671 0 0.0040967795841012657 -0.018128958473155477 0 0.0031929963780182972 -0.017966432609353013 0 0.0039562005331540686 -0.017212899514050254 0 0.004325220211690595 -0.017563105328674559 0 0.0040967795841012657 -0.018128958473155477 0 0.0039562005331540686 -0.017212899514050254 0 0.0031929963780182972 -0.017966432609353013 0 0.0026504544905932171 -0.016560855579332793 0 0.0039562005331540686 -0.017212899514050254 0 0.0031929963780182972 -0.017966432609353013 0 0.0020089283055126296 -0.018060498668506085 0 0.0026504544905932171 -0.016560855579332793 0 0.01564234159631871 -0.015824024406783883 0 0.016238980129650006 -0.015856192127731431 0 0.016163495954326298 -0.015252031031717551 0 0.016105457827784057 -0.016471479269997442 0 0.01564234159631871 -0.015824024406783883 0 0.016238980129650006 -0.015856192127731431 0 0.016105457827784057 -0.016471479269997442 0 0.016238980129650006 -0.015856192127731431 0 0.016622330138894158 -0.016252540243677505 0 0.016238980129650006 -0.015856192127731431 0 0.016715259867699558 -0.015682611365556265 0 0.016622330138894158 -0.016252540243677505 0 0.016238980129650006 -0.015856192127731431 0 0.016715259867699558 -0.015682611365556265 0 0.016163495954326298 -0.015252031031717551 0 0.016715259867699558 -0.015682611365556265 0 0.017100462657984733 -0.016055306804392256 0 0.017079718677046836 -0.015434230484375517 0 0.016715259867699558 -0.015682611365556265 0 0.016622330138894158 -0.016252540243677505 0 0.017100462657984733 -0.016055306804392256 0 0.01703166592933952 -0.01659724673255138 0 0.016622330138894158 -0.016252540243677505 0 0.017100462657984733 -0.016055306804392256 0 0.01703166592933952 -0.01659724673255138 0 0.017616027304569418 -0.01655312754404788 0 0.017100462657984733 -0.016055306804392256 0 0.01755873502781807 -0.015942629314922588 0 0.017100462657984733 -0.016055306804392256 0 0.017079718677046836 -0.015434230484375517 0 0.01755873502781807 -0.015942629314922588 0 0.017481816444222077 -0.015362050709618508 0 0.017079718677046836 -0.015434230484375517 0 0.017481816444222077 -0.015362050709618508 0 0.017395513280865246 -0.014814090560308163 0 0.017079718677046836 -0.015434230484375517 0 0.017395513280865246 -0.014814090560308163 0 0.016770810903624672 -0.015067201426258454 0 0.016855822511421658 -0.014488261003391444 0 0.017395513280865246 -0.014814090560308163 0 0.017079718677046836 -0.015434230484375517 0 0.016770810903624672 -0.015067201426258454 0 0.016770810903624672 -0.015067201426258454 0 0.016412411421694206 -0.014775621414459882 0 0.016855822511421658 -0.014488261003391444 0 0.016715259867699558 -0.015682611365556265 0 0.017079718677046836 -0.015434230484375517 0 0.016770810903624672 -0.015067201426258454 0 0.016715259867699558 -0.015682611365556265 0 0.016770810903624672 -0.015067201426258454 0 0.016163495954326298 -0.015252031031717551 0 0.016770810903624672 -0.015067201426258454 0 0.016412411421694206 -0.014775621414459882 0 0.016163495954326298 -0.015252031031717551 0 0.015953466014871798 -0.014630538245952901 0 0.016412411421694206 -0.014775621414459882 0 0.016163495954326298 -0.015252031031717551 0 0.015916176550325758 -0.013806732933732415 0 0.015966352425712368 -0.013813915457833592 0 0.015969177039620443 -0.013740626181701661 0 0.015889534631566601 -0.014024208045051641 0 0.016063854846526091 -0.013998692741213861 0 0.016061494667636816 -0.014272620520853848 0 0.016123836856238867 -0.01398401876425354 0 0.015156935540547515 -0.013866750940683346 0 0.016063854846526091 -0.013998692741213861 0 0.016221190434440022 -0.014259210341210533 0 0.016354779935415082 -0.014175453022675743 0 0.016063854846526091 -0.013998692741213861 0 0.016221190434440022 -0.014259210341210533 0 0.016061494667636816 -0.014272620520853848 0 0.015953466014871798 -0.014630538245952901 0 0.016061494667636816 -0.014272620520853848 0 0.016312137409873851 -0.01439909355471793 0 0.015953466014871798 -0.014630538245952901 0 0.016412411421694206 -0.014775621414459882 0 0.016312137409873851 -0.01439909355471793 0 0.016221190434440022 -0.014259210341210533 0 0.016061494667636816 -0.014272620520853848 0 0.016312137409873851 -0.01439909355471793 0 0.015156935540547515 -0.013866750940683346 0 0.015203229211699844 -0.013953074229950435 0 0.016312137409873851 -0.01439909355471793 0 0.016354779935415082 -0.014175453022675743 0 0.016855822511421658 -0.014488261003391444 0 0.016412411421694206 -0.014775621414459882 0 0.016312137409873851 -0.01439909355471793 0 0.016855822511421658 -0.014488261003391444 0 0.015156935540547515 -0.013866750940683346 0 0.014442250381523282 -0.014315328726584881 0 0.013096128878368333 -0.013790631247091225 0 0.012711551939777965 -0.013835690543342549 0 0.012700900964743394 -0.014105852700040486 0 0.016221190434440022 -0.014259210341210533 0 0.016312137409873851 -0.01439909355471793 0 0.016354779935415082 -0.014175453022675743 0 0.013096128878368333 -0.013790631247091225 0 0.012711551939777965 -0.013835690543342549 0 0.012645903848964135 -0.013571649658271588 0 0.012576580990388313 -0.013937049288225492 0 0.012542376782538571 -0.013771114897597012 0 0.012711551939777965 -0.013835690543342549 0 0.012576580990388313 -0.013937049288225492 0 0.012711551939777965 -0.013835690543342549 0 0.012700900964743394 -0.014105852700040486 0 0.012542376782538571 -0.013771114897597012 0 0.012711551939777965 -0.013835690543342549 0 0.012645903848964135 -0.013571649658271588 0 0.012542376782538571 -0.013771114897597012 0 0.012645903848964135 -0.013571649658271588 0 0.012419935741045553 -0.013621279988021932 0 0.011627397536761334 -0.015671978859980812 0 0.015203229211699844 -0.013953074229950435 0 0.011627397536761334 -0.015671978859980812 0 0.0085136785726281135 -0.014315784872564222 0 0.012224775882185498 -0.013385955531498159 0 0.012419935741045553 -0.013621279988021932 0 0.012268491403083479 -0.013758020428776335 0 0.012224775882185498 -0.013385955531498159 0 0.012645903848964135 -0.013571649658271588 0 0.012419935741045553 -0.013621279988021932 0 0.0044047959420267695 -0.013835007540797924 0 0.0044208934597710428 -0.013758419748983095 0 0.0044224960302087623 -0.013780778091176678 0 0.0085136785726281135 -0.014315784872564222 0 0.0095149572693470318 -0.013779713195136722 0 0.012242980939072648 -0.01373757734363973 0 0.012407529029887459 -0.013900365779490319 0 0.012301622381043931 -0.014102089051276002 0 0.012542376782538571 -0.013771114897597012 0 0.012242980939072648 -0.01373757734363973 0 0.012407529029887459 -0.013900365779490319 0 0.012542376782538571 -0.013771114897597012 0 0.012419935741045553 -0.013621279988021932 0 0.012268491403083479 -0.013758020428776335 0 0.013499207551788288 -0.013967308999869915 0 0.0085136785726281135 -0.014315784872564222 0 0.012576580990388313 -0.013937049288225492 0 0.012407529029887459 -0.013900365779490319 0 0.01240490812764598 -0.014033283111746703 0 0.012576580990388313 -0.013937049288225492 0 0.012542376782538571 -0.013771114897597012 0 0.012407529029887459 -0.013900365779490319 0 0.0095149572693470318 -0.013779713195136722 0 0.012125796699785309 -0.010839209857570309 0 0.01240490812764598 -0.014033283111746703 0 0.012362277460739628 -0.014343405819010705 0 0.012700900964743394 -0.014105852700040486 0 0.0090807579733080453 -0.0133400203276073 0 0.0086897673309267471 -0.010006521968074314 0 0.010204567588045062 -0.012528140362502941 0 0.012326662318903992 -0.014082788399322994 0 0.01240490812764598 -0.014033283111746703 0 0.012362277460739628 -0.014343405819010705 0 0.012407529029887459 -0.013900365779490319 0 0.012301622381043931 -0.014102089051276002 0 0.01240490812764598 -0.014033283111746703 0 0.0095149572693470318 -0.013779713195136722 0 0.011156714257885067 -0.013294915770342992 0 0.0095149572693470318 -0.013779713195136722 0 0.0065578249867633935 -0.012766079954068739 0 0.010011060943346512 -0.0070999836644352462 0 0.0065578249867633935 -0.012766079954068739 0 0.0086897673309267471 -0.010006521968074314 0 0.0093765159054200221 -0.0093661001470022962 0 0.010204567588045062 -0.012528140362502941 0 0.014284115323703878 -0.0057983542667947282 0 0.015908394015189637 -0.0059819445114803861 0 0.014324232787052719 -0.006112512720969035 0 0.016018450675263762 -0.01361544876940504 0 0.016016499056187433 -0.013609568107480515 0 0.016012580551869195 -0.013622252649314272 0 0.011837576510274447 -0.0077009831713739261 0 0.011872076632681266 -0.0079878239398790268 0 0.011436052467441409 -0.0080599373004459195 0 0.012125796699785309 -0.010839209857570309 0 0.0132277697431533 -0.0086160468275982369 0 0.012125796699785309 -0.010839209857570309 0 0.010011060943346512 -0.0070999836644352462 0 0.012667826316331543 -0.0070747432102716851 0 0.01252866209734288 -0.0071857202779143032 0 0.012697582184652445 -0.0073057589973570857 0 0.0132277697431533 -0.0086160468275982369 0 0.010011060943346512 -0.0070999836644352462 0 0.012667826316331543 -0.0070747432102716851 0 0.01252866209734288 -0.0071857202779143032 0 0.012430530303260587 -0.0071155661401012659 0 0.0132277697431533 -0.0086160468275982369 0 0.012744493857950174 -0.0059536498666450267 0 0.011028804220277088 -0.0058899762862605811 0 0.012744493857950174 -0.0059536498666450267 0 0.011028804220277088 -0.0058899762862605811 0 0.010011060943346512 -0.0070999836644352462 0 0.0132277697431533 -0.0086160468275982369 0 0.016260138518496017 -0.010140907651631097 0 0.016018450675263762 -0.01361544876940504 0 0.016012580551869195 -0.013622252649314272 0 0.016018115629180211 -0.013708542241746483 0 0.012125796699785309 -0.010839209857570309 0 0.014442250381523282 -0.014315328726584881 0 0.016012580551869195 -0.013622252649314272 0 0.016018115629180211 -0.013708542241746483 0 0.015990945393458213 -0.013670436318099768 0 0.012576580990388313 -0.013937049288225492 0 0.01240490812764598 -0.014033283111746703 0 0.012700900964743394 -0.014105852700040486 0 0.015969177039620443 -0.013740626181701661 0 0.015990945393458213 -0.013670436318099768 0 0.015934071168980556 -0.013727493261986566 0 0.015966352425712368 -0.013813915457833592 0 0.016018115629180211 -0.013708542241746483 0 0.015969177039620443 -0.013740626181701661 0 0.016018115629180211 -0.013708542241746483 0 0.015969177039620443 -0.013740626181701661 0 0.015990945393458213 -0.013670436318099768 0 0.016260138518496017 -0.010140907651631097 0 0.017553098297384908 -0.0053763701770563003 0 0.016012580551869195 -0.013622252649314272 0 0.015990945393458213 -0.013670436318099768 0 0.015977161862222734 -0.013598695820717059 0 0.015833933910756395 -0.013673260041171526 0 0.015934071168980556 -0.013727493261986566 0 0.015977161862222734 -0.013598695820717059 0 0.015990945393458213 -0.013670436318099768 0 0.015934071168980556 -0.013727493261986566 0 0.015977161862222734 -0.013598695820717059 0 0.016806117512625431 -0.0077846986184233287 0 0.017553098297384908 -0.0053763701770563003 0 0.015916176550325758 -0.013806732933732415 0 0.015969177039620443 -0.013740626181701661 0 0.015934071168980556 -0.013727493261986566 0 0.0046321118080865096 -0.013904681057839178 0 0.0047147923600088437 -0.014129724142829999 0 0.0045070951411643537 -0.013924104857691985 0 0.0046321118080865096 -0.013904681057839178 0 0.0047108162151754005 -0.014024973910929685 0 0.0047147923600088437 -0.014129724142829999 0 0.0046321118080865096 -0.013904681057839178 0 0.0047505933215869663 -0.013855990799304562 0 0.0047108162151754005 -0.014024973910929685 0 0.0053706198320577405 -0.01404979939894733 0 0.0047505933215869663 -0.013855990799304562 0 0.0048372876193807281 -0.014142855417341295 0 0.0062083463194569253 -0.013949177715401752 0 0.0057728976388899548 -0.013673570839686688 0 0.0058960584627952691 -0.013538043518594224 0 0.0047505933215869663 -0.013855990799304562 0 0.0048372876193807281 -0.014142855417341295 0 0.004754110931306091 -0.014048485763630885 0 0.0047505933215869663 -0.013855990799304562 0 0.0047108162151754005 -0.014024973910929685 0 0.004754110931306091 -0.014048485763630885 0 0.0048372876193807281 -0.014142855417341295 0 0.004754110931306091 -0.014048485763630885 0 0.0047147923600088437 -0.014129724142829999 0 0.0047108162151754005 -0.014024973910929685 0 0.004754110931306091 -0.014048485763630885 0 0.0047147923600088437 -0.014129724142829999 0 0.0037746587830273372 -0.016097329505303088 0 0.003637638110450479 -0.014418427813146995 0 0.0042908262940387926 -0.015183484340112671 0 0.004478541015098641 -0.014587291121287807 0 0.0054515329177538055 -0.01556057314890192 0 0.0049136132769867303 -0.014490117261451588 0 0.003637638110450479 -0.014418427813146995 0 0.0042908262940387926 -0.015183484340112671 0 0.0049136132769867303 -0.014490117261451588 0 0.0048372876193807281 -0.014142855417341295 0 0.0047147923600088437 -0.014129724142829999 0 0.0049136132769867303 -0.014490117261451588 0 0.0048635906755657207 -0.015626762000981256 0 0.0042908262940387926 -0.015183484340112671 0 0.0071576277936461303 -0.016720812684764851 0 0.0073455025898970256 -0.016633311942873017 0 0.0074366305572378701 -0.016736497318028749 0 0.0054515329177538055 -0.01556057314890192 0 0.0055677024300040375 -0.015414395308030356 0 0.0073060795360233967 -0.01649939215865057 0 0.0071576277936461303 -0.016720812684764851 0 0.0073455025898970256 -0.016633311942873017 0 0.0049219610024075783 -0.016459048695844046 0 0.0054515329177538055 -0.01556057314890192 0 0.0074811098728307778 -0.016571961879752271 0 0.0075606435829765071 -0.016641250293349674 0 0.0074366305572378701 -0.016736497318028749 0 0.0074811098728307778 -0.016571961879752271 0 0.0073455025898970256 -0.016633311942873017 0 0.0074366305572378701 -0.016736497318028749 0 0.0076706210492036462 -0.016723877496373694 0 0.0075606435829765071 -0.016641250293349674 0 0.0074366305572378701 -0.016736497318028749 0 0.0076436598227102781 -0.016575028486557734 0 0.0076706210492036462 -0.016723877496373694 0 0.0075606435829765071 -0.016641250293349674 0 0.0085136785726281135 -0.014315784872564222 0 0.0055677024300040375 -0.015414395308030356 0 0.0044047959420267695 -0.013835007540797924 0 0.0045070951411643537 -0.013924104857691985 0 0.0044585306890795482 -0.013800260470848844 0 0.0044047959420267695 -0.013835007540797924 0 0.0044224960302087623 -0.013780778091176678 0 0.0044585306890795482 -0.013800260470848844 0 0.0046321118080865096 -0.013904681057839178 0 0.0045070951411643537 -0.013924104857691985 0 0.0045339900255812306 -0.013817682198111957 0 0.0045070951411643537 -0.013924104857691985 0 0.0044585306890795482 -0.013800260470848844 0 0.0045339900255812306 -0.013817682198111957 0 0.0045339900255812306 -0.013817682198111957 0 0.0044570684932113179 -0.013674545406237025 0 0.0047291950250893658 -0.01365217656649885 0 0.004287933361320855 -0.012944881971288987 0 0.0049400191125782249 -0.013476220680678512 0 0.0044585306890795482 -0.013800260470848844 0 0.0045339900255812306 -0.013817682198111957 0 0.0044570684932113179 -0.013674545406237025 0 0.0044570684932113179 -0.013674545406237025 0 0.0042466241413846705 -0.01288226360060955 0 0.0047291950250893658 -0.01365217656649885 0 0.0044585306890795482 -0.013800260470848844 0 0.0044570684932113179 -0.013674545406237025 0 0.0044376731399302432 -0.013721333037784129 0 0.0046129874675384548 -0.013881985089268361 0 0.0053037698145118406 -0.01034617279600507 0 0.0044570684932113179 -0.013674545406237025 0 0.0044376731399302432 -0.013721333037784129 0 0.0044379327368102182 -0.01367890485356494 0 0.0044570684932113179 -0.013674545406237025 0 0.0037455967176429311 -0.013088773900699738 0 0.0042466241413846705 -0.01288226360060955 0 0.0049739744663466747 -0.013627123922724986 0 0.0065578249867633935 -0.012766079954068739 0 0.0044224960302087623 -0.013780778091176678 0 0.0044376731399302432 -0.013721333037784129 0 0.0044037318073871642 -0.01370084105538999 0 0.0044208934597710428 -0.013758419748983095 0 0.0044224960302087623 -0.013780778091176678 0 0.0044361359621714344 -0.013746489125845132 0 0.0044224960302087623 -0.013780778091176678 0 0.0044585306890795482 -0.013800260470848844 0 0.0044376731399302432 -0.013721333037784129 0 0.0044376731399302432 -0.013721333037784129 0 0.0044037318073871642 -0.01370084105538999 0 0.0044379327368102182 -0.01367890485356494 0 0.0065578249867633935 -0.012766079954068739 0 0.0053037698145118406 -0.01034617279600507 0 0.0071711137010278736 -0.0093853609303607543 0 0.0074116150323567916 -0.010372217655313636 0 0.0079363891659731539 -0.0099886673246144652 0 0.0051330475034944293 -0.0035355869236085827 0 0.006263978766760242 -0.0044019291650995527 0 0.0064497275815147736 -0.0034233131620895817 0 0.010011060943346512 -0.0070999836644352462 0 0.0053037698145118406 -0.01034617279600507 0 0.0048955796671740093 -0.012862443994144811 0 0.0042466241413846705 -0.01288226360060955 0 0.0052843440967215681 -0.013405315046626641 0 0.0048955796671740093 -0.012862443994144811 0 0.0042466241413846705 -0.01288226360060955 0 0.0045287193532056527 -0.012451823659883995 0 0.0053037698145118406 -0.01034617279600507 0 0.0057778922162447857 -0.0081216290517074994 0 0.0037455967176429311 -0.013088773900699738 0 0.0042466241413846705 -0.01288226360060955 0 0.0045287193532056527 -0.012451823659883995 0 0.006263978766760242 -0.0044019291650995527 0 0.0064497275815147736 -0.0034233131620895817 0 0.0073919111652665783 -0.0035418613531688018 0 0.0048955796671740093 -0.012862443994144811 0 0.0045287193532056527 -0.012451823659883995 0 0.0049335989746444875 -0.012513665503403331 0 0.0055818736861913782 -0.012602163798004029 0 0.0063067367486714021 -0.012786093563670992 0 0.0053334412912434525 -0.011783460923750662 0 0.00524592622299373 -0.012423209020381569 0 0.0049335989746444875 -0.012513665503403331 0 0.0053334412912434525 -0.011783460923750662 0 0.0045287193532056527 -0.012451823659883995 0 0.0049335989746444875 -0.012513665503403331 0 0.0053334412912434525 -0.011783460923750662 0 0.00524592622299373 -0.012423209020381569 0 0.0055818736861913782 -0.012602163798004029 0 0.0051964790008014565 -0.012754901312219812 0 0.00524592622299373 -0.012423209020381569 0 0.0049335989746444875 -0.012513665503403331 0 0.0051964790008014565 -0.012754901312219812 0 0.00524592622299373 -0.012423209020381569 0 0.0055818736861913782 -0.012602163798004029 0 0.0053334412912434525 -0.011783460923750662 0 0.0055818736861913782 -0.012602163798004029 0 0.0055258252995943362 -0.012920407895573773 0 0.0063067367486714021 -0.012786093563670992 0 0.0055258252995943362 -0.012920407895573773 0 0.0054673965756994831 -0.013291247951033008 0 0.0063067367486714021 -0.012786093563670992 0 0.0055818736861913782 -0.012602163798004029 0 0.0055258252995943362 -0.012920407895573773 0 0.0051964790008014565 -0.012754901312219812 0 0.0055258252995943362 -0.012920407895573773 0 0.0052277424126736466 -0.013058185039544789 0 0.0054673965756994831 -0.013291247951033008 0 0.0048955796671740093 -0.012862443994144811 0 0.0049335989746444875 -0.012513665503403331 0 0.0051964790008014565 -0.012754901312219812 0 0.0055258252995943362 -0.012920407895573773 0 0.0051964790008014565 -0.012754901312219812 0 0.0052277424126736466 -0.013058185039544789 0 0.0048955796671740093 -0.012862443994144811 0 0.0051964790008014565 -0.012754901312219812 0 0.0052277424126736466 -0.013058185039544789 0 0.0053569024383169879 -0.013765519595013407 0 0.0049400191125782249 -0.013476220680678512 0 0.0046321118080865096 -0.013904681057839178 0 0.0045339900255812306 -0.013817682198111957 0 0.0047291950250893658 -0.01365217656649885 0 0.0048955796671740093 -0.012862443994144811 0 0.0052277424126736466 -0.013058185039544789 0 0.0052843440967215681 -0.013405315046626641 0 0.0046321118080865096 -0.013904681057839178 0 0.0047505933215869663 -0.013855990799304562 0 0.0047291950250893658 -0.01365217656649885 0 0.0057728976388899548 -0.013673570839686688 0 0.0052843440967215681 -0.013405315046626641 0 0.0054673965756994831 -0.013291247951033008 0 0.0052277424126736466 -0.013058185039544789 0 0.0052843440967215681 -0.013405315046626641 0 0.0054673965756994831 -0.013291247951033008 0 0.0057728976388899548 -0.013673570839686688 0 0.0058960584627952691 -0.013538043518594224 0 0.0056934613464205011 -0.013287259968974275 0 0.0057728976388899548 -0.013673570839686688 0 0.0054673965756994831 -0.013291247951033008 0 0.0056934613464205011 -0.013287259968974275 0 0.0054673965756994831 -0.013291247951033008 0 0.0056934613464205011 -0.013287259968974275 0 0.0057880801017859305 -0.013084755843690205 0 0.0058960584627952691 -0.013538043518594224 0 0.0056934613464205011 -0.013287259968974275 0 0.0059114461791316035 -0.013243114401795649 0 0.0056934613464205011 -0.013287259968974275 0 0.0059114461791316035 -0.013243114401795649 0 0.0057880801017859305 -0.013084755843690205 0 0.0070949174960496736 -0.012239056002634089 0 0.0063067367486714021 -0.012786093563670992 0 0.0053334412912434525 -0.011783460923750662 0 0.0060825686704277038 -0.012885393190692486 0 0.0059114461791316035 -0.013243114401795649 0 0.0057880801017859305 -0.013084755843690205 0 0.0056297364937120163 -0.01318568210701896 0 0.0057249386017258737 -0.013040967983884655 0 0.0071908690963929205 -0.0097949154861090883 0 0.0057249386017258737 -0.013040967983884655 0 0.0071908690963929205 -0.0097949154861090883 0 0.0074883469308283553 -0.0044057661972533371 0 0.0093113884585333522 -0.0018714919919549102 0 0.0091981356986346047 -0.0016785845109025428 0 0.0087341031309809899 -0.002016926144667005 0 0.0096712274139014141 -0.0021937165514841449 0 0.0093113884585333522 -0.0018714919919549102 0 0.0087341031309809899 -0.002016926144667005 0 0.0093113884585333522 -0.0018714919919549102 0 0.0091981356986346047 -0.0016785845109025428 0 0.0096587638010517864 -0.0015847709781448374 0 0.0091981356986346047 -0.0016785845109025428 0 0.009585996045577843 -0.0009463075331969347 0 0.0096587638010517864 -0.0015847709781448374 0 0.0091981356986346047 -0.0016785845109025428 0 0.0086103100147414645 -0.0011546539749820253 0 0.009585996045577843 -0.0009463075331969347 0 0.0091114954588902789 -0.00093735184167972625 0 0.0095805949872866964 -0.00090896279756022731 0 0.0091114954588902789 -0.00093735184167972625 0 0.009225248948223139 -0.0016394969139799881 0 0.0097700231878703487 -0.00069254117011295874 0 0.0099232102450774167 -0.00061946748369974785 0 0.0098788080053374087 -0.00066830927527845884 0 0.0086103100147414645 -0.0011546539749820253 0 0.0082222373135099405 -0.0018063658223050774 0 0.0073324577884520906 -0.0014602288592235073 0 0.0091981356986346047 -0.0016785845109025428 0 0.0086103100147414645 -0.0011546539749820253 0 0.0082222373135099405 -0.0018063658223050774 0 0.0097700231878703487 -0.00069254117011295874 0 0.0098788080053374087 -0.00066830927527845884 0 0.0098278452615226074 -0.00073386995728994843 0 0.0091981356986346047 -0.0016785845109025428 0 0.0082222373135099405 -0.0018063658223050774 0 0.0083540292032966458 -0.0025009581867310657 0 0.0082222373135099405 -0.0018063658223050774 0 0.0083540292032966458 -0.0025009581867310657 0 0.0076482437749221316 -0.0024135487441185642 0 0.0096976486109847746 -0.0013437867197151291 0 0.0074883469308283553 -0.0044057661972533371 0 0.0057778922162447857 -0.0081216290517074994 0 0.0074883469308283553 -0.0044057661972533371 0 0.0074883469308283553 -0.0044057661972533371 0 0.0077136544285649486 -0.0031146722464514402 0 0.0076482437749221316 -0.0024135487441185642 0 0.0062306910038530143 -0.0024632558514086668 0 0.0073324577884520906 -0.0014602288592235073 0 0.0073919111652665783 -0.0035418613531688018 0 0.0085561728522178439 -0.0026755548487188783 0 0.0076482437749221316 -0.0024135487441185642 0 0.0064497275815147736 -0.0034233131620895817 0 0.0076482437749221316 -0.0024135487441185642 0 0.0062306910038530143 -0.0024632558514086668 0 0.0064497275815147736 -0.0034233131620895817 0 0.0073919111652665783 -0.0035418613531688018 0 0.0076482437749221316 -0.0024135487441185642 0 0.0079990617517343189 -0.0027497239841129018 0 0.009225248948223139 -0.0016394969139799881 0 0.0082222373135099405 -0.0018063658223050774 0 0.0076482437749221316 -0.0024135487441185642 0 0.0073324577884520906 -0.0014602288592235073 0 0.0098761537891785857 -0.0030711220157738335 0 0.0098714203380545328 -0.0030540407313209119 0 0.0098852861434068264 -0.0030272663262735258 0 0.0051330475034944293 -0.0035355869236085827 0 0.0064497275815147736 -0.0034233131620895817 0 0.0062306910038530143 -0.0024632558514086668 0 0.0098574103106868465 -0.0031252618217284408 0 0.0098615944704895271 -0.0030858994879309144 0 0.0098761537891785857 -0.0030711220157738335 0 0.010011060943346512 -0.0070999836644352462 0 0.0079990617517343189 -0.0027497239841129018 0 0.0098615944704895271 -0.0030858994879309144 0 0.0098761537891785857 -0.0030711220157738335 0 0.0098714203380545328 -0.0030540407313209119 0 0.0097525792325533836 -0.0018863044702109649 0 0.009225248948223139 -0.0016394969139799881 0 0.010032658275431702 -0.00060972703592202795 0 0.0099685922119584231 -0.00068178538578556936 0 0.010064191367544486 -0.00068063507312011648 0 0.010032658275431702 -0.00060972703592202795 0 0.0099239830545410114 -0.00062855941334581905 0 0.0099685922119584231 -0.00068178538578556936 0 0.0099685922119584231 -0.00068178538578556936 0 0.0098788080053374087 -0.00066830927527845884 0 0.0098948744106885679 -0.00071772696741565943 0 0.0099239830545410114 -0.00062855941334581905 0 0.0099685922119584231 -0.00068178538578556936 0 0.0098788080053374087 -0.00066830927527845884 0 0.009225248948223139 -0.0016394969139799881 0 0.0099180353393190854 -0.00084690770990854811 0 0.0098788080053374087 -0.00066830927527845884 0 0.0098948744106885679 -0.00071772696741565943 0 0.0098278452615226074 -0.00073386995728994843 0 0.0099685922119584231 -0.00068178538578556936 0 0.0098948744106885679 -0.00071772696741565943 0 0.0099467805759421712 -0.00072600203460048709 0 0.0099467805759421712 -0.00072600203460048709 0 0.010020377477773351 -0.00072182101538004867 0 0.0099425641409009238 -0.0007420664098234665 0 0.0099685922119584231 -0.00068178538578556936 0 0.0099467805759421712 -0.00072600203460048709 0 0.010020377477773351 -0.00072182101538004867 0 0.0099467805759421712 -0.00072600203460048709 0 0.0099425641409009238 -0.0007420664098234665 0 0.0098450887489685279 -0.00076310816543908146 0 0.0098948744106885679 -0.00071772696741565943 0 0.0099467805759421712 -0.00072600203460048709 0 0.0098450887489685279 -0.00076310816543908146 0 0.0099685922119584231 -0.00068178538578556936 0 0.010064191367544486 -0.00068063507312011648 0 0.010020377477773351 -0.00072182101538004867 0 0.010064191367544486 -0.00068063507312011648 0 0.010020377477773351 -0.00072182101538004867 0 0.010116823507608496 -0.00074006273537230319 0 0.010020377477773351 -0.00072182101538004867 0 0.010043521908990537 -0.00072825232170446415 0 0.010116823507608496 -0.00074006273537230319 0 0.010020377477773351 -0.00072182101538004867 0 0.010043521908990537 -0.00072825232170446415 0 0.0099425641409009238 -0.0007420664098234665 0 0.0099425641409009238 -0.0007420664098234665 0 0.0098409729314255026 -0.00077464044838056287 0 0.0098450887489685279 -0.00076310816543908146 0 0.010043521908990537 -0.00072825232170446415 0 0.0099425641409009238 -0.0007420664098234665 0 0.0099258012042521011 -0.0007576893486537198 0 0.0099425641409009238 -0.0007420664098234665 0 0.0098409729314255026 -0.00077464044838056287 0 0.0099258012042521011 -0.0007576893486537198 0 0.0098409729314255026 -0.00077464044838056287 0 0.0097643590552715046 -0.00079421169100195841 0 0.0098450887489685279 -0.00076310816543908146 0 0.0098409729314255026 -0.00077464044838056287 0 0.0097643590552715046 -0.00079421169100195841 0 0.009789329809912076 -0.00078358717496032984 0 0.0097579615221470919 -0.00079221460155265802 0 0.0097643590552715046 -0.00079421169100195841 0 0.009789329809912076 -0.00078358717496032984 0 0.0097579615221470919 -0.00079221460155265802 0 0.0097643590552715046 -0.00079421169100195841 0 0.009703039209562378 -0.00082132111177381608 0 0.0097643590552715046 -0.00079421169100195841 0 0.009703039209562378 -0.00082132111177381608 0 0.0097290484291037722 -0.00081100038131775513 0 0.0097700231878703487 -0.00069254117011295874 0 0.009585996045577843 -0.0009463075331969347 0 0.0097290484291037722 -0.00081100038131775513 0 0.009703039209562378 -0.00082132111177381608 0 0.009585996045577843 -0.0009463075331969347 0 0.0097290484291037722 -0.00081100038131775513 0 0.0097700231878703487 -0.00069254117011295874 0 0.0097290484291037722 -0.00081100038131775513 0 0.0098278452615226074 -0.00073386995728994843 0 0.0098948744106885679 -0.00071772696741565943 0 0.0098278452615226074 -0.00073386995728994843 0 0.0098450887489685279 -0.00076310816543908146 0 0.0097290484291037722 -0.00081100038131775513 0 0.0098278452615226074 -0.00073386995728994843 0 0.0098450887489685279 -0.00076310816543908146 0 0.0097643590552715046 -0.00079421169100195841 0 0.0097290484291037722 -0.00081100038131775513 0 0.0098450887489685279 -0.00076310816543908146 0 0.018254327166472788 -0.00071451591584586658 0 0.018459607681757056 -0.00069477485227079235 0 0.018317766203583954 -0.00049704551723909324 0 0.01822679684457678 -0.00082387368172432709 0 0.017553098297384908 -0.0053763701770563003 0 0.018254327166472788 -0.00071451591584586658 0 0.018367764341389797 -0.00090641555401597116 0 0.018459607681757056 -0.00069477485227079235 0 0.018190627888150041 -0.00090053150989065464 0 0.018254327166472788 -0.00071451591584586658 0 0.018367764341389797 -0.00090641555401597116 0 0.018367764341389797 -0.00090641555401597116 0 0.018459607681757056 -0.00069477485227079235 0 0.018574199251849503 -0.00083399729537450085 0 0.017553098297384908 -0.0053763701770563003 0 0.015974943275228984 -0.0024455650119541827 0 0.015908394015189637 -0.0059819445114803861 0 0.017521992344360544 -0.0061668663830082441 0 0.015274087053409453 -0.006798487650341598 0 0.015929165621766567 -5.9989125406993585e-05 0 0.015600137616770171 -7.1041535111962634e-05 0 0.015891331028674467 -0.00046296099597285519 0 0.017243142288923406 -0.00017455504958835839 0 0.017292609105030513 -0.00043311628353036915 0 0.015600137616770171 -7.1041535111962634e-05 0 0.015275682853149957 0.00015079673885254265 0 0.015466517396954949 -0.0003481113375645396 0 0.017243142288923406 -0.00017455504958835839 0 0.015974943275228984 -0.0024455650119541827 0 0.015929165621766567 -5.9989125406993585e-05 0 0.015600137616770171 -7.1041535111962634e-05 0 0.015508176508790319 0.00021616169633096864 0 0.015908394015189637 -0.0059819445114803861 0 0.015274087053409453 -0.006798487650341598 0 0.014324232787052719 -0.006112512720969035 0 0.015600137616770171 -7.1041535111962634e-05 0 0.015508176508790319 0.00021616169633096864 0 0.015275682853149957 0.00015079673885254265 0 0.012767542704260457 -0.0040009179748467447 0 0.012988830748237732 -0.0039323319708223668 0 0.013007476633648424 -0.0040550996133872259 0 0.015974943275228984 -0.0024455650119541827 0 0.011844011175968188 -0.0015724564862914861 0 0.0097525792325533836 -0.0018863044702109649 0 0.011844011175968188 -0.0015724564862914861 0 0.0098615944704895271 -0.0030858994879309144 0 0.0098714203380545328 -0.0030540407313209119 0 0.0098472424817807984 -0.0030681412458715947 0 0.015974943275228984 -0.0024455650119541827 0 0.012744493857950174 -0.0059536498666450267 0 0.012767542704260457 -0.0040009179748467447 0 0.013007476633648424 -0.0040550996133872259 0 0.013027147590969014 -0.00422286604938793 0 0.011028804220277088 -0.0058899762862605811 0 0.011844011175968188 -0.0015724564862914861 0 0.0098526762169950134 -0.0031201293257345952 0 0.0098615944704895271 -0.0030858994879309144 0 0.0098472424817807984 -0.0030681412458715947 0 0.0098526762169950134 -0.0031201293257345952 0 0.0098574103106868465 -0.0031252618217284408 0 0.0098615944704895271 -0.0030858994879309144 0 0.013082418828922558 -0.0043024104338012141 0 0.013007476633648424 -0.0040550996133872259 0 0.013014944096778232 -0.0042461272705125843 0 0.013082418828922558 -0.0043024104338012141 0 0.012988830748237732 -0.0039323319708223668 0 0.013007476633648424 -0.0040550996133872259 0 0.012743436810254824 -0.0043825478614081727 0 0.012744493857950174 -0.0059536498666450267 0 0.010032658275431702 -0.00060972703592202795 0 0.010064191367544486 -0.00068063507312011648 0 0.010123457791810715 -0.00059859404859160723 0 0.011844011175968188 -0.0015724564862914861 0 0.012899898822330296 -0.00028394987941017454 0 0.010064191367544486 -0.00068063507312011648 0 0.010123457791810715 -0.00059859404859160723 0 0.010143095543459936 -0.00070620661504088771 0 0.010064191367544486 -0.00068063507312011648 0 0.010116823507608496 -0.00074006273537230319 0 0.010143095543459936 -0.00070620661504088771 0 0.010116823507608496 -0.00074006273537230319 0 0.010093740169334625 -0.00074233101723088701 0 0.010111085960585606 -0.00066358982547285459 0 0.012498292377812784 -0.00086419636093045351 0 0.012899898822330296 -0.00028394987941017454 0 0.010116823507608496 -0.00074006273537230319 0 0.010093740169334625 -0.00074233101723088701 0 0.010143095543459936 -0.00070620661504088771 0 0.015600137616770171 -7.1041535111962634e-05 0 0.015466517396954949 -0.0003481113375645396 0 0.015891331028674467 -0.00046296099597285519 0 0.015655277190920806 -0.00086426882066561377 0 0.015466517396954949 -0.0003481113375645396 0 0.015891331028674467 -0.00046296099597285519 0 0.015929165621766567 -5.9989125406993585e-05 0 0.015891331028674467 -0.00046296099597285519 0 0.016352663818209958 -0.00034674838554834707 0 0.015655277190920806 -0.00086426882066561377 0 0.015891331028674467 -0.00046296099597285519 0 0.016308660236280918 -0.0010217112461798272 0 0.016777989305981775 -0.00064717546472964154 0 0.016352663818209958 -0.00034674838554834707 0 0.016308660236280918 -0.0010217112461798272 0 0.015891331028674467 -0.00046296099597285519 0 0.016352663818209958 -0.00034674838554834707 0 0.016308660236280918 -0.0010217112461798272 0 0.018359835660143521 0.00063871579115811102 0 0.018972132562102631 0.00089457049475229688 0 0.018477656311976263 0.0013620364900131608 0 0.018972132562102631 0.00089457049475229688 0 0.019250413917969389 0.0012780151324969851 0 0.01886546220190469 0.0013542142032094259 0 0.018972132562102631 0.00089457049475229688 0 0.01886546220190469 0.0013542142032094259 0 0.018477656311976263 0.0013620364900131608 0 0.018359835660143521 0.00063871579115811102 0 0.018972132562102631 0.00089457049475229688 0 0.01875798155066883 0.00013418986851812626 0 0.015655277190920806 -0.00086426882066561377 0 0.016308660236280918 -0.0010217112461798272 0 0.01584820293773884 -0.0013852710367903886 0 0.017786256093003296 -0.00038082096140085853 0 0.016252204628533298 -0.00031082810663885684 0 0.018972132562102631 0.00089457049475229688 0 0.019862559540173564 0.00065576351368113839 0 0.019838874481768239 0.00082977579590497446 0 0.018972132562102631 0.00089457049475229688 0 0.01875798155066883 0.00013418986851812626 0 0.019862559540173564 0.00065576351368113839 0 0.016252204628533298 -0.00031082810663885684 0 0.016794045554806594 -0.00020492939642576932 0 0.018972132562102631 0.00089457049475229688 0 0.019250413917969389 0.0012780151324969851 0 0.019838874481768239 0.00082977579590497446 0 0.019250413917969389 0.0012780151324969851 0 0.019838874481768239 0.00082977579590497446 0 0.020018356937642565 0.0016989779628221679 0 0.019961912659735993 0.00043862316935700636 0 0.019838874481768239 0.00082977579590497446 0 0.021999105971927377 0.0017720017140120845 0 0.016252204628533298 -0.00031082810663885684 0 0.015823981502346395 0.00075631462870801112 0 0.0099432199763339127 -0.00054665037466973565 0 0.010111085960585606 -0.00066358982547285459 0 0.010109566630958074 -0.00019452127237020391 0 0.012498292377812784 -0.00086419636093045351 0 0.016252204628533298 -0.00031082810663885684 0 0.010093740169334625 -0.00074233101723088701 0 0.0099432199763339127 -0.00054665037466973565 0 0.010111085960585606 -0.00066358982547285459 0 0.010116823507608496 -0.00074006273537230319 0 0.010111085960585606 -0.00066358982547285459 0 0.010233470677447591 -0.00070636272523430077 0 0.010111085960585606 -0.00066358982547285459 0 0.010233470677447591 -0.00070636272523430077 0 0.010360812318926403 -0.00038515110293615252 0 0.010111085960585606 -0.00066358982547285459 0 0.010360812318926403 -0.00038515110293615252 0 0.010109566630958074 -0.00019452127237020391 0 0.021999105971927377 0.0017720017140120845 0 0.021957917552092896 0.0037067271104856249 0 0.024296868833656966 0.003527001260505569 0 0.015823981502346395 0.00075631462870801112 0 0.017891498076764472 0.0020523948227023033 0 0.010360812318926403 -0.00038515110293615252 0 0.010109566630958074 -0.00019452127237020391 0 0.010650468230831737 0.00048031689176471654 0 0.021957917552092896 0.0037067271104856249 0 0.024296868833656966 0.003527001260505569 0 0.023170148643505112 0.0051801825303819573 0 0.021957917552092896 0.0037067271104856249 0 0.021491832419873652 0.0052702088869385341 0 0.023170148643505112 0.0051801825303819573 0 0.021957917552092896 0.0037067271104856249 0 0.020590086022556488 0.0039579113994785038 0 0.021491832419873652 0.0052702088869385341 0 0.021957917552092896 0.0037067271104856249 0 0.020590086022556488 0.0039579113994785038 0 0.020481378754389407 0.0026486138577998712 0 0.021999105971927377 0.0017720017140120845 0 0.021957917552092896 0.0037067271104856249 0 0.020481378754389407 0.0026486138577998712 0 0.021999105971927377 0.0017720017140120845 0 0.020481378754389407 0.0026486138577998712 0 0.020018356937642565 0.0016989779628221679 0 0.019838874481768239 0.00082977579590497446 0 0.021999105971927377 0.0017720017140120845 0 0.020018356937642565 0.0016989779628221679 0 0.020481378754389407 0.0026486138577998712 0 0.018873429918194282 0.0019168215711662432 0 0.019455062262197717 0.0035261160495995282 0 0.020481378754389407 0.0026486138577998712 0 0.020018356937642565 0.0016989779628221679 0 0.018873429918194282 0.0019168215711662432 0 0.019250413917969389 0.0012780151324969851 0 0.018873429918194282 0.0019168215711662432 0 0.01886546220190469 0.0013542142032094259 0 0.019250413917969389 0.0012780151324969851 0 0.020018356937642565 0.0016989779628221679 0 0.018873429918194282 0.0019168215711662432 0 0.020590086022556488 0.0039579113994785038 0 0.019455062262197717 0.0035261160495995282 0 0.018956321583521965 0.0055663357342391646 0 0.020590086022556488 0.0039579113994785038 0 0.020481378754389407 0.0026486138577998712 0 0.019455062262197717 0.0035261160495995282 0 0.019455062262197717 0.0035261160495995282 0 0.018341024262972502 0.003551459534078798 0 0.018956321583521965 0.0055663357342391646 0 0.018873429918194282 0.0019168215711662432 0 0.019455062262197717 0.0035261160495995282 0 0.018341024262972502 0.003551459534078798 0 0.017134880293371631 0.0048901472388183358 0 0.018114228443556452 0.00361498126178419 0 0.016493426220083426 0.0033863492742600824 0 0.018873429918194282 0.0019168215711662432 0 0.017392180128099122 0.0035389034381263142 0 0.016421141036483993 0.0046692184805937091 0 0.018341024262972502 0.003551459534078798 0 0.018956321583521965 0.0055663357342391646 0 0.018873429918194282 0.0019168215711662432 0 0.018341024262972502 0.003551459534078798 0 0.017392180128099122 0.0035389034381263142 0 0.016919559585973291 0.0042250250336018169 0 0.018341024262972502 0.003551459534078798 0 0.017392180128099122 0.0035389034381263142 0 0.017424068337266282 0.0024680208134009217 0 0.018821876515001258 0.0019052591044696841 0 0.018146907171129927 0.001516396884217732 0 0.018873429918194282 0.0019168215711662432 0 0.018477656311976263 0.0013620364900131608 0 0.018873429918194282 0.0019168215711662432 0 0.01886546220190469 0.0013542142032094259 0 0.018477656311976263 0.0013620364900131608 0 0.0098293910085373824 -0.00080059126656820514 0 0.0098721861219769839 -0.00079855784047275116 0 0.0098916635080742339 -0.00084432309777667598 0 0.0098121184307096085 -0.00078742628064197107 0 0.0098293910085373824 -0.00080059126656820514 0 0.0098721861219769839 -0.00079855784047275116 0 0.0098121184307096085 -0.00078742628064197107 0 0.0098293910085373824 -0.00080059126656820514 0 0.0097945245011318346 -0.00077424107261723802 0 0.0098121184307096085 -0.00078742628064197107 0 0.0097945245011318346 -0.00077424107261723802 0 0.0097773256108752409 -0.00077640218431082272 0 0.0097579615221470919 -0.00079221460155265802 0 0.0097773256108752409 -0.00077640218431082272 0 0.009789329809912076 -0.00078358717496032984 0 0.0098121184307096085 -0.00078742628064197107 0 0.0097773256108752409 -0.00077640218431082272 0 0.009789329809912076 -0.00078358717496032984 0 0.0098409729314255026 -0.00077464044838056287 0 0.009789329809912076 -0.00078358717496032984 0 0.0098584333603264698 -0.0007783533901492126 0 0.0098121184307096085 -0.00078742628064197107 0 0.009789329809912076 -0.00078358717496032984 0 0.0098584333603264698 -0.0007783533901492126 0 0.0098121184307096085 -0.00078742628064197107 0 0.0098584333603264698 -0.0007783533901492126 0 0.0098721861219769839 -0.00079855784047275116 0 0.0098409729314255026 -0.00077464044838056287 0 0.0098584333603264698 -0.0007783533901492126 0 0.0099258012042521011 -0.0007576893486537198 0 0.0098584333603264698 -0.0007783533901492126 0 0.0099258012042521011 -0.0007576893486537198 0 0.0099638694656791534 -0.00076161909891831673 0 0.010043521908990537 -0.00072825232170446415 0 0.0099258012042521011 -0.0007576893486537198 0 0.0099638694656791534 -0.00076161909891831673 0 0.0098584333603264698 -0.0007783533901492126 0 0.0099638694656791534 -0.00076161909891831673 0 0.0098721861219769839 -0.00079855784047275116 0 0.010043521908990537 -0.00072825232170446415 0 0.010233470677447591 -0.00070636272523430077 0 0.0099638694656791534 -0.00076161909891831673 0 0.010043521908990537 -0.00072825232170446415 0 0.010116823507608496 -0.00074006273537230319 0 0.010233470677447591 -0.00070636272523430077 0 0.010233470677447591 -0.00070636272523430077 0 0.0099778772450135958 -0.00080375979964359215 0 0.010038044753918693 -0.00087697868511599707 0 0.01029675778634564 -0.00067122624030669438 0 0.01042896520819433 -0.000599895433895655 0 0.010233470677447591 -0.00070636272523430077 0 0.010360812318926403 -0.00038515110293615252 0 0.01089599597807746 -0.00027817770558811067 0 0.010233470677447591 -0.00070636272523430077 0 0.0099638694656791534 -0.00076161909891831673 0 0.0099778772450135958 -0.00080375979964359215 0 0.0099638694656791534 -0.00076161909891831673 0 0.0098721861219769839 -0.00079855784047275116 0 0.0099778772450135958 -0.00080375979964359215 0 0.0099778772450135958 -0.00080375979964359215 0 0.0098916635080742339 -0.00084432309777667598 0 0.010038044753918693 -0.00087697868511599707 0 0.0098721861219769839 -0.00079855784047275116 0 0.0099778772450135958 -0.00080375979964359215 0 0.0098916635080742339 -0.00084432309777667598 0 0.0098797260217078405 -0.001084841086088605 0 0.010971435784118452 -0.00011603820892320381 0 0.0098916635080742339 -0.00084432309777667598 0 0.010038044753918693 -0.00087697868511599707 0 0.0099170486252388133 -0.001020534992782957 0 0.0098916635080742339 -0.00084432309777667598 0 0.0098238130181457443 -0.00078197531806594139 0 0.0098377933636873399 -0.00079954964506621614 0 0.01042896520819433 -0.000599895433895655 0 0.010971435784118452 -0.00011603820892320381 0 0.010360812318926403 -0.00038515110293615252 0 0.01089599597807746 -0.00027817770558811067 0 0.010650468230831737 0.00048031689176471654 0 0.01089599597807746 -0.00027817770558811067 0 0.010650468230831737 0.00048031689176471654 0 0.011518874952338904 0.00045521745712147436 0 0.017891498076764472 0.0020523948227023033 0 0.016484572692501989 0.004350625679372268 0 0.024296868833656966 0.003527001260505569 0 0.026748072938430113 0.005561247541771854 0 0.024744409019514343 0.0053951315986295384 0 0.010650468230831737 0.00048031689176471654 0 0.011518874952338904 0.00045521745712147436 0 0.011514325270662295 0.0012553810529361985 0 0.024296868833656966 0.003527001260505569 0 0.024744409019514343 0.0053951315986295384 0 0.023170148643505112 0.0051801825303819573 0 0.0098238130181457443 -0.00078197531806594139 0 0.0098208437450274938 -0.0007665915288472318 0 0.0098091300758121908 -0.00073228190875427267 0 0.010971435784118452 -0.00011603820892320381 0 0.016484572692501989 0.004350625679372268 0 0.012209908536955248 0.0012586160296521782 0 0.013253851959672219 0.002842658977273085 0 0.012102919750432982 0.0028830278908987387 0 0.010971435784118452 -0.00011603820892320381 0 0.011432830427546802 0.00079442671182255379 0 0.0098238130181457443 -0.00078197531806594139 0 0.0098208437450274938 -0.0007665915288472318 0 0.0098377933636873399 -0.00079954964506621614 0 0.0098208437450274938 -0.0007665915288472318 0 0.0098051840158664312 -0.0007351073393198509 0 0.0098091300758121908 -0.00073228190875427267 0 0.0098293910085373824 -0.00080059126656820514 0 0.0098377933636873399 -0.00079954964506621614 0 0.0098077474451073732 -0.00077663573266352817 0 0.0098293910085373824 -0.00080059126656820514 0 0.0098916635080742339 -0.00084432309777667598 0 0.0098377933636873399 -0.00079954964506621614 0 0.0098208437450274938 -0.0007665915288472318 0 0.0098377933636873399 -0.00079954964506621614 0 0.0098077474451073732 -0.00077663573266352817 0 0.0098077474451073732 -0.00077663573266352817 0 0.0097853367273178418 -0.00076060843745904834 0 0.0097745327046521568 -0.00076630208666615381 0 0.0097945245011318346 -0.00077424107261723802 0 0.0098077474451073732 -0.00077663573266352817 0 0.0097745327046521568 -0.00076630208666615381 0 0.0098293910085373824 -0.00080059126656820514 0 0.0097945245011318346 -0.00077424107261723802 0 0.0098077474451073732 -0.00077663573266352817 0 0.0098208437450274938 -0.0007665915288472318 0 0.0098077474451073732 -0.00077663573266352817 0 0.0098051840158664312 -0.0007351073393198509 0 0.0097853367273178418 -0.00076060843745904834 0 0.0097901979240911513 -0.00072632604075972395 0 0.0098051840158664312 -0.0007351073393198509 0 0.0098077474451073732 -0.00077663573266352817 0 0.0097853367273178418 -0.00076060843745904834 0 0.0098051840158664312 -0.0007351073393198509 0 0.0097853367273178418 -0.00076060843745904834 0 0.0097362521493897375 -0.00076882920886047054 0 0.0097901979240911513 -0.00072632604075972395 0 0.0097853367273178418 -0.00076060843745904834 0 0.0097612962138231563 -0.00076738865956815382 0 0.0097362521493897375 -0.00076882920886047054 0 0.0071273663458431844 0.0029735014075114178 0 0.0086379093513999274 0.0030801345521611076 0 0.0032134109686435819 0.0033231253260287336 0 0.0039554004906200346 0.0033919187218622244 0 0.0038201647456890283 0.0025653419871795049 0 0.0032134109686435819 0.0033231253260287336 0 0.0039554004906200346 0.0033919187218622244 0 0.0038881736376494506 0.0041755111707179977 0 0.0097612962138231563 -0.00076738865956815382 0 0.0097362521493897375 -0.00076882920886047054 0 0.0097038858325336468 -0.00076949031939181633 0 0.0097038858325336468 -0.00076949031939181633 0 0.0096203770709828648 -0.00077018847460565186 0 0.0097746376131933235 -0.00074208162598136322 0 0.0097362521493897375 -0.00076882920886047054 0 0.0097038858325336468 -0.00076949031939181633 0 0.0096203770709828648 -0.00077018847460565186 0 0.0071273663458431844 0.0029735014075114178 0 0.0067875192634774132 0.00067521255588922139 0 0.0097038858325336468 -0.00076949031939181633 0 0.0097745327046521568 -0.00076630208666615381 0 0.0097746376131933235 -0.00074208162598136322 0 0.0097853367273178418 -0.00076060843745904834 0 0.0097612962138231563 -0.00076738865956815382 0 0.0097745327046521568 -0.00076630208666615381 0 0.0097612962138231563 -0.00076738865956815382 0 0.0097038858325336468 -0.00076949031939181633 0 0.0097745327046521568 -0.00076630208666615381 0 0.0047042961059034676 0.0033326083688521137 0 0.0045451255088906732 0.0026526995114237806 0 0.0053779372770614287 0.0031348745959944068 0 0.0047042961059034676 0.0033326083688521137 0 0.0053779372770614287 0.0031348745959944068 0 0.0051736632172642381 0.0037747929202417729 0 0.0047042961059034676 0.0033326083688521137 0 0.0039554004906200346 0.0033919187218622244 0 0.0046874596343555366 0.0041913657548972123 0 0.0047042961059034676 0.0033326083688521137 0 0.0039554004906200346 0.0033919187218622244 0 0.0045451255088906732 0.0026526995114237806 0 0.0038201647456890283 0.0025653419871795049 0 0.0045451255088906732 0.0026526995114237806 0 0.0044427733604174707 0.0017948262598090504 0 0.0039554004906200346 0.0033919187218622244 0 0.0038201647456890283 0.0025653419871795049 0 0.0045451255088906732 0.0026526995114237806 0 0.0045451255088906732 0.0026526995114237806 0 0.0044427733604174707 0.0017948262598090504 0 0.0052371891077867948 0.0024307203267502709 0 0.0045451255088906732 0.0026526995114237806 0 0.0052371891077867948 0.0024307203267502709 0 0.0053779372770614287 0.0031348745959944068 0 0.0044427733604174707 0.0017948262598090504 0 0.0054334832445714163 0.0016897746309961431 0 0.0052371891077867948 0.0024307203267502709 0 0.0096203770709828648 -0.00077018847460565186 0 0.0094304210716845468 -0.00064188003374643355 0 0.0095693533816750831 -0.00057360936755222692 0 0.0067875192634774132 0.00067521255588922139 0 0.0067332385262306779 0.00076511942220208902 0 0.0094304210716845468 -0.00064188003374643355 0 0.0095693533816750831 -0.00057360936755222692 0 0.0092299374706691709 -0.00042198845216959532 0 0.0097536126606815373 -0.00086889027685740905 0 0.0096677838649721782 -0.00085549592151419542 0 0.0095383596918098678 -0.00092076053285323795 0 0.0097536126606815373 -0.00086889027685740905 0 0.009750946488173597 -0.00083192165292140152 0 0.0096677838649721782 -0.00085549592151419542 0 0.0067332385262306779 0.00076511942220208902 0 0.0084759444282688032 -0.00016642248552801433 0 0.0044427733604174707 0.0017948262598090504 0 0.0050840817447672495 0.0010238783131788858 0 0.0054334832445714163 0.0016897746309961431 0 0.0098642133589061133 -0.00081749045367534418 0 0.0084759444282688032 -0.00016642248552801433 0 0.0097945245011318346 -0.00077424107261723802 0 0.0097745327046521568 -0.00076630208666615381 0 0.0097746376131933235 -0.00074208162598136322 0 0.0097945245011318346 -0.00077424107261723802 0 0.0097773256108752409 -0.00077640218431082272 0 0.0097746376131933235 -0.00074208162598136322 0 0.0096203770709828648 -0.00077018847460565186 0 0.0095693533816750831 -0.00057360936755222692 0 0.0097746376131933235 -0.00074208162598136322 0 0.0098642133589061133 -0.00081749045367534418 0 0.0096672261109449278 -0.0007017040988961707 0 0.0097536126606815373 -0.00086889027685740905 0 0.0097746376131933235 -0.00074208162598136322 0 0.0097767291837901667 -0.00081759512488750123 0 0.009750946488173597 -0.00083192165292140152 0 0.0097767291837901667 -0.00081759512488750123 0 0.0097822911189096185 -0.00081257486336700413 0 0.0097536126606815373 -0.00086889027685740905 0 0.009750946488173597 -0.00083192165292140152 0 0.0097767291837901667 -0.00081759512488750123 0 0.0097767291837901667 -0.00081759512488750123 0 0.0097785588239584116 -0.00079723419439650678 0 0.0097822911189096185 -0.00081257486336700413 0 0.0097579615221470919 -0.00079221460155265802 0 0.0097773256108752409 -0.00077640218431082272 0 0.0097785588239584116 -0.00079723419439650678 0 0.0097746376131933235 -0.00074208162598136322 0 0.0097767291837901667 -0.00081759512488750123 0 0.0097785588239584116 -0.00079723419439650678 0 0.0097773256108752409 -0.00077640218431082272 0 0.0097746376131933235 -0.00074208162598136322 0 0.0097785588239584116 -0.00079723419439650678 0 0.0097579615221470919 -0.00079221460155265802 0 0.0097785588239584116 -0.00079723419439650678 0 0.009795383089029077 -0.00080350545575611203 0 0.0097785588239584116 -0.00079723419439650678 0 0.009795383089029077 -0.00080350545575611203 0 0.0097822911189096185 -0.00081257486336700413 0 0.0097579615221470919 -0.00079221460155265802 0 0.009703039209562378 -0.00082132111177381608 0 0.009795383089029077 -0.00080350545575611203 0 0.009703039209562378 -0.00082132111177381608 0 0.009585996045577843 -0.0009463075331969347 0 0.0098650974571500138 -0.00085714196411903793 0 0.009585996045577843 -0.0009463075331969347 0 0.0098650974571500138 -0.00085714196411903793 0 0.0099031872611701453 -0.0012424782260073662 0 0.009703039209562378 -0.00082132111177381608 0 0.009795383089029077 -0.00080350545575611203 0 0.0098650974571500138 -0.00085714196411903793 0 0.0098762011728247539 -0.00084053589179507008 0 0.010122468052995897 -0.00088479004140749461 0 0.0098650974571500138 -0.00085714196411903793 0 0.010421587137822036 -0.0009647963148135155 0 0.010227345661728809 -0.0012103161676600383 0 0.0098650974571500138 -0.00085714196411903793 0 0.0097859873652754985 -0.00080389717019867355 0 0.0097705518479968972 -0.00072992332670603348 0 0.009795383089029077 -0.00080350545575611203 0 0.0098650974571500138 -0.00085714196411903793 0 0.0097859873652754985 -0.00080389717019867355 0 0.009795383089029077 -0.00080350545575611203 0 0.0097859873652754985 -0.00080389717019867355 0 0.0097822911189096185 -0.00081257486336700413 0 0.009750946488173597 -0.00083192165292140152 0 0.0097859873652754985 -0.00080389717019867355 0 0.0097822911189096185 -0.00081257486336700413 0 0.009750946488173597 -0.00083192165292140152 0 0.0097859873652754985 -0.00080389717019867355 0 0.0096853819412705874 -0.00080547499957316548 0 0.009750946488173597 -0.00083192165292140152 0 0.0096677838649721782 -0.00085549592151419542 0 0.0096853819412705874 -0.00080547499957316548 0 0.0096853819412705874 -0.00080547499957316548 0 0.0096206261668899447 -0.00074435263349519303 0 0.0097066226384128138 -0.00075006535086267589 0 0.0097859873652754985 -0.00080389717019867355 0 0.0096853819412705874 -0.00080547499957316548 0 0.0097066226384128138 -0.00075006535086267589 0 0.0095757147216821419 -0.00081838662830087568 0 0.0094655572765629317 -0.00069673197377516827 0 0.0094338782240720818 -0.00086911954739652493 0 0.0095383596918098678 -0.00092076053285323795 0 0.0095757147216821419 -0.00081838662830087568 0 0.0094338782240720818 -0.00086911954739652493 0 0.0096677838649721782 -0.00085549592151419542 0 0.0096853819412705874 -0.00080547499957316548 0 0.0095757147216821419 -0.00081838662830087568 0 0.0096677838649721782 -0.00085549592151419542 0 0.0095383596918098678 -0.00092076053285323795 0 0.0095757147216821419 -0.00081838662830087568 0 0.0096853819412705874 -0.00080547499957316548 0 0.0095757147216821419 -0.00081838662830087568 0 0.0096206261668899447 -0.00074435263349519303 0 0.0095757147216821419 -0.00081838662830087568 0 0.0096206261668899447 -0.00074435263349519303 0 0.0094655572765629317 -0.00069673197377516827 0 0.0096206261668899447 -0.00074435263349519303 0 0.0096516219733927423 -0.00065626413221263498 0 0.0094655572765629317 -0.00069673197377516827 0 0.0088316229735819155 -0.0018306237124177129 0 0.0082712565504960475 -0.0017168732590876797 0 0.0072957393243314878 -0.0027298341032503354 0 0.0098302494362269687 -0.0018287719357688937 0 0.008630968210915935 -0.0016339608751813565 0 0.0080289658773361576 -0.0045147285457569856 0 0.0065212017643347473 -0.0038400952083904407 0 0.0082712565504960475 -0.0017168732590876797 0 0.0072957393243314878 -0.0027298341032503354 0 0.0070199242336788578 -0.0025140140425406908 0 0.0096516219733927423 -0.00065626413221263498 0 0.0097066226384128138 -0.00075006535086267589 0 0.0097705518479968972 -0.00072992332670603348 0 0.0098302494362269687 -0.0018287719357688937 0 0.010122468052995897 -0.00088479004140749461 0 0.010960015567670973 -0.0010716017933416165 0 0.010421587137822036 -0.0009647963148135155 0 0.010227345661728809 -0.0012103161676600383 0 0.0097859873652754985 -0.00080389717019867355 0 0.0097066226384128138 -0.00075006535086267589 0 0.0097705518479968972 -0.00072992332670603348 0 0.0096206261668899447 -0.00074435263349519303 0 0.0096516219733927423 -0.00065626413221263498 0 0.0097066226384128138 -0.00075006535086267589 0 0.010232749625971548 -0.0016646108933238107 0 0.010175334218777747 -0.0016673018831330959 0 0.01008261953815901 -0.0016277276851014945 0 0.0098302494362269687 -0.0018287719357688937 0 0.010435756410638077 -0.0014219408058975412 0 0.010232749625971548 -0.0016646108933238107 0 0.010239823004403441 -0.0016772667354598466 0 0.010175334218777747 -0.0016673018831330959 0 0.0067550748456527195 -0.0093604610954398405 0 0.0068054206643007138 -0.011034511141560696 0 0.0052218479628796579 -0.010463135241392965 0 0.010960015567670973 -0.0010716017933416165 0 0.010227345661728809 -0.0012103161676600383 0 0.01008261953815901 -0.0016277276851014945 0 0.0080289658773361576 -0.0045147285457569856 0 0.0077788750602487706 -0.0057527016515672097 0 0.0098302494362269687 -0.0018287719357688937 0 0.0080289658773361576 -0.0045147285457569856 0 0.0068054206643007138 -0.011034511141560696 0 0.0056477995815388347 -0.011275667170802153 0 0.0052218479628796579 -0.010463135241392965 0 0.0038454191113738386 -0.011459339870598207 0 0.0052218479628796579 -0.010463135241392965 0 0.0048945008193222892 -0.011215628409540978 0 0.0071908690963929205 -0.0097949154861090883 0 0.0077788750602487706 -0.0057527016515672097 0 0.0096712274139014141 -0.0021937165514841449 0 0.010175334218777747 -0.0016673018831330959 0 0.01008261953815901 -0.0016277276851014945 0 0.0056477995815388347 -0.011275667170802153 0 0.0052218479628796579 -0.010463135241392965 0 0.0048945008193222892 -0.011215628409540978 0 0.0096712274139014141 -0.0021937165514841449 0 0.0098288005874505799 -0.0016730345307671176 0 0.0096587638010517864 -0.0015847709781448374 0 0.0096712274139014141 -0.0021937165514841449 0 0.0098288005874505799 -0.0016730345307671176 0 0.01008261953815901 -0.0016277276851014945 0 0.0096712274139014141 -0.0021937165514841449 0 0.0093113884585333522 -0.0018714919919549102 0 0.0096587638010517864 -0.0015847709781448374 0 0.0098288005874505799 -0.0016730345307671176 0 0.0096587638010517864 -0.0015847709781448374 0 0.0099031872611701453 -0.0012424782260073662 0 0.009585996045577843 -0.0009463075331969347 0 0.0096587638010517864 -0.0015847709781448374 0 0.0099031872611701453 -0.0012424782260073662 0 0.0098650974571500138 -0.00085714196411903793 0 0.0099031872611701453 -0.0012424782260073662 0 0.010227345661728809 -0.0012103161676600383 0 0.0098288005874505799 -0.0016730345307671176 0 0.0099031872611701453 -0.0012424782260073662 0 0.01008261953815901 -0.0016277276851014945 0 0.0099031872611701453 -0.0012424782260073662 0 0.010227345661728809 -0.0012103161676600383 0 0.01008261953815901 -0.0016277276851014945 0 0.0016087843406252498 -0.0047652261532653804 0 0.0020730812126893128 -0.0052807087742074155 0 0.001974437721703865 -0.0043866908291434878 0 0.001843848653280941 -0.010880384060733451 0 0.00228827917447509 -0.010977184387107127 0 0.0022034583425588855 -0.011278208759302822 0 0.0012831746234868648 -0.0079325606133873721 0 0.0017885726941263792 -0.0071687948523850584 0 0.0014420716304972445 -0.0052035011832215977 0 0.0016087843406252498 -0.0047652261532653804 0 0.0012034007142417795 -0.0046262052162390366 0 0.001404275898934768 -0.0045761496943599114 0 0.0017885726941263792 -0.0071687948523850584 0 0.0014420716304972445 -0.0052035011832215977 0 0.0016087843406252498 -0.0047652261532653804 0 0.0021679744027839451 -0.0053693407237510949 0 0.0022962905481923993 -0.0053284789222487845 0 0.0020730812126893128 -0.0052807087742074155 0 0.001974437721703865 -0.0043866908291434878 0 -0.00078514591866265778 -0.0057385613733536307 0 -0.00053268800662058572 -0.0027721468697306231 0 -0.00078514591866265778 -0.0057385613733536307 0 0.0017885726941263792 -0.0071687948523850584 0 0.0017885726941263792 -0.0071687948523850584 0 -4.858375504628305e-05 -0.0092092284678093102 0 0.00025983255765789587 -0.0073224431022404137 0 -9.5430620263798507e-05 -0.0072464723429388122 0 0.00045628002145835629 -0.0078570053949219617 0 0.00228827917447509 -0.010977184387107127 0 0.0022034583425588855 -0.011278208759302822 0 0.0025420008564729928 -0.011262155329467628 0 -0.00078514591866265778 -0.0057385613733536307 0 -4.858375504628305e-05 -0.0092092284678093102 0 0.0023686960870183934 -0.011700546824928571 0 0.0022034583425588855 -0.011278208759302822 0 0.0025420008564729928 -0.011262155329467628 0 0.0019769535962884579 -0.011571875057150105 0 0.001843848653280941 -0.010880384060733451 0 0.0022034583425588855 -0.011278208759302822 0 0.0023686960870183934 -0.011700546824928571 0 0.0019769535962884579 -0.011571875057150105 0 0.0022034583425588855 -0.011278208759302822 0 0.0013626474359644274 -0.011682076756085914 0 0.0019769535962884579 -0.011571875057150105 0 0.001843848653280941 -0.010880384060733451 0 0.0013626474359644274 -0.011682076756085914 0 0.001843848653280941 -0.010880384060733451 0 0.0013941882920021121 -0.010776848625088877 0 0.0051867541817066107 -0.011853927927283753 0 0.0041838457920279695 -0.0081667823684090368 0 0.0085511326519828196 -0.011704322886344968 0 0.0068054206643007138 -0.011034511141560696 0 0.008579250392041474 -0.009711463171271471 0 0.0080289658773361576 -0.0045147285457569856 0 0.0041838457920279695 -0.0081667823684090368 0 0.0067550748456527195 -0.0093604610954398405 0 0.0068054206643007138 -0.011034511141560696 0 0.008579250392041474 -0.009711463171271471 0 0.0012831746234868648 -0.0079325606133873721 0 0.0041838457920279695 -0.0081667823684090368 0 0.0014420716304972445 -0.0052035011832215977 0 0.00076976308873996267 -0.0050655779769891301 0 0.0012034007142417795 -0.0046262052162390366 0 0.0041838457920279695 -0.0081667823684090368 0 0.0040368487683463353 -0.0031459258622640127 0 0.00076976308873996267 -0.0050655779769891301 0 0.0012034007142417795 -0.0046262052162390366 0 0.00080093214483675269 -0.0039487823227779776 0 0.0012034007142417795 -0.0046262052162390366 0 0.00080093214483675269 -0.0039487823227779776 0 0.0013948933478689929 -0.0041572167690961948 0 0.0063453478328002284 -0.0049685841101665554 0 0.0054147459269989458 -0.0048085497890612968 0 0.0058617018274548941 -0.0052805880796058836 0 0.0054147459269989458 -0.0048085497890612968 0 0.0058617018274548941 -0.0052805880796058836 0 0.0053882501168988238 -0.0055758857224897426 0 0.0072957393243314878 -0.0027298341032503354 0 0.0070199242336788578 -0.0025140140425406908 0 0.0057527918671067711 -0.0033098790885625947 0 0.0065212017643347473 -0.0038400952083904407 0 0.0040368487683463353 -0.0031459258622640127 0 0.0095263339212647846 -0.00097185931061274239 0 0.0094338782240720818 -0.00086911954739652493 0 0.0091981562162225701 -0.00087931405721201135 0 0.008630968210915935 -0.0016339608751813565 0 0.0051111805766381191 -0.0013480535031644635 0 0.0094655572765629317 -0.00069673197377516827 0 0.0094338782240720818 -0.00086911954739652493 0 0.0092059439774648272 -0.00079688795107163803 0 0.0072957393243314878 -0.0027298341032503354 0 0.0057527918671067711 -0.0033098790885625947 0 0.0057394720749727804 -0.0036264135552855235 0 0.0094338782240720818 -0.00086911954739652493 0 0.0092059439774648272 -0.00079688795107163803 0 0.0091981562162225701 -0.00087931405721201135 0 0.00080093214483675269 -0.0039487823227779776 0 0.0016041659966204535 -0.0033825806043070016 0 0.0013948933478689929 -0.0041572167690961948 0 0.0040368487683463353 -0.0031459258622640127 0 -0.00033731891034244067 -0.00092568963098810339 0 0.0025374477012275374 -0.0010821480847128082 0 0.0030147213165091931 -0.00056944999340390566 0 0.00354725919522497 -0.00037866613854225124 0 0.0025374477012275374 -0.0010821480847128082 0 0.0025441531580459235 -0.00087479391589846732 0 0.0030147213165091931 -0.00056944999340390566 0 0.0040368487683463353 -0.0031459258622640127 0 0.0051111805766381191 -0.0013480535031644635 0 0.0053798782193988258 -0.00044926759445069488 0 0.003619847959236166 -0.00012585775092291131 0 0.0051111805766381191 -0.0013480535031644635 0 0.0053798782193988258 -0.00044926759445069488 0 0.0026366863676916324 -0.00080909588055310528 0 0.002652445195166634 -0.00052838933279255608 0 0.0028890080175664051 -0.00061273104674814326 0 0.0026366863676916324 -0.00080909588055310528 0 0.0028890080175664051 -0.00061273104674814326 0 0.0030147213165091931 -0.00056944999340390566 0 0.0051111805766381191 -0.0013480535031644635 0 0.0030902827952092524 -0.0013198563800980389 0 0.0029020872575951165 -0.00035849992573104523 0 0.0028890080175664051 -0.00061273104674814326 0 0.0030147213165091931 -0.00056944999340390566 0 0.0029020872575951165 -0.00035849992573104523 0 0.0030147213165091931 -0.00056944999340390566 0 0.0031132316307663629 -0.00011147222189705869 0 0.0025554296859334959 -0.00050438916114453473 0 0.0029020872575951165 -0.00035849992573104523 0 0.0028890080175664051 -0.00061273104674814326 0 -0.0034458525587868047 -0.00023325318685421903 0 -0.0029909481422406609 -0.0014733988917064781 0 -0.0025576179019566095 -0.00049300727555084977 0 0.0030147213165091931 -0.00056944999340390566 0 0.00354725919522497 -0.00037866613854225124 0 0.0031132316307663629 -0.00011147222189705869 0 -0.00033731891034244067 -0.00092568963098810339 0 -0.00053268800662058572 -0.0027721468697306231 0 0.0016041659966204535 -0.0033825806043070016 0 0.0013948933478689929 -0.0041572167690961948 0 0.001974437721703865 -0.0043866908291434878 0 0.0016087843406252498 -0.0047652261532653804 0 0.0013948933478689929 -0.0041572167690961948 0 0.001974437721703865 -0.0043866908291434878 0 0.0016087843406252498 -0.0047652261532653804 0 0.0012034007142417795 -0.0046262052162390366 0 0.0013948933478689929 -0.0041572167690961948 0 -0.0025341054115460213 -0.0026929984611221108 0 -0.0029909481422406609 -0.0014733988917064781 0 -0.0022097289415759246 -0.0014040096031846634 0 -0.0029909481422406609 -0.0014733988917064781 0 -0.0022097289415759246 -0.0014040096031846634 0 -0.0025576179019566095 -0.00049300727555084977 0 -0.0018948809260328965 -0.00064607753234181928 0 -0.0022097289415759246 -0.0014040096031846634 0 -0.0025576179019566095 -0.00049300727555084977 0 -0.0018948809260328965 -0.00064607753234181928 0 -0.0025576179019566095 -0.00049300727555084977 0 -0.0022026828732885015 0.00018239864235796718 0 -0.0022729416765662406 0.00050176065048100919 0 -0.0027367221422189844 0.00024748251664650649 0 -0.0029131781023183393 0.0010436685161691356 0 -0.0025576179019566095 -0.00049300727555084977 0 -0.0022026828732885015 0.00018239864235796718 0 -0.0027367221422189844 0.00024748251664650649 0 -0.0034458525587868047 -0.00023325318685421903 0 -0.0025576179019566095 -0.00049300727555084977 0 -0.0027367221422189844 0.00024748251664650649 0 -0.0022026828732885015 0.00018239864235796718 0 -0.0022729416765662406 0.00050176065048100919 0 -0.0027367221422189844 0.00024748251664650649 0 -0.0050386655443375216 1.8066194676538236e-05 0 -0.0065118253013919172 0.00075364199008328076 0 -0.00033731891034244067 -0.00092568963098810339 0 -0.00059553407052675056 0.0010256123001784016 0 -0.0032910645403314786 -0.00012866082196987279 0 -0.0027367221422189844 0.00024748251664650649 0 -0.0036726867111342787 0.0008890988593944773 0 -0.00033731891034244067 -0.00092568963098810339 0 -0.0032086799721430257 -0.00033521703161567098 0 0.00354725919522497 -0.00037866613854225124 0 0.0031132316307663629 -0.00011147222189705869 0 0.0030899107631574387 0.00085056798399226212 0 -0.0027367221422189844 0.00024748251664650649 0 -0.0029131781023183393 0.0010436685161691356 0 -0.0036726867111342787 0.0008890988593944773 0 -0.0029131781023183393 0.0010436685161691356 0 -0.0036726867111342787 0.0008890988593944773 0 -0.0040462970121396139 0.0019328283310113934 0 -0.0065118253013919172 0.00075364199008328076 0 -0.010457613469836334 0.0023383185742747851 0 -0.0022729416765662406 0.00050176065048100919 0 -0.0029131781023183393 0.0010436685161691356 0 -0.002673651262003157 0.0018288981022306691 0 -0.010219890187368687 0.0022683606662162394 0 -0.010600764829965805 0.0015037824909888732 0 -0.010756950065452671 0.0026652616997345723 0 -0.0089420264964845432 0.00035074870475486326 0 -0.0096490770911379087 0.0019497849885421635 0 -0.009406189142113516 0.0018276347895557091 0 -0.0065118253013919172 0.00075364199008328076 0 -0.0060360575873250515 0.0018100229349836999 0 0.0084759444282688032 -0.00016642248552801433 0 0.0053798782193988258 -0.00044926759445069488 0 0.0061488225678706784 0.00062564195194790171 0 0.0061768741419023082 0.0016995291756106187 0 0.0054334832445714163 0.0016897746309961431 0 0.0050840817447672495 0.0010238783131788858 0 0.0061488225678706784 0.00062564195194790171 0 0.0054334832445714163 0.0016897746309961431 0 0.0084759444282688032 -0.00016642248552801433 0 0.0094893669174070956 -0.001074287978617653 0 0.0031132316307663629 -0.00011147222189705869 0 0.0028454562062790378 0.00013331066692984068 0 0.0030899107631574387 0.00085056798399226212 0 0.0053798782193988258 -0.00044926759445069488 0 0.0044235939476473122 0.0013380970281705565 0 0.0025554296859334959 -0.00050438916114453473 0 0.0028454562062790378 0.00013331066692984068 0 0.0025642187686891003 0.00078635128896681512 0 0.0025554296859334959 -0.00050438916114453473 0 0.0029020872575951165 -0.00035849992573104523 0 0.0028454562062790378 0.00013331066692984068 0 0.0029020872575951165 -0.00035849992573104523 0 0.0031132316307663629 -0.00011147222189705869 0 0.0028454562062790378 0.00013331066692984068 0 0.0044235939476473122 0.0013380970281705565 0 0.0027337096913945965 0.0024983645356731815 0 0.0030899107631574387 0.00085056798399226212 0 0.0025642187686891003 0.00078635128896681512 0 0.0026012588775531295 0.0021220175230430558 0 0.0028454562062790378 0.00013331066692984068 0 0.0030899107631574387 0.00085056798399226212 0 0.0025642187686891003 0.00078635128896681512 0 0.0061768741419023082 0.0016995291756106187 0 0.0054334832445714163 0.0016897746309961431 0 0.0052371891077867948 0.0024307203267502709 0 0.0052371891077867948 0.0024307203267502709 0 0.0061954812915121357 0.002774359770873939 0 0.0053779372770614287 0.0031348745959944068 0 0.0061768741419023082 0.0016995291756106187 0 0.0052371891077867948 0.0024307203267502709 0 0.0061954812915121357 0.002774359770873939 0 -0.00059553407052675056 0.0010256123001784016 0 0.0027337096913945965 0.0024983645356731815 0 0.0027337096913945965 0.0024983645356731815 0 0.0059334344700356931 0.0036901649563038583 0 -0.0040462970121396139 0.0019328283310113934 0 -0.0035454106405808806 0.0025574261012641939 0 -0.0039992386242414133 0.0032335691781250034 0 0.0027337096913945965 0.0024983645356731815 0 0.00069692813002692226 0.0036929208707161946 0 0.0058458121360078679 0.0031357192259749184 0 0.0056314968619345668 0.0038553661382233584 0 0.0059549535713281435 0.0041401813914875296 0 0.0061954812915121357 0.002774359770873939 0 0.0058297346999047926 0.0036823849248694934 0 0.0053779372770614287 0.0031348745959944068 0 0.0058297346999047926 0.0036823849248694934 0 0.0053779372770614287 0.0031348745959944068 0 0.0051736632172642381 0.0037747929202417729 0 -0.010582432065150808 0.0029740509158043861 0 -0.010756950065452671 0.0026652616997345723 0 -0.010634256718011284 0.0032747011274592832 0 -0.010401731576699462 0.002944527357378541 0 -0.010582432065150808 0.0029740509158043861 0 -0.010502419355072453 0.0031893015785386812 0 -0.010401731576699462 0.002944527357378541 0 -0.010582432065150808 0.0029740509158043861 0 -0.010541111606825429 0.0027746558304066072 0 -0.010401731576699462 0.002944527357378541 0 -0.010393542288018441 0.0026108595291802223 0 -0.010541111606825429 0.0027746558304066072 0 -0.010582432065150808 0.0029740509158043861 0 -0.010541111606825429 0.0027746558304066072 0 -0.010756950065452671 0.0026652616997345723 0 -0.010393542288018441 0.0026108595291802223 0 -0.010541111606825429 0.0027746558304066072 0 -0.010756950065452671 0.0026652616997345723 0 -0.010219890187368687 0.0022683606662162394 0 -0.010393542288018441 0.0026108595291802223 0 -0.010756950065452671 0.0026652616997345723 0 -0.0040462970121396139 0.0019328283310113934 0 -0.002673651262003157 0.0018288981022306691 0 -0.0035454106405808806 0.0025574261012641939 0 -0.0029131781023183393 0.0010436685161691356 0 -0.0040462970121396139 0.0019328283310113934 0 -0.002673651262003157 0.0018288981022306691 0 -0.0060360575873250515 0.0018100229349836999 0 -0.0066196555180286264 0.003337820112396141 0 -0.002673651262003157 0.0018288981022306691 0 -0.0035454106405808806 0.0025574261012641939 0 -0.0030677958949643382 0.0031634218769997185 0 -0.0096490770911379087 0.0019497849885421635 0 -0.009406189142113516 0.0018276347895557091 0 -0.0098501208786126431 0.003265769051374671 0 -0.010636129681161963 0.0035887245298632875 0 -0.010528260471684517 0.0037723207285731727 0 -0.010834744802245612 0.0037617967737207858 0 -0.010457613469836334 0.0023383185742747851 0 -0.01029026800783174 0.0034637210401211914 0 -0.0096490770911379087 0.0019497849885421635 0 -0.0098501208786126431 0.003265769051374671 0 -0.010305839072336731 0.003497305415548956 0 -0.010634256718011284 0.0032747011274592832 0 -0.010636129681161963 0.0035887245298632875 0 -0.010834744802245612 0.0037617967737207858 0 -0.010756950065452671 0.0026652616997345723 0 -0.010634256718011284 0.0032747011274592832 0 -0.010834744802245612 0.0037617967737207858 0 -0.010401731576699462 0.002944527357378541 0 -0.01031832914152557 0.0032742888441136798 0 -0.010502419355072453 0.0031893015785386812 0 -0.010582432065150808 0.0029740509158043861 0 -0.010502419355072453 0.0031893015785386812 0 -0.010634256718011284 0.0032747011274592832 0 -0.010502419355072453 0.0031893015785386812 0 -0.010634256718011284 0.0032747011274592832 0 -0.010496063407527951 0.0034639313050247446 0 -0.01031832914152557 0.0032742888441136798 0 -0.010502419355072453 0.0031893015785386812 0 -0.010496063407527951 0.0034639313050247446 0 -0.010243009595345104 0.0035821141953492589 0 -0.010496063407527951 0.0034639313050247446 0 -0.010528260471684517 0.0037723207285731727 0 -0.010634256718011284 0.0032747011274592832 0 -0.010496063407527951 0.0034639313050247446 0 -0.010636129681161963 0.0035887245298632875 0 -0.010496063407527951 0.0034639313050247446 0 -0.010636129681161963 0.0035887245298632875 0 -0.010528260471684517 0.0037723207285731727 0 -0.01029026800783174 0.0034637210401211914 0 -0.01056246250072233 0.0046424307479294383 0 -0.010243009595345104 0.0035821141953492589 0 -0.010528260471684517 0.0037723207285731727 0 -0.010278391526319574 0.003962090904322136 0 -0.010528260471684517 0.0037723207285731727 0 -0.010618407215593833 0.0041027346244882435 0 -0.010278391526319574 0.003962090904322136 0 -0.010618407215593833 0.0041027346244882435 0 -0.010834744802245612 0.0037617967737207858 0 -0.010828356311028615 0.0047428926102993652 0 -0.010618407215593833 0.0041027346244882435 0 -0.010299737863323897 0.0043980917909030763 0 -0.010278391526319574 0.003962090904322136 0 -0.010618407215593833 0.0041027346244882435 0 -0.010299737863323897 0.0043980917909030763 0 -0.010591462437797841 0.0044330380274398909 0 -0.010528260471684517 0.0037723207285731727 0 -0.010618407215593833 0.0041027346244882435 0 -0.010834744802245612 0.0037617967737207858 0 -0.0098501208786126431 0.003265769051374671 0 -0.010305839072336731 0.003497305415548956 0 -0.010287954542423728 0.004560774576229827 0 -0.0030677958949643382 0.0031634218769997185 0 -0.0039992386242414133 0.0032335691781250034 0 -0.0034746552499136966 0.0045107738617606082 0 -0.0035454106405808806 0.0025574261012641939 0 -0.0030677958949643382 0.0031634218769997185 0 -0.0039992386242414133 0.0032335691781250034 0 -0.010305839072336731 0.003497305415548956 0 -0.010287954542423728 0.004560774576229827 0 -0.010855270380989043 0.0048510763265458955 0 -0.0066196555180286264 0.003337820112396141 0 -0.0077804291822063075 0.0047034044382041063 0 -0.010618407215593833 0.0041027346244882435 0 -0.010828356311028615 0.0047428926102993652 0 -0.010591462437797841 0.0044330380274398909 0 -0.010828356311028615 0.0047428926102993652 0 -0.010491203534508789 0.0047061367461226781 0 -0.010525391105020064 0.0050658026087497879 0 -0.010491203534508789 0.0047061367461226781 0 -0.010525391105020064 0.0050658026087497879 0 -0.010201604309057845 0.0048640493377002441 0 -0.010491203534508789 0.0047061367461226781 0 -0.010299737863323897 0.0043980917909030763 0 -0.010201604309057845 0.0048640493377002441 0 -0.010491203534508789 0.0047061367461226781 0 -0.010299737863323897 0.0043980917909030763 0 -0.010591462437797841 0.0044330380274398909 0 -0.010828356311028615 0.0047428926102993652 0 -0.010491203534508789 0.0047061367461226781 0 -0.010591462437797841 0.0044330380274398909 0 0.0058297346999047926 0.0036823849248694934 0 0.0051736632172642381 0.0037747929202417729 0 0.0053986366639732193 0.0045839332845508691 0 0.0056314968619345668 0.0038553661382233584 0 0.0059549535713281435 0.0041401813914875296 0 0.0053986366639732193 0.0045839332845508691 0 0.0059334344700356931 0.0036901649563038583 0 0.0053966434486197321 0.0045532687869758231 0 0.0059549535713281435 0.0041401813914875296 0 0.0053986366639732193 0.0045839332845508691 0 0.0060394210216458194 0.0052202931891900577 0 0.00069692813002692226 0.0036929208707161946 0 0.0015809542967011648 0.0048765236347541431 0 -0.0039992386242414133 0.0032335691781250034 0 -0.0039430206843779105 0.0045455039979597949 0 -0.0034746552499136966 0.0045107738617606082 0 0.0051665145348990232 0.0057880975352570911 0 0.0060394210216458194 0.0052202931891900577 0 0.0058244914767940983 0.006449112460757714 0 0.0053986366639732193 0.0045839332845508691 0 0.0051665145348990232 0.0057880975352570911 0 0.0060394210216458194 0.0052202931891900577 0 -0.0039430206843779105 0.0045455039979597949 0 -0.0038786920087739364 0.0058512878622778309 0 -0.0034746552499136966 0.0045107738617606082 0 0.0015809542967011648 0.0048765236347541431 0 -0.0031472712066106705 0.0062244851384091601 0 -0.0031472712066106705 0.0062244851384091601 0 -0.0077804291822063075 0.0047034044382041063 0 0.0060394210216458194 0.0052202931891900577 0 0.006062196525202377 0.0063999535286718267 0 0.0058244914767940983 0.006449112460757714 0 -0.011131166455772189 0.0058490544099817458 0 -0.011139506584180678 0.0057727383207195389 0 -0.010734728731920716 0.0055207110874747611 0 -0.0032396658046429543 0.0061393780386633512 0 -0.0031472712066106705 0.0062244851384091601 0 0.0060552430928510247 0.0065131758061016667 0 0.006062196525202377 0.0063999535286718267 0 0.0058244914767940983 0.006449112460757714 0 0.0057487828977340798 0.0065668517991119288 0 0.0058244914767940983 0.006449112460757714 0 0.0058177898733564257 0.0065647269375919467 0 -0.0032396658046429543 0.0061393780386633512 0 0.0034964311079966159 0.0073468495337276627 0 0.0051665145348990232 0.0057880975352570911 0 0.0058244914767940983 0.006449112460757714 0 0.0058177898733564257 0.0065647269375919467 0 0.0056816886165490504 0.0063711418617093656 0 0.0058077274300985023 0.0065468155108773301 0 0.00618630763629004 0.006945837223543307 0 0.0058177898733564257 0.0065647269375919467 0 0.0062344379821598636 0.0065935986548923461 0 -0.010525391105020064 0.0050658026087497879 0 -0.010734728731920716 0.0055207110874747611 0 -0.010468331652061656 0.0054983169249406818 0 -0.010525391105020064 0.0050658026087497879 0 -0.010468331652061656 0.0054983169249406818 0 -0.010189981676611325 0.0053038252398020184 0 -0.010525391105020064 0.0050658026087497879 0 -0.010201604309057845 0.0048640493377002441 0 -0.010189981676611325 0.0053038252398020184 0 -0.010828356311028615 0.0047428926102993652 0 -0.010525391105020064 0.0050658026087497879 0 -0.010734728731920716 0.0055207110874747611 0 -0.01056246250072233 0.0046424307479294383 0 -0.010717969764545254 0.0054439740327849673 0 -0.010287954542423728 0.004560774576229827 0 -0.010855270380989043 0.0048510763265458955 0 -0.010734728731920716 0.0055207110874747611 0 -0.010734728731920716 0.0055207110874747611 0 -0.010468331652061656 0.0054983169249406818 0 -0.010576997266544007 0.0060034433601938685 0 -0.011139506584180678 0.0057727383207195389 0 -0.010855270380989043 0.0048510763265458955 0 -0.010734728731920716 0.0055207110874747611 0 -0.011131166455772189 0.0058490544099817458 0 -0.010734728731920716 0.0055207110874747611 0 -0.010576997266544007 0.0060034433601938685 0 -0.010468331652061656 0.0054983169249406818 0 -0.010228725565517268 0.0057558028693216667 0 -0.010576997266544007 0.0060034433601938685 0 -0.010468331652061656 0.0054983169249406818 0 -0.010228725565517268 0.0057558028693216667 0 -0.010189981676611325 0.0053038252398020184 0 -0.010228725565517268 0.0057558028693216667 0 -0.010576997266544007 0.0060034433601938685 0 -0.0099622291431509264 0.0062313960376278463 0 -0.0098089502338657344 0.0066714710842887765 0 -0.0097812337952395342 0.0064604734969139445 0 -0.0095347492230180523 0.0064765017205511404 0 -0.011646690777447039 0.005997131525424808 0 -0.0094157608716935303 0.0064229863991237023 0 -0.0098089502338657344 0.0066714710842887765 0 -0.0096104771283313205 0.0067515994219651326 0 -0.0095347492230180523 0.0064765017205511404 0 -0.0098089502338657344 0.0066714710842887765 0 -0.010005323276653828 0.0066468369790041145 0 -0.010047397762455688 0.006961751316353495 0 -0.0098089502338657344 0.0066714710842887765 0 -0.0098883594314131337 0.0065437000006650335 0 -0.010005323276653828 0.0066468369790041145 0 -0.0099497052346912696 0.0064155351270409723 0 -0.0097812337952395342 0.0064604734969139445 0 -0.0098883594314131337 0.0065437000006650335 0 -0.0032396658046429543 0.0061393780386633512 0 -0.011646690777447039 0.005997131525424808 0 -0.0098089502338657344 0.0066714710842887765 0 -0.0097812337952395342 0.0064604734969139445 0 -0.0098883594314131337 0.0065437000006650335 0 -0.0032396658046429543 0.0061393780386633512 0 0.0032103366114885476 0.0065034941405024615 0 -0.0032396658046429543 0.0061393780386633512 0 -0.0050605284957441566 0.0073699827670496371 0 4.468668616917464e-05 0.0068436307071575338 0 0.00013023366396399947 0.0078656652128802976 0 -0.00021813336525214691 0.007690668354619414 0 0.0057487828977340798 0.0065668517991119288 0 0.0058177898733564257 0.0065647269375919467 0 0.0058410840820134072 0.0063217023586322873 0 -0.0099497052346912696 0.0064155351270409723 0 -0.0098883594314131337 0.0065437000006650335 0 -0.010005323276653828 0.0066468369790041145 0 0.0058177898733564257 0.0065647269375919467 0 0.0060463388272028479 0.0063590649457141296 0 0.0062344379821598636 0.0065935986548923461 0 0.0058177898733564257 0.0065647269375919467 0 0.0060463388272028479 0.0063590649457141296 0 0.0058410840820134072 0.0063217023586322873 0 0.0072372136429201895 0.012717714358382886 0 0.0066246468366273114 0.012736090068646923 0 0.0078774756496771924 0.013593600100411562 0 0.0037703470935546977 0.0093980689048321579 0 0.0075911252003323685 0.010045971521931655 0 0.0060463388272028479 0.0063590649457141296 0 0.0058410840820134072 0.0063217023586322873 0 0.005947386642055197 0.0060063355455373252 0 0.0032103366114885476 0.0065034941405024615 0 0.0037703470935546977 0.0093980689048321579 0 0.0060463388272028479 0.0063590649457141296 0 0.005947386642055197 0.0060063355455373252 0 0.0063980671746874688 0.0063007183465814548 0 -0.00021813336525214691 0.007690668354619414 0 -6.089492236106476e-05 0.0083946816104885098 0 -0.00044715462604155606 0.0085233119608366589 0 0.00013023366396399947 0.0078656652128802976 0 -0.00021813336525214691 0.007690668354619414 0 -6.089492236106476e-05 0.0083946816104885098 0 0.00013023366396399947 0.0078656652128802976 0 -6.089492236106476e-05 0.0083946816104885098 0 0.00014072840708997681 0.0088468870505560449 0 -0.0050605284957441566 0.0073699827670496371 0 -0.0050193435157586492 0.0078129730893743855 0 -6.089492236106476e-05 0.0083946816104885098 0 2.8475733887195841e-05 0.0088787802724873671 0 -0.00044715462604155606 0.0085233119608366589 0 -0.00044699695117464324 0.0080112757489458827 0 0.0037703470935546977 0.0093980689048321579 0 -6.089492236106476e-05 0.0083946816104885098 0 2.8475733887195841e-05 0.0088787802724873671 0 0.00014072840708997681 0.0088468870505560449 0 0.0037703470935546977 0.0093980689048321579 0 0.0047855434816388492 0.010666201298600851 0 2.8475733887195841e-05 0.0088787802724873671 0 -6.547016607944304e-05 0.0088037201499050755 0 -0.00011677831505755005 0.0089133720934691605 0 0.0072372136429201895 0.012717714358382886 0 0.0066246468366273114 0.012736090068646923 0 0.0067964989021242319 0.012162557468728153 0 0.0072372136429201895 0.012717714358382886 0 0.0066953997062988791 0.012184500946218042 0 0.0072940264094334207 0.011999924530513396 0 0.0073056681919107767 0.013071655564642215 0 0.0047855434816388492 0.010666201298600851 0 0.0074223017426581373 0.012485278302791536 0 0.00654241907714716 0.01250397332154058 0 0.0075563303014512511 0.012646246544315473 0 0.0074223017426581373 0.012485278302791536 0 0.00654241907714716 0.01250397332154058 0 0.0064134574916123463 0.012385312831336719 0 0.0067210760251268271 0.012071275747212408 0 0.0057002164384746673 0.010996941585363216 0 0.0072940264094334207 0.011999924530513396 0 0.0066763478309846578 0.012202344938348991 0 0.0067210760251268271 0.012071275747212408 0 0.0057002164384746673 0.010996941585363216 0 0.0081416277909252942 0.013397640462632738 0 0.0064134574916123463 0.012385312831336719 0 0.0076913049853221446 0.012712377518278566 0 0.0030234026909577751 0.01119357289529789 0 0.0080320103813605846 0.012565902855324376 0 0.0047855434816388492 0.010666201298600851 0 0.0030234026909577751 0.01119357289529789 0 0.0077747620018492605 0.012918840552064104 0 0.0065471869392005767 0.012428078917232412 0 0.0066953997062988791 0.012184500946218042 0 0.0067210760251268271 0.012071275747212408 0 0.0072940264094334207 0.011999924530513396 0 0.0047855434816388492 0.010666201298600851 0 0.0048272387845959787 0.010778792543729016 0 0.0081416277909252942 0.013397640462632738 0 0.008480735388055936 0.013041772970954142 0 0.0076913049853221446 0.012712377518278566 0 -0.010047397762455688 0.006961751316353495 0 -0.0099286063479571991 0.0071519095798952851 0 -0.010056861991186853 0.0073022956688379888 0 2.8475733887195841e-05 0.0088787802724873671 0 0.00014072840708997681 0.0088468870505560449 0 2.0278793446950911e-05 0.0091754005702359715 0 2.8475733887195841e-05 0.0088787802724873671 0 -0.00011677831505755005 0.0089133720934691605 0 2.0278793446950911e-05 0.0091754005702359715 0 0.00014072840708997681 0.0088468870505560449 0 2.0278793446950911e-05 0.0091754005702359715 0 0.00010627576538875317 0.0092362755206340207 0 -0.0050193435157586492 0.0078129730893743855 0 -0.0039826773659489738 0.0085509882164577899 0 -0.0099286063479571991 0.0071519095798952851 0 -0.0098999467702517181 0.0072720052389825193 0 -0.010056861991186853 0.0073022956688379888 0 -0.010047397762455688 0.006961751316353495 0 -0.0099286063479571991 0.0071519095798952851 0 -0.0097949546680798274 0.006959624642119978 0 -0.0099286063479571991 0.0071519095798952851 0 -0.0097954379293313555 0.0072132686832352983 0 -0.0097949546680798274 0.006959624642119978 0 -0.0099286063479571991 0.0071519095798952851 0 -0.0097954379293313555 0.0072132686832352983 0 -0.0098999467702517181 0.0072720052389825193 0 -0.0097954379293313555 0.0072132686832352983 0 -0.0096286462268679578 0.0073476141047261771 0 -0.0095613664058201778 0.0070018812032259445 0 -0.0097954379293313555 0.0072132686832352983 0 -0.0097949546680798274 0.006959624642119978 0 -0.0095613664058201778 0.0070018812032259445 0 -0.0097949546680798274 0.006959624642119978 0 -0.0096104771283313205 0.0067515994219651326 0 -0.0095613664058201778 0.0070018812032259445 0 -0.0098089502338657344 0.0066714710842887765 0 -0.0097949546680798274 0.006959624642119978 0 -0.0096104771283313205 0.0067515994219651326 0 -0.0098089502338657344 0.0066714710842887765 0 -0.010047397762455688 0.006961751316353495 0 -0.0097949546680798274 0.006959624642119978 0 0.0097332754774979366 0.013630096964916403 0 0.0097231475351201389 0.013612501862898649 0 0.0097075778096595497 0.01360973977732779 0 0.0097332754774979366 0.013630096964916403 0 0.0097075778096595497 0.01360973977732779 0 0.0096781943677293099 0.013624267771025272 0 0.0097332754774979366 0.013630096964916403 0 0.0096996123770782764 0.013602709778085502 0 0.0097231475351201389 0.013612501862898649 0 0.0097332754774979366 0.013630096964916403 0 0.0096996123770782764 0.013602709778085502 0 0.009620469083908215 0.013541920454165425 0 0.0096996123770782764 0.013602709778085502 0 0.0097231475351201389 0.013612501862898649 0 0.0097393739631873848 0.01360763802129999 0 0.0097231475351201389 0.013612501862898649 0 0.0097393739631873848 0.01360763802129999 0 0.0097354612266586926 0.013590138706961356 0 0.0097231475351201389 0.013612501862898649 0 0.0097075778096595497 0.01360973977732779 0 0.0097354612266586926 0.013590138706961356 0 0.0097075778096595497 0.01360973977732779 0 0.0096558460814908983 0.013532058249113708 0 0.0097354612266586926 0.013590138706961356 0 0.0097075778096595497 0.01360973977732779 0 0.0096781943677293099 0.013624267771025272 0 0.0096558460814908983 0.013532058249113708 0 0.0095306152319891268 0.013471426695552723 0 0.0096781943677293099 0.013624267771025272 0 0.0096558460814908983 0.013532058249113708 0 0.0095306152319891268 0.013471426695552723 0 0.0096781943677293099 0.013624267771025272 0 0.0095908969445860272 0.013788587647079921 0 0.0074223017426581373 0.012485278302791536 0 0.0075563303014512511 0.012646246544315473 0 0.0082521328517516195 0.012619290476758659 0 0.0077747620018492605 0.012918840552064104 0 0.0088895924738141528 0.013208004174027574 0 0.0081416277909252942 0.013397640462632738 0 0.0089612094807691584 0.013359293364969049 0 0.0095908969445860272 0.013788587647079921 0 0.0081416277909252942 0.013397640462632738 0 0.008480735388055936 0.013041772970954142 0 0.0089612094807691584 0.013359293364969049 0 0.008480735388055936 0.013041772970954142 0 0.0089612094807691584 0.013359293364969049 0 0.0087686140004679773 0.012727123430733584 0 0.0095306152319891268 0.013471426695552723 0 0.0089612094807691584 0.013359293364969049 0 0.0087686140004679773 0.012727123430733584 0 0.0095306152319891268 0.013471426695552723 0 0.0089612094807691584 0.013359293364969049 0 0.0095908969445860272 0.013788587647079921 0 0.0072940264094334207 0.011999924530513396 0 0.0083822425806024097 0.012863277426315507 0 0.0078458352597409325 0.013037955364558948 0 0.0072372136429201895 0.012717714358382886 0 0.0072940264094334207 0.011999924530513396 0 0.0078458352597409325 0.013037955364558948 0 0.0080320103813605846 0.012565902855324376 0 0.0080597402389514274 0.012701657335507816 0 0.0075563303014512511 0.012646246544315473 0 0.0082521328517516195 0.012619290476758659 0 0.0083822425806024097 0.012863277426315507 0 0.0097332754774979366 0.013630096964916403 0 0.0096781943677293099 0.013624267771025272 0 0.0095908969445860272 0.013788587647079921 0 0.0093494440672169839 0.013325747148371869 0 0.0088895924738141528 0.013208004174027574 0 0.0089990718236824582 0.012988955021090137 0 0.0082521328517516195 0.012619290476758659 0 0.0083822425806024097 0.012863277426315507 0 0.0083822425806024097 0.012863277426315507 0 0.0086544661590990859 0.013508434256620586 0 0.0082000362659102287 0.013254030230033041 0 0.0089990718236824582 0.012988955021090137 0 0.0083822425806024097 0.012863277426315507 0 0.0086544661590990859 0.013508434256620586 0 0.0086544661590990859 0.013508434256620586 0 0.0082000362659102287 0.013254030230033041 0 0.0078774756496771924 0.013593600100411562 0 0.0083822425806024097 0.012863277426315507 0 0.0082000362659102287 0.013254030230033041 0 0.0078458352597409325 0.013037955364558948 0 0.0072372136429201895 0.012717714358382886 0 0.0078458352597409325 0.013037955364558948 0 0.0078774756496771924 0.013593600100411562 0 0.0082000362659102287 0.013254030230033041 0 0.0078458352597409325 0.013037955364558948 0 0.0078774756496771924 0.013593600100411562 0 0.0063980671746874688 0.0063007183465814548 0 0.0062344379821598636 0.0065935986548923461 0 0.006517874224021441 0.0068263623524920866 0 0.0060463388272028479 0.0063590649457141296 0 0.0063980671746874688 0.0063007183465814548 0 0.0062344379821598636 0.0065935986548923461 0 0.0075911252003323685 0.010045971521931655 0 0.007782586351312566 0.010282115099441462 0 0.0086544661590990859 0.013508434256620586 0 0.0078774756496771924 0.013593600100411562 0 0.0088125934485051832 0.014019037899063265 0 0.0063980671746874688 0.0063007183465814548 0 0.0068494244586405472 0.0066348560804923226 0 0.006517874224021441 0.0068263623524920866 0 0.0088125934485051832 0.014019037899063265 0 0.0091373643539475989 0.013619144513869268 0 0.0094766762993455048 0.013878458222273378 0 0.0086544661590990859 0.013508434256620586 0 0.0088125934485051832 0.014019037899063265 0 0.0091373643539475989 0.013619144513869268 0 0.0089990718236824582 0.012988955021090137 0 0.0086544661590990859 0.013508434256620586 0 0.0091373643539475989 0.013619144513869268 0 0.0089990718236824582 0.012988955021090137 0 0.0091373643539475989 0.013619144513869268 0 0.009620469083908215 0.013541920454165425 0 0.0093494440672169839 0.013325747148371869 0 0.009598449181660659 0.013503819494612037 0 0.0091373643539475989 0.013619144513869268 0 0.009620469083908215 0.013541920454165425 0 0.0094766762993455048 0.013878458222273378 0 0.0094766762993455048 0.013878458222273378 0 0.0093823008421459152 0.014210408810713417 0 0.0096827585531510923 0.014069707897433371 0 0.0088125934485051832 0.014019037899063265 0 0.0094766762993455048 0.013878458222273378 0 0.0093823008421459152 0.014210408810713417 0 0.007782586351312566 0.010282115099441462 0 0.0080026637769452912 0.010643713450505184 0 0.0068494244586405472 0.0066348560804923226 0 0.0072533799139102304 0.0069300220026439494 0 0.0068023836115825775 0.0069986615758816 0 0.0070449688477365411 0.007125723292784142 0 0.0072533799139102304 0.0069300220026439494 0 0.0068023836115825775 0.0069986615758816 0 0.0070449688477365411 0.007125723292784142 0 0.0068023836115825775 0.0069986615758816 0 0.0069306292333013858 0.0072973929054037994 0 0.0070449688477365411 0.007125723292784142 0 0.0072533799139102304 0.0069300220026439494 0 0.0072416250156707484 0.0073818444136387667 0 0.00618630763629004 0.006945837223543307 0 0.0062344379821598636 0.0065935986548923461 0 0.006517874224021441 0.0068263623524920866 0 0.0068494244586405472 0.0066348560804923226 0 0.006517874224021441 0.0068263623524920866 0 0.0068023836115825775 0.0069986615758816 0 0.006517874224021441 0.0068263623524920866 0 0.0068023836115825775 0.0069986615758816 0 0.0065340293549516161 0.007230211647062927 0 0.00618630763629004 0.006945837223543307 0 0.006517874224021441 0.0068263623524920866 0 0.0065340293549516161 0.007230211647062927 0 0.0056816886165490504 0.0063711418617093656 0 0.0055442105303803385 0.006074412241218588 0 0.0053986366639732193 0.0045839332845508691 0 0.0051665145348990232 0.0057880975352570911 0 0.0045527886209397557 0.0050025759150009895 0 0.0053986366639732193 0.0045839332845508691 0 0.0045527886209397557 0.0050025759150009895 0 0.0046874596343555366 0.0041913657548972123 0 0.0065340293549516161 0.007230211647062927 0 0.0068264914112497492 0.0074043497169830113 0 0.0069306292333013858 0.0072973929054037994 0 0.0055442105303803385 0.006074412241218588 0 0.0052060608341054785 0.006062901847548356 0 0.0068023836115825775 0.0069986615758816 0 0.0065340293549516161 0.007230211647062927 0 0.0069306292333013858 0.0072973929054037994 0 0.0045527886209397557 0.0050025759150009895 0 0.0038881736376494506 0.0041755111707179977 0 0.0046874596343555366 0.0041913657548972123 0 0.0039554004906200346 0.0033919187218622244 0 0.0038881736376494506 0.0041755111707179977 0 0.0046874596343555366 0.0041913657548972123 0 0.0051736632172642381 0.0037747929202417729 0 0.0053986366639732193 0.0045839332845508691 0 0.0046874596343555366 0.0041913657548972123 0 0.0047042961059034676 0.0033326083688521137 0 0.0051736632172642381 0.0037747929202417729 0 0.0046874596343555366 0.0041913657548972123 0 0.0072533799139102304 0.0069300220026439494 0 0.0072416250156707484 0.0073818444136387667 0 0.0077296771709775471 0.0072642074063064442 0 0.0069147706465419647 0.0072260130226653504 0 0.0091758440474329524 0.0054958643548351635 0 0.0070449688477365411 0.007125723292784142 0 0.0072416250156707484 0.0073818444136387667 0 0.0069306292333013858 0.0072973929054037994 0 0.0069147706465419647 0.0072260130226653504 0 0.0070484651017706495 0.0073012287970124195 0 0.0070772008625390641 0.0072522353288090357 0 0.0069306292333013858 0.0072973929054037994 0 0.0069855321942398985 0.0073702389710648651 0 0.0069925754981440495 0.0074854006484852765 0 0.0068264914112497492 0.0074043497169830113 0 0.0069855321942398985 0.0073702389710648651 0 0.0071273663458431844 0.0029735014075114178 0 0.0052060608341054785 0.006062901847548356 0 0.0068264914112497492 0.0074043497169830113 0 0.0069306292333013858 0.0072973929054037994 0 0.0069855321942398985 0.0073702389710648651 0 0.0069925754981440495 0.0074854006484852765 0 0.0069855321942398985 0.0073702389710648651 0 0.0071108312464101776 0.0073897810405669159 0 0.0070772008625390641 0.0072522353288090357 0 0.0069855321942398985 0.0073702389710648651 0 0.0071108312464101776 0.0073897810405669159 0 0.0086379093513999274 0.0030801345521611076 0 0.0091758440474329524 0.0054958643548351635 0 0.0070772008625390641 0.0072522353288090357 0 0.0071108312464101776 0.0073897810405669159 0 0.0072644275094081506 0.0072377010644824255 0 0.0098051840158664312 -0.0007351073393198509 0 0.009805830309148866 -0.00067578216526205446 0 0.0098030641883214559 -0.00067775122041775185 0 0.0097901979240911513 -0.00072632604075972395 0 0.0098051840158664312 -0.0007351073393198509 0 0.009805830309148866 -0.00067578216526205446 0 0.0072416250156707484 0.0073818444136387667 0 0.007577516594855436 0.0074232956483079454 0 0.0077296771709775471 0.0072642074063064442 0 0.010615268362011907 0.0064324670295140898 0 0.01061657807503987 0.0064423245694928792 0 0.01061611072682507 0.0064287986325802654 0 0.0091758440474329524 0.0054958643548351635 0 0.01126807491448192 0.0045987616130600548 0 0.010615268362011907 0.0064324670295140898 0 0.01061657807503987 0.0064423245694928792 0 0.010616945566697109 0.0064461358470145795 0 0.0091758440474329524 0.0054958643548351635 0 0.010755902444614412 0.0098442213888332089 0 0.016211461363720796 0.010596941460728617 0 0.016222221744249535 0.010613620389662459 0 0.016175295983478461 0.01059996593040493 0 0.012133676091368815 0.0089636537315304753 0 0.010755902444614412 0.0098442213888332089 0 0.010755902444614412 0.0098442213888332089 0 0.011106717506633269 0.011118554000736714 0 0.016150362500619884 0.010523570800813677 0 0.016004742672405908 0.010500922919237153 0 0.016115952980898112 0.010665228093658208 0 0.016175295983478461 0.01059996593040493 0 0.016150362500619884 0.010523570800813677 0 0.016115952980898112 0.010665228093658208 0 0.016222221744249535 0.010613620389662459 0 0.016175295983478461 0.01059996593040493 0 0.016115952980898112 0.010665228093658208 0 0.012133676091368815 0.0089636537315304753 0 0.014050601537082302 0.0065340024411554461 0 0.012700811202581834 0.007516973814214783 0 0.012184453593930542 0.0067144250968382236 0 0.011736700809398379 0.0066798759050967953 0 0.016211461363720796 0.010596941460728617 0 0.016175295983478461 0.01059996593040493 0 0.016150362500619884 0.010523570800813677 0 0.012133676091368815 0.0089636537315304753 0 0.01126807491448192 0.0045987616130600548 0 0.01126807491448192 0.0045987616130600548 0 0.014050601537082302 0.0065340024411554461 0 0.014280895278725142 0.0044210317038683843 0 0.013876328961386849 0.0043924935346229231 0 0.013253851959672219 0.002842658977273085 0 0.01126807491448192 0.0045987616130600548 0 0.011432830427546802 0.00079442671182255379 0 0.0098051840158664312 -0.0007351073393198509 0 0.0098030641883214559 -0.00067775122041775185 0 0.0098091300758121908 -0.00073228190875427267 0 0.014050601537082302 0.0065340024411554461 0 0.016484572692501989 0.004350625679372268 0 0.016016267257416689 0.0059882254340142453 0 0.017384768179057077 0.0070937771722684277 0 0.017464726159874759 0.0060765357245474456 0 0.013876328961386849 0.0043924935346229231 0 0.013253851959672219 0.002842658977273085 0 0.012102919750432982 0.0028830278908987387 0 0.026748072938430113 0.005561247541771854 0 0.025627613949295067 0.0065680516344151403 0 0.026627973030955734 0.0074545528536483037 0 0.016484572692501989 0.004350625679372268 0 0.020964022235225144 0.0082921919422618354 0 0.025627613949295067 0.0065680516344151403 0 0.024521330335184104 0.0074259315497919916 0 0.026627973030955734 0.0074545528536483037 0 0.024744409019514343 0.0053951315986295384 0 0.025627613949295067 0.0065680516344151403 0 0.023926297527066844 0.0061633590429163877 0 0.026748072938430113 0.005561247541771854 0 0.024744409019514343 0.0053951315986295384 0 0.025627613949295067 0.0065680516344151403 0 0.024521330335184104 0.0074259315497919916 0 0.023926297527066844 0.0061633590429163877 0 0.023859181104768663 0.0071630150680151352 0 0.025627613949295067 0.0065680516344151403 0 0.024521330335184104 0.0074259315497919916 0 0.023926297527066844 0.0061633590429163877 0 0.024521330335184104 0.0074259315497919916 0 0.025328317751257851 0.0086249487448803765 0 0.026433276242118785 0.0077724074446246195 0 0.026449685340445322 0.0076214379296224355 0 0.020964022235225144 0.0082921919422618354 0 0.024224811181872842 0.0083779885925650052 0 0.024521330335184104 0.0074259315497919916 0 0.025328317751257851 0.0086249487448803765 0 0.024224811181872842 0.0083779885925650052 0 0.024521330335184104 0.0074259315497919916 0 0.023859181104768663 0.0071630150680151352 0 0.024224811181872842 0.0083779885925650052 0 0.024578674147162898 0.0098362699566513553 0 0.023619589069279034 0.0094969349879656609 0 0.024224811181872842 0.0083779885925650052 0 0.025328317751257851 0.0086249487448803765 0 0.024578674147162898 0.0098362699566513553 0 0.025328317751257851 0.0086249487448803765 0 0.026433276242118785 0.0077724074446246195 0 0.026004651277197654 0.010744085973860484 0 0.014050601537082302 0.0065340024411554461 0 0.020964022235225144 0.0082921919422618354 0 0.020964022235225144 0.0082921919422618354 0 0.021266904195561466 0.010639600823354868 0 0.016004742672405908 0.010500922919237153 0 0.01596747429822172 0.010781983656109306 0 0.016115952980898112 0.010665228093658208 0 0.01596747429822172 0.010781983656109306 0 0.016113086531731356 0.010847776009200895 0 0.016115952980898112 0.010665228093658208 0 0.025328317751257851 0.0086249487448803765 0 0.026004651277197654 0.010744085973860484 0 0.024578674147162898 0.0098362699566513553 0 0.026004651277197654 0.010744085973860484 0 0.024578674147162898 0.0098362699566513553 0 0.024513300771674275 0.011508104261559602 0 0.024578674147162898 0.0098362699566513553 0 0.024513300771674275 0.011508104261559602 0 0.023756967230729596 0.010429787024537649 0 0.026004651277197654 0.010744085973860484 0 0.024513300771674275 0.011508104261559602 0 0.025535470739310409 0.013214166701928785 0 0.024513300771674275 0.011508104261559602 0 0.023734234816506144 0.013242128074745738 0 0.025535470739310409 0.013214166701928785 0 0.012473354836443309 0.012922679841070138 0 0.018394707720828862 0.013400264382066195 0 0.01596747429822172 0.010781983656109306 0 0.016113086531731356 0.010847776009200895 0 0.015964656804180809 0.011124052265716297 0 0.021266904195561466 0.010639600823354868 0 0.018394707720828862 0.013400264382066195 0 0.0099626984717600814 0.014105707779921661 0 0.0096827585531510923 0.014069707897433371 0 0.0098339369948743129 0.013785397079068853 0 0.0080026637769452912 0.010643713450505184 0 0.010755902444614412 0.0098442213888332089 0 0.0093823008421459152 0.014210408810713417 0 0.0097381617216289375 0.014338209055078752 0 0.0097023791327453448 0.014313163917959577 0 0.0093823008421459152 0.014210408810713417 0 0.0097023791327453448 0.014313163917959577 0 0.0096827585531510923 0.014069707897433371 0 0.0097023791327453448 0.014313163917959577 0 0.0099626984717600814 0.014105707779921661 0 0.0096827585531510923 0.014069707897433371 0 0.010755902444614412 0.0098442213888332089 0 0.012473354836443309 0.012922679841070138 0 0.0097310277288731976 0.014347075480475703 0 0.0097023791327453448 0.014313163917959577 0 0.0099626984717600814 0.014105707779921661 0 0.016222221744249535 0.010613620389662459 0 0.016113086531731356 0.010847776009200895 0 0.016115952980898112 0.010665228093658208 0 0.019597684043008726 0.008882164660598062 0 0.018730403652659898 0.0079428813668133442 0 0.017710980251311837 0.0089326077650527629 0 0.019597684043008726 0.008882164660598062 0 0.018891639337841316 0.010296527221802724 0 0.017710980251311837 0.0089326077650527629 0 0.018009740188392982 0.0067065652622901083 0 0.018730403652659898 0.0079428813668133442 0 0.020025493974633993 0.0073618666520416489 0 0.019597684043008726 0.008882164660598062 0 0.018730403652659898 0.0079428813668133442 0 0.020025493974633993 0.0073618666520416489 0 0.017134880293371631 0.0048901472388183358 0 0.019527254947758182 0.0065688012573443255 0 0.020025493974633993 0.0073618666520416489 0 0.020687803282518034 0.008435257556283219 0 0.02205402049465207 0.0080226350297030406 0 0.019527254947758182 0.0065688012573443255 0 0.021757595873353363 0.007394975003608922 0 0.020687803282518034 0.008435257556283219 0 0.02205402049465207 0.0080226350297030406 0 0.020798354927099284 0.0095920359840032318 0 0.019597684043008726 0.008882164660598062 0 0.020025493974633993 0.0073618666520416489 0 0.020687803282518034 0.008435257556283219 0 0.019597684043008726 0.008882164660598062 0 0.020687803282518034 0.008435257556283219 0 0.020798354927099284 0.0095920359840032318 0 0.022703397196022497 0.0089608083003783739 0 0.020726396571479209 0.0097564130282950315 0 0.02205402049465207 0.0080226350297030406 0 0.022756162528304241 0.0088955784220471797 0 0.020798354927099284 0.0095920359840032318 0 0.018956321583521965 0.0055663357342391646 0 0.021491832419873652 0.0052702088869385341 0 0.021319579223480805 0.0067390846833517747 0 0.020590086022556488 0.0039579113994785038 0 0.018956321583521965 0.0055663357342391646 0 0.021491832419873652 0.0052702088869385341 0 0.021491832419873652 0.0052702088869385341 0 0.021319579223480805 0.0067390846833517747 0 0.022764181405189637 0.0067275222100091087 0 0.021491832419873652 0.0052702088869385341 0 0.022764181405189637 0.0067275222100091087 0 0.023170148643505112 0.0051801825303819573 0 0.022764181405189637 0.0067275222100091087 0 0.023170148643505112 0.0051801825303819573 0 0.023926297527066844 0.0061633590429163877 0 0.024744409019514343 0.0053951315986295384 0 0.023170148643505112 0.0051801825303819573 0 0.023926297527066844 0.0061633590429163877 0 0.022764181405189637 0.0067275222100091087 0 0.023926297527066844 0.0061633590429163877 0 0.023859181104768663 0.0071630150680151352 0 0.024224811181872842 0.0083779885925650052 0 0.022764181405189637 0.0067275222100091087 0 0.023859181104768663 0.0071630150680151352 0 0.024224811181872842 0.0083779885925650052 0 0.02205402049465207 0.0080226350297030406 0 0.022756162528304241 0.0088955784220471797 0 0.024224811181872842 0.0083779885925650052 0 0.021319579223480805 0.0067390846833517747 0 0.022764181405189637 0.0067275222100091087 0 0.024120992883706394 0.0083089565968854622 0 0.021757595873353363 0.007394975003608922 0 0.022756162528304241 0.0088955784220471797 0 0.023619589069279034 0.0094969349879656609 0 0.022954047108933236 0.010061578627622077 0 0.024224811181872842 0.0083779885925650052 0 0.022756162528304241 0.0088955784220471797 0 0.023619589069279034 0.0094969349879656609 0 0.022954047108933236 0.010061578627622077 0 0.023756967230729596 0.010429787024537649 0 0.02301353098950398 0.011876197453213177 0 0.022954047108933236 0.010061578627622077 0 0.02301353098950398 0.011876197453213177 0 0.022229368356814178 0.010635338075576031 0 0.023619589069279034 0.0094969349879656609 0 0.022954047108933236 0.010061578627622077 0 0.023756967230729596 0.010429787024537649 0 0.024578674147162898 0.0098362699566513553 0 0.023619589069279034 0.0094969349879656609 0 0.023756967230729596 0.010429787024537649 0 0.022756162528304241 0.0088955784220471797 0 0.022954047108933236 0.010061578627622077 0 0.022229368356814178 0.010635338075576031 0 0.024513300771674275 0.011508104261559602 0 0.02301353098950398 0.011876197453213177 0 0.023734234816506144 0.013242128074745738 0 0.024513300771674275 0.011508104261559602 0 0.023756967230729596 0.010429787024537649 0 0.02301353098950398 0.011876197453213177 0 0.02301353098950398 0.011876197453213177 0 0.022229368356814178 0.010635338075576031 0 0.020919623400126985 0.01326010549080236 0 0.022756162528304241 0.0088955784220471797 0 0.022229368356814178 0.010635338075576031 0 0.020859920767207309 0.0099626576256707459 0 0.020320083488528758 0.012715624803855253 0 0.020403048775985359 0.013936739220410733 0 0.020919623400126985 0.01326010549080236 0 0.020320083488528758 0.012715624803855253 0 0.020403048775985359 0.013936739220410733 0 0.01993918861453519 0.01339011102496117 0 0.020726396571479209 0.0097564130282950315 0 0.019452547922392593 0.010768890485778969 0 0.022229368356814178 0.010635338075576031 0 0.020859920767207309 0.0099626576256707459 0 0.020919623400126985 0.01326010549080236 0 0.020859920767207309 0.0099626576256707459 0 0.018635686645024491 0.010845698687514917 0 0.020919623400126985 0.01326010549080236 0 0.019452547922392593 0.010768890485778969 0 0.020937295887179651 0.013583437031556253 0 0.019597684043008726 0.008882164660598062 0 0.020798354927099284 0.0095920359840032318 0 0.018891639337841316 0.010296527221802724 0 0.020403048775985359 0.013936739220410733 0 0.021188782833749625 0.014549389182855043 0 0.020317471861059498 0.015567234036593497 0 0.020403048775985359 0.013936739220410733 0 0.020317471861059498 0.015567234036593497 0 0.019867816332147271 0.014585859062915407 0 0.020919623400126985 0.01326010549080236 0 0.021188782833749625 0.014549389182855043 0 0.022286164465782157 0.013817218608820847 0 0.020403048775985359 0.013936739220410733 0 0.020919623400126985 0.01326010549080236 0 0.021188782833749625 0.014549389182855043 0 0.022183057522553409 0.014888685264348516 0 0.022286164465782157 0.013817218608820847 0 0.02302746001266117 0.014407275256388017 0 0.021188782833749625 0.014549389182855043 0 0.022183057522553409 0.014888685264348516 0 0.022286164465782157 0.013817218608820847 0 0.021188782833749625 0.014549389182855043 0 0.022183057522553409 0.014888685264348516 0 0.021472701344394857 0.015589011414326798 0 0.02301353098950398 0.011876197453213177 0 0.020919623400126985 0.01326010549080236 0 0.022286164465782157 0.013817218608820847 0 0.022286164465782157 0.013817218608820847 0 0.023734234816506144 0.013242128074745738 0 0.02302746001266117 0.014407275256388017 0 0.02301353098950398 0.011876197453213177 0 0.022286164465782157 0.013817218608820847 0 0.023734234816506144 0.013242128074745738 0 0.023734234816506144 0.013242128074745738 0 0.02302746001266117 0.014407275256388017 0 0.024152802270867926 0.014491876723708203 0 0.022183057522553409 0.014888685264348516 0 0.02302746001266117 0.014407275256388017 0 0.022731996535394698 0.015425273374584202 0 0.02302746001266117 0.014407275256388017 0 0.022731996535394698 0.015425273374584202 0 0.024152802270867926 0.014491876723708203 0 0.022684601936653621 0.015544902877604233 0 0.024036482876303108 0.014545093877510108 0 0.022731996535394698 0.015425273374584202 0 0.022770885056156064 0.015320331401770276 0 0.02277983953510233 0.015525808256189051 0 0.022731996535394698 0.015425273374584202 0 0.022638910439235192 0.015668427184347852 0 0.022179844799701937 0.015555378280819526 0 0.022638910439235192 0.015668427184347852 0 0.02277983953510233 0.015525808256189051 0 0.022716976640319169 0.015744365664377286 0 0.022731996535394698 0.015425273374584202 0 0.022638910439235192 0.015668427184347852 0 0.02277983953510233 0.015525808256189051 0 0.022543491576164743 0.01578900825633096 0 0.022415568898861725 0.016338036621414472 0 0.022638910439235192 0.015668427184347852 0 0.022597269393193207 0.015925593238904329 0 0.022716976640319169 0.015744365664377286 0 0.022638910439235192 0.015668427184347852 0 0.022597269393193207 0.015925593238904329 0 0.022219468541240565 0.016095945967296171 0 0.022638910439235192 0.015668427184347852 0 0.0220424691802136 0.016108697716832095 0 0.022239337218393149 0.016839866595730363 0 0.0220424691802136 0.016108697716832095 0 0.022179844799701937 0.015555378280819526 0 0.021472701344394857 0.015589011414326798 0 0.022638910439235192 0.015668427184347852 0 0.0220424691802136 0.016108697716832095 0 0.022179844799701937 0.015555378280819526 0 0.022183057522553409 0.014888685264348516 0 0.022731996535394698 0.015425273374584202 0 0.022179844799701937 0.015555378280819526 0 0.022183057522553409 0.014888685264348516 0 0.022179844799701937 0.015555378280819526 0 0.021472701344394857 0.015589011414326798 0 0.021188782833749625 0.014549389182855043 0 0.021472701344394857 0.015589011414326798 0 0.020317471861059498 0.015567234036593497 0 0.0220424691802136 0.016108697716832095 0 0.021472701344394857 0.015589011414326798 0 0.021061186124329077 0.016797181669399548 0 0.021472701344394857 0.015589011414326798 0 0.020317471861059498 0.015567234036593497 0 0.021061186124329077 0.016797181669399548 0 0.020820131532796157 0.016658635747107409 0 0.021183335374818781 0.017732808736573232 0 0.020400470414816414 0.017773796974979546 0 0.020512611322155417 0.016032906756760511 0 0.021347063211177943 0.017421091506185642 0 0.0097954856064623314 0.013615183095823113 0 0.0098339369948743129 0.013785397079068853 0 0.0099536711673172077 0.013687458572394893 0 0.0097954856064623314 0.013615183095823113 0 0.0099536711673172077 0.013687458572394893 0 0.009857591911738222 0.013559401815969221 0 0.009620469083908215 0.013541920454165425 0 0.0097954856064623314 0.013615183095823113 0 0.0098339369948743129 0.013785397079068853 0 0.0094766762993455048 0.013878458222273378 0 0.0096827585531510923 0.014069707897433371 0 0.0098339369948743129 0.013785397079068853 0 0.009620469083908215 0.013541920454165425 0 0.0094766762993455048 0.013878458222273378 0 0.0098339369948743129 0.013785397079068853 0 0.0099626984717600814 0.014105707779921661 0 0.0098339369948743129 0.013785397079068853 0 0.01015570286206453 0.013865234662999028 0 0.0098339369948743129 0.013785397079068853 0 0.01015570286206453 0.013865234662999028 0 0.0099536711673172077 0.013687458572394893 0 0.023734234816506144 0.013242128074745738 0 0.025535470739310409 0.013214166701928785 0 0.024152802270867926 0.014491876723708203 0 0.018394707720828862 0.013400264382066195 0 0.024036482876303108 0.014545093877510108 0 0.018394707720828862 0.013400264382066195 0 0.016712118061376798 0.014913091454146274 0 0.022826521788547157 0.015166641101060301 0 0.022770885056156064 0.015320331401770276 0 0.022882744759642901 0.015433221980451628 0 0.022770885056156064 0.015320331401770276 0 0.022882744759642901 0.015433221980451628 0 0.02277983953510233 0.015525808256189051 0 0.01015570286206453 0.013865234662999028 0 0.0099536711673172077 0.013687458572394893 0 0.010133468509140191 0.013638893092482396 0 0.010133468509140191 0.013638893092482396 0 0.010201592777980594 0.01325962189917919 0 0.009857591911738222 0.013559401815969221 0 0.0099536711673172077 0.013687458572394893 0 0.010133468509140191 0.013638893092482396 0 0.009857591911738222 0.013559401815969221 0 0.022882744759642901 0.015433221980451628 0 0.02277983953510233 0.015525808256189051 0 0.022887564538866798 0.015878769103550929 0 0.016712118061376798 0.014913091454146274 0 0.012954566127255087 0.013893979425606058 0 0.022597269393193207 0.015925593238904329 0 0.022887564538866798 0.015878769103550929 0 0.022716976640319169 0.015744365664377286 0 0.02277983953510233 0.015525808256189051 0 0.022887564538866798 0.015878769103550929 0 0.022716976640319169 0.015744365664377286 0 0.012954566127255087 0.013893979425606058 0 0.0089001414605561699 0.013680999728431393 0 0.0097651051726023192 0.013671356202005203 0 0.0097969730695383929 0.013639338607342056 0 0.009857591911738222 0.013559401815969221 0 0.0097969730695383929 0.013639338607342056 0 0.009778726709054884 0.013615714106823098 0 0.009857591911738222 0.013559401815969221 0 0.009778726709054884 0.013615714106823098 0 0.009857591911738222 0.013559401815969221 0 0.0097482432288041772 0.013585982425947074 0 0.0097954856064623314 0.013615183095823113 0 0.009857591911738222 0.013559401815969221 0 0.0097482432288041772 0.013585982425947074 0 0.009620469083908215 0.013541920454165425 0 0.0097954856064623314 0.013615183095823113 0 0.0097482432288041772 0.013585982425947074 0 0.0096996123770782764 0.013602709778085502 0 0.009620469083908215 0.013541920454165425 0 0.0097482432288041772 0.013585982425947074 0 0.0097393739631873848 0.01360763802129999 0 0.009778726709054884 0.013615714106823098 0 0.0097494740173867563 0.013649755025065486 0 0.0096996123770782764 0.013602709778085502 0 0.0097393739631873848 0.01360763802129999 0 0.0097482432288041772 0.013585982425947074 0 0.0097393739631873848 0.01360763802129999 0 0.009778726709054884 0.013615714106823098 0 0.0097482432288041772 0.013585982425947074 0 0.0097393739631873848 0.01360763802129999 0 0.0097494740173867563 0.013649755025065486 0 0.0097355157499123476 0.013632536728656258 0 0.0097494740173867563 0.013649755025065486 0 0.009731667749308389 0.013679183643319735 0 0.0097355157499123476 0.013632536728656258 0 0.009731667749308389 0.013679183643319735 0 0.0097225908382290189 0.01370471063560447 0 0.0097355157499123476 0.013632536728656258 0 0.0097494740173867563 0.013649755025065486 0 0.009731667749308389 0.013679183643319735 0 0.0097360777193144423 0.013696638052523932 0 0.009731667749308389 0.013679183643319735 0 0.0097225908382290189 0.01370471063560447 0 0.0097130430024557762 0.013715665092789972 0 0.0097360777193144423 0.013696638052523932 0 0.0097704480840171935 0.013708424705039253 0 0.0097270477615556301 0.013718819080411091 0 0.009731667749308389 0.013679183643319735 0 0.0097360777193144423 0.013696638052523932 0 0.0097130430024557762 0.013715665092789972 0 0.0097360777193144423 0.013696638052523932 0 0.0097130430024557762 0.013715665092789972 0 0.0097270477615556301 0.013718819080411091 0 0.0097494740173867563 0.013649755025065486 0 0.0097360777193144423 0.013696638052523932 0 0.0097704480840171935 0.013708424705039253 0 0.009778726709054884 0.013615714106823098 0 0.0097494740173867563 0.013649755025065486 0 0.0097704480840171935 0.013708424705039253 0 0.0097969730695383929 0.013639338607342056 0 0.009778726709054884 0.013615714106823098 0 0.0097704480840171935 0.013708424705039253 0 0.0097651051726023192 0.013671356202005203 0 0.0097704480840171935 0.013708424705039253 0 0.0098147823893788774 0.013774230516587127 0 0.0097651051726023192 0.013671356202005203 0 0.0097969730695383929 0.013639338607342056 0 0.0097704480840171935 0.013708424705039253 0 0.012954566127255087 0.013893979425606058 0 0.0095353116169563379 0.01380575177344673 0 0.022597269393193207 0.015925593238904329 0 0.022887564538866798 0.015878769103550929 0 0.02251345708751144 0.016343893476411499 0 0.012954566127255087 0.013893979425606058 0 0.016616645549051241 0.015026741256871388 0 0.0098453609937869929 0.013967825470883042 0 0.0098147823893788774 0.013774230516587127 0 0.010003856914188045 0.013825027135654666 0 0.0098147823893788774 0.013774230516587127 0 0.0097709620209174477 0.013735317569452411 0 0.0099155343873461501 0.013727448211639414 0 0.0098147823893788774 0.013774230516587127 0 0.0099155343873461501 0.013727448211639414 0 0.010003856914188045 0.013825027135654666 0 0.0097704480840171935 0.013708424705039253 0 0.0097709620209174477 0.013735317569452411 0 0.0097270477615556301 0.013718819080411091 0 0.0097704480840171935 0.013708424705039253 0 0.0098147823893788774 0.013774230516587127 0 0.0097709620209174477 0.013735317569452411 0 0.0097709620209174477 0.013735317569452411 0 0.0097124536780298139 0.01372743793531348 0 0.0097270477615556301 0.013718819080411091 0 0.0097709620209174477 0.013735317569452411 0 0.0097549561339686144 0.013705966632100285 0 0.0097124536780298139 0.01372743793531348 0 0.0097549561339686144 0.013705966632100285 0 0.0098375097521877751 0.013708322292385734 0 0.0099278950010379327 0.013644290639236879 0 0.0097709620209174477 0.013735317569452411 0 0.0099155343873461501 0.013727448211639414 0 0.0098375097521877751 0.013708322292385734 0 0.0097709620209174477 0.013735317569452411 0 0.0097549561339686144 0.013705966632100285 0 0.0098375097521877751 0.013708322292385734 0 0.0099155343873461501 0.013727448211639414 0 0.0098375097521877751 0.013708322292385734 0 0.0099278950010379327 0.013644290639236879 0 0.0097549561339686144 0.013705966632100285 0 0.0098005176549141974 0.013691113185285058 0 0.0098633951673009358 0.013698918444009545 0 0.0092139337963310867 0.013305745256247519 0 0.011671394733473846 0.01511307195244521 0 0.0097549561339686144 0.013705966632100285 0 0.0099278950010379327 0.013644290639236879 0 0.010006924487842808 0.013481496741935734 0 0.0097549561339686144 0.013705966632100285 0 0.0098005176549141974 0.013691113185285058 0 0.0097543590597279923 0.013700467548115245 0 0.0096732812468095803 0.013739798936678004 0 0.0097543590597279923 0.013700467548115245 0 0.0097782273177010586 0.013628807994113463 0 0.0097549561339686144 0.013705966632100285 0 0.0097124536780298139 0.01372743793531348 0 0.0096732812468095803 0.013739798936678004 0 0.0097549561339686144 0.013705966632100285 0 0.0096732812468095803 0.013739798936678004 0 0.0097543590597279923 0.013700467548115245 0 0.0096732812468095803 0.013739798936678004 0 0.0096706139071359738 0.01381437897174396 0 0.0096364194735339952 0.013857960527771364 0 0.0096732812468095803 0.013739798936678004 0 0.0096706139071359738 0.01381437897174396 0 0.0096915563929918912 0.013742761679690577 0 0.0096706139071359738 0.01381437897174396 0 0.0096973243071093729 0.01376569966496994 0 0.0096915563929918912 0.013742761679690577 0 0.0096706139071359738 0.01381437897174396 0 0.0096973243071093729 0.01376569966496994 0 0.0096921590557126919 0.013872849723579288 0 0.0096973243071093729 0.01376569966496994 0 0.0096921590557126919 0.013872849723579288 0 0.0097263221488032778 0.013757742526580262 0 0.0096973243071093729 0.01376569966496994 0 0.0097225908382290189 0.01370471063560447 0 0.0097263221488032778 0.013757742526580262 0 0.0096973243071093729 0.01376569966496994 0 0.0097225908382290189 0.01370471063560447 0 0.0097130430024557762 0.013715665092789972 0 0.0097130430024557762 0.013715665092789972 0 0.0097270477615556301 0.013718819080411091 0 0.0096915563929918912 0.013742761679690577 0 0.0097124536780298139 0.01372743793531348 0 0.0097270477615556301 0.013718819080411091 0 0.0096915563929918912 0.013742761679690577 0 0.0097124536780298139 0.01372743793531348 0 0.0096732812468095803 0.013739798936678004 0 0.0096915563929918912 0.013742761679690577 0 0.0096973243071093729 0.01376569966496994 0 0.0097130430024557762 0.013715665092789972 0 0.0096915563929918912 0.013742761679690577 0 0.020569557412332139 0.018488122700083553 0 0.021005370844499455 0.018267242233417323 0 0.02116977593901375 0.018686057879657419 0 0.020569557412332139 0.018488122700083553 0 0.021005370844499455 0.018267242233417323 0 0.020400470414816414 0.017773796974979546 0 0.021183335374818781 0.017732808736573232 0 0.021005370844499455 0.018267242233417323 0 0.020400470414816414 0.017773796974979546 0 0.021005370844499455 0.018267242233417323 0 0.02116977593901375 0.018686057879657419 0 0.021678038072293269 0.018662628495001988 0 0.021347063211177943 0.017421091506185642 0 0.020527752007332502 0.017775643460564337 0 0.021183335374818781 0.017732808736573232 0 0.021005370844499455 0.018267242233417323 0 0.021678038072293269 0.018662628495001988 0 0.021853169945990267 0.016790847736640028 0 0.022219468541240565 0.016095945967296171 0 0.02251345708751144 0.016343893476411499 0 0.021853169945990267 0.016790847736640028 0 0.02251345708751144 0.016343893476411499 0 0.021918495938458554 0.016912360142256729 0 0.020527752007332502 0.017775643460564337 0 0.022415568898861725 0.016338036621414472 0 0.0220424691802136 0.016108697716832095 0 0.021061186124329077 0.016797181669399548 0 0.022239337218393149 0.016839866595730363 0 0.021061186124329077 0.016797181669399548 0 0.021784373268386913 0.017985743285240559 0 0.022239337218393149 0.016839866595730363 0 0.022597269393193207 0.015925593238904329 0 0.022219468541240565 0.016095945967296171 0 0.02251345708751144 0.016343893476411499 0 0.0099155343873461501 0.013727448211639414 0 0.010003856914188045 0.013825027135654666 0 0.010041524232275558 0.013718097482417773 0 0.010003856914188045 0.013825027135654666 0 0.010041524232275558 0.013718097482417773 0 0.010188120702568901 0.013749130948893438 0 0.016616645549051241 0.015026741256871388 0 0.017180974050032348 0.016054183996104133 0 0.0099278950010379327 0.013644290639236879 0 0.010041524232275558 0.013718097482417773 0 0.01009348232484774 0.01362713116489077 0 0.0099155343873461501 0.013727448211639414 0 0.0099278950010379327 0.013644290639236879 0 0.010041524232275558 0.013718097482417773 0 0.014512247652716772 0.016290743404357464 0 0.013933050990328285 0.014821780268101903 0 0.013702461450462283 0.014994829260907956 0 0.0099278950010379327 0.013644290639236879 0 0.01009348232484774 0.01362713116489077 0 0.010006924487842808 0.013481496741935734 0 0.01199765577112979 0.014490528322695449 0 0.011671394733473846 0.01511307195244521 0 0.015184065377053324 0.015954608475393258 0 0.015880459134769855 0.017033948382717098 0 0.016409880810260114 0.015670206123490515 0 0.014512247652716772 0.016290743404357464 0 0.015184065377053324 0.015954608475393258 0 0.015880459134769855 0.017033948382717098 0 0.015184065377053324 0.015954608475393258 0 0.016409880810260114 0.015670206123490515 0 0.013933050990328285 0.014821780268101903 0 0.016913153077746417 0.017761589968752729 0 0.013298159524039658 0.016422274663753043 0 0.014512247652716772 0.016290743404357464 0 0.015184065377053324 0.015954608475393258 0 0.013933050990328285 0.014821780268101903 0 0.014512247652716772 0.016290743404357464 0 0.015880459134769855 0.017033948382717098 0 0.015326201876153247 0.017581108074546405 0 0.010041524232275558 0.013718097482417773 0 0.01009348232484774 0.01362713116489077 0 0.010188120702568901 0.013749130948893438 0 0.01199765577112979 0.014490528322695449 0 0.017180974050032348 0.016054183996104133 0 0.019405818006387299 0.016642874897580387 0 0.018966805971031911 0.017764663066158669 0 0.019664761325798783 0.017069830518427479 0 0.020527752007332502 0.017775643460564337 0 0.017180974050032348 0.016054183996104133 0 0.021678038072293269 0.018662628495001988 0 0.021526982306221368 0.019051496377314067 0 0.021389514079621863 0.0188700174186789 0 0.020527752007332502 0.017775643460564337 0 0.018756931826667846 0.017716637264516083 0 0.018756931826667846 0.017716637264516083 0 0.017180974050032348 0.016054183996104133 0 0.02116977593901375 0.018686057879657419 0 0.021678038072293269 0.018662628495001988 0 0.021389514079621863 0.0188700174186789 0 0.02116977593901375 0.018686057879657419 0 0.021389514079621863 0.0188700174186789 0 0.021118129638217902 0.019217504109588737 0 0.02116977593901375 0.018686057879657419 0 0.021118129638217902 0.019217504109588737 0 0.020794543200902089 0.019077937528290352 0 0.021526982306221368 0.019051496377314067 0 0.021118129638217902 0.019217504109588737 0 0.021017041119829469 0.019559706703900604 0 0.021118129638217902 0.019217504109588737 0 0.021017041119829469 0.019559706703900604 0 0.020794543200902089 0.019077937528290352 0 0.021526982306221368 0.019051496377314067 0 0.021389514079621863 0.0188700174186789 0 0.021118129638217902 0.019217504109588737 0 0.018698012546734255 0.017949716797325772 0 0.01841679454958299 0.018678407413972028 0 0.018087591792094727 0.018567011376438954 0 0.018756931826667846 0.017716637264516083 0 0.019436171940842999 0.01930549607877742 0 0.018756931826667846 0.017716637264516083 0 0.016913153077746417 0.017761589968752729 0 0.017889267088884213 0.018696168051026904 0 0.017862874699867689 0.018687053717361724 0 0.017871195069004777 0.018739002773911058 0 0.019436171940842999 0.01930549607877742 0 0.017277341537831229 0.019350256257063419 0 0.016913153077746417 0.017761589968752729 0 0.017277341537831229 0.019350256257063419 0 0.016913153077746417 0.017761589968752729 0 0.019436171940842999 0.01930549607877742 0 0.020446426748754902 0.01949387993749568 0 0.020182593690237401 0.019599148975853228 0 0.02006276567912782 0.019887885465547862 0 0.019436171940842999 0.01930549607877742 0 0.020435064875960019 0.019426474815255224 0 0.019436171940842999 0.01930549607877742 0 0.018631770513554361 0.020259511816235306 0 0.019436171940842999 0.01930549607877742 0 0.020777611904546925 0.019450227955271484 0 0.020446426748754902 0.01949387993749568 0 0.020182593690237401 0.019599148975853228 0 0.02006937037747419 0.019358376822128286 0 0.021021091667475063 0.019584356541303274 0 0.020371347424184557 0.019368002090783893 0 0.020794543200902089 0.019077937528290352 0 0.020182593690237401 0.019599148975853228 0 0.02006937037747419 0.019358376822128286 0 0.019907452652235268 0.019594850806798087 0 0.020371347424184557 0.019368002090783893 0 0.020794543200902089 0.019077937528290352 0 0.020249448651825444 0.018887533506708378 0 0.020569557412332139 0.018488122700083553 0 0.02116977593901375 0.018686057879657419 0 0.020794543200902089 0.019077937528290352 0 0.020569557412332139 0.018488122700083553 0 0.020794543200902089 0.019077937528290352 0 0.020249448651825444 0.018887533506708378 0 0.017427337134807167 0.020505326803637924 0 0.017394857124148365 0.020482218719253591 0 0.01737369783018888 0.020515160262397907 0 0.017425760962778893 0.020458561730693554 0 0.017427337134807167 0.020505326803637924 0 0.017394857124148365 0.020482218719253591 0 0.017425760962778893 0.020458561730693554 0 0.017455104224130331 0.020458939949211441 0 0.017427337134807167 0.020505326803637924 0 0.017425760962778893 0.020458561730693554 0 0.017396254205188953 0.020412746113535933 0 0.017394857124148365 0.020482218719253591 0 0.017425760962778893 0.020458561730693554 0 0.017396254205188953 0.020412746113535933 0 0.017468455199107735 0.020410166034060009 0 0.017481335480150451 0.020305033499463509 0 0.017396254205188953 0.020412746113535933 0 0.017489876912234449 0.020372416657759785 0 0.017396254205188953 0.020412746113535933 0 0.017468455199107735 0.020410166034060009 0 0.017489876912234449 0.020372416657759785 0 0.020182593690237401 0.019599148975853228 0 0.02006276567912782 0.019887885465547862 0 0.019907452652235268 0.019594850806798087 0 0.017277341537831229 0.019350256257063419 0 0.015928639858175924 0.019538481999600205 0 0.017468455199107735 0.020410166034060009 0 0.017479643297239549 0.020378834209789091 0 0.01749615806859587 0.020460053668351606 0 0.015750147826095542 0.018781636559107487 0 0.015878420447397713 0.018451025846825814 0 0.015148321850308349 0.018090749774395332 0 0.015878420447397713 0.018451025846825814 0 0.01559498483929478 0.017767810756652503 0 0.015148321850308349 0.018090749774395332 0 0.017197126277129778 0.020187155248031278 0 0.017277341537831229 0.019350256257063419 0 0.016908368883656585 0.020852666467637681 0 0.016818755943430554 0.020635119064004635 0 0.017134811231657703 0.020695850676244111 0 0.017425760962778893 0.020458561730693554 0 0.017468455199107735 0.020410166034060009 0 0.017455104224130331 0.020458939949211441 0 0.017468455199107735 0.020410166034060009 0 0.01749615806859587 0.020460053668351606 0 0.017455104224130331 0.020458939949211441 0 0.01749615806859587 0.020460053668351606 0 0.017455104224130331 0.020458939949211441 0 0.017427337134807167 0.020505326803637924 0 0.015928639858175924 0.019538481999600205 0 0.017342523887194653 0.020573374766612713 0 0.01337708050206593 0.018797012781311559 0 0.013676258694088114 0.018550680877451479 0 0.013818918644233484 0.018927882046512443 0 0.01337708050206593 0.018797012781311559 0 0.013818918644233484 0.018927882046512443 0 0.013524512671990134 0.019185376004228764 0 0.015928639858175924 0.019538481999600205 0 0.015157036565119145 0.019854450155253871 0 0.015928639858175924 0.019538481999600205 0 0.014318792220016554 0.018375618042414017 0 0.015750147826095542 0.018781636559107487 0 0.015148321850308349 0.018090749774395332 0 0.014695917868301678 0.018418213230111412 0 0.014318792220016554 0.018375618042414017 0 0.013298159524039658 0.016422274663753043 0 0.013676258694088114 0.018550680877451479 0 0.013951053759312462 0.018594243927054596 0 0.013974170766100861 0.01829953228714291 0 0.013951053759312462 0.018594243927054596 0 0.014096907608914916 0.01834100130813663 0 0.014366255394334546 0.01878912676653224 0 0.0098005176549141974 0.013691113185285058 0 0.0098633951673009358 0.013698918444009545 0 0.0098570051146679646 0.013680877584166303 0 0.012104326917230467 0.016259211523082982 0 0.011992668521781174 0.016342747236650097 0 0.011897741834955908 0.016190175932737534 0 0.013298159524039658 0.016422274663753043 0 0.011671394733473846 0.01511307195244521 0 0.011671394733473846 0.01511307195244521 0 0.012039298293219841 0.016113238781261811 0 0.013298159524039658 0.016422274663753043 0 0.012039298293219841 0.016113238781261811 0 0.013951053759312462 0.018594243927054596 0 0.013974170766100861 0.01829953228714291 0 0.014096907608914916 0.01834100130813663 0 0.013951053759312462 0.018594243927054596 0 0.014049764259539002 0.018897837761452201 0 0.014366255394334546 0.01878912676653224 0 0.014049764259539002 0.018897837761452201 0 0.014063063492058272 0.019282363503038899 0 0.014366255394334546 0.01878912676653224 0 0.013951053759312462 0.018594243927054596 0 0.013818918644233484 0.018927882046512443 0 0.014049764259539002 0.018897837761452201 0 0.013676258694088114 0.018550680877451479 0 0.013951053759312462 0.018594243927054596 0 0.013818918644233484 0.018927882046512443 0 0.013818918644233484 0.018927882046512443 0 0.014063063492058272 0.019282363503038899 0 0.013790514885480869 0.019269742505004725 0 0.013818918644233484 0.018927882046512443 0 0.014049764259539002 0.018897837761452201 0 0.014063063492058272 0.019282363503038899 0 0.014063063492058272 0.019282363503038899 0 0.013900848083356747 0.019540257436504928 0 0.013790514885480869 0.019269742505004725 0 0.014161096184979982 0.020776855719579743 0 0.014292044417493743 0.020768586876976827 0 0.014039404711373916 0.021551106479801532 0 0.014034006723387135 0.021487515190886493 0 0.013946088796505326 0.021481902761890142 0 0.014034006723387135 0.021487515190886493 0 0.013946088796505326 0.021481902761890142 0 0.013986419729405489 0.021462342251152698 0 0.014055297238637091 0.021465048907364608 0 0.013986419729405489 0.021462342251152698 0 0.013991083845875127 0.021424511266170135 0 0.014034006723387135 0.021487515190886493 0 0.014055297238637091 0.021465048907364608 0 0.013986419729405489 0.021462342251152698 0 0.014055297238637091 0.021465048907364608 0 0.013991083845875127 0.021424511266170135 0 0.014101107835361065 0.021446595869658636 0 0.014055297238637091 0.021465048907364608 0 0.014165667629202933 0.0214815306886657 0 0.014101107835361065 0.021446595869658636 0 0.014292044417493743 0.020768586876976827 0 0.014454468934000304 0.021298888608195159 0 0.014034006723387135 0.021487515190886493 0 0.014055297238637091 0.021465048907364608 0 0.014165667629202933 0.0214815306886657 0 0.014034006723387135 0.021487515190886493 0 0.014096264708866272 0.021500269108329858 0 0.014165667629202933 0.0214815306886657 0 0.014039404711373916 0.021551106479801532 0 0.014034006723387135 0.021487515190886493 0 0.014096264708866272 0.021500269108329858 0 0.014542373283744161 0.020787883885887974 0 0.014501207097909436 0.020795186501373818 0 0.014514634807023252 0.020831799690254831 0 0.013900848083356747 0.019540257436504928 0 0.0136783541068648 0.019580085107533379 0 0.013790514885480869 0.019269742505004725 0 0.014292044417493743 0.020768586876976827 0 0.01483365006655633 0.020506003914497504 0 0.014315370783270219 0.021928543555839734 0 0.014242407066121929 0.021691312828832621 0 0.014561649157545048 0.021651139411584506 0 0.01483365006655633 0.020506003914497504 0 0.014454468934000304 0.021298888608195159 0 0.016717349457563126 0.020407121283420777 0 0.016818755943430554 0.020635119064004635 0 0.016989419934470319 0.020518707548575644 0 0.01483365006655633 0.020506003914497504 0 0.015157036565119145 0.019854450155253871 0 0.0136783541068648 0.019580085107533379 0 0.013790514885480869 0.019269742505004725 0 0.013524512671990134 0.019185376004228764 0 0.013818918644233484 0.018927882046512443 0 0.013790514885480869 0.019269742505004725 0 0.013524512671990134 0.019185376004228764 0 0.016818755943430554 0.020635119064004635 0 0.016989419934470319 0.020518707548575644 0 0.017134811231657703 0.020695850676244111 0 0.016989419934470319 0.020518707548575644 0 0.017151904965959117 0.020517313288839541 0 0.017134811231657703 0.020695850676244111 0 0.016717349457563126 0.020407121283420777 0 0.016989419934470319 0.020518707548575644 0 0.017128693605638554 0.020348383300056914 0 0.01483365006655633 0.020506003914497504 0 0.016267496962200211 0.021125338044775788 0 0.014315370783270219 0.021928543555839734 0 0.014561649157545048 0.021651139411584506 0 0.015151172623237688 0.021785245176314142 0 0.016989419934470319 0.020518707548575644 0 0.017128693605638554 0.020348383300056914 0 0.017151904965959117 0.020517313288839541 0 0.016267496962200211 0.021125338044775788 0 0.016748386148573484 0.020860046776745387 0 0.017128693605638554 0.020348383300056914 0 0.017350786231467189 0.02051796768384449 0 0.017418742010591824 0.020364075681260203 0 0.017128693605638554 0.020348383300056914 0 0.017350786231467189 0.02051796768384449 0 0.017151904965959117 0.020517313288839541 0 0.017350786231467189 0.02051796768384449 0 0.017427337134807167 0.020505326803637924 0 0.01737369783018888 0.020515160262397907 0 0.017350786231467189 0.02051796768384449 0 0.017151904965959117 0.020517313288839541 0 0.017134811231657703 0.020695850676244111 0 0.017330393313739593 0.020542391527732223 0 0.017342523887194653 0.020573374766612713 0 0.0087126557828076951 0.014389020388982281 0 0.0089491482252496736 0.014673961972197832 0 0.0086862453049046887 0.014785717284299543 0 0.0087126557828076951 0.014389020388982281 0 0.0092029019163963107 0.014435287015110734 0 0.0089491482252496736 0.014673961972197832 0 0.0090143211890493478 0.014091877127823055 0 0.0094763277469217654 0.014262865255161546 0 0.0096294441296733094 0.013934175208174599 0 0.0096278546367267875 0.014045397793991918 0 0.0096483809661577023 0.013915077564842374 0 0.0096278546367267875 0.014045397793991918 0 0.0096921590557126919 0.013872849723579288 0 0.0096483809661577023 0.013915077564842374 0 0.0096278546367267875 0.014045397793991918 0 0.0096921590557126919 0.013872849723579288 0 0.0096942989584026147 0.014014250938610978 0 0.0096706139071359738 0.01381437897174396 0 0.0096921590557126919 0.013872849723579288 0 0.0096483809661577023 0.013915077564842374 0 0.0096706139071359738 0.01381437897174396 0 0.0096483809661577023 0.013915077564842374 0 0.0096364194735339952 0.013857960527771364 0 0.0096294441296733094 0.013934175208174599 0 0.0096483809661577023 0.013915077564842374 0 0.0096364194735339952 0.013857960527771364 0 0.0096732812468095803 0.013739798936678004 0 0.0096364194735339952 0.013857960527771364 0 0.0095214120726273312 0.013900364197426742 0 0.0090143211890493478 0.014091877127823055 0 0.0096314161367658333 0.014584339809542135 0 0.0096294441296733094 0.013934175208174599 0 0.0096364194735339952 0.013857960527771364 0 0.0095214120726273312 0.013900364197426742 0 0.0097496973425192611 0.013450298189625422 0 0.0096314161367658333 0.014584339809542135 0 0.011452583117051728 0.016195591835596043 0 0.011289964778663725 0.016141519130397294 0 0.011359098253812112 0.016054523375325005 0 0.012039298293219841 0.016113238781261811 0 0.012202458787455087 0.017836853036016072 0 0.0098005176549141974 0.013691113185285058 0 0.0098570051146679646 0.013680877584166303 0 0.0097782273177010586 0.013628807994113463 0 0.012039298293219841 0.016113238781261811 0 0.0096314161367658333 0.014584339809542135 0 0.0098005176549141974 0.013691113185285058 0 0.0097543590597279923 0.013700467548115245 0 0.0097782273177010586 0.013628807994113463 0 0.0081379413633869239 0.014522854704372873 0 0.0084228518501687135 0.01457170747645699 0 0.0083141175003840825 0.01489029588895326 0 0.0096314161367658333 0.014584339809542135 0 0.012202458787455087 0.017836853036016072 0 0.0082835425076513754 0.014291907719293135 0 0.0081379413633869239 0.014522854704372873 0 0.0084228518501687135 0.01457170747645699 0 0.0087126557828076951 0.014389020388982281 0 0.0082835425076513754 0.014291907719293135 0 0.0084228518501687135 0.01457170747645699 0 0.0087126557828076951 0.014389020388982281 0 0.0084228518501687135 0.01457170747645699 0 0.0086862453049046887 0.014785717284299543 0 0.0083141175003840825 0.01489029588895326 0 0.0086486303138414693 0.015069918588311847 0 0.0086862453049046887 0.014785717284299543 0 0.0084228518501687135 0.01457170747645699 0 0.0083141175003840825 0.01489029588895326 0 0.0086862453049046887 0.014785717284299543 0 0.014161096184979982 0.020776855719579743 0 0.012202458787455087 0.017836853036016072 0 0.012202458787455087 0.017836853036016072 0 0.010823049922079251 0.018100923099480148 0 0.014039404711373916 0.021551106479801532 0 0.013844728814497725 0.021801054732874098 0 0.013862332110259543 0.021627923006789857 0 0.013844728814497725 0.021801054732874098 0 0.013633902144331368 0.02156814918644212 0 0.013862332110259543 0.021627923006789857 0 0.013633902144331368 0.02156814918644212 0 0.013862332110259543 0.021627923006789857 0 0.013946088796505326 0.021481902761890142 0 0.014039404711373916 0.021551106479801532 0 0.013862332110259543 0.021627923006789857 0 0.013946088796505326 0.021481902761890142 0 0.013946088796505326 0.021481902761890142 0 0.013913709312819971 0.021442399037929171 0 0.013772009346354322 0.02145282283177798 0 0.014936986896050327 0.022288882612228653 0 0.011428802290068341 0.018704990913134722 0 0.013946088796505326 0.021481902761890142 0 0.013913709312819971 0.021442399037929171 0 0.013986419729405489 0.021462342251152698 0 0.013913709312819971 0.021442399037929171 0 0.013986419729405489 0.021462342251152698 0 0.013991083845875127 0.021424511266170135 0 0.010823049922079251 0.018100923099480148 0 0.011428802290068341 0.018704990913134722 0 0.0083141175003840825 0.01489029588895326 0 0.0085288397391038145 0.015352334707918259 0 0.0086486303138414693 0.015069918588311847 0 0.013913709312819971 0.021442399037929171 0 0.013772009346354322 0.02145282283177798 0 0.013850581671332182 0.021400871939638202 0 0.013633902144331368 0.02156814918644212 0 0.013946088796505326 0.021481902761890142 0 0.01335353658078261 0.021128231490211303 0 0.0085288397391038145 0.015352334707918259 0 0.0088743805319144147 0.015409047469816355 0 0.0089091714226634238 0.015614450466650083 0 0.0085288397391038145 0.015352334707918259 0 0.0088743805319144147 0.015409047469816355 0 0.0086486303138414693 0.015069918588311847 0 0.011428802290068341 0.018704990913134722 0 0.0086540730049778653 0.01569260571481949 0 0.0088743805319144147 0.015409047469816355 0 0.0086486303138414693 0.015069918588311847 0 0.0088819490172783074 0.014960609579233735 0 0.0086486303138414693 0.015069918588311847 0 0.0088819490172783074 0.014960609579233735 0 0.0086862453049046887 0.014785717284299543 0 0.0088819490172783074 0.014960609579233735 0 0.0089491482252496736 0.014673961972197832 0 0.0086862453049046887 0.014785717284299543 0 0.0092029019163963107 0.014435287015110734 0 0.0089491482252496736 0.014673961972197832 0 0.0091771613678106392 0.014836973166000328 0 0.0092029019163963107 0.014435287015110734 0 0.0091771613678106392 0.014836973166000328 0 0.0094094909943457303 0.014607044599801517 0 0.0088819490172783074 0.014960609579233735 0 0.0089491482252496736 0.014673961972197832 0 0.0091771613678106392 0.014836973166000328 0 0.0088743805319144147 0.015409047469816355 0 0.0091771613678106392 0.014836973166000328 0 0.0095768803163423354 0.014848521403765136 0 0.0088743805319144147 0.015409047469816355 0 0.0088939877381686658 0.015708595763846533 0 0.0089091714226634238 0.015614450466650083 0 0.0088343244346798799 0.015431312522456385 0 0.0092370027450882439 0.015326758063457473 0 0.0088743805319144147 0.015409047469816355 0 0.0088939877381686658 0.015708595763846533 0 0.0088729203364676188 0.015864791251548244 0 0.0088743805319144147 0.015409047469816355 0 0.0088819490172783074 0.014960609579233735 0 0.0091771613678106392 0.014836973166000328 0 0.0088939877381686658 0.015708595763846533 0 0.0088407287251349616 0.015818164988286837 0 0.0088729203364676188 0.015864791251548244 0 0.0088407287251349616 0.015818164988286837 0 0.0088729203364676188 0.015864791251548244 0 0.0088253392337192 0.01590754160557031 0 0.0088729203364676188 0.015864791251548244 0 0.0088253392337192 0.01590754160557031 0 0.0087472807748449483 0.016008098147212116 0 0.0086034226655506401 0.016065107615999781 0 0.0091720344646399644 0.015390163526556935 0 0.008729100637427047 0.015958052519605775 0 0.0088253392337192 0.01590754160557031 0 0.0086903625173360664 0.016097895111637461 0 0.008729100637427047 0.015958052519605775 0 0.0088253392337192 0.01590754160557031 0 0.0087691390939972236 0.015882655857863689 0 0.008729100637427047 0.015958052519605775 0 0.0086896470345795649 0.015916088555282405 0 0.0087691390939972236 0.015882655857863689 0 0.0088407287251349616 0.015818164988286837 0 0.0088253392337192 0.01590754160557031 0 0.0087691390939972236 0.015882655857863689 0 0.0096979721549308052 0.014335864875217067 0 0.0098949477865582624 0.014165248401291136 0 0.01000819556648753 0.014440873111306493 0 0.0095768803163423354 0.014848521403765136 0 0.0096979721549308052 0.014335864875217067 0 0.01000819556648753 0.014440873111306493 0 0.0092370027450882439 0.015326758063457473 0 0.0091720344646399644 0.015390163526556935 0 0.0091771613678106392 0.014836973166000328 0 0.0095768803163423354 0.014848521403765136 0 0.0094094909943457303 0.014607044599801517 0 0.0095768803163423354 0.014848521403765136 0 0.0094094909943457303 0.014607044599801517 0 0.0096979721549308052 0.014335864875217067 0 0.0092029019163963107 0.014435287015110734 0 0.0094094909943457303 0.014607044599801517 0 0.0096979721549308052 0.014335864875217067 0 0.0096278546367267875 0.014045397793991918 0 0.0096979721549308052 0.014335864875217067 0 0.0096942989584026147 0.014014250938610978 0 0.0096979721549308052 0.014335864875217067 0 0.0096942989584026147 0.014014250938610978 0 0.0098033599165482724 0.014005815325039162 0 0.0094763277469217654 0.014262865255161546 0 0.0096913480134085475 0.014333612862374643 0 0.0098949477865582624 0.014165248401291136 0 0.0098033599165482724 0.014005815325039162 0 0.0099100705367944665 0.013943556673345183 0 0.0096979721549308052 0.014335864875217067 0 0.0098949477865582624 0.014165248401291136 0 0.0098033599165482724 0.014005815325039162 0 0.0098033599165482724 0.014005815325039162 0 0.0099100705367944665 0.013943556673345183 0 0.009829395163778322 0.013874008076360222 0 0.0098033599165482724 0.014005815325039162 0 0.0097464659219487181 0.013904369247719145 0 0.009829395163778322 0.013874008076360222 0 0.0096921590557126919 0.013872849723579288 0 0.0096942989584026147 0.014014250938610978 0 0.0097464659219487181 0.013904369247719145 0 0.0096942989584026147 0.014014250938610978 0 0.0098033599165482724 0.014005815325039162 0 0.0097464659219487181 0.013904369247719145 0 0.0098780868931656451 0.013884200735659293 0 0.0099076999848068427 0.013913283895798566 0 0.0098710507291514087 0.013945870555506326 0 0.0098780868931656451 0.013884200735659293 0 0.0099076999848068427 0.013913283895798566 0 0.0099371371225146811 0.013923412203151698 0 0.0098780868931656451 0.013884200735659293 0 0.0099371371225146811 0.013923412203151698 0 0.010014173712681793 0.013984512578054272 0 0.0099100705367944665 0.013943556673345183 0 0.009829395163778322 0.013874008076360222 0 0.0098907058721542946 0.013874868036960575 0 0.0099100705367944665 0.013943556673345183 0 0.0099371371225146811 0.013923412203151698 0 0.0098907058721542946 0.013874868036960575 0 0.0099076999848068427 0.013913283895798566 0 0.0099371371225146811 0.013923412203151698 0 0.0098907058721542946 0.013874868036960575 0 0.0099100705367944665 0.013943556673345183 0 0.0099371371225146811 0.013923412203151698 0 0.010014173712681793 0.013984512578054272 0 0.0098949477865582624 0.014165248401291136 0 0.0099100705367944665 0.013943556673345183 0 0.010014173712681793 0.013984512578054272 0 0.0098780868931656451 0.013884200735659293 0 0.010014173712681793 0.013984512578054272 0 0.0097385775457668779 0.013686590910343155 0 0.010014173712681793 0.013984512578054272 0 0.010197212317447689 0.014292358026517692 0 0.010497716981331159 0.014157752702572865 0 0.010193025339301675 0.013953342157988774 0 0.0095914172071005447 0.014161449919259633 0 0.0092253486014461442 0.014997285057497763 0 0.0092091272356070036 0.01499306949588248 0 0.0092613725657829625 0.01496092587625252 0 0.0092253486014461442 0.014997285057497763 0 0.0092091272356070036 0.01499306949588248 0 0.0091546864149362455 0.015033680984813093 0 0.0098072390505938786 0.014602108861401579 0 0.0095914172071005447 0.014161449919259633 0 0.0098949477865582624 0.014165248401291136 0 0.010014173712681793 0.013984512578054272 0 0.01000819556648753 0.014440873111306493 0 0.010014173712681793 0.013984512578054272 0 0.010197212317447689 0.014292358026517692 0 0.01000819556648753 0.014440873111306493 0 0.0087416023857976467 0.015648788335929587 0 0.0091720344646399644 0.015390163526556935 0 0.0084885088590963432 0.016192498772317963 0 0.0086903625173360664 0.016097895111637461 0 0.0086294776778584204 0.016008594233522775 0 0.0098072390505938786 0.014602108861401579 0 0.0091720344646399644 0.015390163526556935 0 0.0086294776778584204 0.016008594233522775 0 0.008510783832305786 0.015986262502884652 0 0.0086896470345795649 0.015916088555282405 0 0.008729100637427047 0.015958052519605775 0 0.0086903625173360664 0.016097895111637461 0 0.0086294776778584204 0.016008594233522775 0 0.008729100637427047 0.015958052519605775 0 0.0086294776778584204 0.016008594233522775 0 0.0086896470345795649 0.015916088555282405 0 0.0084885088590963432 0.016192498772317963 0 0.0086294776778584204 0.016008594233522775 0 0.008510783832305786 0.015986262502884652 0 0.0084885088590963432 0.016192498772317963 0 0.008510783832305786 0.015986262502884652 0 0.008348224156913461 0.016122269081549564 0 0.008510783832305786 0.015986262502884652 0 0.008348224156913461 0.016122269081549564 0 0.0082372587824808951 0.016045138633826544 0 0.008348224156913461 0.016122269081549564 0 0.0082372587824808951 0.016045138633826544 0 0.0082134561428589461 0.016117886665371967 0 0.0081422379461591841 0.016081610921826587 0 0.0081183722569000936 0.016141514129578354 0 0.0081265642322641257 0.016082933445553903 0 0.0049262632802463359 0.014873263459722813 0 0.0046461312387993548 0.018564804202598768 0 0.0081422379461591841 0.016081610921826587 0 0.0082134561428589461 0.016117886665371967 0 0.0081183722569000936 0.016141514129578354 0 0.0082372587824808951 0.016045138633826544 0 0.0081422379461591841 0.016081610921826587 0 0.0082134561428589461 0.016117886665371967 0 0.0052534287583978628 0.013409868606705195 0 0.0079122600108541483 0.014394382131174244 0 0.0053092711058227871 0.015025916514905936 0 0.0049262632802463359 0.014873263459722813 0 0.0089887188143805332 0.014801351227315176 0 0.0089887188143805332 0.014801351227315176 0 0.0044242608637552255 0.013059829998454228 0 0.0082134561428589461 0.016117886665371967 0 0.0081183722569000936 0.016141514129578354 0 0.008276516410279499 0.016237444124710048 0 0.0049262632802463359 0.014873263459722813 0 0.0044242608637552255 0.013059829998454228 0 0.0084885088590963432 0.016192498772317963 0 0.008348224156913461 0.016122269081549564 0 0.008276516410279499 0.016237444124710048 0 0.0087416023857976467 0.015648788335929587 0 0.0089887188143805332 0.014801351227315176 0 0.0092253486014461442 0.014997285057497763 0 0.0092922495654926378 0.014970454001983702 0 0.0092613725657829625 0.01496092587625252 0 0.0089887188143805332 0.014801351227315176 0 0.0095914172071005447 0.014161449919259633 0 0.008348224156913461 0.016122269081549564 0 0.0082134561428589461 0.016117886665371967 0 0.008276516410279499 0.016237444124710048 0 0.0031914514180350437 0.020227011237659111 0 0.0032038217593931646 0.020164141681878706 0 0.0030707143834864193 0.020210415078197645 0 0.0031914514180350437 0.020227011237659111 0 0.0032583744008537695 0.020185303310600661 0 0.0032038217593931646 0.020164141681878706 0 0.0016430934294401991 0.018009863816459259 0 0.0018474236002870216 0.016954830849416 0 -0.00053583206311314934 0.015662673823485969 0 -0.0013042213042794447 0.015367575500445893 0 -0.00073444099009958407 0.015176922316915531 0 0.0031914514180350437 0.020227011237659111 0 0.0032583744008537695 0.020185303310600661 0 0.0032772460427470144 0.020232655927994107 0 0.0033118954558896043 0.02016903774058627 0 0.0032746143686772544 0.020154513092539478 0 0.0033448376044630493 0.020175915763972013 0 0.0036521911283632939 0.016242967394534815 0 0.0044112436356283169 0.016533342488015121 0 0.0037100062208942244 0.017756490371110014 0 0.0018474236002870216 0.016954830849416 0 0.0046461312387993548 0.018564804202598768 0 0.0025572831340982482 0.020389358903250304 0 0.0018474236002870216 0.016954830849416 0 0.0032583744008537695 0.020185303310600661 0 0.0033118954558896043 0.02016903774058627 0 0.0032772460427470144 0.020232655927994107 0 0.0032583744008537695 0.020185303310600661 0 0.0033118954558896043 0.02016903774058627 0 0.0032929420778813503 0.020151883892891999 0 0.0016786875420805637 0.012774057239504977 0 0.0016803067079427384 0.012776614476988827 0 0.0016451818634451159 0.01276075351530353 0 0.0017155632482275872 0.012775376480851119 0 0.0016907872094621391 0.012776627475599538 0 0.0016820740639314805 0.012776852860368348 0 0.0049262632802463359 0.014873263459722813 0 0.0018474236002870216 0.016954830849416 0 0.0017155632482275872 0.012775376480851119 0 0.0017018510407570415 0.012781239576598652 0 0.0017180905958079429 0.012795827613787079 0 0.0017018510407570415 0.012781239576598652 0 0.0016786875420805637 0.012774057239504977 0 0.0017180905958079429 0.012795827613787079 0 0.0017155632482275872 0.012775376480851119 0 0.0016907872094621391 0.012776627475599538 0 0.0017018510407570415 0.012781239576598652 0 0.0016907872094621391 0.012776627475599538 0 0.0017018510407570415 0.012781239576598652 0 0.0016786875420805637 0.012774057239504977 0 0.0016907872094621391 0.012776627475599538 0 0.0016786875420805637 0.012774057239504977 0 0.0016803067079427384 0.012776614476988827 0 0.0016907872094621391 0.012776627475599538 0 0.0016820740639314805 0.012776852860368348 0 0.0016803067079427384 0.012776614476988827 0 0.0018474236002870216 0.016954830849416 0 0.0010499805617886612 0.014838294017067368 0 -0.0012398574215180189 0.015222538311583848 0 -0.00073444099009958407 0.015176922316915531 0 -0.00070620020125292278 0.014227483845669259 0 0.0010499805617886612 0.014838294017067368 0 -0.0029206033745349767 0.01273972109323972 0 0.0010499805617886612 0.014838294017067368 0 -0.0024164941705102634 0.012162857953137918 0 -0.00073444099009958407 0.015176922316915531 0 -0.00070620020125292278 0.014227483845669259 0 -0.0002284626606929652 0.015095849366370364 0 -0.00091918946128932125 0.013834501973795777 0 -0.00077731796496953096 0.013398142025553587 0 -0.00080242490659559497 0.013357814625244425 0 -0.0013042213042794447 0.015367575500445893 0 -0.0012398574215180189 0.015222538311583848 0 -0.00073444099009958407 0.015176922316915531 0 -0.0029206033745349767 0.01273972109323972 0 -0.0031569157546717467 0.014075531681904219 0 -0.00053583206311314934 0.015662673823485969 0 -0.00073444099009958407 0.015176922316915531 0 -0.0002284626606929652 0.015095849366370364 0 0.0016803067079427384 0.012776614476988827 0 0.0016451818634451159 0.01276075351530353 0 0.0016277663220870388 0.012759466501151891 0 -0.0060241842004113491 0.012062366641148618 0 -0.0063124366916539046 0.012578481496813244 0 -0.0051840848710189751 0.013546024316147222 0 -0.0035440954492435024 0.010263635204703534 0 -0.0038462071066833131 0.010917281436274306 0 -0.0038632778264241995 0.010287842302214261 0 -0.0047690915920750058 0.011536633984386712 0 -0.0047979594400230224 0.011488515688964411 0 -0.0048612794827712991 0.011655236087749503 0 -0.0065216643587011581 0.010522048915516686 0 -0.0024164941705102634 0.012162857953137918 0 -0.0075712097630187972 0.011054659671503425 0 -0.0065216643587011581 0.010522048915516686 0 -0.0047690915920750058 0.011536633984386712 0 -0.0048412368948086782 0.011690032358173154 0 -0.0048612794827712991 0.011655236087749503 0 -0.0075712097630187972 0.011054659671503425 0 -0.0029206033745349767 0.01273972109323972 0 -0.0029206033745349767 0.01273972109323972 0 -0.0024164941705102634 0.012162857953137918 0 -0.0038462071066833131 0.010917281436274306 0 -0.0038632778264241995 0.010287842302214261 0 -0.0042951808676258418 0.010095779741490068 0 -0.0024164941705102634 0.012162857953137918 0 -0.0023815847250889532 0.0095256099002678923 0 0.0016451818634451159 0.01276075351530353 0 0.0016277663220870388 0.012759466501151891 0 0.0016445453097138588 0.012822192909816323 0 0.0016786875420805637 0.012774057239504977 0 0.0016451818634451159 0.01276075351530353 0 0.0017180905958079429 0.012795827613787079 0 0.00072910119924068061 0.012890135490081866 0 0.0044242608637552255 0.013059829998454228 0 0.0016451818634451159 0.01276075351530353 0 0.0016445453097138588 0.012822192909816323 0 0.0018311261903918089 0.012753082643674227 0 -0.0023815847250889532 0.0095256099002678923 0 0.0031966380625698303 0.0099742521607080435 0 0.0016451818634451159 0.01276075351530353 0 0.0018352354485877719 0.012687022123380066 0 0.0018311261903918089 0.012753082643674227 0 -0.0058842340409388126 0.0040465169007038544 0 -0.0067646916922306189 0.0054081354488467884 0 -0.0013203148939509564 0.0089648229566397595 0 -0.0058842340409388126 0.0040465169007038544 0 -0.0015475027191685067 0.002249566407911993 0 -0.0013203148939509564 0.0089648229566397595 0 -0.0023815847250889532 0.0095256099002678923 0 -0.0057697508661659191 0.0091597638009162218 0 -0.0038632778264241995 0.010287842302214261 0 -0.0042951808676258418 0.010095779741490068 0 -0.0037678219730906772 0.0098756361871961511 0 -0.0058842340409388126 0.0040465169007038544 0 -0.0067646916922306189 0.0054081354488467884 0 -0.0071587667930364798 0.0048174023103786916 0 -0.0067646916922306189 0.0054081354488467884 0 -0.0071823018149091405 0.0053103146867170912 0 -0.0071587667930364798 0.0048174023103786916 0 -0.0070165189087136384 0.0057008957357880747 0 -0.0073407111520960716 0.0059459232155327155 0 -0.0066329856853771015 0.0061560290680185521 0 -0.0070165189087136384 0.0057008957357880747 0 -0.0067646916922306189 0.0054081354488467884 0 -0.0066329856853771015 0.0061560290680185521 0 -0.0070165189087136384 0.0057008957357880747 0 -0.0067646916922306189 0.0054081354488467884 0 -0.0071823018149091405 0.0053103146867170912 0 -0.0070165189087136384 0.0057008957357880747 0 -0.0071823018149091405 0.0053103146867170912 0 -0.0072785606782807188 0.005568053934873099 0 -0.0071823018149091405 0.0053103146867170912 0 -0.0072785606782807188 0.005568053934873099 0 -0.0076949724817676236 0.0052558654989173503 0 -0.0073407111520960716 0.0059459232155327155 0 -0.0076949724817676236 0.0052558654989173503 0 -0.0077029776616335211 0.0062883526252087681 0 -0.0072785606782807188 0.005568053934873099 0 -0.0073407111520960716 0.0059459232155327155 0 -0.0076949724817676236 0.0052558654989173503 0 -0.0070165189087136384 0.0057008957357880747 0 -0.0072785606782807188 0.005568053934873099 0 -0.0073407111520960716 0.0059459232155327155 0 -0.0114281570000914 0.010406402089042303 0 -0.01149618985924945 0.010292033129328339 0 -0.011356581968562708 0.0099245821102392807 0 -0.0114281570000914 0.010406402089042303 0 -0.011356581968562708 0.0099245821102392807 0 -0.011170431323961325 0.0098955836886954873 0 -0.0075712097630187972 0.011054659671503425 0 -0.010554659162193128 0.010724097282545964 0 -0.0071823018149091405 0.0053103146867170912 0 -0.0076949724817676236 0.0052558654989173503 0 -0.0071587667930364798 0.0048174023103786916 0 -0.0087521657207565561 0.0089376706793177999 0 -0.0057697508661659191 0.0091597638009162218 0 -0.0065216643587011581 0.010522048915516686 0 -0.0057697508661659191 0.0091597638009162218 0 -0.0072308928796901125 0.009213325379429706 0 -0.0072768694982611962 0.0092928346553658916 0 -0.0072005550226062276 0.0092641144554175547 0 -0.0035440954492435024 0.010263635204703534 0 -0.0038632778264241995 0.010287842302214261 0 -0.0037678219730906772 0.0098756361871961511 0 -0.0065216643587011581 0.010522048915516686 0 -0.0087521657207565561 0.0089376706793177999 0 0.0097385775457668779 0.013686590910343155 0 0.0095799191439605354 0.013673982752862043 0 0.0094117330867471462 0.01361908442935432 0 0.0098780868931656451 0.013884200735659293 0 0.0097636756127679469 0.013801449803776416 0 0.0097385775457668779 0.013686590910343155 0 0.0090930303715724831 0.013877964494295672 0 0.0089316825321541608 0.013816672453256859 0 0.0093682839070798399 0.013682205626839888 0 0.0095914172071005447 0.014161449919259633 0 0.0093231997773142953 0.013539465356397141 0 0.0097636756127679469 0.013801449803776416 0 0.0097385775457668779 0.013686590910343155 0 0.0095799191439605354 0.013673982752862043 0 0.0090930303715724831 0.013877964494295672 0 0.0094199993175922859 0.013780741767132279 0 0.0093682839070798399 0.013682205626839888 0 0.0095799191439605354 0.013673982752862043 0 0.0094117330867471462 0.01361908442935432 0 0.0094370743868301982 0.013543491444115123 0 0.0089316825321541608 0.013816672453256859 0 0.0093682839070798399 0.013682205626839888 0 0.0094117330867471462 0.01361908442935432 0 0.0094199993175922859 0.013780741767132279 0 0.0093682839070798399 0.013682205626839888 0 0.0094084557563762841 0.013655212149930032 0 0.0044242608637552255 0.013059829998454228 0 0.0031966380625698303 0.0099742521607080435 0 0.0052267073125440572 0.0099978577755746902 0 0.0031966380625698303 0.0099742521607080435 0 0.0093682839070798399 0.013682205626839888 0 0.00941662513954746 0.013635549428427053 0 0.0094117330867471462 0.01361908442935432 0 0.0031966380625698303 0.0099742521607080435 0 0.002148384687528699 0.0090824451340359921 0 0.00941662513954746 0.013635549428427053 0 0.0094117330867471462 0.01361908442935432 0 0.0094766220059863959 0.013405461101317243 0 0.0094117330867471462 0.01361908442935432 0 0.0094370743868301982 0.013543491444115123 0 0.0094766220059863959 0.013405461101317243 0 0.0095799191439605354 0.013673982752862043 0 0.0094370743868301982 0.013543491444115123 0 0.0092867995859945915 0.013471652798243956 0 0.0095369538488629217 0.013570935648836753 0 0.0096667804877530739 0.013891911832014039 0 0.0098780868931656451 0.013884200735659293 0 0.0097636756127679469 0.013801449803776416 0 0.0098710507291514087 0.013945870555506326 0 0.0097636756127679469 0.013801449803776416 0 0.0095799191439605354 0.013673982752862043 0 0.0098710507291514087 0.013945870555506326 0 0.0092867995859945915 0.013471652798243956 0 0.0093942295245930917 0.013426303611883227 0 0.0093572490426148194 0.013284593968894174 0 0.0096667804877530739 0.013891911832014039 0 0.0091218920095802736 0.012618319296386758 0 0.0094370743868301982 0.013543491444115123 0 0.0092867995859945915 0.013471652798243956 0 0.0093942295245930917 0.013426303611883227 0 0.0093942295245930917 0.013426303611883227 0 0.0094766220059863959 0.013405461101317243 0 0.0093572490426148194 0.013284593968894174 0 0.0094370743868301982 0.013543491444115123 0 0.0093942295245930917 0.013426303611883227 0 0.0094766220059863959 0.013405461101317243 0 0.002148384687528699 0.0090824451340359921 0 0.0090804008424032259 0.011736972620088154 0 0.0072484978682906117 0.0093369667431443329 0 0.0075877136328012795 0.010865174814109523 0 0.0060451168998140337 0.010398339347165386 0 0.0059446087909537605 0.0085260195050156362 0 0.0072484978682906117 0.0093369667431443329 0 0.0060451168998140337 0.010398339347165386 0 0.002148384687528699 0.0090824451340359921 0 0.00072350716201270249 0.0092774053343096137 0 -0.004908951126868101 0.0065349243855002412 0 -0.0056598963055752216 0.0075527533686945338 0 -0.0047663635971673607 0.008505528020890947 0 0.0092867995859945915 0.013471652798243956 0 0.0093572490426148194 0.013284593968894174 0 0.0091695678708498454 0.013158099704842517 0 0.0090804008424032259 0.011736972620088154 0 0.0091218920095802736 0.012618319296386758 0 0.0072484978682906117 0.0093369667431443329 0 0.0075877136328012795 0.010865174814109523 0 0.0085184458869255325 0.010139887026976064 0 -0.0074171302359851447 0.0070662518774683254 0 -0.0077029776616335211 0.0062883526252087681 0 -0.0071454723810918906 0.0065273823935140538 0 -0.0073407111520960716 0.0059459232155327155 0 -0.0077029776616335211 0.0062883526252087681 0 -0.0071454723810918906 0.0065273823935140538 0 -0.0073407111520960716 0.0059459232155327155 0 -0.0071454723810918906 0.0065273823935140538 0 -0.0066329856853771015 0.0061560290680185521 0 -0.0071454723810918906 0.0065273823935140538 0 -0.0066329856853771015 0.0061560290680185521 0 -0.006427676964302749 0.0069547636437251427 0 -0.0074171302359851447 0.0070662518774683254 0 -0.0071454723810918906 0.0065273823935140538 0 -0.006427676964302749 0.0069547636437251427 0 -0.0067646916922306189 0.0054081354488467884 0 -0.004908951126868101 0.0065349243855002412 0 -0.0066329856853771015 0.0061560290680185521 0 -0.004908951126868101 0.0065349243855002412 0 -0.0066329856853771015 0.0061560290680185521 0 -0.006427676964302749 0.0069547636437251427 0 -0.004908951126868101 0.0065349243855002412 0 -0.006427676964302749 0.0069547636437251427 0 -0.0056598963055752216 0.0075527533686945338 0 -0.0087138777904778031 0.0046969814571479378 0 0.002148384687528699 0.0090824451340359921 0 -0.0056598963055752216 0.0075527533686945338 0 -0.0056812843869410781 0.0093495733597535238 0 -0.0047663635971673607 0.008505528020890947 0 -0.0056598963055752216 0.0075527533686945338 0 -0.0066890225933189836 0.0080863748867760123 0 -0.0056812843869410781 0.0093495733597535238 0 -0.006427676964302749 0.0069547636437251427 0 -0.0056598963055752216 0.0075527533686945338 0 -0.0066890225933189836 0.0080863748867760123 0 -0.0074171302359851447 0.0070662518774683254 0 -0.006427676964302749 0.0069547636437251427 0 -0.0066890225933189836 0.0080863748867760123 0 -0.0066890225933189836 0.0080863748867760123 0 -0.007656494054345154 0.0083046756242765099 0 -0.0078468482494453273 0.0076986911548545377 0 -0.0074171302359851447 0.0070662518774683254 0 -0.0066890225933189836 0.0080863748867760123 0 -0.0078468482494453273 0.0076986911548545377 0 -0.0066890225933189836 0.0080863748867760123 0 -0.007656494054345154 0.0083046756242765099 0 -0.0069432200330271044 0.0094756002629468906 0 -0.0066890225933189836 0.0080863748867760123 0 -0.0069432200330271044 0.0094756002629468906 0 -0.0057568375487584153 0.0092529296499053119 0 -0.0069432200330271044 0.0094756002629468906 0 -0.0057568375487584153 0.0092529296499053119 0 -0.0048063962651055305 0.010401501049754907 0 -0.0065019877657270051 0.0083203040040784881 0 -0.0059935036200746321 0.0090030857574286659 0 -0.0098239196905951769 0.0073842882456563938 0 -0.0098999467702517181 0.0072720052389825193 0 -0.010056861991186853 0.0073022956688379888 0 -0.009763647471613927 0.0076073999648964214 0 -0.0098239196905951769 0.0073842882456563938 0 -0.010056861991186853 0.0073022956688379888 0 -0.0069432200330271044 0.0094756002629468906 0 -0.0048063962651055305 0.010401501049754907 0 -0.0047932695395205196 0.010725619699634148 0 -0.0090813480537965102 0.0084645129508880944 0 -0.0039826773659489738 0.0085509882164577899 0 -0.0059935036200746321 0.0090030857574286659 0 -0.0017773584670679936 0.010749317527501481 0 -0.0097954379293313555 0.0072132686832352983 0 -0.0098239196905951769 0.0073842882456563938 0 -0.0098999467702517181 0.0072720052389825193 0 -0.009763647471613927 0.0076073999648964214 0 -0.0096286462268679578 0.0073476141047261771 0 -0.0094003268053705138 0.0076333317175968588 0 -0.009763647471613927 0.0076073999648964214 0 -0.0098239196905951769 0.0073842882456563938 0 -0.0096286462268679578 0.0073476141047261771 0 -0.0097954379293313555 0.0072132686832352983 0 -0.0098239196905951769 0.0073842882456563938 0 -0.0096286462268679578 0.0073476141047261771 0 0.0075877136328012795 0.010865174814109523 0 0.0082490739476327336 0.011368177353815125 0 0.0085184458869255325 0.010139887026976064 0 0.0075877136328012795 0.010865174814109523 0 0.0068992775005793979 0.011686277251393477 0 0.0077150545898580641 0.012015204435333693 0 0.0075877136328012795 0.010865174814109523 0 0.0077150545898580641 0.012015204435333693 0 0.0082490739476327336 0.011368177353815125 0 0.0060451168998140337 0.010398339347165386 0 0.0068992775005793979 0.011686277251393477 0 0.0061871313082551265 0.012229877562490806 0 0.0075877136328012795 0.010865174814109523 0 0.0060451168998140337 0.010398339347165386 0 0.0068992775005793979 0.011686277251393477 0 -0.0056812843869410781 0.0093495733597535238 0 -0.0047663635971673607 0.008505528020890947 0 -0.0046388371078426374 0.010604356724062555 0 0.00072350716201270249 0.0092774053343096137 0 -0.0017773584670679936 0.010749317527501481 0 0.0068992775005793979 0.011686277251393477 0 0.0061871313082551265 0.012229877562490806 0 0.0067431725126682711 0.012163144860094764 0 0.0068992775005793979 0.011686277251393477 0 0.0067431725126682711 0.012163144860094764 0 0.0071759023817138503 0.012333281270265247 0 -0.0017773584670679936 0.010749317527501481 0 -0.0039826773659489738 0.0085509882164577899 0 0.0030234026909577751 0.01119357289529789 0 -0.0017773584670679936 0.010749317527501481 0 0.0030234026909577751 0.01119357289529789 0 -0.0039826773659489738 0.0085509882164577899 0 0.00654241907714716 0.01250397332154058 0 0.0061871313082551265 0.012229877562490806 0 0.0064134574916123463 0.012385312831336719 0 0.00086054357804918552 0.011083373152886544 0 -0.0012948552054616752 0.0084428389005272997 0 -0.0012399523525703558 0.0098345611833189003 0 0.0061871313082551265 0.012229877562490806 0 0.0067431725126682711 0.012163144860094764 0 0.0064134574916123463 0.012385312831336719 0 0.0067431725126682711 0.012163144860094764 0 0.0064134574916123463 0.012385312831336719 0 0.0071759023817138503 0.012333281270265247 0 0.0064134574916123463 0.012385312831336719 0 0.0071759023817138503 0.012333281270265247 0 0.0076913049853221446 0.012712377518278566 0 0.0071759023817138503 0.012333281270265247 0 0.0077303573637003001 0.01247508139569104 0 0.0076913049853221446 0.012712377518278566 0 0.0071759023817138503 0.012333281270265247 0 0.0077150545898580641 0.012015204435333693 0 0.0077303573637003001 0.01247508139569104 0 0.0068992775005793979 0.011686277251393477 0 0.0071759023817138503 0.012333281270265247 0 0.0077150545898580641 0.012015204435333693 0 0.0077150545898580641 0.012015204435333693 0 0.0083837663378634568 0.012078632333541254 0 0.0082490739476327336 0.011368177353815125 0 0.0077150545898580641 0.012015204435333693 0 0.008158601984663864 0.012602433363013775 0 0.0083837663378634568 0.012078632333541254 0 0.008480735388055936 0.013041772970954142 0 0.0076913049853221446 0.012712377518278566 0 0.008158601984663864 0.012602433363013775 0 0.0077150545898580641 0.012015204435333693 0 0.0077303573637003001 0.01247508139569104 0 0.008158601984663864 0.012602433363013775 0 0.0077303573637003001 0.01247508139569104 0 0.0076913049853221446 0.012712377518278566 0 0.008158601984663864 0.012602433363013775 0 0.008480735388055936 0.013041772970954142 0 0.008158601984663864 0.012602433363013775 0 0.0087686140004679773 0.012727123430733584 0 0.0095471576611055684 0.013469807057007009 0 0.009282766552234565 0.012479726532313216 0 0.008158601984663864 0.012602433363013775 0 0.0087686140004679773 0.012727123430733584 0 0.0083837663378634568 0.012078632333541254 0 0.0095306152319891268 0.013471426695552723 0 0.0087686140004679773 0.012727123430733584 0 0.0090704197386355118 0.01178732230423577 0 0.0090704197386355118 0.01178732230423577 0 0.0083837663378634568 0.012078632333541254 0 0.0082490739476327336 0.011368177353815125 0 0.0087686140004679773 0.012727123430733584 0 0.0090704197386355118 0.01178732230423577 0 0.0083837663378634568 0.012078632333541254 0 0.0099162277511880836 0.013689036951228797 0 0.0091218920095802736 0.012618319296386758 0 0.0090704197386355118 0.01178732230423577 0 0.0082490739476327336 0.011368177353815125 0 0.0085184458869255325 0.010139887026976064 0 0.009282766552234565 0.012479726532313216 0 0.0091218920095802736 0.012618319296386758 0 0.0095945957875947646 0.013495383457883941 0 0.0096364429855536997 0.013458773817461963 0 0.0095537929397838187 0.013395982615484615 0 0.0099162277511880836 0.013689036951228797 0 0.0096737935511101332 0.013515552111962863 0 0.0098836324934492049 0.013672303815462772 0 0.0097338521719516694 0.013558199638663566 0 0.0097959119056210877 0.013701693681089228 0 0.0098836324934492049 0.013672303815462772 0 0.0097959119056210877 0.013701693681089228 0 0.0098794740177283857 0.01378265732869028 0 0.0095945957875947646 0.013495383457883941 0 0.0096364429855536997 0.013458773817461963 0 0.0096558460814908983 0.013532058249113708 0 0.0095306152319891268 0.013471426695552723 0 0.0095945957875947646 0.013495383457883941 0 0.0096558460814908983 0.013532058249113708 0 0.0096364429855536997 0.013458773817461963 0 0.0096558460814908983 0.013532058249113708 0 0.0097338521719516694 0.013558199638663566 0 0.0097338521719516694 0.013558199638663566 0 0.0097354612266586926 0.013590138706961356 0 0.0097355157499123476 0.013632536728656258 0 0.0096558460814908983 0.013532058249113708 0 0.0097338521719516694 0.013558199638663566 0 0.0097354612266586926 0.013590138706961356 0 0.0097393739631873848 0.01360763802129999 0 0.0097354612266586926 0.013590138706961356 0 0.0097355157499123476 0.013632536728656258 0 0.0097225908382290189 0.01370471063560447 0 0.0097355157499123476 0.013632536728656258 0 0.0097392182634336143 0.0136803348109007 0 0.0097338521719516694 0.013558199638663566 0 0.0097355157499123476 0.013632536728656258 0 0.0097392182634336143 0.0136803348109007 0 0.0097338521719516694 0.013558199638663566 0 0.0097392182634336143 0.0136803348109007 0 0.0097959119056210877 0.013701693681089228 0 0.0097959119056210877 0.013701693681089228 0 0.0097656165680306325 0.013747999831207882 0 0.0098208643903092661 0.013781266248798005 0 0.0097392182634336143 0.0136803348109007 0 0.0097959119056210877 0.013701693681089228 0 0.0097656165680306325 0.013747999831207882 0 0.0097656165680306325 0.013747999831207882 0 0.0098208643903092661 0.013781266248798005 0 0.0097624819407612484 0.013814595964925971 0 0.0097225908382290189 0.01370471063560447 0 0.0097392182634336143 0.0136803348109007 0 0.0097263221488032778 0.013757742526580262 0 0.0097392182634336143 0.0136803348109007 0 0.0097656165680306325 0.013747999831207882 0 0.0097263221488032778 0.013757742526580262 0 0.0097656165680306325 0.013747999831207882 0 0.0097263221488032778 0.013757742526580262 0 0.0097624819407612484 0.013814595964925971 0 0.0096921590557126919 0.013872849723579288 0 0.0097263221488032778 0.013757742526580262 0 0.0097624819407612484 0.013814595964925971 0 0.0096921590557126919 0.013872849723579288 0 0.0097464659219487181 0.013904369247719145 0 0.0097624819407612484 0.013814595964925971 0 0.0098208643903092661 0.013781266248798005 0 0.0097624819407612484 0.013814595964925971 0 0.009829395163778322 0.013874008076360222 0 0.0097464659219487181 0.013904369247719145 0 0.0097624819407612484 0.013814595964925971 0 0.009829395163778322 0.013874008076360222 0 0.0098907058721542946 0.013874868036960575 0 0.0099048178601254446 0.013867754582605323 0 0.0098794740177283857 0.01378265732869028 0 0.0098208643903092661 0.013781266248798005 0 0.009829395163778322 0.013874008076360222 0 0.0098907058721542946 0.013874868036960575 0 0.0098710507291514087 0.013945870555506326 0 0.0099048178601254446 0.013867754582605323 0 0.0099509583329753827 0.013768632424021668 0 0.0099076999848068427 0.013913283895798566 0 0.0098907058721542946 0.013874868036960575 0 0.0099048178601254446 0.013867754582605323 0 0.0099076999848068427 0.013913283895798566 0 0.0098710507291514087 0.013945870555506326 0 0.0099048178601254446 0.013867754582605323 0 0.0099048178601254446 0.013867754582605323 0 0.0099509583329753827 0.013768632424021668 0 0.0098794740177283857 0.01378265732869028 0 0.0098836324934492049 0.013672303815462772 0 0.0099509583329753827 0.013768632424021668 0 0.0098794740177283857 0.01378265732869028 0 0.0098208643903092661 0.013781266248798005 0 0.0098907058721542946 0.013874868036960575 0 0.0098794740177283857 0.01378265732869028 0 0.0097959119056210877 0.013701693681089228 0 0.0098208643903092661 0.013781266248798005 0 0.0098794740177283857 0.01378265732869028 0 0.024782000877139172 0.0098613171544250384 0 0.023495192051152584 0.0091658183095419728 0 0.023826377277707464 0.010276328713593925 0 0.024782000877139172 0.0098613171544250384 0 0.024525179793882867 0.0085036957543508339 0 0.023495192051152584 0.0091658183095419728 0 0.025212646299357978 0.0076093732611410957 0 0.025332781682053759 0.0069643248924486714 0 0.025753206613406399 0.0048437973671228932 0 0.024999982359087583 0.0056603528448008079 0 0.024999985536509329 0.0043200807519700761 0 0.024782000877139172 0.0098613171544250384 0 0.025337733824919887 0.0081538213535556087 0 0.024525179793882867 0.0085036957543508339 0 0.025753206613406399 0.0048437973671228932 0 0.024999982359087583 0.0056603528448008079 0 0.025409822176513986 0.0058374997541319005 0 0.025337733824919887 0.0081538213535556087 0 0.02480457619032389 0.0078814067611811794 0 0.024525179793882867 0.0085036957543508339 0 0.024999982359087583 0.0056603528448008079 0 0.025409822176513986 0.0058374997541319005 0 0.025047433226853277 0.0068512106976198707 0 0.025337733824919887 0.0081538213535556087 0 0.024934408587855159 0.0074839785437220419 0 0.025068332556041836 0.0073539639869729303 0 0.025337733824919887 0.0081538213535556087 0 0.02480457619032389 0.0078814067611811794 0 0.024934408587855159 0.0074839785437220419 0 0.024525179793882867 0.0085036957543508339 0 0.023495192051152584 0.0091658183095419728 0 0.024422140742512095 0.0074581616035990237 0 0.02480457619032389 0.0078814067611811794 0 0.024525179793882867 0.0085036957543508339 0 0.024422140742512095 0.0074581616035990237 0 0.022819053633148879 0.011976313160623779 0 0.02298511293829095 0.012387059032414953 0 0.023514932961118399 0.012463246151387188 0 0.02480457619032389 0.0078814067611811794 0 0.024422140742512095 0.0074581616035990237 0 0.024934408587855159 0.0074839785437220419 0 0.023239910835900345 0.010540465041137084 0 0.02401632297958689 0.0099282942736542163 0 0.023132165572962788 0.012170806908124252 0 0.022819053633148879 0.011976313160623779 0 0.02298511293829095 0.012387059032414953 0 0.023132165572962788 0.012170806908124252 0 0.023342008654015187 0.01221247854086349 0 0.023132463671167405 0.012507811196334664 0 0.023342008654015187 0.01221247854086349 0 0.023573886996126038 0.011996325197332094 0 0.023554388836296413 0.012323793497619352 0 0.023132165572962788 0.012170806908124252 0 0.023342008654015187 0.01221247854086349 0 0.023361488396862987 0.011941381392595495 0 0.023132165572962788 0.012170806908124252 0 0.023361488396862987 0.011941381392595495 0 0.023270928728990784 0.011626229203105935 0 0.023342008654015187 0.01221247854086349 0 0.023361488396862987 0.011941381392595495 0 0.023573886996126038 0.011996325197332094 0 0.023361488396862987 0.011941381392595495 0 0.023511129005357536 0.011666950751100396 0 0.023270928728990784 0.011626229203105935 0 0.023361488396862987 0.011941381392595495 0 0.023511129005357536 0.011666950751100396 0 0.023573886996126038 0.011996325197332094 0 0.023511129005357536 0.011666950751100396 0 0.023270928728990784 0.011626229203105935 0 0.02357899986157035 0.011028224348583103 0 0.023495192051152584 0.0091658183095419728 0 0.023154508062353567 0.010793820355553103 0 0.023826377277707464 0.010276328713593925 0 0.023270928728990784 0.011626229203105935 0 0.022819053633148879 0.011976313160623779 0 0.023154508062353567 0.010793820355553103 0 0.023239910835900345 0.010540465041137084 0 0.023147476314875699 0.010738440385608129 0 0.023132165572962788 0.012170806908124252 0 0.023270928728990784 0.011626229203105935 0 0.022819053633148879 0.011976313160623779 0 0.023154508062353567 0.010793820355553103 0 0.02319985930367394 0.010863697031936357 0 0.024038554441466124 0.010960056040018311 0 0.023154508062353567 0.010793820355553103 0 0.024038554441466124 0.010960056040018311 0 0.023826377277707464 0.010276328713593925 0 0.023270928728990784 0.011626229203105935 0 0.023154508062353567 0.010793820355553103 0 0.02357899986157035 0.011028224348583103 0 0.023380659897093897 0.010853617472191072 0 0.023304492069558324 0.010898786892096932 0 0.02357899986157035 0.011028224348583103 0 0.02319985930367394 0.010863697031936357 0 0.0232527194123794 0.010847314841291535 0 0.023154508062353567 0.010793820355553103 0 0.02357899986157035 0.011028224348583103 0 0.02319985930367394 0.010863697031936357 0 0.0232527194123794 0.010847314841291535 0 0.023279577203179129 0.010958184892126679 0 0.023258358673881676 0.010728043089839047 0 0.023168931387586224 0.0083099493215278829 0 0.023966534249955092 0.0076153426760881427 0 0.023263066865108727 0.010857792788985337 0 0.0232527194123794 0.010847314841291535 0 0.023272444214084691 0.01083565094970947 0 0.02319985930367394 0.010863697031936357 0 0.0232527194123794 0.010847314841291535 0 0.023279577203179129 0.010958184892126679 0 0.02319985930367394 0.010863697031936357 0 0.023279577203179129 0.010958184892126679 0 0.024038554441466124 0.010960056040018311 0 0.023168931387586224 0.0083099493215278829 0 0.024688990685427566 0.0057971411053581272 0 0.023685585515089876 0.0050318608342207749 0 0.023076503412157362 0.0052952416438335117 0 0.023344129632462459 0.0045099029212382919 0 0.024688990685427566 0.0057971411053581272 0 0.02501569640369284 0.0032050854360514062 0 0.024782000877139172 0.0098613171544250384 0 0.024038554441466124 0.010960056040018311 0 0.023826377277707464 0.010276328713593925 0 0.025212646299357978 0.0076093732611410957 0 0.024688990685427566 0.0057971411053581272 0 0.024688990685427566 0.0057971411053581272 0 0.025002792181327931 0.0043181609934651137 0 0.025753206613406399 0.0048437973671228932 0 0.02607984785046669 0.0039278883310547462 0 0.024999985536509329 0.0043200807519700761 0 0.026134792390116315 0.0038403026033116696 0 0.024999983802241096 0.0043198840443544979 0 0.024999980144623884 0.0029622847899448287 0 0.026134792390116315 0.0038403026033116696 0 0.024999980144623884 0.0029622847899448287 0 0.026630250497893714 0.0024956688462097637 0 0.024999980144623884 0.0029622847899448287 0 0.025912847675606178 0.0017433705738635339 0 0.026630250497893714 0.0024956688462097637 0 0.024999980144623884 0.0029622847899448287 0 0.025912847675606178 0.0017433705738635339 0 0.024999983476929031 0.001604677984533207 0 0.024999983476929031 0.001604677984533207 0 0.025509668717522454 0.00089591655471000793 0 0.024999963574969006 0.00024698185000515872 0 0.025912847675606178 0.0017433705738635339 0 0.024999983476929031 0.001604677984533207 0 0.025509668717522454 0.00089591655471000793 0 0.025912847675606178 0.0017433705738635339 0 0.026159120152301773 0.00078809592426241101 0 0.027111839238607889 0.0011524052796680754 0 0.025912847675606178 0.0017433705738635339 0 0.025509668717522454 0.00089591655471000793 0 0.026159120152301773 0.00078809592426241101 0 0.026544109333278016 -6.6801006671294498e-05 0 0.025474894904227621 -3.1222197956914973e-05 0 0.026159120152301773 0.00078809592426241101 0 0.025474894904227621 -3.1222197956914973e-05 0 0.025509668717522454 0.00089591655471000793 0 0.024999963574969006 0.00024698185000515872 0 0.025474894904227621 -3.1222197956914973e-05 0 0.025509668717522454 0.00089591655471000793 0 0.026159120152301773 0.00078809592426241101 0 0.023969704559646181 0.0028322191131022437 0 0.024018567552427664 0.0034268525160100361 0 0.023633350242191205 0.0036753152565105443 0 0.023969704559646181 0.0028322191131022437 0 0.024018567552427664 0.0034268525160100361 0 0.024332541949065156 0.0031564164988476359 0 0.02561698588230037 0.00061561022535967726 0 0.025363280252469218 0.0026254189401900669 0 0.024018567552427664 0.0034268525160100361 0 0.024232131228971415 0.0035189914309154448 0 0.024332541949065156 0.0031564164988476359 0 0.026159120152301773 0.00078809592426241101 0 0.026849003404045634 0.00043111224853827334 0 0.027111839238607889 0.0011524052796680754 0 0.02756911999895104 -0.0001427690463586527 0 0.026849003404045634 0.00043111224853827334 0 0.027111839238607889 0.0011524052796680754 0 0.026544109333278016 -6.6801006671294498e-05 0 0.02756911999895104 -0.0001427690463586527 0 0.026849003404045634 0.00043111224853827334 0 0.026544109333278016 -6.6801006671294498e-05 0 0.026159120152301773 0.00078809592426241101 0 0.026849003404045634 0.00043111224853827334 0 0.023633350242191205 0.0036753152565105443 0 0.023811610755621958 0.0038165557575092846 0 0.023778461873546718 0.004319302943174696 0 0.024018567552427664 0.0034268525160100361 0 0.023633350242191205 0.0036753152565105443 0 0.023811610755621958 0.0038165557575092846 0 0.024018567552427664 0.0034268525160100361 0 0.023811610755621958 0.0038165557575092846 0 0.024278337212214656 0.0035683199409529921 0 0.023898084311519407 0.0037776902259494872 0 0.024131148281631352 0.0036690838769911894 0 0.024055560064370464 0.0035330759596188684 0 0.024131148281631352 0.0036690838769911894 0 0.023811610755621958 0.0038165557575092846 0 0.024116383820353592 0.0039104866970500014 0 0.024201472256641855 0.003654419246774226 0 0.023811610755621958 0.0038165557575092846 0 0.024116383820353592 0.0039104866970500014 0 0.023981231115128274 0.0040629758753406141 0 0.023811610755621958 0.0038165557575092846 0 0.023981231115128274 0.0040629758753406141 0 0.023778461873546718 0.004319302943174696 0 0.024116383820353592 0.0039104866970500014 0 0.023981231115128274 0.0040629758753406141 0 0.024211104114034026 0.004205730196326138 0 0.023981231115128274 0.0040629758753406141 0 0.023778461873546718 0.004319302943174696 0 0.024211104114034026 0.004205730196326138 0 0.025912847675606178 0.0017433705738635339 0 0.027111839238607889 0.0011524052796680754 0 0.026630250497893714 0.0024956688462097637 0 0.025363280252469218 0.0026254189401900669 0 0.02501569640369284 0.0032050854360514062 0 0.023633350242191205 0.0036753152565105443 0 0.023778461873546718 0.004319302943174696 0 0.023344129632462459 0.0045099029212382919 0 0.023685585515089876 0.0050318608342207749 0 0.023778461873546718 0.004319302943174696 0 0.023344129632462459 0.0045099029212382919 0 0.023778461873546718 0.004319302943174696 0 0.024303562153949534 0.0047636098149743114 0 0.024211104114034026 0.004205730196326138 0 0.023685585515089876 0.0050318608342207749 0 0.023778461873546718 0.004319302943174696 0 0.024303562153949534 0.0047636098149743114 0 0.023258358673881676 0.010728043089839047 0 0.023425924750264931 0.010621081023160069 0 0.023305772016981075 0.010779419639078957 0 0.024303562153949534 0.0047636098149743114 0 0.024901274775543852 0.0045098130375654253 0 0.024568689570883609 0.0042968476136462826 0 0.023966534249955092 0.0076153426760881427 0 0.023762106975124493 0.0082276767560432347 0 0.023762106975124493 0.0082276767560432347 0 0.023169635819158627 0.011242779523318577 0 0.025004967998712217 0.0041321495858085309 0 0.024568689570883609 0.0042968476136462826 0 0.024605075192964426 0.0038930141734859216 0 0.024901274775543852 0.0045098130375654253 0 0.025004967998712217 0.0041321495858085309 0 0.024568689570883609 0.0042968476136462826 0 0.023762106975124493 0.0082276767560432347 0 0.023306372776003035 0.004268375496622386 0 0.023306372776003035 0.004268375496622386 0 0.024371917166845357 0.0038818774726072681 0 0.024116383820353592 0.0039104866970500014 0 0.024211104114034026 0.004205730196326138 0 0.024605075192964426 0.0038930141734859216 0 0.024303562153949534 0.0047636098149743114 0 0.024211104114034026 0.004205730196326138 0 0.024568689570883609 0.0042968476136462826 0 0.024211104114034026 0.004205730196326138 0 0.024568689570883609 0.0042968476136462826 0 0.024605075192964426 0.0038930141734859216 0 0.024116383820353592 0.0039104866970500014 0 0.024201472256641855 0.003654419246774226 0 0.024605075192964426 0.0038930141734859216 0 0.024085539931957365 0.0038241077100775785 0 0.023915987312178928 0.0037359053992351591 0 0.023856830444879847 0.0039384693315917705 0 0.024131148281631352 0.0036690838769911894 0 0.024371917166845357 0.0038818774726072681 0 0.023746727239916558 0.0036505287107555838 0 0.023915987312178928 0.0037359053992351591 0 0.023687933348877119 0.0038504137170081941 0 0.023915987312178928 0.0037359053992351591 0 0.023856830444879847 0.0039384693315917705 0 0.023687933348877119 0.0038504137170081941 0 0.02514654225743607 0.0029476700903789213 0 0.024911540960349123 0.002945608498177512 0 0.024737188138902171 0.0032011605463449144 0 0.024651829180572082 0.002819136487525705 0 0.024911540960349123 0.002945608498177512 0 0.024737188138902171 0.0032011605463449144 0 0.024232131228971415 0.0035189914309154448 0 0.024737188138902171 0.0032011605463449144 0 0.024332541949065156 0.0031564164988476359 0 0.024131148281631352 0.0036690838769911894 0 0.024473042069994021 0.0035202008487319621 0 0.024651829180572082 0.002819136487525705 0 0.024737188138902171 0.0032011605463449144 0 0.024332541949065156 0.0031564164988476359 0 0.022420617164006444 0.0034865119272313059 0 0.021242144599343826 0.0043571552293960765 0 0.021340853998918538 0.0042185901513456707 0 0.021308739038415708 0.0041694120286586579 0 0.021393482637087166 0.0041004267367239691 0 0.021407697451109028 0.0042336842669465653 0 0.021340853998918538 0.0042185901513456707 0 0.021393482637087166 0.0041004267367239691 0 0.021308739038415708 0.0041694120286586579 0 0.021393482637087166 0.0041004267367239691 0 0.02127857448773933 0.0041114405798042394 0 0.02127471993449551 0.004229277195434456 0 0.021340853998918538 0.0042185901513456707 0 0.021308739038415708 0.0041694120286586579 0 0.021463806999447221 0.004200740221122763 0 0.02144378835541191 0.0042105378699600496 0 0.021393482637087166 0.0041004267367239691 0 0.023389419471658183 0.003528898861731378 0 0.024473042069994021 0.0035202008487319621 0 0.021463806999447221 0.004200740221122763 0 0.021483210357717344 0.0041125158699758203 0 0.021393482637087166 0.0041004267367239691 0 0.023389419471658183 0.003528898861731378 0 0.022514434005416434 0.0040671848247822145 0 0.023628824652033625 0.0040473777538191204 0 0.023856830444879847 0.0039384693315917705 0 0.023687933348877119 0.0038504137170081941 0 0.023306372776003035 0.004268375496622386 0 0.022514434005416434 0.0040671848247822145 0 0.02152511386783508 0.0040109860975257455 0 0.021483210357717344 0.0041125158699758203 0 0.021437147332305007 0.0040447220201584025 0 0.021483210357717344 0.0041125158699758203 0 0.021437147332305007 0.0040447220201584025 0 0.021393482637087166 0.0041004267367239691 0 0.021437147332305007 0.0040447220201584025 0 0.021393482637087166 0.0041004267367239691 0 0.021268162329432776 0.0040277522259093458 0 0.021393482637087166 0.0041004267367239691 0 0.021268162329432776 0.0040277522259093458 0 0.02127857448773933 0.0041114405798042394 0 0.022327672853328477 0.0072956865780256248 0 0.022164750365920069 0.0072102317205174184 0 0.021927534478982335 0.0074495697570241453 0 0.021437147332305007 0.0040447220201584025 0 0.021446284107385236 0.0039722749297084938 0 0.021268162329432776 0.0040277522259093458 0 0.02259861534930617 0.0067979084406755742 0 0.021276182774967137 0.0065013109569715911 0 0.02259861534930617 0.0067979084406755742 0 0.022768645663617325 0.0094376280637920862 0 0.022768645663617325 0.0094376280637920862 0 0.021276182774967137 0.0065013109569715911 0 0.023087746780651921 0.0067393746437708806 0 0.023186387672297901 0.006376773703224042 0 0.02350771911001483 0.0065574846194133294 0 0.023762106975124493 0.0082276767560432347 0 0.02259861534930617 0.0067979084406755742 0 0.02152511386783508 0.0040109860975257455 0 0.021437147332305007 0.0040447220201584025 0 0.021446284107385236 0.0039722749297084938 0 0.023306372776003035 0.004268375496622386 0 0.02259861534930617 0.0067979084406755742 0 0.023314772416136838 0.010111070836643473 0 0.02364541689806416 0.0099567574792926734 0 0.023608249422846006 0.010362910319041055 0 0.023314772416136838 0.010111070836643473 0 0.023608249422846006 0.010362910319041055 0 0.023360821631460887 0.01065260425879643 0 0.02364541689806416 0.0099567574792926734 0 0.023608249422846006 0.010362910319041055 0 0.023853984914540414 0.01007189416558968 0 0.023408048468112255 0.010619766042264209 0 0.023452708160603117 0.010561642820219043 0 0.023481426173844806 0.010648387600627881 0 0.023508019511940419 0.010510066634915634 0 0.022768645663617325 0.0094376280637920862 0 0.023408048468112255 0.010619766042264209 0 0.023481426173844806 0.010648387600627881 0 0.02342137562009116 0.010682098258498971 0 0.023481426173844806 0.010648387600627881 0 0.023478567812098873 0.010771156803812524 0 0.02342137562009116 0.010682098258498971 0 0.023478567812098873 0.010771156803812524 0 0.023374172189532392 0.010749101997613884 0 0.02342137562009116 0.010682098258498971 0 0.023478567812098873 0.010771156803812524 0 0.023374172189532392 0.010749101997613884 0 0.023351906109123122 0.010855863382111593 0 0.023374172189532392 0.010749101997613884 0 0.02342137562009116 0.010682098258498971 0 0.023360821631460887 0.01065260425879643 0 0.023408048468112255 0.010619766042264209 0 0.02342137562009116 0.010682098258498971 0 0.023360821631460887 0.01065260425879643 0 0.023508019511940419 0.010510066634915634 0 0.023377435224142807 0.010633785201960341 0 0.023314772416136838 0.010111070836643473 0 0.023219235327566402 0.010673278145753187 0 0.023360821631460887 0.01065260425879643 0 0.023425924750264931 0.010621081023160069 0 0.023340984285280097 0.010837727789600592 0 0.023305772016981075 0.010779419639078957 0 0.023219235327566402 0.010673278145753187 0 0.023360821631460887 0.01065260425879643 0 0.023317797000765278 0.010721562178330342 0 0.0232527194123794 0.010847314841291535 0 0.023258358673881676 0.010728043089839047 0 0.023272444214084691 0.01083565094970947 0 0.023258358673881676 0.010728043089839047 0 0.023305772016981075 0.010779419639078957 0 0.023272444214084691 0.01083565094970947 0 0.023305772016981075 0.010779419639078957 0 0.023300772427418244 0.010832700148267845 0 0.023272444214084691 0.01083565094970947 0 0.023340984285280097 0.010837727789600592 0 0.023305772016981075 0.010779419639078957 0 0.023300772427418244 0.010832700148267845 0 0.023340984285280097 0.010837727789600592 0 0.023287282098989635 0.010855239254489998 0 0.023265817426088367 0.010881963719403269 0 0.023263066865108727 0.010857792788985337 0 0.023272444214084691 0.01083565094970947 0 0.023287282098989635 0.010855239254489998 0 0.023300772427418244 0.010832700148267845 0 0.023272444214084691 0.01083565094970947 0 0.023287282098989635 0.010855239254489998 0 0.023340984285280097 0.010837727789600592 0 0.023300772427418244 0.010832700148267845 0 0.023287282098989635 0.010855239254489998 0 0.023263066865108727 0.010857792788985337 0 0.023287282098989635 0.010855239254489998 0 0.023271703979299969 0.010868417156870619 0 0.023219235327566402 0.010673278145753187 0 0.02329620101965792 0.0107895176309303 0 0.023265817426088367 0.010881963719403269 0 0.023169635819158627 0.011242779523318577 0 0.023319174701423022 0.010657511098680336 0 0.023374172189532392 0.010749101997613884 0 0.023317797000765278 0.010721562178330342 0 0.02329620101965792 0.0107895176309303 0 0.023374172189532392 0.010749101997613884 0 0.023360821631460887 0.01065260425879643 0 0.023317797000765278 0.010721562178330342 0 0.023219235327566402 0.010673278145753187 0 0.023317797000765278 0.010721562178330342 0 0.02329620101965792 0.0107895176309303 0 0.023374172189532392 0.010749101997613884 0 0.02329620101965792 0.0107895176309303 0 0.023351906109123122 0.010855863382111593 0 0.02329620101965792 0.0107895176309303 0 0.023265817426088367 0.010881963719403269 0 0.023351906109123122 0.010855863382111593 0 0.023603999337146315 0.011974508302594663 0 0.023900467892185542 0.011988808175558804 0 0.024206313579780148 0.013147089878869438 0 0.024327593761366645 0.013200802603147982 0 0.024388487143358163 0.01311394234329538 0 0.023265817426088367 0.010881963719403269 0 0.023251814620864727 0.010911160436513596 0 0.023351906109123122 0.010855863382111593 0 0.023263066865108727 0.010857792788985337 0 0.023271703979299969 0.010868417156870619 0 0.023251814620864727 0.010911160436513596 0 0.023287282098989635 0.010855239254489998 0 0.023265817426088367 0.010881963719403269 0 0.023271703979299969 0.010868417156870619 0 0.023511129005357536 0.011666950751100396 0 0.02357899986157035 0.011028224348583103 0 0.023918798316048786 0.011887791166157267 0 0.023265817426088367 0.010881963719403269 0 0.023271703979299969 0.010868417156870619 0 0.023251814620864727 0.010911160436513596 0 0.023380659897093897 0.010853617472191072 0 0.023603999337146315 0.011974508302594663 0 0.023511129005357536 0.011666950751100396 0 0.023573886996126038 0.011996325197332094 0 0.023918798316048786 0.011887791166157267 0 0.023573886996126038 0.011996325197332094 0 0.023773069499754773 0.011903994074302312 0 0.023554388836296413 0.012323793497619352 0 0.023665878659389905 0.011956572076372487 0 0.023603999337146315 0.011974508302594663 0 0.023603999337146315 0.011974508302594663 0 0.024119509051218617 0.012925023615975383 0 0.023773069499754773 0.011903994074302312 0 0.02394878391244671 0.012392795135944408 0 0.023554388836296413 0.012323793497619352 0 0.024206313579780148 0.013147089878869438 0 0.024245391955541106 0.01323100053162881 0 0.024327593761366645 0.013200802603147982 0 0.024245391955541106 0.01323100053162881 0 0.024327593761366645 0.013200802603147982 0 0.024277457900563272 0.013236998038648199 0 0.024327593761366645 0.013200802603147982 0 0.024429889200035054 0.013251386178887971 0 0.024277457900563272 0.013236998038648199 0 0.024429889200035054 0.013251386178887971 0 0.024491208124714021 0.013201797259295111 0 0.024630293411844931 0.013271782273411968 0 0.024327593761366645 0.013200802603147982 0 0.024429889200035054 0.013251386178887971 0 0.024491208124714021 0.013201797259295111 0 0.024429889200035054 0.013251386178887971 0 0.024630293411844931 0.013271782273411968 0 0.02461558274126115 0.0134011123250296 0 0.024619149205983647 0.013150231705787377 0 0.024491208124714021 0.013201797259295111 0 0.024630293411844931 0.013271782273411968 0 0.024619149205983647 0.013150231705787377 0 0.024630293411844931 0.013271782273411968 0 0.024717052416473932 0.013261711012597158 0 0.024619149205983647 0.013150231705787377 0 0.024491208124714021 0.013201797259295111 0 0.024388487143358163 0.01311394234329538 0 0.023987470338271737 0.011972434698272404 0 0.023900467892185542 0.011988808175558804 0 0.024327593761366645 0.013200802603147982 0 0.024491208124714021 0.013201797259295111 0 0.024388487143358163 0.01311394234329538 0 0.024751318072665805 0.013281655884755786 0 0.024717052416473932 0.013261711012597158 0 0.024732338543833495 0.013230061462850938 0 0.024751318072665805 0.013281655884755786 0 0.024717052416473932 0.013261711012597158 0 0.024765426557437648 0.013322889385036845 0 0.024751318072665805 0.013281655884755786 0 0.024765426557437648 0.013322889385036845 0 0.024771785767780052 0.013325850144793558 0 0.024717052416473932 0.013261711012597158 0 0.024772045878075667 0.013385348539093423 0 0.024765426557437648 0.013322889385036845 0 0.024630293411844931 0.013271782273411968 0 0.024772045878075667 0.013385348539093423 0 0.024702575153631862 0.013384088628511466 0 0.024630293411844931 0.013271782273411968 0 0.024717052416473932 0.013261711012597158 0 0.024772045878075667 0.013385348539093423 0 0.024772045878075667 0.013385348539093423 0 0.024765426557437648 0.013322889385036845 0 0.024795008408962226 0.013381707026310105 0 0.024765426557437648 0.013322889385036845 0 0.024795008408962226 0.013381707026310105 0 0.024771785767780052 0.013325850144793558 0 0.024778643010768278 0.013358615022689006 0 0.024741243064532695 0.013342312500021431 0 0.024807765815548888 0.013424723187084386 0 0.024795008408962226 0.013381707026310105 0 0.024778643010768278 0.013358615022689006 0 0.024807765815548888 0.013424723187084386 0 0.024795008408962226 0.013381707026310105 0 0.024778643010768278 0.013358615022689006 0 0.024771785767780052 0.013325850144793558 0 0.024778643010768278 0.013358615022689006 0 0.024741243064532695 0.013342312500021431 0 0.024756359075565663 0.01333169485989676 0 0.021840044779395745 0.015432189220170218 0 0.021698658158064151 0.0156166441741979 0 0.024756359075565663 0.01333169485989676 0 0.0247266863973425 0.013339804599606455 0 0.024732471135944515 0.013333881846336583 0 0.024741243064532695 0.013342312500021431 0 0.024756359075565663 0.01333169485989676 0 0.0247266863973425 0.013339804599606455 0 0.024756359075565663 0.01333169485989676 0 0.024771785767780052 0.013325850144793558 0 0.024754431540653928 0.01329632919975085 0 0.024751318072665805 0.013281655884755786 0 0.024771785767780052 0.013325850144793558 0 0.024754431540653928 0.01329632919975085 0 0.024778643010768278 0.013358615022689006 0 0.024756359075565663 0.01333169485989676 0 0.024771785767780052 0.013325850144793558 0 0.024754431540653928 0.01329632919975085 0 0.024732471135944515 0.013333881846336583 0 0.024743366206196913 0.013284197416837366 0 0.024756359075565663 0.01333169485989676 0 0.024754431540653928 0.01329632919975085 0 0.024732471135944515 0.013333881846336583 0 0.023626605482736117 0.013206246881409506 0 0.022957989167735018 0.01150779341794252 0 0.021730743440754222 0.012882651623166605 0 0.021784045394640999 0.013029351248890849 0 0.021664506369495965 0.012974231621327064 0 0.021373720817544493 0.0091572829847605206 0 0.021376278515748078 0.0091528824822363474 0 0.021355793770324229 0.0091650318533850889 0 0.021730743440754222 0.012882651623166605 0 0.021784045394640999 0.013029351248890849 0 0.021944613661594465 0.012965200446383015 0 0.021373720817544493 0.0091572829847605206 0 0.021390162981468439 0.0091610263427670553 0 0.021376278515748078 0.0091528824822363474 0 0.021653224535287032 0.01108246189751878 0 0.019860015426458464 0.011194457019203423 0 0.021653224535287032 0.01108246189751878 0 0.022957989167735018 0.01150779341794252 0 0.022957989167735018 0.01150779341794252 0 0.022259399965687553 0.0096788495493330459 0 0.023632394555692937 0.010694371798203779 0 0.023558686856342152 0.010723539097222332 0 0.023548072730358863 0.010628591373105241 0 0.022957989167735018 0.01150779341794252 0 0.024374142781030252 0.011990230460271461 0 0.024751318072665805 0.013281655884755786 0 0.024754431540653928 0.01329632919975085 0 0.024732338543833495 0.013230061462850938 0 0.024754431540653928 0.01329632919975085 0 0.024743366206196913 0.013284197416837366 0 0.024732338543833495 0.013230061462850938 0 0.023481426173844806 0.010648387600627881 0 0.023478567812098873 0.010771156803812524 0 0.023558686856342152 0.010723539097222332 0 0.023987470338271737 0.011972434698272404 0 0.024374142781030252 0.011990230460271461 0 0.024619149205983647 0.013150231705787377 0 0.024717052416473932 0.013261711012597158 0 0.024732338543833495 0.013230061462850938 0 0.023481426173844806 0.010648387600627881 0 0.023558686856342152 0.010723539097222332 0 0.023548072730358863 0.010628591373105241 0 0.022768645663617325 0.0094376280637920862 0 0.022259399965687553 0.0096788495493330459 0 0.023452708160603117 0.010561642820219043 0 0.023481426173844806 0.010648387600627881 0 0.023548072730358863 0.010628591373105241 0 0.02135395652703502 0.0091082197307242145 0 0.021375126475354445 0.0091379451835478485 0 0.021368861521320164 0.0091057515853045987 0 0.021390162981468439 0.0091610263427670553 0 0.021375126475354445 0.0091379451835478485 0 0.021383823480047765 0.0091304497165549635 0 0.021375126475354445 0.0091379451835478485 0 0.021383823480047765 0.0091304497165549635 0 0.021368861521320164 0.0091057515853045987 0 0.021368861521320164 0.0091057515853045987 0 0.021369253334522029 0.0090629892930018593 0 0.021386444239107637 0.0090819108023959382 0 0.021383823480047765 0.0091304497165549635 0 0.021368861521320164 0.0091057515853045987 0 0.021386444239107637 0.0090819108023959382 0 0.02135395652703502 0.0091082197307242145 0 0.021368861521320164 0.0091057515853045987 0 0.021358492632984154 0.0090813039752815627 0 0.021368861521320164 0.0091057515853045987 0 0.021358492632984154 0.0090813039752815627 0 0.021369253334522029 0.0090629892930018593 0 0.021276182774967137 0.0065013109569715911 0 0.021081605369179329 0.0075605200723284603 0 0.020773235276974611 0.0059463960953841629 0 0.020721556792762049 0.0059552351727556636 0 0.020731045123257848 0.0059678764830133997 0 0.021268162329432776 0.0040277522259093458 0 0.02127857448773933 0.0041114405798042394 0 0.021167828505206394 0.004111934393732513 0 0.021276182774967137 0.0065013109569715911 0 0.021082141612676169 0.0048756832136599591 0 0.020721556792762049 0.0059552351727556636 0 0.020704894675693957 0.0059698477143137509 0 0.020680631029123587 0.0059690218491901424 0 0.020721556792762049 0.0059552351727556636 0 0.020704894675693957 0.0059698477143137509 0 0.020731045123257848 0.0059678764830133997 0 0.021167828505206394 0.004111934393732513 0 0.021153633606907269 0.0041907701595227239 0 0.021225542995474522 0.0041718759930352654 0 0.021167828505206394 0.004111934393732513 0 0.021153633606907269 0.0041907701595227239 0 0.02108260617175382 0.0041925104913711946 0 0.021082141612676169 0.0048756832136599591 0 0.020120398066411971 0.0046553779528647199 0 0.020704894675693957 0.0059698477143137509 0 0.020731045123257848 0.0059678764830133997 0 0.020696902160819364 0.0059861428033695851 0 0.021120388994383815 0.0042376739032779307 0 0.021153633606907269 0.0041907701595227239 0 0.02108260617175382 0.0041925104913711946 0 0.02127471993449551 0.004229277195434456 0 0.02118137501050894 0.0042249212346541394 0 0.021225542995474522 0.0041718759930352654 0 0.02118137501050894 0.0042249212346541394 0 0.021153633606907269 0.0041907701595227239 0 0.021225542995474522 0.0041718759930352654 0 0.02127471993449551 0.004229277195434456 0 0.021308739038415708 0.0041694120286586579 0 0.021225542995474522 0.0041718759930352654 0 0.021308739038415708 0.0041694120286586579 0 0.02127857448773933 0.0041114405798042394 0 0.021225542995474522 0.0041718759930352654 0 0.02127857448773933 0.0041114405798042394 0 0.021167828505206394 0.004111934393732513 0 0.021225542995474522 0.0041718759930352654 0 0.020020600182081284 0.0067636814783803515 0 0.017404507434097265 0.0042968339408345525 0 0.018689619822578503 0.0045134777128073081 0 0.018713089010312864 0.0044425514694333415 0 0.018584474480057095 0.0044793769686887318 0 0.017993996089903416 0.0030090764119541716 0 0.017404507434097265 0.0042968339408345525 0 0.018689619822578503 0.0045134777128073081 0 0.018749069127607137 0.0044991567597649461 0 0.018713089010312864 0.0044425514694333415 0 0.020120398066411971 0.0046553779528647199 0 0.020020600182081284 0.0067636814783803515 0 0.020704894675693957 0.0059698477143137509 0 0.020696902160819364 0.0059861428033695851 0 0.020680631029123587 0.0059690218491901424 0 0.021369253334522029 0.0090629892930018593 0 0.021385904658688178 0.0090380044659314467 0 0.021386444239107637 0.0090819108023959382 0 0.021385904658688178 0.0090380044659314467 0 0.021409808973306365 0.0090834810721231504 0 0.021386444239107637 0.0090819108023959382 0 0.020020600182081284 0.0067636814783803515 0 0.019869018794585708 0.0087069999092027426 0 0.021081605369179329 0.0075605200723284603 0 0.020020600182081284 0.0067636814783803515 0 0.018648960706651167 0.0071108492960711032 0 0.018697855942579718 0.0068374886891209141 0 0.018374141092001313 0.0070089003767902442 0 0.018927067804438244 0.0072008835861308122 0 0.018648960706651167 0.0071108492960711032 0 0.018697855942579718 0.0068374886891209141 0 0.018927067804438244 0.0072008835861308122 0 0.018648960706651167 0.0071108492960711032 0 0.018506676052684284 0.0073649725871155645 0 0.019869018794585708 0.0087069999092027426 0 0.018253166898854197 0.0081927356115028584 0 0.021383823480047765 0.0091304497165549635 0 0.021409808973306365 0.0090834810721231504 0 0.021386444239107637 0.0090819108023959382 0 0.021898030670200849 0.0091056691804472355 0 0.019869018794585708 0.0087069999092027426 0 0.021383823480047765 0.0091304497165549635 0 0.021364416133972889 0.0091594975758966697 0 0.021376278515748078 0.0091528824822363474 0 0.021390162981468439 0.0091610263427670553 0 0.021383823480047765 0.0091304497165549635 0 0.021376278515748078 0.0091528824822363474 0 0.021364416133972889 0.0091594975758966697 0 0.021376278515748078 0.0091528824822363474 0 0.021355793770324229 0.0091650318533850889 0 0.019869018794585708 0.0087069999092027426 0 0.019860015426458464 0.011194457019203423 0 0.0186650570312565 0.0097448290542181126 0 0.018431917432291427 0.0095464699338732965 0 0.018343125687916996 0.0098656269399113854 0 0.018099074142144875 0.0094392392807951392 0 0.018431917432291427 0.0095464699338732965 0 0.018343125687916996 0.0098656269399113854 0 0.019168970160485303 0.013300418623452936 0 0.019059422078291605 0.013559449409414582 0 0.018715259546658126 0.01346809223700055 0 0.018637026761259348 0.011621245287941256 0 0.019860015426458464 0.011194457019203423 0 0.018699648452795228 0.0094098868188859184 0 0.018431917432291427 0.0095464699338732965 0 0.018362026016972337 0.0092732201513557808 0 0.0186650570312565 0.0097448290542181126 0 0.018699648452795228 0.0094098868188859184 0 0.018431917432291427 0.0095464699338732965 0 0.018099074142144875 0.0094392392807951392 0 0.018431917432291427 0.0095464699338732965 0 0.018362026016972337 0.0092732201513557808 0 0.018648960706651167 0.0071108492960711032 0 0.018374141092001313 0.0070089003767902442 0 0.018506676052684284 0.0073649725871155645 0 0.018374141092001313 0.0070089003767902442 0 0.018049315476685205 0.0071877082179874017 0 0.018506676052684284 0.0073649725871155645 0 0.018253166898854197 0.0081927356115028584 0 0.017608098225092527 0.0074895416723301748 0 0.018699648452795228 0.0094098868188859184 0 0.018629240318613596 0.0090958247904099673 0 0.018869059089577297 0.0091809639752256731 0 0.018699648452795228 0.0094098868188859184 0 0.018362026016972337 0.0092732201513557808 0 0.018629240318613596 0.0090958247904099673 0 0.015893267971805795 0.0043487427736092731 0 0.015895203801513845 0.0041897104495379226 0 0.015599196923431645 0.0042021841502257028 0 0.0158795991849092 0.0040249500012670926 0 0.015895203801513845 0.0041897104495379226 0 0.015599196923431645 0.0042021841502257028 0 0.015893267971805795 0.0043487427736092731 0 0.015895203801513845 0.0041897104495379226 0 0.016157033964045338 0.0042253589594615087 0 0.0158795991849092 0.0040249500012670926 0 0.015895203801513845 0.0041897104495379226 0 0.016058840192828983 0.00409930647581906 0 0.017608098225092527 0.0074895416723301748 0 0.017404507434097265 0.0042968339408345525 0 0.016692984576238121 0.0026720679332504224 0 0.017404507434097265 0.0042968339408345525 0 0.018009740188392982 0.0067065652622901083 0 0.017672263665081955 0.0077686017384187515 0 0.016533150050003411 0.007563456036675768 0 0.016703267262043048 0.0040124508974743603 0 0.016365146934351087 0.004034432226868224 0 0.016219303533806184 0.0042822420170736432 0 0.017134880293371631 0.0048901472388183358 0 0.017255965047815881 0.0064485915938871843 0 0.018009740188392982 0.0067065652622901083 0 0.018730403652659898 0.0079428813668133442 0 0.017672263665081955 0.0077686017384187515 0 0.016365146934351087 0.004034432226868224 0 0.016058840192828983 0.00409930647581906 0 0.016219303533806184 0.0042822420170736432 0 0.016289701312393719 0.003868032909142608 0 0.016365146934351087 0.004034432226868224 0 0.016058840192828983 0.00409930647581906 0 0.015895203801513845 0.0041897104495379226 0 0.016058840192828983 0.00409930647581906 0 0.016157033964045338 0.0042253589594615087 0 0.015850415032221593 0.0043383602807719919 0 0.017255965047815881 0.0064485915938871843 0 0.017608098225092527 0.0074895416723301748 0 0.017255965047815881 0.0064485915938871843 0 0.018874804973098663 0.0088040889137500009 0 0.018869059089577297 0.0091809639752256731 0 0.019164156233445247 0.0091866425946899241 0 0.018481065326789902 0.009015526762800893 0 0.018874804973098663 0.0088040889137500009 0 0.018869059089577297 0.0091809639752256731 0 0.017608098225092527 0.0074895416723301748 0 0.019273609035723584 0.0092897107260981691 0 0.018869059089577297 0.0091809639752256731 0 0.019164156233445247 0.0091866425946899241 0 0.019018554323480277 0.0093887552401747901 0 0.017255965047815881 0.0064485915938871843 0 0.01851148986036168 0.0091795651280212175 0 0.017672263665081955 0.0077686017384187515 0 0.016533150050003411 0.007563456036675768 0 0.017710980251311837 0.0089326077650527629 0 0.018730403652659898 0.0079428813668133442 0 0.017672263665081955 0.0077686017384187515 0 0.017710980251311837 0.0089326077650527629 0 0.019452547922392593 0.010768890485778969 0 0.01851148986036168 0.0091795651280212175 0 0.019452547922392593 0.010768890485778969 0 0.019461773962505684 0.011336812970692037 0 0.019417918410534776 0.0094999175679581216 0 0.019018554323480277 0.0093887552401747901 0 0.019020475414683827 0.0096291621373575925 0 0.019417918410534776 0.0094999175679581216 0 0.019164156233445247 0.0091866425946899241 0 0.019018554323480277 0.0093887552401747901 0 0.018699648452795228 0.0094098868188859184 0 0.019018554323480277 0.0093887552401747901 0 0.019020475414683827 0.0096291621373575925 0 0.018699648452795228 0.0094098868188859184 0 0.018869059089577297 0.0091809639752256731 0 0.019018554323480277 0.0093887552401747901 0 0.0186650570312565 0.0097448290542181126 0 0.018699648452795228 0.0094098868188859184 0 0.019020475414683827 0.0096291621373575925 0 0.018637026761259348 0.011621245287941256 0 0.019461773962505684 0.011336812970692037 0 0.019168970160485303 0.013300418623452936 0 0.019651154828810229 0.013073996691095782 0 0.019554012630100183 0.013393614600333633 0 0.020320083488528758 0.012715624803855253 0 0.019651154828810229 0.013073996691095782 0 0.01993918861453519 0.01339011102496117 0 0.019651154828810229 0.013073996691095782 0 0.019554012630100183 0.013393614600333633 0 0.01993918861453519 0.01339011102496117 0 0.020403048775985359 0.013936739220410733 0 0.019951885458560675 0.014003548317039708 0 0.019867816332147271 0.014585859062915407 0 0.020403048775985359 0.013936739220410733 0 0.01993918861453519 0.01339011102496117 0 0.019951885458560675 0.014003548317039708 0 0.01993918861453519 0.01339011102496117 0 0.019951885458560675 0.014003548317039708 0 0.019167273586322354 0.014272777269048173 0 0.019957222593489012 0.013392313839419507 0 0.019184825614736289 0.01405312739597326 0 0.019951885458560675 0.014003548317039708 0 0.019867816332147271 0.014585859062915407 0 0.019167273586322354 0.014272777269048173 0 0.020512611322155417 0.016032906756760511 0 0.019898224508289666 0.014689200324479146 0 0.020820131532796157 0.016658635747107409 0 0.019867816332147271 0.014585859062915407 0 0.019734742052814055 0.015805405172223327 0 0.019867816332147271 0.014585859062915407 0 0.019385802057538523 0.014909067911423693 0 0.019734742052814055 0.015805405172223327 0 0.018932922623071374 0.015245331571038153 0 0.019167273586322354 0.014272777269048173 0 0.017963352871626738 0.01552411754513819 0 0.018932922623071374 0.015245331571038153 0 0.019225377211102818 0.015670397920608269 0 0.019385802057538523 0.014909067911423693 0 0.018932922623071374 0.015245331571038153 0 0.019225377211102818 0.015670397920608269 0 0.018846755927524807 0.015962044077876051 0 0.019225377211102818 0.015670397920608269 0 0.019385802057538523 0.014909067911423693 0 0.019734742052814055 0.015805405172223327 0 0.019867816332147271 0.014585859062915407 0 0.019385802057538523 0.014909067911423693 0 0.019167273586322354 0.014272777269048173 0 0.018932922623071374 0.015245331571038153 0 0.019385802057538523 0.014909067911423693 0 0.019167273586322354 0.014272777269048173 0 0.019168970160485303 0.013300418623452936 0 0.019554012630100183 0.013393614600333633 0 0.019465776360189539 0.013733424292425108 0 0.019554012630100183 0.013393614600333633 0 0.01993918861453519 0.01339011102496117 0 0.019465776360189539 0.013733424292425108 0 0.019465776360189539 0.013733424292425108 0 0.019059422078291605 0.013559449409414582 0 0.019123722150269491 0.013793441984919511 0 0.019168970160485303 0.013300418623452936 0 0.019465776360189539 0.013733424292425108 0 0.019059422078291605 0.013559449409414582 0 0.019059422078291605 0.013559449409414582 0 0.019123722150269491 0.013793441984919511 0 0.018893968136854327 0.013784852443588616 0 0.021784045394640999 0.013029351248890849 0 0.021631655374798036 0.013076690350430126 0 0.021664506369495965 0.012974231621327064 0 0.019059422078291605 0.013559449409414582 0 0.018715259546658126 0.01346809223700055 0 0.018893968136854327 0.013784852443588616 0 0.019860015426458464 0.011194457019203423 0 0.020303820459233859 0.013547604316546297 0 0.021631655374798036 0.013076690350430126 0 0.021562382990498691 0.01296445559935033 0 0.021664506369495965 0.012974231621327064 0 0.023626605482736117 0.013206246881409506 0 0.02106712664637499 0.01495023407125034 0 0.0247266863973425 0.013339804599606455 0 0.024732471135944515 0.013333881846336583 0 0.024668006705334436 0.013351941317705803 0 0.021730743440754222 0.012882651623166605 0 0.021596682743135292 0.012900975282131749 0 0.021538376029074983 0.012818409330558429 0 0.021730743440754222 0.012882651623166605 0 0.021664506369495965 0.012974231621327064 0 0.021596682743135292 0.012900975282131749 0 0.021562382990498691 0.01296445559935033 0 0.021596682743135292 0.012900975282131749 0 0.0214881861524754 0.012864300060732286 0 0.021562382990498691 0.01296445559935033 0 0.021664506369495965 0.012974231621327064 0 0.021596682743135292 0.012900975282131749 0 0.019465776360189539 0.013733424292425108 0 0.019123722150269491 0.013793441984919511 0 0.019076691822690936 0.014094008008823374 0 0.019184825614736289 0.01405312739597326 0 0.019401462560223102 0.014809351935824118 0 0.019123722150269491 0.013793441984919511 0 0.018893968136854327 0.013784852443588616 0 0.019076691822690936 0.014094008008823374 0 0.020303820459233859 0.013547604316546297 0 0.019401462560223102 0.014809351935824118 0 0.021596682743135292 0.012900975282131749 0 0.0214881861524754 0.012864300060732286 0 0.021538376029074983 0.012818409330558429 0 0.019401462560223102 0.014809351935824118 0 0.02106712664637499 0.01495023407125034 0 0.018932922623071374 0.015245331571038153 0 0.017963352871626738 0.01552411754513819 0 0.018846755927524807 0.015962044077876051 0 0.017963352871626738 0.01552411754513819 0 0.018895773086064493 0.016787123419316766 0 0.018846755927524807 0.015962044077876051 0 0.019208296297483943 0.017372883832981082 0 0.019026951111360945 0.016929921988472867 0 0.018895773086064493 0.016787123419316766 0 0.019401462560223102 0.014809351935824118 0 0.019046732535545105 0.016978990236612007 0 0.019317101865128191 0.016232723678992238 0 0.02106712664637499 0.01495023407125034 0 0.019208296297483943 0.017372883832981082 0 0.019026951111360945 0.016929921988472867 0 0.019446410029471253 0.017150352274473049 0 0.019026951111360945 0.016929921988472867 0 0.018929669694521173 0.016900558878399013 0 0.018983783335296888 0.017051032844066186 0 0.018929669694521173 0.016900558878399013 0 0.018983783335296888 0.017051032844066186 0 0.018910560610596788 0.017293378481149799 0 0.018983783335296888 0.017051032844066186 0 0.018910560610596788 0.017293378481149799 0 0.019000839610108164 0.017198765228397032 0 0.018983783335296888 0.017051032844066186 0 0.018999153366537076 0.016986013930444563 0 0.019000839610108164 0.017198765228397032 0 0.018999153366537076 0.016986013930444563 0 0.018895773086064493 0.016787123419316766 0 0.019058706417629211 0.017102722423683214 0 0.019026951111360945 0.016929921988472867 0 0.018999153366537076 0.016986013930444563 0 0.018895773086064493 0.016787123419316766 0 0.019026951111360945 0.016929921988472867 0 0.018983783335296888 0.017051032844066186 0 0.018999153366537076 0.016986013930444563 0 0.018687263392867141 0.017517510266334722 0 0.018929669694521173 0.016900558878399013 0 0.018910560610596788 0.017293378481149799 0 0.024741243064532695 0.013342312500021431 0 0.0247266863973425 0.013339804599606455 0 0.024668006705334436 0.013351941317705803 0 0.021840044779395745 0.015432189220170218 0 0.02106712664637499 0.01495023407125034 0 0.018687263392867141 0.017517510266334722 0 0.018910560610596788 0.017293378481149799 0 0.01886616224951786 0.017653837523711313 0 0.018687263392867141 0.017517510266334722 0 0.01886616224951786 0.017653837523711313 0 0.01880729525684283 0.018051424301040026 0 0.018910560610596788 0.017293378481149799 0 0.01886616224951786 0.017653837523711313 0 0.018991629850233359 0.017503380401044048 0 0.01886616224951786 0.017653837523711313 0 0.018991629850233359 0.017503380401044048 0 0.018981911575673093 0.017915485025461832 0 0.019058706417629211 0.017102722423683214 0 0.0190851623949569 0.017387446350783074 0 0.019265366358318412 0.017358358277442778 0 0.019058706417629211 0.017102722423683214 0 0.019000839610108164 0.017198765228397032 0 0.0190851623949569 0.017387446350783074 0 0.018999153366537076 0.016986013930444563 0 0.019058706417629211 0.017102722423683214 0 0.019000839610108164 0.017198765228397032 0 0.018910560610596788 0.017293378481149799 0 0.019000839610108164 0.017198765228397032 0 0.018991629850233359 0.017503380401044048 0 0.019000839610108164 0.017198765228397032 0 0.018991629850233359 0.017503380401044048 0 0.0190851623949569 0.017387446350783074 0 0.018991629850233359 0.017503380401044048 0 0.0190851623949569 0.017387446350783074 0 0.019155141536934754 0.017685646984476194 0 0.0190851623949569 0.017387446350783074 0 0.019265366358318412 0.017358358277442778 0 0.019155141536934754 0.017685646984476194 0 0.019265366358318412 0.017358358277442778 0 0.019488962562476852 0.017709135707407651 0 0.019155141536934754 0.017685646984476194 0 0.019058706417629211 0.017102722423683214 0 0.019265366358318412 0.017358358277442778 0 0.019317998308112403 0.016922100662998263 0 0.019265366358318412 0.017358358277442778 0 0.019768556084225276 0.017403550454343015 0 0.019317998308112403 0.016922100662998263 0 0.019768556084225276 0.017403550454343015 0 0.019841274935768486 0.016700768755556809 0 0.019317998308112403 0.016922100662998263 0 0.019265366358318412 0.017358358277442778 0 0.019768556084225276 0.017403550454343015 0 0.019488962562476852 0.017709135707407651 0 0.020820131532796157 0.016658635747107409 0 0.020214105451915643 0.017153380674599965 0 0.019841274935768486 0.016700768755556809 0 0.020820131532796157 0.016658635747107409 0 0.020214105451915643 0.017153380674599965 0 0.020400470414816414 0.017773796974979546 0 0.019768556084225276 0.017403550454343015 0 0.020214105451915643 0.017153380674599965 0 0.020400470414816414 0.017773796974979546 0 0.019768556084225276 0.017403550454343015 0 0.020214105451915643 0.017153380674599965 0 0.019841274935768486 0.016700768755556809 0 0.020820131532796157 0.016658635747107409 0 0.019841274935768486 0.016700768755556809 0 0.019734742052814055 0.015805405172223327 0 0.019841274935768486 0.016700768755556809 0 0.019734742052814055 0.015805405172223327 0 0.019350820224592783 0.016318605691390122 0 0.019225377211102818 0.015670397920608269 0 0.019734742052814055 0.015805405172223327 0 0.019350820224592783 0.016318605691390122 0 0.018895773086064493 0.016787123419316766 0 0.019350820224592783 0.016318605691390122 0 0.018846755927524807 0.015962044077876051 0 0.019225377211102818 0.015670397920608269 0 0.019350820224592783 0.016318605691390122 0 0.018846755927524807 0.015962044077876051 0 0.018895773086064493 0.016787123419316766 0 0.019058706417629211 0.017102722423683214 0 0.019317998308112403 0.016922100662998263 0 0.018895773086064493 0.016787123419316766 0 0.019350820224592783 0.016318605691390122 0 0.019317998308112403 0.016922100662998263 0 0.019841274935768486 0.016700768755556809 0 0.019350820224592783 0.016318605691390122 0 0.019317998308112403 0.016922100662998263 0 0.019468087593095876 0.018217443365966004 0 0.019884837415182439 0.018396488708180784 0 0.019477733475354746 0.018577601687842612 0 0.019468087593095876 0.018217443365966004 0 0.019275119875685403 0.01854523212452424 0 0.019477733475354746 0.018577601687842612 0 0.019468087593095876 0.018217443365966004 0 0.019884837415182439 0.018396488708180784 0 0.019808519042171697 0.017926998849746963 0 0.020569557412332139 0.018488122700083553 0 0.019884837415182439 0.018396488708180784 0 0.020249448651825444 0.018887533506708378 0 0.020569557412332139 0.018488122700083553 0 0.019884837415182439 0.018396488708180784 0 0.020400470414816414 0.017773796974979546 0 0.019884837415182439 0.018396488708180784 0 0.019808519042171697 0.017926998849746963 0 0.020400470414816414 0.017773796974979546 0 0.019768556084225276 0.017403550454343015 0 0.019808519042171697 0.017926998849746963 0 0.020400470414816414 0.017773796974979546 0 0.019768556084225276 0.017403550454343015 0 0.019808519042171697 0.017926998849746963 0 0.019488962562476852 0.017709135707407651 0 0.019468087593095876 0.018217443365966004 0 0.019808519042171697 0.017926998849746963 0 0.019488962562476852 0.017709135707407651 0 0.019468087593095876 0.018217443365966004 0 0.019488962562476852 0.017709135707407651 0 0.019319150047529193 0.01795587802965877 0 0.019488962562476852 0.017709135707407651 0 0.019155141536934754 0.017685646984476194 0 0.019319150047529193 0.01795587802965877 0 0.019468087593095876 0.018217443365966004 0 0.019151927055858747 0.018189318264252526 0 0.019319150047529193 0.01795587802965877 0 0.018991629850233359 0.017503380401044048 0 0.019155141536934754 0.017685646984476194 0 0.018981911575673093 0.017915485025461832 0 0.019155141536934754 0.017685646984476194 0 0.019151927055858747 0.018189318264252526 0 0.018981911575673093 0.017915485025461832 0 0.019155141536934754 0.017685646984476194 0 0.019151927055858747 0.018189318264252526 0 0.019319150047529193 0.01795587802965877 0 0.019151927055858747 0.018189318264252526 0 0.018981911575673093 0.017915485025461832 0 0.018966066314450414 0.018382777913435854 0 0.01886616224951786 0.017653837523711313 0 0.018981911575673093 0.017915485025461832 0 0.01880729525684283 0.018051424301040026 0 0.018981911575673093 0.017915485025461832 0 0.018966066314450414 0.018382777913435854 0 0.01880729525684283 0.018051424301040026 0 0.019151927055858747 0.018189318264252526 0 0.018966066314450414 0.018382777913435854 0 0.019073828618432157 0.018592135114689042 0 0.018966066314450414 0.018382777913435854 0 0.019073828618432157 0.018592135114689042 0 0.018996106913428179 0.018665184310431557 0 0.019151927055858747 0.018189318264252526 0 0.019073828618432157 0.018592135114689042 0 0.019275119875685403 0.01854523212452424 0 0.019468087593095876 0.018217443365966004 0 0.019151927055858747 0.018189318264252526 0 0.019275119875685403 0.01854523212452424 0 0.019073828618432157 0.018592135114689042 0 0.019275119875685403 0.01854523212452424 0 0.019127003164996666 0.018780026692830912 0 0.019275119875685403 0.01854523212452424 0 0.019127003164996666 0.018780026692830912 0 0.019301083434428021 0.018757967008979966 0 0.019073828618432157 0.018592135114689042 0 0.019050227128113661 0.018791801427530421 0 0.019127003164996666 0.018780026692830912 0 0.019073828618432157 0.018592135114689042 0 0.019050227128113661 0.018791801427530421 0 0.018996106913428179 0.018665184310431557 0 0.019050227128113661 0.018791801427530421 0 0.019127003164996666 0.018780026692830912 0 0.019017540278894698 0.018877260371446197 0 0.019127003164996666 0.018780026692830912 0 0.019144078901454895 0.018861833358888313 0 0.019017540278894698 0.018877260371446197 0 0.019144078901454895 0.018861833358888313 0 0.019293920442883441 0.018863667422096733 0 0.019301083434428021 0.018757967008979966 0 0.019127003164996666 0.018780026692830912 0 0.019144078901454895 0.018861833358888313 0 0.019301083434428021 0.018757967008979966 0 0.019144078901454895 0.018861833358888313 0 0.019293920442883441 0.018863667422096733 0 0.019176574003333155 0.01891639495232687 0 0.019293920442883441 0.018863667422096733 0 0.019475611174783872 0.018816402535238603 0 0.019251964770668147 0.01899451422084196 0 0.019293920442883441 0.018863667422096733 0 0.019475611174783872 0.018816402535238603 0 0.019301083434428021 0.018757967008979966 0 0.019475611174783872 0.018816402535238603 0 0.019301083434428021 0.018757967008979966 0 0.019477733475354746 0.018577601687842612 0 0.019884837415182439 0.018396488708180784 0 0.019475611174783872 0.018816402535238603 0 0.019477733475354746 0.018577601687842612 0 0.019275119875685403 0.01854523212452424 0 0.019301083434428021 0.018757967008979966 0 0.019477733475354746 0.018577601687842612 0 0.019884837415182439 0.018396488708180784 0 0.01960727696316502 0.019394986154996536 0 0.019719390536906536 0.019142761048048382 0 0.020371347424184557 0.019368002090783893 0 0.020249448651825444 0.018887533506708378 0 0.019719390536906536 0.019142761048048382 0 0.019884837415182439 0.018396488708180784 0 0.020249448651825444 0.018887533506708378 0 0.019719390536906536 0.019142761048048382 0 0.019851378077985142 0.018414464569792535 0 0.019543904186765205 0.019093892962287161 0 0.020435064875960019 0.019426474815255224 0 0.01969911389872471 0.019152728052742252 0 0.02006937037747419 0.019358376822128286 0 0.019719390536906536 0.019142761048048382 0 0.019832909607696063 0.019376333128319153 0 0.02006937037747419 0.019358376822128286 0 0.019832909607696063 0.019376333128319153 0 0.019907452652235268 0.019594850806798087 0 0.01960727696316502 0.019394986154996536 0 0.019907452652235268 0.019594850806798087 0 0.019738577938635135 0.019832153904392837 0 0.01960727696316502 0.019394986154996536 0 0.019832909607696063 0.019376333128319153 0 0.019907452652235268 0.019594850806798087 0 0.01960727696316502 0.019394986154996536 0 0.019719390536906536 0.019142761048048382 0 0.019832909607696063 0.019376333128319153 0 0.02006276567912782 0.019887885465547862 0 0.019738577938635135 0.019832153904392837 0 0.019669444370095806 0.020270678605647408 0 0.02006276567912782 0.019887885465547862 0 0.019907452652235268 0.019594850806798087 0 0.019738577938635135 0.019832153904392837 0 0.01960727696316502 0.019394986154996536 0 0.019738577938635135 0.019832153904392837 0 0.019446004713978712 0.020015487510208575 0 0.019543904186765205 0.019093892962287161 0 0.01944713938394544 0.019452555333495668 0 0.019738577938635135 0.019832153904392837 0 0.019446004713978712 0.020015487510208575 0 0.019669444370095806 0.020270678605647408 0 0.019293920442883441 0.018863667422096733 0 0.019251964770668147 0.01899451422084196 0 0.019176574003333155 0.01891639495232687 0 0.01944713938394544 0.019452555333495668 0 0.018489305068448651 0.020265596663468201 0 0.019251964770668147 0.01899451422084196 0 0.019099502636975484 0.019498491874923616 0 0.018971451599748747 0.019245223339811032 0 0.019446004713978712 0.020015487510208575 0 0.019669444370095806 0.020270678605647408 0 0.019273033170980187 0.020650034267372028 0 0.018631770513554361 0.020259511816235306 0 0.018516392771272167 0.020415905560228233 0 0.017396254205188953 0.020412746113535933 0 0.017381534950711208 0.020507420513163583 0 0.017394857124148365 0.020482218719253591 0 0.017381534950711208 0.020507420513163583 0 0.017394857124148365 0.020482218719253591 0 0.01737369783018888 0.020515160262397907 0 0.017350786231467189 0.02051796768384449 0 0.01737369783018888 0.020515160262397907 0 0.017411944007063817 0.020481169472425821 0 0.01737369783018888 0.020515160262397907 0 0.017415485809508198 0.020517291050139493 0 0.017411944007063817 0.020481169472425821 0 0.017381534950711208 0.020507420513163583 0 0.01737369783018888 0.020515160262397907 0 0.017415485809508198 0.020517291050139493 0 0.017381534950711208 0.020507420513163583 0 0.017415485809508198 0.020517291050139493 0 0.017470380984172227 0.020544005696536922 0 0.018516392771272167 0.020415905560228233 0 0.018489305068448651 0.020265596663468201 0 0.017415485809508198 0.020517291050139493 0 0.017470380984172227 0.020544005696536922 0 0.017442968252587052 0.020515754049790582 0 0.017470380984172227 0.020544005696536922 0 0.017442968252587052 0.020515754049790582 0 0.017493117017024148 0.020575674572030331 0 0.018489305068448651 0.020265596663468201 0 0.018218134891625586 0.02054761992196644 0 0.017442968252587052 0.020515754049790582 0 0.017448902888586776 0.020465420809956975 0 0.017493117017024148 0.020575674572030331 0 0.017415485809508198 0.020517291050139493 0 0.017442968252587052 0.020515754049790582 0 0.017411944007063817 0.020481169472425821 0 0.017442968252587052 0.020515754049790582 0 0.017448902888586776 0.020465420809956975 0 0.017411944007063817 0.020481169472425821 0 0.017448902888586776 0.020465420809956975 0 0.01744638975094339 0.020387688533017752 0 0.017411944007063817 0.020481169472425821 0 0.01744638975094339 0.020387688533017752 0 0.017411944007063817 0.020481169472425821 0 0.017418742010591824 0.020364075681260203 0 0.017448902888586776 0.020465420809956975 0 0.017541674384878674 0.020338929870236291 0 0.017493117017024148 0.020575674572030331 0 0.017448902888586776 0.020465420809956975 0 0.01744638975094339 0.020387688533017752 0 0.017541674384878674 0.020338929870236291 0 0.01744638975094339 0.020387688533017752 0 0.017541674384878674 0.020338929870236291 0 0.017375735605008772 0.020472653868542919 0 0.017350786231467189 0.02051796768384449 0 0.017411944007063817 0.020481169472425821 0 0.017418742010591824 0.020364075681260203 0 0.01811162661438517 0.020062567807899893 0 0.018434440191654827 0.01940246557959175 0 0.018244405393506871 0.019762255347939753 0 0.018489305068448651 0.020265596663468201 0 0.018090991207162604 0.020042512225619528 0 0.01811162661438517 0.020062567807899893 0 0.017541674384878674 0.020338929870236291 0 0.017375735605008772 0.020472653868542919 0 0.017453140838240871 0.020756663560082912 0 0.01811162661438517 0.020062567807899893 0 0.017493117017024148 0.020575674572030331 0 0.01811162661438517 0.020062567807899893 0 0.017541674384878674 0.020338929870236291 0 0.017493117017024148 0.020575674572030331 0 0.019099502636975484 0.019498491874923616 0 0.01811162661438517 0.020062567807899893 0 0.018507478951948431 0.019488526441480535 0 0.019099502636975484 0.019498491874923616 0 0.018507478951948431 0.019488526441480535 0 0.018971451599748747 0.019245223339811032 0 0.01811162661438517 0.020062567807899893 0 0.018507478951948431 0.019488526441480535 0 0.018434440191654827 0.01940246557959175 0 0.018507478951948431 0.019488526441480535 0 0.01846810240652539 0.019349586242280351 0 0.018434440191654827 0.01940246557959175 0 0.018507478951948431 0.019488526441480535 0 0.018881258781199846 0.019089755503704186 0 0.01846810240652539 0.019349586242280351 0 0.018904292720819268 0.01908498916341057 0 0.018813363622390653 0.019038716128193536 0 0.018507478951948431 0.019488526441480535 0 0.018881258781199846 0.019089755503704186 0 0.018971451599748747 0.019245223339811032 0 0.019251964770668147 0.01899451422084196 0 0.018881258781199846 0.019089755503704186 0 0.018971451599748747 0.019245223339811032 0 0.019251964770668147 0.01899451422084196 0 0.019033000063780899 0.01894324179204894 0 0.019176574003333155 0.01891639495232687 0 0.019251964770668147 0.01899451422084196 0 0.018881258781199846 0.019089755503704186 0 0.019033000063780899 0.01894324179204894 0 0.019144078901454895 0.018861833358888313 0 0.019033000063780899 0.01894324179204894 0 0.019017540278894698 0.018877260371446197 0 0.019144078901454895 0.018861833358888313 0 0.019033000063780899 0.01894324179204894 0 0.019176574003333155 0.01891639495232687 0 0.018881258781199846 0.019089755503704186 0 0.019017540278894698 0.018877260371446197 0 0.019080950735979124 0.018729496938346059 0 0.018881258781199846 0.019089755503704186 0 0.019033000063780899 0.01894324179204894 0 0.019017540278894698 0.018877260371446197 0 0.019017540278894698 0.018877260371446197 0 0.019080950735979124 0.018729496938346059 0 0.019132126509505014 0.018862196675338772 0 0.019080950735979124 0.018729496938346059 0 0.01950316132632474 0.018575102595650789 0 0.019132126509505014 0.018862196675338772 0 0.01950316132632474 0.018575102595650789 0 0.019443660216772914 0.018861620416156674 0 0.019132126509505014 0.018862196675338772 0 0.01846810240652539 0.019349586242280351 0 0.018910113392805367 0.019045603170705579 0 0.019219413703817922 0.01934501251250172 0 0.018813363622390653 0.019038716128193536 0 0.019365012691736454 0.018937999454937456 0 0.01846810240652539 0.019349586242280351 0 0.018434440191654827 0.01940246557959175 0 0.018910113392805367 0.019045603170705579 0 0.018434440191654827 0.01940246557959175 0 0.018910113392805367 0.019045603170705579 0 0.018581298166568491 0.01928988860717221 0 0.018581298166568491 0.01928988860717221 0 0.018978626158349204 0.018886003271568579 0 0.018534612837772513 0.019459718860789149 0 0.018910113392805367 0.019045603170705579 0 0.018581298166568491 0.01928988860717221 0 0.018978626158349204 0.018886003271568579 0 0.018434440191654827 0.01940246557959175 0 0.018581298166568491 0.01928988860717221 0 0.018244405393506871 0.019762255347939753 0 0.01987777428046212 0.018286319180226506 0 0.020607350671846464 0.017509310833266553 0 0.020821040052158971 0.017480635245955806 0 0.01987777428046212 0.018286319180226506 0 0.020933263395398343 0.018051683599407224 0 0.020821040052158971 0.017480635245955806 0 0.018910113392805367 0.019045603170705579 0 0.01987777428046212 0.018286319180226506 0 0.018978626158349204 0.018886003271568579 0 0.01987777428046212 0.018286319180226506 0 0.018978626158349204 0.018886003271568579 0 0.018786867135308215 0.019109145090658353 0 0.019880160115694913 0.018432789494479945 0 0.01975251382862862 0.018417346816830864 0 0.018910113392805367 0.019045603170705579 0 0.01987777428046212 0.018286319180226506 0 0.019825933906778826 0.018731088580115067 0 0.01987777428046212 0.018286319180226506 0 0.019825933906778826 0.018731088580115067 0 0.020933263395398343 0.018051683599407224 0 0.019825933906778826 0.018731088580115067 0 0.020374864375979601 0.0187324665607655 0 0.020933263395398343 0.018051683599407224 0 0.020266705980753134 0.018783000023576048 0 0.019365012691736454 0.018937999454937456 0 0.018910113392805367 0.019045603170705579 0 0.019825933906778826 0.018731088580115067 0 0.019219413703817922 0.01934501251250172 0 0.019825933906778826 0.018731088580115067 0 0.020374864375979601 0.0187324665607655 0 0.019219413703817922 0.01934501251250172 0 0.01950316132632474 0.018575102595650789 0 0.020111315143228534 0.018997652576242037 0 0.019443660216772914 0.018861620416156674 0 0.020374864375979601 0.0187324665607655 0 0.01950316132632474 0.018575102595650789 0 0.020111315143228534 0.018997652576242037 0 0.020111315143228534 0.018997652576242037 0 0.019842362383362934 0.019146396186070683 0 0.02035706629449836 0.019335471113817369 0 0.020111315143228534 0.018997652576242037 0 0.019842362383362934 0.019146396186070683 0 0.019657139433675939 0.019021210933230379 0 0.019842362383362934 0.019146396186070683 0 0.019568757627980344 0.019201203282209325 0 0.02035706629449836 0.019335471113817369 0 0.025199923630619354 0.014127861922014396 0 0.025298512996002252 0.014029293919200695 0 0.025164421722370579 0.014331492321149582 0 0.021971439494182839 0.016250634158819707 0 0.02285587026351605 0.016877819231933294 0 0.019842362383362934 0.019146396186070683 0 0.019544653101044519 0.019068444709715023 0 0.019568757627980344 0.019201203282209325 0 0.019544653101044519 0.019068444709715023 0 0.019272894598111559 0.018972835202023107 0 0.019568757627980344 0.019201203282209325 0 0.019842362383362934 0.019146396186070683 0 0.019544653101044519 0.019068444709715023 0 0.019657139433675939 0.019021210933230379 0 0.019544653101044519 0.019068444709715023 0 0.019657139433675939 0.019021210933230379 0 0.019276943382441184 0.01894206929275373 0 0.019657139433675939 0.019021210933230379 0 0.019443660216772914 0.018861620416156674 0 0.019276943382441184 0.01894206929275373 0 0.020111315143228534 0.018997652576242037 0 0.019657139433675939 0.019021210933230379 0 0.019443660216772914 0.018861620416156674 0 0.019443660216772914 0.018861620416156674 0 0.019132126509505014 0.018862196675338772 0 0.019276943382441184 0.01894206929275373 0 0.019132126509505014 0.018862196675338772 0 0.019083573193242703 0.018833660640419778 0 0.019276943382441184 0.01894206929275373 0 0.019050227128113661 0.018791801427530421 0 0.019132126509505014 0.018862196675338772 0 0.019083573193242703 0.018833660640419778 0 0.019050227128113661 0.018791801427530421 0 0.019017540278894698 0.018877260371446197 0 0.019132126509505014 0.018862196675338772 0 0.019050227128113661 0.018791801427530421 0 0.019083573193242703 0.018833660640419778 0 0.018996106913428179 0.018665184310431557 0 0.019083573193242703 0.018833660640419778 0 0.019073047440849263 0.018816465006075717 0 0.018996106913428179 0.018665184310431557 0 0.019083573193242703 0.018833660640419778 0 0.019276943382441184 0.01894206929275373 0 0.019073047440849263 0.018816465006075717 0 0.019276943382441184 0.01894206929275373 0 0.019272894598111559 0.018972835202023107 0 0.019073047440849263 0.018816465006075717 0 0.019544653101044519 0.019068444709715023 0 0.019276943382441184 0.01894206929275373 0 0.019272894598111559 0.018972835202023107 0 0.018610322794965474 0.017951360659057124 0 0.018591524325860979 0.017992175456139407 0 0.018957338221497068 0.017832346304715068 0 0.019272894598111559 0.018972835202023107 0 0.019056231597219756 0.01884801433477571 0 0.019568757627980344 0.019201203282209325 0 0.019272894598111559 0.018972835202023107 0 0.019073047440849263 0.018816465006075717 0 0.019056231597219756 0.01884801433477571 0 0.019073047440849263 0.018816465006075717 0 0.018996106913428179 0.018665184310431557 0 0.018947223500576187 0.018582441065596696 0 0.019073047440849263 0.018816465006075717 0 0.019056231597219756 0.01884801433477571 0 0.018947223500576187 0.018582441065596696 0 0.018966066314450414 0.018382777913435854 0 0.018996106913428179 0.018665184310431557 0 0.018947223500576187 0.018582441065596696 0 0.018687263392867141 0.017517510266334722 0 0.01880729525684283 0.018051424301040026 0 0.018591524325860979 0.017992175456139407 0 0.018248334683009765 0.01874164559643968 0 0.019140173890022035 0.017967062626292479 0 0.019056231597219756 0.01884801433477571 0 0.018947223500576187 0.018582441065596696 0 0.01880729525684283 0.018051424301040026 0 0.018966066314450414 0.018382777913435854 0 0.018947223500576187 0.018582441065596696 0 0.01880729525684283 0.018051424301040026 0 0.018610322794965474 0.017951360659057124 0 0.01880729525684283 0.018051424301040026 0 0.018591524325860979 0.017992175456139407 0 0.024807765815548888 0.013424723187084386 0 0.024818209265204224 0.013465270492231621 0 0.024857152255769076 0.013600965386273672 0 0.024772045878075667 0.013385348539093423 0 0.024818209265204224 0.013465270492231621 0 0.024832238501587153 0.013534832242588219 0 0.024772045878075667 0.013385348539093423 0 0.024795008408962226 0.013381707026310105 0 0.024818209265204224 0.013465270492231621 0 0.024795008408962226 0.013381707026310105 0 0.024807765815548888 0.013424723187084386 0 0.024818209265204224 0.013465270492231621 0 0.024772045878075667 0.013385348539093423 0 0.024784863355219799 0.013516138463100683 0 0.024832238501587153 0.013534832242588219 0 0.024772045878075667 0.013385348539093423 0 0.024784863355219799 0.013516138463100683 0 0.024702575153631862 0.013384088628511466 0 0.024897944359179146 0.013748687542860134 0 0.024784863355219799 0.013516138463100683 0 0.024832238501587153 0.013534832242588219 0 0.024897944359179146 0.013748687542860134 0 0.024784863355219799 0.013516138463100683 0 0.024789604523725025 0.01367739105460284 0 0.024897944359179146 0.013748687542860134 0 0.024832238501587153 0.013534832242588219 0 0.024857152255769076 0.013600965386273672 0 0.025572164756766276 0.013732421110806029 0 0.021971439494182839 0.016250634158819707 0 0.018248334683009765 0.01874164559643968 0 0.021971439494182839 0.016250634158819707 0 0.024818209265204224 0.013465270492231621 0 0.024832238501587153 0.013534832242588219 0 0.024857152255769076 0.013600965386273672 0 0.021698658158064151 0.0156166441741979 0 0.021971439494182839 0.016250634158819707 0 0.024509445416398812 0.013684466350433824 0 0.024789604523725025 0.01367739105460284 0 0.02461558274126115 0.0134011123250296 0 0.024509445416398812 0.013684466350433824 0 0.024789604523725025 0.01367739105460284 0 0.024703098556200571 0.013893917909959481 0 0.024784863355219799 0.013516138463100683 0 0.024789604523725025 0.01367739105460284 0 0.02461558274126115 0.0134011123250296 0 0.024630293411844931 0.013271782273411968 0 0.02461558274126115 0.0134011123250296 0 0.024702575153631862 0.013384088628511466 0 0.024784863355219799 0.013516138463100683 0 0.02461558274126115 0.0134011123250296 0 0.024702575153631862 0.013384088628511466 0 0.024429889200035054 0.013251386178887971 0 0.02461558274126115 0.0134011123250296 0 0.024389258126709151 0.013336345333316882 0 0.024509445416398812 0.013684466350433824 0 0.02461558274126115 0.0134011123250296 0 0.024389258126709151 0.013336345333316882 0 0.024429889200035054 0.013251386178887971 0 0.024389258126709151 0.013336345333316882 0 0.024277457900563272 0.013236998038648199 0 0.024119509051218617 0.012925023615975383 0 0.02413559385505807 0.013091982533002568 0 0.024245391955541106 0.01323100053162881 0 0.024277457900563272 0.013236998038648199 0 0.024131121842190982 0.013186362044061352 0 0.024389258126709151 0.013336345333316882 0 0.024277457900563272 0.013236998038648199 0 0.024131121842190982 0.013186362044061352 0 0.02394878391244671 0.012392795135944408 0 0.023554388836296413 0.012323793497619352 0 0.023660117748490424 0.01292481239484705 0 0.02394878391244671 0.012392795135944408 0 0.024131121842190982 0.013186362044061352 0 0.023660117748490424 0.01292481239484705 0 0.023660117748490424 0.01292481239484705 0 0.02386846362917254 0.01371202632318742 0 0.023302853650465589 0.013667426317625924 0 0.024131121842190982 0.013186362044061352 0 0.023660117748490424 0.01292481239484705 0 0.02386846362917254 0.01371202632318742 0 0.024509445416398812 0.013684466350433824 0 0.024389258126709151 0.013336345333316882 0 0.024131121842190982 0.013186362044061352 0 0.024509445416398812 0.013684466350433824 0 0.024131121842190982 0.013186362044061352 0 0.02386846362917254 0.01371202632318742 0 0.02386846362917254 0.01371202632318742 0 0.024103267310160718 0.014401722199893524 0 0.023356682039006024 0.014596334276445114 0 0.024509445416398812 0.013684466350433824 0 0.02386846362917254 0.01371202632318742 0 0.024103267310160718 0.014401722199893524 0 0.02386846362917254 0.01371202632318742 0 0.023356682039006024 0.014596334276445114 0 0.023302853650465589 0.013667426317625924 0 0.023356682039006024 0.014596334276445114 0 0.023079891262720746 0.015441113684208941 0 0.0226126208707619 0.014939696362297247 0 0.023356682039006024 0.014596334276445114 0 0.023463947047663108 0.01558358769871143 0 0.023079891262720746 0.015441113684208941 0 0.024103267310160718 0.014401722199893524 0 0.023356682039006024 0.014596334276445114 0 0.023463947047663108 0.01558358769871143 0 0.024103267310160718 0.014401722199893524 0 0.024765392502762319 0.015424713368325198 0 0.023463947047663108 0.01558358769871143 0 0.024538736477404212 0.014198815841643989 0 0.024921743171748834 0.014088923851818955 0 0.024765392502762319 0.015424713368325198 0 0.024103267310160718 0.014401722199893524 0 0.024538736477404212 0.014198815841643989 0 0.024765392502762319 0.015424713368325198 0 0.024509445416398812 0.013684466350433824 0 0.024103267310160718 0.014401722199893524 0 0.024538736477404212 0.014198815841643989 0 0.024509445416398812 0.013684466350433824 0 0.024538736477404212 0.014198815841643989 0 0.024703098556200571 0.013893917909959481 0 0.025572164756766276 0.013732421110806029 0 0.024735044862609062 0.014141890594629697 0 0.024897944359179146 0.013748687542860134 0 0.024789604523725025 0.01367739105460284 0 0.024921743171748834 0.014088923851818955 0 0.024538736477404212 0.014198815841643989 0 0.024703098556200571 0.013893917909959481 0 0.024921743171748834 0.014088923851818955 0 0.024789604523725025 0.01367739105460284 0 0.024703098556200571 0.013893917909959481 0 0.024921743171748834 0.014088923851818955 0 0.025199923630619354 0.014127861922014396 0 0.024921743171748834 0.014088923851818955 0 0.025164421722370579 0.014331492321149582 0 0.020111315143228534 0.018997652576242037 0 0.02035706629449836 0.019335471113817369 0 0.021496788620630508 0.019063028821585712 0 0.024921743171748834 0.014088923851818955 0 0.025164421722370579 0.014331492321149582 0 0.024765392502762319 0.015424713368325198 0 0.02285587026351605 0.016877819231933294 0 0.023077602777186811 0.017216220238885686 0 0.020374864375979601 0.0187324665607655 0 0.020111315143228534 0.018997652576242037 0 0.021496788620630508 0.019063028821585712 0 0.020374864375979601 0.0187324665607655 0 0.021496788620630508 0.019063028821585712 0 0.021712357644022649 0.018031123538042985 0 0.021496788620630508 0.019063028821585712 0 0.021712357644022649 0.018031123538042985 0 0.023040059324832465 0.017351998134592175 0 0.020374864375979601 0.0187324665607655 0 0.021712357644022649 0.018031123538042985 0 0.020933263395398343 0.018051683599407224 0 0.021712357644022649 0.018031123538042985 0 0.020933263395398343 0.018051683599407224 0 0.021766781668073991 0.017730718861667598 0 0.020933263395398343 0.018051683599407224 0 0.021766781668073991 0.017730718861667598 0 0.021768216593951228 0.017126453312394693 0 0.021712357644022649 0.018031123538042985 0 0.021766781668073991 0.017730718861667598 0 0.022687303718648372 0.017602074087663979 0 0.021766781668073991 0.017730718861667598 0 0.021768216593951228 0.017126453312394693 0 0.022687303718648372 0.017602074087663979 0 0.021864775637293023 0.016981203825775157 0 0.022501409913504349 0.016647472931730228 0 0.020933263395398343 0.018051683599407224 0 0.021768216593951228 0.017126453312394693 0 0.020821040052158971 0.017480635245955806 0 0.02221966722709854 0.01638517182937797 0 0.022344960178794934 0.015192599297128944 0 0.022169556031766489 0.016127338612567297 0 0.02221966722709854 0.01638517182937797 0 0.0223193053779598 0.015667043148390649 0 0.022344960178794934 0.015192599297128944 0 0.021768216593951228 0.017126453312394693 0 0.02221966722709854 0.01638517182937797 0 0.022455640708999452 0.015710375887363758 0 0.02221966722709854 0.01638517182937797 0 0.022455640708999452 0.015710375887363758 0 0.0223193053779598 0.015667043148390649 0 0.022455640708999452 0.015710375887363758 0 0.022353388305676736 0.015228655306527374 0 0.0223193053779598 0.015667043148390649 0 0.022353388305676736 0.015228655306527374 0 0.0223193053779598 0.015667043148390649 0 0.022344960178794934 0.015192599297128944 0 0.022353388305676736 0.015228655306527374 0 0.022379039771749359 0.014867663855450535 0 0.022344960178794934 0.015192599297128944 0 0.022353388305676736 0.015228655306527374 0 0.022379039771749359 0.014867663855450535 0 0.022361484906888742 0.014705534433777277 0 0.022455640708999452 0.015710375887363758 0 0.022353388305676736 0.015228655306527374 0 0.022361484906888742 0.014705534433777277 0 0.022687303718648372 0.017602074087663979 0 0.022866085150629021 0.016829847620232062 0 0.023040059324832465 0.017351998134592175 0 0.021712357644022649 0.018031123538042985 0 0.022687303718648372 0.017602074087663979 0 0.023040059324832465 0.017351998134592175 0 0.022501409913504349 0.016647472931730228 0 0.02264223099671181 0.015782288956292263 0 0.024765392502762319 0.015424713368325198 0 0.023040059324832465 0.017351998134592175 0 0.023463947047663108 0.01558358769871143 0 0.023077602777186811 0.017216220238885686 0 0.023040506119123266 0.017368549343939641 0 0.022866085150629021 0.016829847620232062 0 0.023463947047663108 0.01558358769871143 0 0.023079891262720746 0.015441113684208941 0 0.022866085150629021 0.016829847620232062 0 0.023079891262720746 0.015441113684208941 0 0.0226126208707619 0.014939696362297247 0 0.022866085150629021 0.016829847620232062 0 0.023040059324832465 0.017351998134592175 0 0.023463947047663108 0.01558358769871143 0 0.02264223099671181 0.015782288956292263 0 0.022599294492153383 0.015073254101908864 0 0.022361484906888742 0.014705534433777277 0 0.022454305982004395 0.014461038693177013 0 0.0226126208707619 0.014939696362297247 0 0.022920239672378485 0.014271551524481806 0 0.02326694718661651 0.014899900670393044 0 0.0226126208707619 0.014939696362297247 0 0.022920239672378485 0.014271551524481806 0 0.022454305982004395 0.014461038693177013 0 0.0226126208707619 0.014939696362297247 0 0.022920239672378485 0.014271551524481806 0 0.022454305982004395 0.014461038693177013 0 0.023189255422108247 0.013348920304934094 0 0.022379039771749359 0.014867663855450535 0 0.022361484906888742 0.014705534433777277 0 0.022454305982004395 0.014461038693177013 0 0.022379039771749359 0.014867663855450535 0 0.022454305982004395 0.014461038693177013 0 0.022344960178794934 0.015192599297128944 0 0.022454305982004395 0.014461038693177013 0 0.022487286751162669 0.014698597106626013 0 0.022344960178794934 0.015192599297128944 0 0.023206173225782549 0.013585362841665324 0 0.023331589542586129 0.014140528279613441 0 0.022487286751162669 0.014698597106626013 0 0.023189255422108247 0.013348920304934094 0 0.021505126177855469 0.015706632828171047 0 0.022454305982004395 0.014461038693177013 0 0.022487286751162669 0.014698597106626013 0 0.023189255422108247 0.013348920304934094 0 0.022487286751162669 0.014698597106626013 0 0.021505126177855469 0.015706632828171047 0 0.022169556031766489 0.016127338612567297 0 0.022487286751162669 0.014698597106626013 0 0.022344960178794934 0.015192599297128944 0 0.022169556031766489 0.016127338612567297 0 0.024999610605266339 0.012205044882953748 0 0.025024066765099533 0.012202285428786409 0 0.024998011773776668 0.0099711828071806802 0 0.024999610605266339 0.012205044882953748 0 0.025071195032003172 0.012257848950303751 0 0.025330912753164209 0.012970902372999499 0 0.025113828099793765 0.012321600570632293 0 0.025071195032003172 0.012257848950303751 0 0.025330912753164209 0.012970902372999499 0 0.023189255422108247 0.013348920304934094 0 0.025113828099793765 0.012321600570632293 0 0.025071195032003172 0.012257848950303751 0 0.023189255422108247 0.013348920304934094 0 0.025071195032003172 0.012257848950303751 0 0.025024066765099533 0.012202285428786409 0 0.024999610605266339 0.012205044882953748 0 0.025071195032003172 0.012257848950303751 0 0.025024066765099533 0.012202285428786409 0 0.025024066765099533 0.012202285428786409 0 0.025481180857969094 0.0096281036193743685 0 0.024998011773776668 0.0099711828071806802 0 0.024943241844886142 0.012143299764543827 0 0.02432881988709629 0.012225049456581864 0 0.022920239672378485 0.014271551524481806 0 0.025024066765099533 0.012202285428786409 0 0.02326694718661651 0.014899900670393044 0 0.022920239672378485 0.014271551524481806 0 0.023189255422108247 0.013348920304934094 0 0.025024066765099533 0.012202285428786409 0 0.025481180857969094 0.0096281036193743685 0 0.024998011773776668 0.0099711828071806802 0 0.025036595274607505 0.0090661215379617757 0 0.024998011773776668 0.0099711828071806802 0 0.025036595274607505 0.0090661215379617757 0 0.025001428949526713 0.0083450050374548335 0 0.025036595274607505 0.0090661215379617757 0 0.025001428949526713 0.0083450050374548335 0 0.024682853842029024 0.0095744457046535517 0 0.025000021877154305 0.0083420800853043937 0 0.024986184895992743 0.0091160908154538055 0 0.025001428949526713 0.0083450050374548335 0 0.024682853842029024 0.0095744457046535517 0 0.025009668056229315 0.010996574072676096 0 0.025036595274607505 0.0090661215379617757 0 0.024682853842029024 0.0095744457046535517 0 0.024008385433481539 0.0092601356974983586 0 0.02432881988709629 0.012225049456581864 0 0.023261138708714209 0.01186022138720713 0 0.025481180857969094 0.0096281036193743685 0 0.025036595274607505 0.0090661215379617757 0 0.024008385433481539 0.0092601356974983586 0 0.02326694718661651 0.014899900670393044 0 0.0226126208707619 0.014939696362297247 0 0.02238543039242535 0.014307609221407436 0 0.023356682039006024 0.014596334276445114 0 0.0226126208707619 0.014939696362297247 0 0.023302853650465589 0.013667426317625924 0 0.0226126208707619 0.014939696362297247 0 0.023302853650465589 0.013667426317625924 0 0.022881194125524633 0.013536883551314025 0 0.0226126208707619 0.014939696362297247 0 0.022881194125524633 0.013536883551314025 0 0.02238543039242535 0.014307609221407436 0 0.022881194125524633 0.013536883551314025 0 0.02238543039242535 0.014307609221407436 0 0.022743975217545839 0.012223041951419563 0 0.022881194125524633 0.013536883551314025 0 0.022743975217545839 0.012223041951419563 0 0.023132463671167405 0.012507811196334664 0 0.024008385433481539 0.0092601356974983586 0 0.022743975217545839 0.012223041951419563 0 0.023778198576932006 0.011736492718383998 0 0.023261138708714209 0.01186022138720713 0 0.022786826816630704 0.012207235136757357 0 0.023302853650465589 0.013667426317625924 0 0.022881194125524633 0.013536883551314025 0 0.023132463671167405 0.012507811196334664 0 0.023660117748490424 0.01292481239484705 0 0.023302853650465589 0.013667426317625924 0 0.023132463671167405 0.012507811196334664 0 0.023554388836296413 0.012323793497619352 0 0.023660117748490424 0.01292481239484705 0 0.023132463671167405 0.012507811196334664 0 0.023342008654015187 0.01221247854086349 0 0.023554388836296413 0.012323793497619352 0 0.023132463671167405 0.012507811196334664 0 0.022743975217545839 0.012223041951419563 0 0.023132463671167405 0.012507811196334664 0 0.02298511293829095 0.012387059032414953 0 0.023132165572962788 0.012170806908124252 0 0.023132463671167405 0.012507811196334664 0 0.02298511293829095 0.012387059032414953 0 0.022743975217545839 0.012223041951419563 0 0.02298511293829095 0.012387059032414953 0 0.023778198576932006 0.011736492718383998 0 0.023778198576932006 0.011736492718383998 0 0.023514932961118399 0.012463246151387188 0 0.025009668056229315 0.010996574072676096 0 0.02298511293829095 0.012387059032414953 0 0.023778198576932006 0.011736492718383998 0 0.023514932961118399 0.012463246151387188 0 0.02401632297958689 0.0099282942736542163 0 0.024986184895992743 0.0091160908154538055 0 0.024422140742512095 0.0074581616035990237 0 0.02508993146576673 0.0071647577510424781 0 0.025268705962336848 0.007183706786392346 0 0.025332781682053759 0.0069643248924486714 0 0.025111869457209567 0.0069484127666358097 0 0.024422140742512095 0.0074581616035990237 0 0.024934408587855159 0.0074839785437220419 0 0.02508993146576673 0.0071647577510424781 0 0.024999982359087583 0.0056603528448008079 0 0.025047433226853277 0.0068512106976198707 0 0.025000096923237295 0.0070015907849722185 0 0.025337733824919887 0.0081538213535556087 0 0.025068332556041836 0.0073539639869729303 0 0.025047433226853277 0.0068512106976198707 0 0.024934408587855159 0.0074839785437220419 0 0.025068332556041836 0.0073539639869729303 0 0.02508993146576673 0.0071647577510424781 0 0.025047433226853277 0.0068512106976198707 0 0.025000096923237295 0.0070015907849722185 0 0.02508993146576673 0.0071647577510424781 0 0.025068332556041836 0.0073539639869729303 0 0.025047433226853277 0.0068512106976198707 0 0.02508993146576673 0.0071647577510424781 0 0.024999820160184753 0.008340978429308251 0 0.025000096923237295 0.0070015907849722185 0 0.025268705962336848 0.007183706786392346 0 0.025000096923237295 0.0070015907849722185 0 0.02508993146576673 0.0071647577510424781 0 0.025268705962336848 0.007183706786392346 0 0.024682853842029024 0.0095744457046535517 0 0.024008385433481539 0.0092601356974983586 0 0.023778198576932006 0.011736492718383998 0 0.024682853842029024 0.0095744457046535517 0 0.023778198576932006 0.011736492718383998 0 0.025009668056229315 0.010996574072676096 0 0.025103472026053716 0.016879053358871236 0 0.024999201326818821 0.015263875853683386 0 0.024997366367550317 0.01946871318638874 0 0.025747771335733669 0.018459072872993813 0 0.025103472026053716 0.016879053358871236 0 0.024997366367550317 0.01946871318638874 0 0.025747771335733669 0.018459072872993813 0 0.026254812389724453 0.017507066090609084 0 0.025103472026053716 0.016879053358871236 0 0.025747771335733669 0.018459072872993813 0 0.026569027576828209 0.018109644752214264 0 0.026254812389724453 0.017507066090609084 0 0.025747771335733669 0.018459072872993813 0 0.026749730399771118 0.018497278387694445 0 0.025961038922324282 0.019150115078498803 0 0.025747771335733669 0.018459072872993813 0 0.026569027576828209 0.018109644752214264 0 0.026749730399771118 0.018497278387694445 0 0.024901008218790262 0.020718428263408941 0 0.024805090360049974 0.020605907623023632 0 0.024901008218790262 0.020718428263408941 0 0.022633994491660047 0.019885176043152951 0 0.022578713813565802 0.023087499788056198 0 0.021522299640005276 0.022876232552459644 0 0.021532864456208313 0.023363718455841904 0 0.026569027576828209 0.018109644752214264 0 0.026749730399771118 0.018497278387694445 0 0.027441138854052381 0.018012676892544363 0 0.022106979183603458 0.017032099342947724 0 0.024278979152535182 0.017062859631846249 0 0.022518631264871893 0.017974343492452652 0 0.022106979183603458 0.017032099342947724 0 0.022518631264871893 0.017974343492452652 0 0.021998458804473688 0.017809676263375963 0 0.026569027576828209 0.018109644752214264 0 0.027441138854052381 0.018012676892544363 0 0.026254812389724453 0.017507066090609084 0 0.022106979183603458 0.017032099342947724 0 0.024420738694073109 0.017014117264053764 0 0.024278979152535182 0.017062859631846249 0 0.022633994491660047 0.019885176043152951 0 0.025768840232881424 0.016959124385566893 0 0.024278979152535182 0.017062859631846249 0 0.022518631264871893 0.017974343492452652 0 0.022750258000673502 0.018290050008891525 0 0.024271684055098081 0.016929148413614061 0 0.024185320007542453 0.017114790505718496 0 0.022518631264871893 0.017974343492452652 0 0.021956914590872734 0.018234396786203772 0 0.021808807725603944 0.018287749634247567 0 0.022518631264871893 0.017974343492452652 0 0.021808807725603944 0.018287749634247567 0 0.021998458804473688 0.017809676263375963 0 0.022518631264871893 0.017974343492452652 0 0.022345334782509024 0.018187471084441444 0 0.021956914590872734 0.018234396786203772 0 0.022345334782509024 0.018187471084441444 0 0.022106673998095318 0.018140805064339197 0 0.021956914590872734 0.018234396786203772 0 0.022518631264871893 0.017974343492452652 0 0.022345334782509024 0.018187471084441444 0 0.022750258000673502 0.018290050008891525 0 0.022345334782509024 0.018187471084441444 0 0.022750258000673502 0.018290050008891525 0 0.022106673998095318 0.018140805064339197 0 0.025058285889061623 0.016743304149876681 0 0.025103472026053716 0.016879053358871236 0 0.024999201326818821 0.015263875853683386 0 0.025662539426236277 0.016223496344249598 0 0.025058285889061623 0.016743304149876681 0 0.024999201326818821 0.015263875853683386 0 0.024420738694073109 0.017014117264053764 0 0.025058285889061623 0.016743304149876681 0 0.025103472026053716 0.016879053358871236 0 0.025768840232881424 0.016959124385566893 0 0.02494190671184714 0.016994608572764049 0 0.024278979152535182 0.017062859631846249 0 0.025662539426236277 0.016223496344249598 0 0.025058285889061623 0.016743304149876681 0 0.024420738694073109 0.017014117264053764 0 0.024278979152535182 0.017062859631846249 0 0.025058285889061623 0.016743304149876681 0 0.025662539426236277 0.016223496344249598 0 0.024999201326818821 0.015263875853683386 0 0.026018156928570003 0.014868903795306436 0 0.024999201326818821 0.015263875853683386 0 0.0259320912023322 0.013508744909365098 0 0.026018156928570003 0.014868903795306436 0 0.024999201326818821 0.015263875853683386 0 0.025330912753164209 0.012970902372999499 0 0.0259320912023322 0.013508744909365098 0 0.024999610605266339 0.012205044882953748 0 0.024999201326818821 0.015263875853683386 0 0.025330912753164209 0.012970902372999499 0 0.025113828099793765 0.012321600570632293 0 0.025330912753164209 0.012970902372999499 0 0.0259320912023322 0.013508744909365098 0 0.022169556031766489 0.016127338612567297 0 0.021921230994154148 0.017250053752841266 0 0.022075779189571414 0.01693098976660018 0 0.023331589542586129 0.014140528279613441 0 0.023656489647386692 0.015287916982630758 0 0.021505126177855469 0.015706632828171047 0 0.022169556031766489 0.016127338612567297 0 0.021412024093778449 0.017071979464107 0 0.021412024093778449 0.017071979464107 0 0.021921230994154148 0.017250053752841266 0 0.021802106413578003 0.017940680847539466 0 0.022169556031766489 0.016127338612567297 0 0.021412024093778449 0.017071979464107 0 0.021921230994154148 0.017250053752841266 0 0.021921230994154148 0.017250053752841266 0 0.021984100210579977 0.017791954430068944 0 0.021802106413578003 0.017940680847539466 0 0.023656489647386692 0.015287916982630758 0 0.023919854620774967 0.016371442956919013 0 0.024185320007542453 0.017114790505718496 0 0.023919854620774967 0.016371442956919013 0 0.022750258000673502 0.018290050008891525 0 0.021802106413578003 0.017940680847539466 0 0.022106673998095318 0.018140805064339197 0 0.021984100210579977 0.017791954430068944 0 0.021802106413578003 0.017940680847539466 0 0.022106673998095318 0.018140805064339197 0 0.021984100210579977 0.017791954430068944 0 0.022106673998095318 0.018140805064339197 0 0.021956914590872734 0.018234396786203772 0 0.021984100210579977 0.017791954430068944 0 0.021847938182404859 0.017910292081749001 0 0.021956914590872734 0.018234396786203772 0 0.021847938182404859 0.017910292081749001 0 0.02152542319749411 0.017771860799341004 0 0.02176542192562049 0.018201301744136526 0 0.021847938182404859 0.017910292081749001 0 0.02191940270684533 0.017534960261899876 0 0.02152542319749411 0.017771860799341004 0 0.021921230994154148 0.017250053752841266 0 0.021984100210579977 0.017791954430068944 0 0.02191940270684533 0.017534960261899876 0 0.021984100210579977 0.017791954430068944 0 0.021847938182404859 0.017910292081749001 0 0.02191940270684533 0.017534960261899876 0 0.021921230994154148 0.017250053752841266 0 0.02191940270684533 0.017534960261899876 0 0.022075779189571414 0.01693098976660018 0 0.02191940270684533 0.017534960261899876 0 0.022075779189571414 0.01693098976660018 0 0.021758121139716115 0.017294345286095542 0 0.02191940270684533 0.017534960261899876 0 0.021758121139716115 0.017294345286095542 0 0.02152542319749411 0.017771860799341004 0 0.02221966722709854 0.01638517182937797 0 0.022075779189571414 0.01693098976660018 0 0.021758121139716115 0.017294345286095542 0 0.021768216593951228 0.017126453312394693 0 0.02221966722709854 0.01638517182937797 0 0.021758121139716115 0.017294345286095542 0 0.02221966722709854 0.01638517182937797 0 0.022169556031766489 0.016127338612567297 0 0.022075779189571414 0.01693098976660018 0 0.021768216593951228 0.017126453312394693 0 0.021156175789214891 0.017447257484565038 0 0.020821040052158971 0.017480635245955806 0 0.021768216593951228 0.017126453312394693 0 0.021758121139716115 0.017294345286095542 0 0.021156175789214891 0.017447257484565038 0 0.021758121139716115 0.017294345286095542 0 0.021137996154592574 0.017738276616277769 0 0.02152542319749411 0.017771860799341004 0 0.021758121139716115 0.017294345286095542 0 0.021156175789214891 0.017447257484565038 0 0.021137996154592574 0.017738276616277769 0 0.021156175789214891 0.017447257484565038 0 0.021137996154592574 0.017738276616277769 0 0.020945981622601979 0.017609928813691507 0 0.021137996154592574 0.017738276616277769 0 0.020661323752679869 0.018349205738309785 0 0.020945981622601979 0.017609928813691507 0 0.021137996154592574 0.017738276616277769 0 0.02152542319749411 0.017771860799341004 0 0.020661323752679869 0.018349205738309785 0 0.02152542319749411 0.017771860799341004 0 0.02246236503842804 0.018189131826538949 0 0.02176542192562049 0.018201301744136526 0 0.021513767864066186 0.017904278006049448 0 0.021459608936073443 0.018461690375503319 0 0.02152542319749411 0.017771860799341004 0 0.020661323752679869 0.018349205738309785 0 0.020339830365741565 0.018611732913792381 0 0.020661323752679869 0.018349205738309785 0 0.020339830365741565 0.018611732913792381 0 0.01969832118590964 0.018969292840899328 0 0.020339830365741565 0.018611732913792381 0 0.019700009829592347 0.018941878579512291 0 0.01969832118590964 0.018969292840899328 0 0.021459608936073443 0.018461690375503319 0 0.021690399089831891 0.019574333641761608 0 0.022473868227761904 0.019608788219852499 0 0.02246236503842804 0.018189131826538949 0 0.02151374005553499 0.019032534271893612 0 0.022473868227761904 0.019608788219852499 0 0.02246236503842804 0.018189131826538949 0 0.023730294879982697 0.020097418337755711 0 0.02246236503842804 0.018189131826538949 0 0.02176542192562049 0.018201301744136526 0 0.02151374005553499 0.019032534271893612 0 0.021847938182404859 0.017910292081749001 0 0.02176542192562049 0.018201301744136526 0 0.021956914590872734 0.018234396786203772 0 0.02176542192562049 0.018201301744136526 0 0.021956914590872734 0.018234396786203772 0 0.021808807725603944 0.018287749634247567 0 0.021808807725603944 0.018287749634247567 0 0.02151374005553499 0.019032534271893612 0 0.021676497702450212 0.017896125886557063 0 0.021808807725603944 0.018287749634247567 0 0.021998458804473688 0.017809676263375963 0 0.021676497702450212 0.017896125886557063 0 0.02176542192562049 0.018201301744136526 0 0.021808807725603944 0.018287749634247567 0 0.02151374005553499 0.019032534271893612 0 0.021518681284535442 0.018891916474465521 0 0.020664287471567823 0.019327087394440112 0 0.021030844490685752 0.020849236689316954 0 0.020631210379784697 0.022502266948340555 0 0.021886841235873665 0.021333012603304075 0 0.022473868227761904 0.019608788219852499 0 0.02151374005553499 0.019032534271893612 0 0.021886841235873665 0.021333012603304075 0 0.02151374005553499 0.019032534271893612 0 0.021030844490685752 0.020849236689316954 0 0.021886841235873665 0.021333012603304075 0 0.02151374005553499 0.019032534271893612 0 0.021030844490685752 0.020849236689316954 0 0.019885349359274426 0.020382558485608 0 0.022633994491660047 0.019885176043152951 0 0.019981569371233701 0.022357295752201023 0 0.018024381565940231 0.021666954731769179 0 0.019885349359274426 0.020382558485608 0 0.020631210379784697 0.022502266948340555 0 0.022106979183603458 0.017032099342947724 0 0.021998458804473688 0.017809676263375963 0 0.021676497702450212 0.017896125886557063 0 0.021030844490685752 0.020849236689316954 0 0.019885349359274426 0.020382558485608 0 0.020631210379784697 0.022502266948340555 0 0.022633994491660047 0.019885176043152951 0 0.020664287471567823 0.019327087394440112 0 0.021522299640005276 0.022876232552459644 0 0.021532864456208313 0.023363718455841904 0 0.020631210379784697 0.022502266948340555 0 0.021522299640005276 0.022876232552459644 0 0.020631210379784697 0.022502266948340555 0 0.020931006161615771 0.023126511890587127 0 0.020631210379784697 0.022502266948340555 0 0.021333270605963534 0.023173162331753011 0 0.020931006161615771 0.023126511890587127 0 0.020631210379784697 0.022502266948340555 0 0.021886841235873665 0.021333012603304075 0 0.021333270605963534 0.023173162331753011 0 0.023111838894921095 0.022127644286495479 0 0.021886841235873665 0.021333012603304075 0 0.021333270605963534 0.023173162331753011 0 0.023111838894921095 0.022127644286495479 0 0.023730294879982697 0.020097418337755711 0 0.024693416894730088 0.022855845427934212 0 0.021690399089831891 0.019574333641761608 0 0.022170773621337035 0.020669932501283961 0 0.022473868227761904 0.019608788219852499 0 0.023730294879982697 0.020097418337755711 0 0.021886841235873665 0.021333012603304075 0 0.023111838894921095 0.022127644286495479 0 0.023730294879982697 0.020097418337755711 0 0.021886841235873665 0.021333012603304075 0 0.019700009829592347 0.018941878579512291 0 0.018967013906513421 0.019203137102081998 0 0.018900457713353132 0.018942397459468428 0 0.019700009829592347 0.018941878579512291 0 0.01927891885606222 0.01877949183228091 0 0.018900457713353132 0.018942397459468428 0 0.01927891885606222 0.01877949183228091 0 0.018900457713353132 0.018942397459468428 0 0.018780653308362663 0.018644463495525319 0 0.018967013906513421 0.019203137102081998 0 0.018900457713353132 0.018942397459468428 0 0.018241191824506266 0.019009325143392611 0 0.018900457713353132 0.018942397459468428 0 0.018241191824506266 0.019009325143392611 0 0.018780653308362663 0.018644463495525319 0 0.017078762745990808 0.019379315898874563 0 0.017695472831642165 0.019451646348770231 0 0.016943279799395149 0.019769151068450473 0 0.018241191824506266 0.019009325143392611 0 0.017078762745990808 0.019379315898874563 0 0.017695472831642165 0.019451646348770231 0 0.017695472831642165 0.019451646348770231 0 0.017690750272033217 0.019788804574759414 0 0.016943279799395149 0.019769151068450473 0 0.017690750272033217 0.019788804574759414 0 0.016762728069881903 0.020060696136164076 0 0.016943279799395149 0.019769151068450473 0 0.018967013906513421 0.019203137102081998 0 0.018241191824506266 0.019009325143392611 0 0.017695472831642165 0.019451646348770231 0 0.018967013906513421 0.019203137102081998 0 0.017695472831642165 0.019451646348770231 0 0.017690750272033217 0.019788804574759414 0 0.018967013906513421 0.019203137102081998 0 0.017690750272033217 0.019788804574759414 0 0.018828490850361954 0.019383919910286457 0 0.017723602207396966 0.019663319030559633 0 0.017890674382663035 0.019927574623157526 0 0.017690750272033217 0.019788804574759414 0 0.017114280947396979 0.020204667916111606 0 0.016762728069881903 0.020060696136164076 0 0.017114280947396979 0.020204667916111606 0 0.017353290286799695 0.020270081874914907 0 0.017106840973664526 0.020284781801071478 0 0.017690750272033217 0.019788804574759414 0 0.017114280947396979 0.020204667916111606 0 0.017353290286799695 0.020270081874914907 0 0.017690750272033217 0.019788804574759414 0 0.018620570663375621 0.01947637997724069 0 0.018828490850361954 0.019383919910286457 0 0.018620570663375621 0.01947637997724069 0 0.018828490850361954 0.019383919910286457 0 0.019134363017301242 0.019326639696006499 0 0.018828490850361954 0.019383919910286457 0 0.01969832118590964 0.018969292840899328 0 0.019134363017301242 0.019326639696006499 0 0.019700009829592347 0.018941878579512291 0 0.018967013906513421 0.019203137102081998 0 0.01969832118590964 0.018969292840899328 0 0.018967013906513421 0.019203137102081998 0 0.018828490850361954 0.019383919910286457 0 0.01969832118590964 0.018969292840899328 0 0.020462095795137431 0.018437004785310112 0 0.020480375829071491 0.018593477714915686 0 0.020661323752679869 0.018349205738309785 0 0.01969832118590964 0.018969292840899328 0 0.019589686120792982 0.019296247418879978 0 0.019134363017301242 0.019326639696006499 0 0.019589686120792982 0.019296247418879978 0 0.01897350219905642 0.019589133204537323 0 0.01969832118590964 0.018969292840899328 0 0.019134363017301242 0.019326639696006499 0 0.019589686120792982 0.019296247418879978 0 0.020480375829071491 0.018593477714915686 0 0.018998623478393907 0.019246404036346101 0 0.02099692020105878 0.018014007612083379 0 0.020945981622601979 0.017609928813691507 0 0.021019932114394041 0.017665478061832766 0 0.02099692020105878 0.018014007612083379 0 0.021019932114394041 0.017665478061832766 0 0.021157396762790198 0.017956809673364556 0 0.020661323752679869 0.018349205738309785 0 0.02099692020105878 0.018014007612083379 0 0.020945981622601979 0.017609928813691507 0 0.020945981622601979 0.017609928813691507 0 0.021019932114394041 0.017665478061832766 0 0.020607350671846464 0.017509310833266553 0 0.01978265863143875 0.018559617788813102 0 0.01975251382862862 0.018417346816830864 0 0.018471466290012808 0.019557345311660403 0 0.018786867135308215 0.019109145090658353 0 0.018534612837772513 0.019459718860789149 0 0.020945981622601979 0.017609928813691507 0 0.020607350671846464 0.017509310833266553 0 0.020821040052158971 0.017480635245955806 0 0.021156175789214891 0.017447257484565038 0 0.020945981622601979 0.017609928813691507 0 0.020821040052158971 0.017480635245955806 0 0.018581298166568491 0.01928988860717221 0 0.018244405393506871 0.019762255347939753 0 0.018534612837772513 0.019459718860789149 0 0.018244405393506871 0.019762255347939753 0 0.018534612837772513 0.019459718860789149 0 0.018013492626321185 0.019870644356706116 0 0.018978626158349204 0.018886003271568579 0 0.018786867135308215 0.019109145090658353 0 0.018534612837772513 0.019459718860789149 0 0.018471466290012808 0.019557345311660403 0 0.018534612837772513 0.019459718860789149 0 0.018255608543575559 0.019699775510356503 0 0.018534612837772513 0.019459718860789149 0 0.018255608543575559 0.019699775510356503 0 0.018013492626321185 0.019870644356706116 0 0.018255608543575559 0.019699775510356503 0 0.018013492626321185 0.019870644356706116 0 0.017776676146142381 0.019893748369606248 0 0.018255608543575559 0.019699775510356503 0 0.018042382655088889 0.019566643866711964 0 0.017776676146142381 0.019893748369606248 0 0.018042382655088889 0.019566643866711964 0 0.017776676146142381 0.019893748369606248 0 0.01728430429840315 0.020051973428080998 0 0.017420467671505915 0.019934580814381587 0 0.017450260550052506 0.020002061061045334 0 0.01978265863143875 0.018559617788813102 0 0.018998623478393907 0.019246404036346101 0 0.018255608543575559 0.019699775510356503 0 0.018042382655088889 0.019566643866711964 0 0.018352385799329018 0.019501890720018022 0 0.017420467671505915 0.019934580814381587 0 0.018998623478393907 0.019246404036346101 0 0.018471466290012808 0.019557345311660403 0 0.018255608543575559 0.019699775510356503 0 0.018352385799329018 0.019501890720018022 0 0.017353290286799695 0.020270081874914907 0 0.017197582990685245 0.020252251991695506 0 0.017285621560044276 0.020264921543777646 0 0.017890674382663035 0.019927574623157526 0 0.018998623478393907 0.019246404036346101 0 0.018620570663375621 0.01947637997724069 0 0.019134363017301242 0.019326639696006499 0 0.01897350219905642 0.019589133204537323 0 0.017353290286799695 0.020270081874914907 0 0.017197582990685245 0.020252251991695506 0 0.017106840973664526 0.020284781801071478 0 0.017197582990685245 0.020252251991695506 0 0.017106840973664526 0.020284781801071478 0 0.01728430429840315 0.020051973428080998 0 0.017106840973664526 0.020284781801071478 0 0.016943703979308718 0.020250090966005281 0 0.01728430429840315 0.020051973428080998 0 0.016943703979308718 0.020250090966005281 0 0.016982261532373786 0.020201695823742264 0 0.01728430429840315 0.020051973428080998 0 0.016943703979308718 0.020250090966005281 0 0.016553398554537094 0.020301645296390839 0 0.016982261532373786 0.020201695823742264 0 0.016943703979308718 0.020250090966005281 0 0.016553398554537094 0.020301645296390839 0 0.016392217738966486 0.020296404333863451 0 0.016553398554537094 0.020301645296390839 0 0.016982261532373786 0.020201695823742264 0 0.016593647008847138 0.020327342195368893 0 0.016982261532373786 0.020201695823742264 0 0.01699799709236394 0.02028001762330384 0 0.016593647008847138 0.020327342195368893 0 0.016982261532373786 0.020201695823742264 0 0.01699799709236394 0.02028001762330384 0 0.017402508776901363 0.020097454738392924 0 0.016982261532373786 0.020201695823742264 0 0.01728430429840315 0.020051973428080998 0 0.017402508776901363 0.020097454738392924 0 0.017776676146142381 0.019893748369606248 0 0.01728430429840315 0.020051973428080998 0 0.017402508776901363 0.020097454738392924 0 0.018013492626321185 0.019870644356706116 0 0.017776676146142381 0.019893748369606248 0 0.017402508776901363 0.020097454738392924 0 0.018013492626321185 0.019870644356706116 0 0.017402508776901363 0.020097454738392924 0 0.017613621209484308 0.020186874380399934 0 0.01699799709236394 0.02028001762330384 0 0.017613621209484308 0.020186874380399934 0 0.016811758076886403 0.020509713332850597 0 0.01699799709236394 0.02028001762330384 0 0.017402508776901363 0.020097454738392924 0 0.017613621209484308 0.020186874380399934 0 0.01811162661438517 0.020062567807899893 0 0.017613621209484308 0.020186874380399934 0 0.017375735605008772 0.020472653868542919 0 0.017613621209484308 0.020186874380399934 0 0.017375735605008772 0.020472653868542919 0 0.016811758076886403 0.020509713332850597 0 0.018244405393506871 0.019762255347939753 0 0.018013492626321185 0.019870644356706116 0 0.017613621209484308 0.020186874380399934 0 0.01811162661438517 0.020062567807899893 0 0.018244405393506871 0.019762255347939753 0 0.017613621209484308 0.020186874380399934 0 0.016177841115508112 0.021413175098049991 0 0.016811758076886403 0.020509713332850597 0 0.016045532270691613 0.020780949336963478 0 0.016177841115508112 0.021413175098049991 0 0.016045532270691613 0.020780949336963478 0 0.015462361449514813 0.021218442300819776 0 0.017375735605008772 0.020472653868542919 0 0.016177841115508112 0.021413175098049991 0 0.016811758076886403 0.020509713332850597 0 0.017322397469868366 0.02054618405699014 0 0.016748386148573484 0.020860046776745387 0 0.01744638975094339 0.020387688533017752 0 0.017375735605008772 0.020472653868542919 0 0.017418742010591824 0.020364075681260203 0 0.016811758076886403 0.020509713332850597 0 0.016045532270691613 0.020780949336963478 0 0.016495306881903041 0.020452148903623776 0 0.01699799709236394 0.02028001762330384 0 0.016811758076886403 0.020509713332850597 0 0.016495306881903041 0.020452148903623776 0 0.016045532270691613 0.020780949336963478 0 0.016495306881903041 0.020452148903623776 0 0.015724823688160826 0.020641021294776338 0 0.016173726876188208 0.020446058878598471 0 0.016495306881903041 0.020452148903623776 0 0.015724823688160826 0.020641021294776338 0 0.016173726876188208 0.020446058878598471 0 0.015827821592511802 0.020491701137000023 0 0.015724823688160826 0.020641021294776338 0 0.01699799709236394 0.02028001762330384 0 0.016495306881903041 0.020452148903623776 0 0.016593647008847138 0.020327342195368893 0 0.016173726876188208 0.020446058878598471 0 0.016495306881903041 0.020452148903623776 0 0.016593647008847138 0.020327342195368893 0 0.016553398554537094 0.020301645296390839 0 0.016593647008847138 0.020327342195368893 0 0.016185760276184295 0.020381783668421999 0 0.016173726876188208 0.020446058878598471 0 0.016593647008847138 0.020327342195368893 0 0.016185760276184295 0.020381783668421999 0 0.016553398554537094 0.020301645296390839 0 0.016185760276184295 0.020381783668421999 0 0.016067670913554783 0.020352541716160192 0 0.016185760276184295 0.020381783668421999 0 0.015696289975548811 0.02044922870834498 0 0.016067670913554783 0.020352541716160192 0 0.016173726876188208 0.020446058878598471 0 0.016185760276184295 0.020381783668421999 0 0.015827821592511802 0.020491701137000023 0 0.016185760276184295 0.020381783668421999 0 0.015827821592511802 0.020491701137000023 0 0.015696289975548811 0.02044922870834498 0 0.015827821592511802 0.020491701137000023 0 0.015696289975548811 0.02044922870834498 0 0.015454653951776995 0.020605478003493556 0 0.015696289975548811 0.02044922870834498 0 0.015547355571898383 0.020412051181245804 0 0.016067670913554783 0.020352541716160192 0 0.015547355571898383 0.020412051181245804 0 0.015823766298887921 0.020319582910709764 0 0.01541210765580806 0.020372608997953727 0 0.015547355571898383 0.020412051181245804 0 0.01541210765580806 0.020372608997953727 0 0.015189052395498004 0.02047553081069247 0 0.015823766298887921 0.020319582910709764 0 0.016208611823122627 0.020207163619353114 0 0.015572047137536746 0.02025089469024113 0 0.015547355571898383 0.020412051181245804 0 0.015823766298887921 0.020319582910709764 0 0.016067670913554783 0.020352541716160192 0 0.015823766298887921 0.020319582910709764 0 0.016067670913554783 0.020352541716160192 0 0.016392217738966486 0.020296404333863451 0 0.016553398554537094 0.020301645296390839 0 0.016067670913554783 0.020352541716160192 0 0.016392217738966486 0.020296404333863451 0 0.016943703979308718 0.020250090966005281 0 0.016392217738966486 0.020296404333863451 0 0.016754133185926584 0.02025709516601101 0 0.017106840973664526 0.020284781801071478 0 0.016943703979308718 0.020250090966005281 0 0.016754133185926584 0.02025709516601101 0 0.017114280947396979 0.020204667916111606 0 0.017106840973664526 0.020284781801071478 0 0.016754133185926584 0.02025709516601101 0 0.016754133185926584 0.02025709516601101 0 0.016762728069881903 0.020060696136164076 0 0.016208611823122627 0.020207163619353114 0 0.017114280947396979 0.020204667916111606 0 0.016754133185926584 0.02025709516601101 0 0.016762728069881903 0.020060696136164076 0 0.015823766298887921 0.020319582910709764 0 0.016392217738966486 0.020296404333863451 0 0.016208611823122627 0.020207163619353114 0 0.016392217738966486 0.020296404333863451 0 0.016754133185926584 0.02025709516601101 0 0.016208611823122627 0.020207163619353114 0 0.016208611823122627 0.020207163619353114 0 0.016123224599554179 0.020042375685330557 0 0.015572047137536746 0.02025089469024113 0 0.016123224599554179 0.020042375685330557 0 0.015300900627618295 0.02020026197358828 0 0.015572047137536746 0.02025089469024113 0 0.016762728069881903 0.020060696136164076 0 0.016208611823122627 0.020207163619353114 0 0.016123224599554179 0.020042375685330557 0 0.016762728069881903 0.020060696136164076 0 0.016123224599554179 0.020042375685330557 0 0.016943279799395149 0.019769151068450473 0 0.016123224599554179 0.020042375685330557 0 0.016943279799395149 0.019769151068450473 0 0.015972423552257298 0.019840656625312286 0 0.017078762745990808 0.019379315898874563 0 0.016943279799395149 0.019769151068450473 0 0.015972423552257298 0.019840656625312286 0 0.016123224599554179 0.020042375685330557 0 0.015972423552257298 0.019840656625312286 0 0.015300900627618295 0.02020026197358828 0 0.015972423552257298 0.019840656625312286 0 0.015300900627618295 0.02020026197358828 0 0.015010270033498847 0.020053031866885007 0 0.015300900627618295 0.02020026197358828 0 0.015050231493294472 0.020499535053802927 0 0.015572047137536746 0.02025089469024113 0 0.015300900627618295 0.02020026197358828 0 0.015050231493294472 0.020499535053802927 0 0.014942317129562213 0.020608250815457571 0 0.015050231493294472 0.020499535053802927 0 0.014642528414712131 0.020991545092280156 0 0.014673671267602294 0.020872928638469773 0 0.015050231493294472 0.020499535053802927 0 0.01541210765580806 0.020372608997953727 0 0.015189052395498004 0.02047553081069247 0 0.015823766298887921 0.020319582910709764 0 0.01541210765580806 0.020372608997953727 0 0.015572047137536746 0.02025089469024113 0 0.015050231493294472 0.020499535053802927 0 0.01541210765580806 0.020372608997953727 0 0.015572047137536746 0.02025089469024113 0 0.014862200925196816 0.021149029428833281 0 0.014666278348388809 0.021268402441788573 0 0.014662855284926442 0.021857261693285279 0 0.014862200925196816 0.021149029428833281 0 0.014666278348388809 0.021268402441788573 0 0.014942317129562213 0.020608250815457571 0 0.014666278348388809 0.021268402441788573 0 0.014642528414712131 0.020991545092280156 0 0.014202748746434918 0.02158056239511752 0 0.014666278348388809 0.021268402441788573 0 0.014662855284926442 0.021857261693285279 0 0.014202748746434918 0.02158056239511752 0 0.014666278348388809 0.021268402441788573 0 0.014642528414712131 0.020991545092280156 0 0.014942317129562213 0.020608250815457571 0 0.015050231493294472 0.020499535053802927 0 0.014642528414712131 0.020991545092280156 0 0.014942317129562213 0.020608250815457571 0 0.015300900627618295 0.02020026197358828 0 0.014942317129562213 0.020608250815457571 0 0.015010270033498847 0.020053031866885007 0 0.014862200925196816 0.021149029428833281 0 0.014942317129562213 0.020608250815457571 0 0.015010270033498847 0.020053031866885007 0 0.015064571593623271 0.019960166981186977 0 0.015233743537740282 0.019740650260139866 0 0.015972423552257298 0.019840656625312286 0 0.015010270033498847 0.020053031866885007 0 0.016456827000453294 0.018602032020567774 0 0.017078762745990808 0.019379315898874563 0 0.015972423552257298 0.019840656625312286 0 0.016456827000453294 0.018602032020567774 0 0.013906235890415007 0.020840436872377466 0 0.013757645125547177 0.021669836737668084 0 0.013025697001742437 0.021304816151039928 0 0.013906235890415007 0.020840436872377466 0 0.014484832540282391 0.021748592864421636 0 0.013757645125547177 0.021669836737668084 0 0.014862200925196816 0.021149029428833281 0 0.015010270033498847 0.020053031866885007 0 0.013906235890415007 0.020840436872377466 0 0.014862200925196816 0.021149029428833281 0 0.013906235890415007 0.020840436872377466 0 0.014484832540282391 0.021748592864421636 0 0.014484832540282391 0.021748592864421636 0 0.014183336537987652 0.022276498053639172 0 0.014738500828870561 0.02236839529724113 0 0.013757645125547177 0.021669836737668084 0 0.014183336537987652 0.022276498053639172 0 0.01321919143409349 0.022374904538342098 0 0.014484832540282391 0.021748592864421636 0 0.013757645125547177 0.021669836737668084 0 0.014183336537987652 0.022276498053639172 0 0.014900521436706371 0.023428810001660347 0 0.014808841808146315 0.024207106469402169 0 0.015535236613724718 0.023872382954798474 0 0.016574871419706712 0.02446522415191877 0 0.016822895404037426 0.02560433348419118 0 0.014787491977532315 0.023384125857846254 0 0.015535236613724718 0.023872382954798474 0 0.016822895404037426 0.02560433348419118 0 0.014183336537987652 0.022276498053639172 0 0.014787491977532315 0.023384125857846254 0 0.01321919143409349 0.022374904538342098 0 0.014738500828870561 0.02236839529724113 0 0.014725293211079727 0.022236364567892537 0 0.014787491977532315 0.023384125857846254 0 0.014183336537987652 0.022276498053639172 0 0.014738500828870561 0.02236839529724113 0 0.014787491977532315 0.023384125857846254 0 0.014738500828870561 0.02236839529724113 0 0.014725293211079727 0.022236364567892537 0 0.014662855284926442 0.021857261693285279 0 0.014862200925196816 0.021149029428833281 0 0.014484832540282391 0.021748592864421636 0 0.014662855284926442 0.021857261693285279 0 0.014484832540282391 0.021748592864421636 0 0.014738500828870561 0.02236839529724113 0 0.014662855284926442 0.021857261693285279 0 0.014662855284926442 0.021857261693285279 0 0.014202748746434918 0.02158056239511752 0 0.013387789388040401 0.022037659303518694 0 0.012790037405880077 0.02252900550809115 0 0.013465910747572054 0.022117912775310698 0 0.014725293211079727 0.022236364567892537 0 0.014662855284926442 0.021857261693285279 0 0.013387789388040401 0.022037659303518694 0 0.01147101192564829 0.022929826737626509 0 0.013387789388040401 0.022037659303518694 0 0.012486317750387142 0.023357815529374364 0 0.013446086678792948 0.025541416967814791 0 0.016746953743400197 0.02499849490503317 0 0.015925113857177205 0.025474096742471492 0 0.013446086678792948 0.025541416967814791 0 0.012534828292084306 0.024999747682000879 0 0.016746953743400197 0.02499849490503317 0 0.01147101192564829 0.022929826737626509 0 0.011904971261972114 0.024016559699290792 0 0.012486317750387142 0.023357815529374364 0 0.01147101192564829 0.022929826737626509 0 0.011265574751041875 0.023664483647019209 0 0.011904971261972114 0.024016559699290792 0 0.01147101192564829 0.022929826737626509 0 0.011265574751041875 0.023664483647019209 0 0.01055678824068019 0.023508145487313638 0 0.0111504053555345 0.024184802168476752 0 0.011904971261972114 0.024016559699290792 0 0.011756058163859252 0.024740722355144285 0 0.011265574751041875 0.023664483647019209 0 0.0111504053555345 0.024184802168476752 0 0.011904971261972114 0.024016559699290792 0 0.014265058446385023 0.026085212310788135 0 0.013446086678792948 0.025541416967814791 0 0.0151135533906613 0.026023041913591487 0 0.011904971261972114 0.024016559699290792 0 0.011756058163859252 0.024740722355144285 0 0.01205482353935421 0.024569759475962592 0 0.012567518028521027 0.025171424636098502 0 0.012597114240879542 0.025097778857914733 0 0.012597114240879542 0.025097778857914733 0 0.012533761797714505 0.02499992459038259 0 0.011756058163859252 0.024740722355144285 0 0.01253135269691617 0.024999976539678087 0 0.01205482353935421 0.024569759475962592 0 0.013446086678792948 0.025541416967814791 0 0.0151135533906613 0.026023041913591487 0 0.015925113857177205 0.025474096742471492 0 0.015871001626602779 0.026310299704275879 0 0.0151135533906613 0.026023041913591487 0 0.015009325071099193 0.0267921235345496 0 0.015871001626602779 0.026310299704275879 0 0.0151135533906613 0.026023041913591487 0 0.015925113857177205 0.025474096742471492 0 0.011265574751041875 0.023664483647019209 0 0.0111504053555345 0.024184802168476752 0 0.01055678824068019 0.023508145487313638 0 0.012567518028521027 0.025171424636098502 0 0.014097115832380285 0.024370997377366862 0 0.014265058446385023 0.026085212310788135 0 0.0151135533906613 0.026023041913591487 0 0.015009325071099193 0.0267921235345496 0 0.012790037405880077 0.02252900550809115 0 0.014097115832380285 0.024370997377366862 0 0.014725293211079727 0.022236364567892537 0 0.014813809113152146 0.023352561259021475 0 0.014787491977532315 0.023384125857846254 0 0.014813809113152146 0.023352561259021475 0 0.014787491977532315 0.023384125857846254 0 0.015535236613724718 0.023872382954798474 0 0.016236656659160312 0.025306894883888247 0 0.014097115832380285 0.024370997377366862 0 0.016448451337625729 0.02426812517629345 0 0.015701693792271754 0.023986827190858036 0 0.015993992288091608 0.024120112923949603 0 0.016448451337625729 0.02426812517629345 0 0.015993992288091608 0.024120112923949603 0 0.016574871419706712 0.02446522415191877 0 0.014097115832380285 0.024370997377366862 0 0.015124694463011243 0.024188455485876222 0 0.015701693792271754 0.023986827190858036 0 0.015993992288091608 0.024120112923949603 0 0.015535236613724718 0.023872382954798474 0 0.015993992288091608 0.024120112923949603 0 0.015535236613724718 0.023872382954798474 0 0.016574871419706712 0.02446522415191877 0 0.016448451337625729 0.02426812517629345 0 0.016574871419706712 0.02446522415191877 0 0.017240036272735914 0.024794159524165676 0 0.016746953743400197 0.02499849490503317 0 0.018117586663356649 0.025087171520449005 0 0.020188665392894909 0.024997531626546474 0 0.016574871419706712 0.02446522415191877 0 0.017240036272735914 0.024794159524165676 0 0.01714134930707676 0.024946318510476781 0 0.017240036272735914 0.024794159524165676 0 0.018024852904973528 0.024971521456068159 0 0.017769079861958664 0.02513465947134166 0 0.017240036272735914 0.024794159524165676 0 0.017769079861958664 0.02513465947134166 0 0.01714134930707676 0.024946318510476781 0 0.017240036272735914 0.024794159524165676 0 0.017730511147686763 0.025070090532650521 0 0.018024852904973528 0.024971521456068159 0 0.017240036272735914 0.024794159524165676 0 0.017730511147686763 0.025070090532650521 0 0.01698172887901854 0.025281776514880536 0 0.017730511147686763 0.025070090532650521 0 0.01698172887901854 0.025281776514880536 0 0.018117586663356649 0.025087171520449005 0 0.016236656659160312 0.025306894883888247 0 0.016718942348080745 0.025288073597483158 0 0.015871001626602779 0.026310299704275879 0 0.01698172887901854 0.025281776514880536 0 0.015925113857177205 0.025474096742471492 0 0.016448451337625729 0.02426812517629345 0 0.017240036272735914 0.024794159524165676 0 0.01698172887901854 0.025281776514880536 0 0.01698172887901854 0.025281776514880536 0 0.016746953743400197 0.02499849490503317 0 0.018117586663356649 0.025087171520449005 0 0.01698172887901854 0.025281776514880536 0 0.016746953743400197 0.02499849490503317 0 0.015925113857177205 0.025474096742471492 0 0.018117586663356649 0.025087171520449005 0 0.0190188800875143 0.025031908096901118 0 0.019806653333066759 0.025066181876427576 0 0.018117586663356649 0.025087171520449005 0 0.0190188800875143 0.025031908096901118 0 0.018442666944453949 0.025027149320999833 0 0.0190188800875143 0.025031908096901118 0 0.018442666944453949 0.025027149320999833 0 0.019148399546023195 0.024939370007015939 0 0.017730511147686763 0.025070090532650521 0 0.018117586663356649 0.025087171520449005 0 0.018442666944453949 0.025027149320999833 0 0.017730511147686763 0.025070090532650521 0 0.018442666944453949 0.025027149320999833 0 0.018024852904973528 0.024971521456068159 0 0.018442666944453949 0.025027149320999833 0 0.018024852904973528 0.024971521456068159 0 0.018659627725169863 0.024978781181639497 0 0.018659627725169863 0.024978781181639497 0 0.019154261541993768 0.024956291488627082 0 0.018483504895373391 0.025056711286631214 0 0.018024852904973528 0.024971521456068159 0 0.018659627725169863 0.024978781181639497 0 0.018483504895373391 0.025056711286631214 0 0.018024852904973528 0.024971521456068159 0 0.018483504895373391 0.025056711286631214 0 0.017769079861958664 0.02513465947134166 0 0.019148399546023195 0.024939370007015939 0 0.019154261541993768 0.024956291488627082 0 0.019624888253671018 0.024756057167334956 0 0.018442666944453949 0.025027149320999833 0 0.018659627725169863 0.024978781181639497 0 0.019148399546023195 0.024939370007015939 0 0.018659627725169863 0.024978781181639497 0 0.019148399546023195 0.024939370007015939 0 0.019154261541993768 0.024956291488627082 0 0.019154261541993768 0.024956291488627082 0 0.019659436849643303 0.024733282741392568 0 0.019624888253671018 0.024756057167334956 0 0.019154261541993768 0.024956291488627082 0 0.019440839180007538 0.024923295096885654 0 0.019176241762502988 0.025055887769822514 0 0.019440839180007538 0.024923295096885654 0 0.019471670242918872 0.025014360650007648 0 0.019176241762502988 0.025055887769822514 0 0.019154261541993768 0.024956291488627082 0 0.019440839180007538 0.024923295096885654 0 0.019659436849643303 0.024733282741392568 0 0.019440839180007538 0.024923295096885654 0 0.019659436849643303 0.024733282741392568 0 0.01963418393623487 0.024713839328732175 0 0.01963418393623487 0.024713839328732175 0 0.019776878151390388 0.024521109057847292 0 0.019939796957126121 0.024423565447666811 0 0.019659436849643303 0.024733282741392568 0 0.01963418393623487 0.024713839328732175 0 0.019939796957126121 0.024423565447666811 0 0.019440839180007538 0.024923295096885654 0 0.019471670242918872 0.025014360650007648 0 0.01963418393623487 0.024713839328732175 0 0.019471670242918872 0.025014360650007648 0 0.01963418393623487 0.024713839328732175 0 0.019648982809993932 0.024849448004694068 0 0.01963418393623487 0.024713839328732175 0 0.019648982809993932 0.024849448004694068 0 0.019776878151390388 0.024521109057847292 0 0.019118158655262875 0.022193067489611029 0 0.018096594475892253 0.022644660461638932 0 0.019679593782022987 0.023524488910614767 0 0.018957365095462125 0.024485559294998557 0 0.01671359160690385 0.021955346779858786 0 0.018957365095462125 0.024485559294998557 0 0.020974712385531835 0.022448921486009386 0 0.019471670242918872 0.025014360650007648 0 0.019080114232636249 0.025361624246871949 0 0.018795310751051664 0.025334099140638576 0 0.019157914110155046 0.024633687372753267 0 0.018957365095462125 0.024485559294998557 0 0.018957365095462125 0.024485559294998557 0 0.01906389630508537 0.025181580565625958 0 0.018985291547675056 0.025792231339037075 0 0.018795310751051664 0.025334099140638576 0 0.018184530785229309 0.026164577655098803 0 0.018795310751051664 0.025334099140638576 0 0.017955118626903407 0.025503830428704154 0 0.018184530785229309 0.026164577655098803 0 0.018361973650466136 0.025240057935592895 0 0.018795310751051664 0.025334099140638576 0 0.018817973352214405 0.025100427232163974 0 0.018361973650466136 0.025240057935592895 0 0.018795310751051664 0.025334099140638576 0 0.017955118626903407 0.025503830428704154 0 0.019471670242918872 0.025014360650007648 0 0.019176241762502988 0.025055887769822514 0 0.018795310751051664 0.025334099140638576 0 0.019176241762502988 0.025055887769822514 0 0.018795310751051664 0.025334099140638576 0 0.018817973352214405 0.025100427232163974 0 0.019154261541993768 0.024956291488627082 0 0.019176241762502988 0.025055887769822514 0 0.018817973352214405 0.025100427232163974 0 0.019154261541993768 0.024956291488627082 0 0.018817973352214405 0.025100427232163974 0 0.018483504895373391 0.025056711286631214 0 0.018361973650466136 0.025240057935592895 0 0.018483504895373391 0.025056711286631214 0 0.017769079861958664 0.02513465947134166 0 0.018361973650466136 0.025240057935592895 0 0.018817973352214405 0.025100427232163974 0 0.018483504895373391 0.025056711286631214 0 0.017769079861958664 0.02513465947134166 0 0.017955118626903407 0.025503830428704154 0 0.016822895404037426 0.02560433348419118 0 0.018361973650466136 0.025240057935592895 0 0.017769079861958664 0.02513465947134166 0 0.017955118626903407 0.025503830428704154 0 0.016574871419706712 0.02446522415191877 0 0.016822895404037426 0.02560433348419118 0 0.01714134930707676 0.024946318510476781 0 0.017769079861958664 0.02513465947134166 0 0.016822895404037426 0.02560433348419118 0 0.01714134930707676 0.024946318510476781 0 0.013757645125547177 0.021669836737668084 0 0.01321919143409349 0.022374904538342098 0 0.013025697001742437 0.021304816151039928 0 0.01321919143409349 0.022374904538342098 0 0.012232425899549086 0.021702389762721316 0 0.013025697001742437 0.021304816151039928 0 0.017955118626903407 0.025503830428704154 0 0.016822895404037426 0.02560433348419118 0 0.018184530785229309 0.026164577655098803 0 0.014808841808146315 0.024207106469402169 0 0.01671359160690385 0.021955346779858786 0 0.018346276320958334 0.017680925559142465 0 0.018329406646971875 0.018352542001855977 0 0.017521663693588829 0.017979094506637774 0 0.01671359160690385 0.021955346779858786 0 0.015136020362837992 0.019524368781610655 0 0.018329406646971875 0.018352542001855977 0 0.017521663693588829 0.017979094506637774 0 0.01759889450485912 0.018691927324267308 0 0.015233743537740282 0.019740650260139866 0 0.015136020362837992 0.019524368781610655 0 0.016456827000453294 0.018602032020567774 0 0.017521663693588829 0.017979094506637774 0 0.01759889450485912 0.018691927324267308 0 0.018241191824506266 0.019009325143392611 0 0.017078762745990808 0.019379315898874563 0 0.01759889450485912 0.018691927324267308 0 0.017078762745990808 0.019379315898874563 0 0.016456827000453294 0.018602032020567774 0 0.01759889450485912 0.018691927324267308 0 0.018241191824506266 0.019009325143392611 0 0.018329406646971875 0.018352542001855977 0 0.01759889450485912 0.018691927324267308 0 0.018241191824506266 0.019009325143392611 0 0.018329406646971875 0.018352542001855977 0 0.018780653308362663 0.018644463495525319 0 0.01927891885606222 0.01877949183228091 0 0.018780653308362663 0.018644463495525319 0 0.018994074398617729 0.018091758236311938 0 0.024693416894730088 0.022855845427934212 0 0.02554758305922002 0.025241051942303902 0 0.023671705436566031 0.02422043018410042 0 0.022170773621337035 0.020669932501283961 0 0.020974712385531835 0.022448921486009386 0 0.020974712385531835 0.022448921486009386 0 0.022415429869129457 0.024519897184920692 0 0.018346276320958334 0.017680925559142465 0 0.018329406646971875 0.018352542001855977 0 0.018994074398617729 0.018091758236311938 0 0.01671359160690385 0.021955346779858786 0 0.020974712385531835 0.022448921486009386 0 0.018329406646971875 0.018352542001855977 0 0.018780653308362663 0.018644463495525319 0 0.018994074398617729 0.018091758236311938 0 0.020528148607081815 0.023842473588533662 0 0.020260116001694584 0.024113662501313457 0 0.020219172464982223 0.024161137131696337 0 0.020811888864823845 0.023650312859804252 0 0.020260116001694584 0.024113662501313457 0 0.020340756175639813 0.024103403862993793 0 0.020811888864823845 0.023650312859804252 0 0.020528148607081815 0.023842473588533662 0 0.020260116001694584 0.024113662501313457 0 0.019776878151390388 0.024521109057847292 0 0.020260116001694584 0.024113662501313457 0 0.020340756175639813 0.024103403862993793 0 0.019776878151390388 0.024521109057847292 0 0.020260116001694584 0.024113662501313457 0 0.019939796957126121 0.024423565447666811 0 0.023111838894921095 0.022127644286495479 0 0.024693416894730088 0.022855845427934212 0 0.023671705436566031 0.02422043018410042 0 0.023111838894921095 0.022127644286495479 0 0.023671705436566031 0.02422043018410042 0 0.021333270605963534 0.023173162331753011 0 0.022415429869129457 0.024519897184920692 0 0.021060382880566917 0.023106247504530712 0 0.020811888864823845 0.023650312859804252 0 0.020340756175639813 0.024103403862993793 0 0.021333270605963534 0.023173162331753011 0 0.020811888864823845 0.023650312859804252 0 0.021333270605963534 0.023173162331753011 0 0.020931006161615771 0.023126511890587127 0 0.020931006161615771 0.023126511890587127 0 0.020747276595965848 0.023375685946082903 0 0.022148572302269878 0.022376032716677961 0 0.021522299640005276 0.022876232552459644 0 0.020931006161615771 0.023126511890587127 0 0.022148572302269878 0.022376032716677961 0 0.020747276595965848 0.023375685946082903 0 0.020819767752951406 0.023346336083366684 0 0.022148572302269878 0.022376032716677961 0 0.020811888864823845 0.023650312859804252 0 0.020931006161615771 0.023126511890587127 0 0.020747276595965848 0.023375685946082903 0 0.020811888864823845 0.023650312859804252 0 0.020528148607081815 0.023842473588533662 0 0.020747276595965848 0.023375685946082903 0 0.020343005672827579 0.024009737179040615 0 0.020819767752951406 0.023346336083366684 0 0.02018795978971517 0.02417163991296381 0 0.020747276595965848 0.023375685946082903 0 0.020343005672827579 0.024009737179040615 0 0.020819767752951406 0.023346336083366684 0 0.020528148607081815 0.023842473588533662 0 0.020747276595965848 0.023375685946082903 0 0.020343005672827579 0.024009737179040615 0 0.021610969406982445 0.022901078472853616 0 0.021116298593918847 0.023827270511231423 0 0.022340483793278024 0.022348222798092839 0 0.022056349717442057 0.023517374278817914 0 0.021778405165553179 0.023187929890411074 0 0.020343005672827579 0.024009737179040615 0 0.02018795978971517 0.02417163991296381 0 0.019925258291723369 0.024526254391221258 0 0.020343005672827579 0.024009737179040615 0 0.0199514731456969 0.02446702408961739 0 0.019925258291723369 0.024526254391221258 0 0.020343005672827579 0.024009737179040615 0 0.020219172464982223 0.024161137131696337 0 0.0199514731456969 0.02446702408961739 0 0.020528148607081815 0.023842473588533662 0 0.020343005672827579 0.024009737179040615 0 0.020219172464982223 0.024161137131696337 0 0.020260116001694584 0.024113662501313457 0 0.020219172464982223 0.024161137131696337 0 0.019939796957126121 0.024423565447666811 0 0.020219172464982223 0.024161137131696337 0 0.019939796957126121 0.024423565447666811 0 0.0199514731456969 0.02446702408961739 0 0.019659436849643303 0.024733282741392568 0 0.019939796957126121 0.024423565447666811 0 0.0199514731456969 0.02446702408961739 0 0.019659436849643303 0.024733282741392568 0 0.0199514731456969 0.02446702408961739 0 0.019624888253671018 0.024756057167334956 0 0.0199514731456969 0.02446702408961739 0 0.019624888253671018 0.024756057167334956 0 0.019925258291723369 0.024526254391221258 0 0.019624888253671018 0.024756057167334956 0 0.019925258291723369 0.024526254391221258 0 0.019619644857305569 0.024871460507803318 0 0.019148399546023195 0.024939370007015939 0 0.019624888253671018 0.024756057167334956 0 0.019619644857305569 0.024871460507803318 0 0.019925258291723369 0.024526254391221258 0 0.019778865962027402 0.024715508056514308 0 0.019619644857305569 0.024871460507803318 0 0.020564809167719182 0.024669226325092098 0 0.019910447836258279 0.024924741325591523 0 0.019778865962027402 0.024715508056514308 0 0.019619644857305569 0.024871460507803318 0 0.019806653333066759 0.025066181876427576 0 0.021449409879117368 0.02471723596065363 0 0.019806653333066759 0.025066181876427576 0 0.021039856613148968 0.024975397280024646 0 0.0190188800875143 0.025031908096901118 0 0.019148399546023195 0.024939370007015939 0 0.019619644857305569 0.024871460507803318 0 0.0190188800875143 0.025031908096901118 0 0.019619644857305569 0.024871460507803318 0 0.019806653333066759 0.025066181876427576 0 0.018117586663356649 0.025087171520449005 0 0.019806653333066759 0.025066181876427576 0 0.020188665392894909 0.024997531626546474 0 0.019806653333066759 0.025066181876427576 0 0.020188665392894909 0.024997531626546474 0 0.021039856613148968 0.024975397280024646 0 0.020188665392894909 0.024997531626546474 0 0.021505803556226416 0.024889119883439739 0 0.021039856613148968 0.024975397280024646 0 0.021594979278138665 0.024764558020908645 0 0.022149311193418876 0.024334123150630726 0 0.021505803556226416 0.024889119883439739 0 0.021039856613148968 0.024975397280024646 0 0.021404823647460054 0.024599978826452457 0 0.021449409879117368 0.02471723596065363 0 0.021039856613148968 0.024975397280024646 0 0.021404823647460054 0.024599978826452457 0 0.021116298593918847 0.023827270511231423 0 0.020564809167719182 0.024669226325092098 0 0.02018795978971517 0.02417163991296381 0 0.019925258291723369 0.024526254391221258 0 0.019778865962027402 0.024715508056514308 0 0.022056349717442057 0.023517374278817914 0 0.021449409879117368 0.02471723596065363 0 0.021404823647460054 0.024599978826452457 0 0.022056349717442057 0.023517374278817914 0 0.021404823647460054 0.024599978826452457 0 0.021778405165553179 0.023187929890411074 0 0.020188665392894909 0.024997531626546474 0 0.021505803556226416 0.024889119883439739 0 0.024997565923379768 0.024997663119664261 0 0.021505803556226416 0.024889119883439739 0 0.022958511076555367 0.024185346655617061 0 0.024997565923379768 0.024997663119664261 0 0.022958511076555367 0.024185346655617061 0 0.024997565923379768 0.024997663119664261 0 0.023621465461007327 0.022941141269675148 0 0.024997565923379768 0.024997663119664261 0 0.023621465461007327 0.022941141269675148 0 0.024997366367550317 0.01946871318638874 0 0.022149311193418876 0.024334123150630726 0 0.022742651187216616 0.023090410440587003 0 0.023621465461007327 0.022941141269675148 0 0.023358260043992881 0.021890180338505771 0 0.024888821126034473 0.019874811546191556 0 0.022742651187216616 0.023090410440587003 0 0.023248364911385603 0.022080071660757129 0 0.022340483793278024 0.022348222798092839 0 0.021778405165553179 0.023187929890411074 0 0.023358260043992881 0.021890180338505771 0 0.023358260043992881 0.021890180338505771 0 0.022148572302269878 0.022376032716677961 0 0.023396094648686978 0.021776352402473571 0 0.021610969406982445 0.022901078472853616 0 0.022093460356368833 0.022538639739568947 0 0.022340483793278024 0.022348222798092839 0 0.023358260043992881 0.021890180338505771 0 0.022148572302269878 0.022376032716677961 0 0.022578713813565802 0.023087499788056198 0 0.021522299640005276 0.022876232552459644 0 0.022148572302269878 0.022376032716677961 0 0.022578713813565802 0.023087499788056198 0 0.023396094648686978 0.021776352402473571 0 0.023906654027612734 0.022145870409694304 0 0.022578713813565802 0.023087499788056198 0 0.022148572302269878 0.022376032716677961 0 0.023396094648686978 0.021776352402473571 0 0.024805090360049974 0.020605907623023632 0 0.02489567743045256 0.020097226260918619 0 0.023358260043992881 0.021890180338505771 0 0.023396094648686978 0.021776352402473571 0 0.024888821126034473 0.019874811546191556 0 0.023396094648686978 0.021776352402473571 0 0.023906654027612734 0.022145870409694304 0 0.024888821126034473 0.019874811546191556 0 0.025747771335733669 0.018459072872993813 0 0.025961038922324282 0.019150115078498803 0 0.024888821126034473 0.019874811546191556 0 0.023621465461007327 0.022941141269675148 0 0.024888821126034473 0.019874811546191556 0 0.024997366367550317 0.01946871318638874 0 0.025747771335733669 0.018459072872993813 0 0.024888821126034473 0.019874811546191556 0 0.024997366367550317 0.01946871318638874 0 0.0047481148565987575 0.020338560181242457 0 0.0047466691189225405 0.020701023517355952 0 0.0052257972259736373 0.020353102868850378 0 0.0047481148565987575 0.020338560181242457 0 0.0044311860566539473 0.020523920335917375 0 0.0047466691189225405 0.020701023517355952 0 0.0044311860566539473 0.020523920335917375 0 0.0044479590811032747 0.020141844877791804 0 0.0041381822116575238 0.020292431558405311 0 0.0047481148565987575 0.020338560181242457 0 0.0044311860566539473 0.020523920335917375 0 0.0044479590811032747 0.020141844877791804 0 0.0044311860566539473 0.020523920335917375 0 0.004429005985852978 0.020817312672907068 0 0.0047466691189225405 0.020701023517355952 0 0.004429005985852978 0.020817312672907068 0 0.0047466691189225405 0.020701023517355952 0 0.004621922468384795 0.021105069325998774 0 0.0044311860566539473 0.020523920335917375 0 0.004429005985852978 0.020817312672907068 0 0.0041275916984008275 0.020811629810581884 0 0.0047466691189225405 0.020701023517355952 0 0.0052257972259736373 0.020353102868850378 0 0.0050983105736967984 0.021010795184620686 0 0.0056130105418185682 0.020875392174317754 0 0.0052257972259736373 0.020353102868850378 0 0.0050983105736967984 0.021010795184620686 0 0.0099549783832774113 0.019989784122920958 0 0.0064550802538099932 0.018285793681635715 0 0.013283767901022208 0.021194441970027122 0 0.01325983407710621 0.021188038472759393 0 0.013375550555008624 0.021172635129943145 0 0.0099549783832774113 0.019989784122920958 0 0.0091634477092306637 0.02109468334937829 0 0.0099549783832774113 0.019989784122920958 0 0.013483290866514806 0.020345767515972425 0 0.013283767901022208 0.021194441970027122 0 0.01325983407710621 0.021188038472759393 0 0.013194023466757162 0.021229315375437343 0 0.013194023466757162 0.021229315375437343 0 0.013132380932596603 0.02131685483471369 0 0.013142727326464522 0.021547150347958122 0 0.0091634477092306637 0.02109468334937829 0 0.0092049622037937429 0.020024074232262053 0 0.01325983407710621 0.021188038472759393 0 0.013194023466757162 0.021229315375437343 0 0.013132380932596603 0.02131685483471369 0 0.01325983407710621 0.021188038472759393 0 0.013132380932596603 0.02131685483471369 0 0.01330860128195146 0.021159138164725439 0 0.013132380932596603 0.02131685483471369 0 0.013072648312245394 0.021729891229206228 0 0.012983471519695642 0.021535154560049414 0 0.013132380932596603 0.02131685483471369 0 0.013142727326464522 0.021547150347958122 0 0.013072648312245394 0.021729891229206228 0 0.0092049622037937429 0.020024074232262053 0 0.0061748209957237267 0.024495881571324745 0 0.0047481148565987575 0.020338560181242457 0 0.0048426457347117355 0.019872138010791452 0 0.0044479590811032747 0.020141844877791804 0 0.0047481148565987575 0.020338560181242457 0 0.0052257972259736373 0.020353102868850378 0 0.0048426457347117355 0.019872138010791452 0 0.0044479590811032747 0.020141844877791804 0 0.004418250201871558 0.019809855772154977 0 0.0041390683718341348 0.020056300495920259 0 0.0044479590811032747 0.020141844877791804 0 0.0041390683718341348 0.020056300495920259 0 0.0041381822116575238 0.020292431558405311 0 0.0048426457347117355 0.019872138010791452 0 0.0044479590811032747 0.020141844877791804 0 0.004418250201871558 0.019809855772154977 0 0.0048426457347117355 0.019872138010791452 0 0.004418250201871558 0.019809855772154977 0 0.0045104911131181417 0.0194426234658047 0 0.004418250201871558 0.019809855772154977 0 0.0040733459178201436 0.019731945119197292 0 0.0045104911131181417 0.0194426234658047 0 0.004418250201871558 0.019809855772154977 0 0.0040733459178201436 0.019731945119197292 0 0.0041390683718341348 0.020056300495920259 0 0.0034498355454374427 0.024853902805030314 0 0.0031154250017658642 0.024065924682962595 0 0.0034701507096697604 0.029586239846595461 0 0.0025733181507090618 0.030244333283242247 0 0.0023264609772009554 0.029603097186885603 0 0.0031154250017658642 0.024065924682962595 0 0.0028356707088890874 0.021227538918942617 0 0.0040733459178201436 0.019731945119197292 0 0.0036560250824881212 0.020037182486435705 0 0.0038261523665864905 0.020128966309759529 0 0.0036974005502842522 0.020008187606337456 0 0.0037177425693636803 0.020198579755447938 0 0.0035838399169212699 0.020233992951699076 0 0.0036974005502842522 0.020008187606337456 0 0.0037177425693636803 0.020198579755447938 0 0.0038261523665864905 0.020128966309759529 0 0.0037177425693636803 0.020198579755447938 0 0.0035838399169212699 0.020233992951699076 0 0.0036544638508441509 0.020276786641052032 0 0.0038261523665864905 0.020128966309759529 0 0.003920826520128773 0.020249394111161195 0 0.0037623939958571786 0.020266604792659945 0 0.0037177425693636803 0.020198579755447938 0 0.0038261523665864905 0.020128966309759529 0 0.0037623939958571786 0.020266604792659945 0 0.0038261523665864905 0.020128966309759529 0 0.0041390683718341348 0.020056300495920259 0 0.003920826520128773 0.020249394111161195 0 0.0040733459178201436 0.019731945119197292 0 0.0038261523665864905 0.020128966309759529 0 0.0041390683718341348 0.020056300495920259 0 0.0041390683718341348 0.020056300495920259 0 0.0041381822116575238 0.020292431558405311 0 0.003920826520128773 0.020249394111161195 0 0.0015850790055801801 0.028580726537819245 0 0.00088804024679889067 0.027402254616670459 0 0.0010409182531223912 0.029172938283821365 0 0.00049438858971436394 0.028825841985267341 0 0.00043058761340163598 0.029592356044678768 0 0.0025733181507090618 0.030244333283242247 0 0.001542105215575913 0.029611761690445482 0 0.0023264609772009554 0.029603097186885603 0 0.0031154250017658642 0.024065924682962595 0 0.0015850790055801801 0.028580726537819245 0 0.001542105215575913 0.029611761690445482 0 0.0023264609772009554 0.029603097186885603 0 0.0018567567959761491 0.029363289690002257 0 0.0023399979338386808 0.025501439991903761 0 0.0016528967810347155 0.025075633166785356 0 0.001916108839540371 0.025834293559514301 0 0.0031154250017658642 0.024065924682962595 0 0.0027258032451203322 0.022967853792311355 0 0.0036974005502842522 0.020008187606337456 0 0.0035838399169212699 0.020233992951699076 0 0.0033101814158152097 0.020278999559481471 0 0.0016528967810347155 0.025075633166785356 0 0.0014322886022309338 0.025712922804268592 0 0.0010619579160310599 0.025462862079924414 0 0.0016528967810347155 0.025075633166785356 0 0.001916108839540371 0.025834293559514301 0 0.0014322886022309338 0.025712922804268592 0 0.0014322886022309338 0.025712922804268592 0 0.0014876317386447269 0.026172441766300576 0 0.00097503071559473006 0.026026589529724132 0 0.0033101814158152097 0.020278999559481471 0 0.0028195236423191931 0.020679140985140662 0 0.0031033346621615293 0.020762246497191616 0 0.001916108839540371 0.025834293559514301 0 0.0014322886022309338 0.025712922804268592 0 0.0014876317386447269 0.026172441766300576 0 0.0027258032451203322 0.022967853792311355 0 0.0016712157276725518 0.023044526270171995 0 0.0016712157276725518 0.023044526270171995 0 0.0030048151923494451 0.021162033481749654 0 0.0034988586783730995 0.020326829340591029 0 0.003523000247850645 0.02033606392187827 0 0.0035277046158590543 0.020367739710874924 0 0.003499141666395617 0.020331087097652294 0 0.003523000247850645 0.02033606392187827 0 0.0035805611823884857 0.020318276640152927 0 0.0030048151923494451 0.021162033481749654 0 0.0031381628063459556 0.021067540796848631 0 0.0035838399169212699 0.020233992951699076 0 0.0033101814158152097 0.020278999559481471 0 0.0031033346621615293 0.020762246497191616 0 0.0037184183307371562 0.020073809631117136 0 0.0030048151923494451 0.021162033481749654 0 0.0035838399169212699 0.020233992951699076 0 0.003499141666395617 0.020331087097652294 0 0.0035805611823884857 0.020318276640152927 0 0.0035838399169212699 0.020233992951699076 0 0.0035805611823884857 0.020318276640152927 0 0.0036544638508441509 0.020276786641052032 0 0.003523000247850645 0.02033606392187827 0 0.0035805611823884857 0.020318276640152927 0 0.0035679978053258683 0.020353637061455491 0 0.0035805611823884857 0.020318276640152927 0 0.0035679978053258683 0.020353637061455491 0 0.0036261405223528172 0.020365841958246065 0 0.0034988586783730995 0.020326829340591029 0 0.0035277046158590543 0.020367739710874924 0 0.0034694963275753296 0.020391500546446006 0 0.0035679978053258683 0.020353637061455491 0 0.0035816277608683414 0.020386160702153593 0 0.0036261405223528172 0.020365841958246065 0 0.0035679978053258683 0.020353637061455491 0 0.0035816277608683414 0.020386160702153593 0 0.0035277046158590543 0.020367739710874924 0 0.0035816277608683414 0.020386160702153593 0 0.0036020832149286129 0.020417341174335711 0 0.0035328264977601245 0.020414390781169984 0 0.0036020832149286129 0.020417341174335711 0 0.0035328264977601245 0.020414390781169984 0 0.0035921918892297473 0.020440087389405056 0 0.0035816277608683414 0.020386160702153593 0 0.0035328264977601245 0.020414390781169984 0 0.0035277046158590543 0.020367739710874924 0 0.0035328264977601245 0.020414390781169984 0 0.0035277046158590543 0.020367739710874924 0 0.0034694963275753296 0.020391500546446006 0 0.003523000247850645 0.02033606392187827 0 0.0035679978053258683 0.020353637061455491 0 0.0035277046158590543 0.020367739710874924 0 0.0030048151923494451 0.021162033481749654 0 0.0024833629042477785 0.02135659513186881 0 0.0018981659096271226 0.021845032614039171 0 0.0020182200550687406 0.021881369036754306 0 0.0017243300237299185 0.022153958191355658 0 0.0034988586783730995 0.020326829340591029 0 0.0034694963275753296 0.020391500546446006 0 0.003354191147273138 0.02038049862878813 0 0.0044311860566539473 0.020523920335917375 0 0.0041381822116575238 0.020292431558405311 0 0.0041275916984008275 0.020811629810581884 0 0.0041381822116575238 0.020292431558405311 0 0.0038221676471400247 0.020355824516176107 0 0.0037998497609366653 0.020452117346672287 0 0.0041299867563479187 0.020255564302107076 0 0.0039476882692833053 0.020693812319759232 0 0.0041381822116575238 0.020292431558405311 0 0.003920826520128773 0.020249394111161195 0 0.0038221676471400247 0.020355824516176107 0 0.003920826520128773 0.020249394111161195 0 0.0037623939958571786 0.020266604792659945 0 0.0038221676471400247 0.020355824516176107 0 0.0035805611823884857 0.020318276640152927 0 0.0036544638508441509 0.020276786641052032 0 0.0036845921152370222 0.020331432050862644 0 0.0037177425693636803 0.020198579755447938 0 0.0037623939958571786 0.020266604792659945 0 0.0036544638508441509 0.020276786641052032 0 0.0037623939958571786 0.020266604792659945 0 0.0036544638508441509 0.020276786641052032 0 0.0036845921152370222 0.020331432050862644 0 0.0035805611823884857 0.020318276640152927 0 0.0036845921152370222 0.020331432050862644 0 0.0036261405223528172 0.020365841958246065 0 0.0036845921152370222 0.020331432050862644 0 0.0036261405223528172 0.020365841958246065 0 0.0037036791586898044 0.020380273529797439 0 0.0037623939958571786 0.020266604792659945 0 0.0036845921152370222 0.020331432050862644 0 0.0038221676471400247 0.020355824516176107 0 0.0036845921152370222 0.020331432050862644 0 0.0038221676471400247 0.020355824516176107 0 0.0037036791586898044 0.020380273529797439 0 0.0038221676471400247 0.020355824516176107 0 0.0037036791586898044 0.020380273529797439 0 0.0037199021403510916 0.020426642796794084 0 0.0037036791586898044 0.020380273529797439 0 0.0036556683717187681 0.020413473908243131 0 0.0037199021403510916 0.020426642796794084 0 0.0035816277608683414 0.020386160702153593 0 0.0036261405223528172 0.020365841958246065 0 0.0036556683717187681 0.020413473908243131 0 0.0036261405223528172 0.020365841958246065 0 0.0037036791586898044 0.020380273529797439 0 0.0036556683717187681 0.020413473908243131 0 0.0035816277608683414 0.020386160702153593 0 0.0036020832149286129 0.020417341174335711 0 0.0036556683717187681 0.020413473908243131 0 0.0036556683717187681 0.020413473908243131 0 0.0037199021403510916 0.020426642796794084 0 0.0036505994803269558 0.020445303382309332 0 0.0036020832149286129 0.020417341174335711 0 0.0036505994803269558 0.020445303382309332 0 0.0035921918892297473 0.020440087389405056 0 0.0036020832149286129 0.020417341174335711 0 0.0036556683717187681 0.020413473908243131 0 0.0036505994803269558 0.020445303382309332 0 0.0037199021403510916 0.020426642796794084 0 0.0037998497609366653 0.020452117346672287 0 0.0036925280965123012 0.020466135096004846 0 0.0037199021403510916 0.020426642796794084 0 0.0036925280965123012 0.020466135096004846 0 0.0036505994803269558 0.020445303382309332 0 0.0038221676471400247 0.020355824516176107 0 0.0037199021403510916 0.020426642796794084 0 0.0037998497609366653 0.020452117346672287 0 0.0039476882692833053 0.020693812319759232 0 0.004016670395474718 0.020504254435306634 0 0.0041275916984008275 0.020811629810581884 0 0.0041947401199503758 0.021169295230154907 0 0.0040479598379092449 0.02121122052700547 0 0.0037998497609366653 0.020452117346672287 0 0.0036925280965123012 0.020466135096004846 0 0.0036727932907717775 0.020518749639764359 0 0.004429005985852978 0.020817312672907068 0 0.0041275916984008275 0.020811629810581884 0 0.0041947401199503758 0.021169295230154907 0 0.0038247449131815709 0.021727339596818177 0 0.0058518551656785286 0.019092349227178517 0 0.0036505994803269558 0.020445303382309332 0 0.0035960300824463831 0.020475781812918873 0 0.0035921918892297473 0.020440087389405056 0 0.0036925280965123012 0.020466135096004846 0 0.0036505994803269558 0.020445303382309332 0 0.0035960300824463831 0.020475781812918873 0 0.0035960300824463831 0.020475781812918873 0 0.0035921918892297473 0.020440087389405056 0 0.0035504583289948204 0.020457903539400375 0 0.0036925280965123012 0.020466135096004846 0 0.0035960300824463831 0.020475781812918873 0 0.0036727932907717775 0.020518749639764359 0 0.004016670395474718 0.020504254435306634 0 0.0033092489080198033 0.02051991294676311 0 0.0032640937596109761 0.020516395646830839 0 0.0034964644426776531 0.020469697260407173 0 0.0034046423193249344 0.020278883015952182 0 0.0035960300824463831 0.020475781812918873 0 0.0036727932907717775 0.020518749639764359 0 0.0034964644426776531 0.020469697260407173 0 0.004016670395474718 0.020504254435306634 0 0.0067003984425674365 0.017242522601914886 0 0.0049252904260005878 0.019786982424646233 0 0.0057210689138934056 0.019540620186385492 0 0.0062415422964256593 0.017489331136966196 0 0.0081827950019497699 0.015882054492175678 0 0.0081678949794681197 0.016012198445053465 0 0.0082655633695188583 0.015960516117004091 0 0.0058518551656785286 0.019092349227178517 0 0.0067003984425674365 0.017242522601914886 0 0.0058518551656785286 0.019092349227178517 0 0.004016670395474718 0.020504254435306634 0 0.0034694963275753296 0.020391500546446006 0 0.0034471882520293144 0.02042610034364423 0 0.003354191147273138 0.02038049862878813 0 0.0034471882520293144 0.02042610034364423 0 0.0034298571239746861 0.020451317429583331 0 0.0033196323162995164 0.020433970134186775 0 0.0034471882520293144 0.02042610034364423 0 0.003354191147273138 0.02038049862878813 0 0.0033196323162995164 0.020433970134186775 0 0.0035328264977601245 0.020414390781169984 0 0.0034694963275753296 0.020391500546446006 0 0.0034471882520293144 0.02042610034364423 0 0.0034471882520293144 0.02042610034364423 0 0.0035023539815424711 0.020454919993737355 0 0.0034298571239746861 0.020451317429583331 0 0.0035328264977601245 0.020414390781169984 0 0.0035023539815424711 0.020454919993737355 0 0.0035504583289948204 0.020457903539400375 0 0.0035328264977601245 0.020414390781169984 0 0.0034471882520293144 0.02042610034364423 0 0.0035023539815424711 0.020454919993737355 0 0.0035328264977601245 0.020414390781169984 0 0.0035921918892297473 0.020440087389405056 0 0.0035504583289948204 0.020457903539400375 0 0.0034964644426776531 0.020469697260407173 0 0.0034898399274460312 0.020474059481479599 0 0.0034046423193249344 0.020278883015952182 0 0.0035960300824463831 0.020475781812918873 0 0.0035504583289948204 0.020457903539400375 0 0.0034964644426776531 0.020469697260407173 0 0.0035023539815424711 0.020454919993737355 0 0.0035504583289948204 0.020457903539400375 0 0.0034964644426776531 0.020469697260407173 0 0.0035023539815424711 0.020454919993737355 0 0.0034964644426776531 0.020469697260407173 0 0.0034898399274460312 0.020474059481479599 0 0.0034898399274460312 0.020474059481479599 0 0.0034298571239746861 0.020451317429583331 0 0.0034825987149294728 0.020563588170902453 0 0.0035023539815424711 0.020454919993737355 0 0.0034898399274460312 0.020474059481479599 0 0.0034298571239746861 0.020451317429583331 0 0.0034298571239746861 0.020451317429583331 0 0.0034825987149294728 0.020563588170902453 0 0.0032346195177207302 0.020490192914032066 0 0.0034898399274460312 0.020474059481479599 0 0.0034825987149294728 0.020563588170902453 0 0.0034046423193249344 0.020278883015952182 0 0.0032398190332383627 0.02005214740510175 0 0.0033765845088642018 0.020186516737677979 0 0.0034046423193249344 0.020278883015952182 0 0.0039841176344888605 0.020436179822505646 0 0.0031034586734894069 0.02026611185720395 0 0.0032398190332383627 0.02005214740510175 0 0.0033765845088642018 0.020186516737677979 0 0.0032929420778813503 0.020151883892891999 0 0.0033765845088642018 0.020186516737677979 0 0.0032929420778813503 0.020151883892891999 0 0.0033448376044630493 0.020175915763972013 0 0.0033118954558896043 0.02016903774058627 0 0.0032929420778813503 0.020151883892891999 0 0.0033448376044630493 0.020175915763972013 0 0.0032398190332383627 0.02005214740510175 0 0.0032038217593931646 0.020164141681878706 0 0.0031167232555315678 0.020112810659389701 0 0.0032398190332383627 0.02005214740510175 0 0.0032929420778813503 0.020151883892891999 0 0.0032038217593931646 0.020164141681878706 0 0.0032583744008537695 0.020185303310600661 0 0.0032929420778813503 0.020151883892891999 0 0.0032038217593931646 0.020164141681878706 0 0.0081678949794681197 0.016012198445053465 0 0.008258481461595496 0.016037094182254727 0 0.0082655633695188583 0.015960516117004091 0 0.0032640937596109761 0.020516395646830839 0 0.0034046423193249344 0.020278883015952182 0 0.0033364539608388122 0.020226357986110069 0 0.0033765845088642018 0.020186516737677979 0 0.0034046423193249344 0.020278883015952182 0 0.0033364539608388122 0.020226357986110069 0 0.0067003984425674365 0.017242522601914886 0 0.0046461312387993548 0.018564804202598768 0 0.0081422379461591841 0.016081610921826587 0 0.008051474469794517 0.016139035335913012 0 0.0081265642322641257 0.016082933445553903 0 0.008521209676296224 0.015543666663736194 0 0.0067003984425674365 0.017242522601914886 0 0.0082372587824808951 0.016045138633826544 0 0.0081422379461591841 0.016081610921826587 0 0.0081678949794681197 0.016012198445053465 0 0.0033765845088642018 0.020186516737677979 0 0.0033364539608388122 0.020226357986110069 0 0.0033755706880782086 0.020100389398469597 0 0.0038000249318806212 0.020393307799690275 0 0.0046461312387993548 0.018564804202598768 0 0.0082468199268818064 0.016043009252571089 0 0.0083759653885879665 0.015945523016133927 0 0.0082372587824808951 0.016045138633826544 0 0.0081678949794681197 0.016012198445053465 0 0.008258481461595496 0.016037094182254727 0 0.008510783832305786 0.015986262502884652 0 0.0082372587824808951 0.016045138633826544 0 0.0084951017545533136 0.015840757758123384 0 0.008510783832305786 0.015986262502884652 0 0.0086406064404440808 0.015842399860169418 0 0.0084951017545533136 0.015840757758123384 0 0.008510783832305786 0.015986262502884652 0 0.0086896470345795649 0.015916088555282405 0 0.0086406064404440808 0.015842399860169418 0 0.0086896470345795649 0.015916088555282405 0 0.0086406064404440808 0.015842399860169418 0 0.008752408922780416 0.015884660294134188 0 0.0086406064404440808 0.015842399860169418 0 0.0086603737594023872 0.015765045333961378 0 0.008752408922780416 0.015884660294134188 0 0.008258481461595496 0.016037094182254727 0 0.0082655633695188583 0.015960516117004091 0 0.0084308475045169664 0.015960881587219672 0 0.0083759653885879665 0.015945523016133927 0 0.0085489714262868711 0.01585211247904705 0 0.0086406064404440808 0.015842399860169418 0 0.0084951017545533136 0.015840757758123384 0 0.0086603737594023872 0.015765045333961378 0 0.0081827950019497699 0.015882054492175678 0 0.0082655633695188583 0.015960516117004091 0 0.0083412604745892373 0.015757342227519511 0 0.0082655633695188583 0.015960516117004091 0 0.0084308475045169664 0.015960881587219672 0 0.0083412604745892373 0.015757342227519511 0 0.0085489714262868711 0.01585211247904705 0 0.0087550072395742203 0.01565624484233142 0 0.0084308475045169664 0.015960881587219672 0 0.0083412604745892373 0.015757342227519511 0 0.0087056216223615358 0.015605862392414393 0 0.0084308475045169664 0.015960881587219672 0 0.0087056216223615358 0.015605862392414393 0 0.0087696375336566313 0.015645607589878745 0 0.0047466691189225405 0.020701023517355952 0 0.004621922468384795 0.021105069325998774 0 0.0050983105736967984 0.021010795184620686 0 0.0066630125897541503 0.018361157996132534 0 0.0064550802538099932 0.018285793681635715 0 0.004429005985852978 0.020817312672907068 0 0.0042579526876308782 0.021185657603887881 0 0.004621922468384795 0.021105069325998774 0 0.0058518551656785286 0.019092349227178517 0 0.0066630125897541503 0.018361157996132534 0 0.0099549783832774113 0.019989784122920958 0 0.011454446886649511 0.018185457007918328 0 0.0089902715024303866 0.015528703302360827 0 0.0089756961849734411 0.015698571499016961 0 0.0092157985051871984 0.015749482028082868 0 0.0089902715024303866 0.015528703302360827 0 0.0089756961849734411 0.015698571499016961 0 0.0088753811283421719 0.015632469616355824 0 0.013334194506486602 0.021171957591097884 0 0.013484980210910682 0.021216232101982011 0 0.013375550555008624 0.021172635129943145 0 0.0089756961849734411 0.015698571499016961 0 0.0088753811283421719 0.015632469616355824 0 0.0088581182703428973 0.015686964228626567 0 0.0087696375336566313 0.015645607589878745 0 0.0088581182703428973 0.015686964228626567 0 0.0088144849178326979 0.015768344258161659 0 0.0089902715024303866 0.015528703302360827 0 0.0088753811283421719 0.015632469616355824 0 0.0087056216223615358 0.015605862392414393 0 0.0088753811283421719 0.015632469616355824 0 0.0087056216223615358 0.015605862392414393 0 0.0087696375336566313 0.015645607589878745 0 0.0088753811283421719 0.015632469616355824 0 0.0087696375336566313 0.015645607589878745 0 0.0088581182703428973 0.015686964228626567 0 0.0086603737594023872 0.015765045333961378 0 0.0088144849178326979 0.015768344258161659 0 0.008752408922780416 0.015884660294134188 0 0.0089756961849734411 0.015698571499016961 0 0.0088581182703428973 0.015686964228626567 0 0.0088144849178326979 0.015768344258161659 0 0.0086603737594023872 0.015765045333961378 0 0.0087696375336566313 0.015645607589878745 0 0.0088144849178326979 0.015768344258161659 0 0.0089756961849734411 0.015698571499016961 0 0.0090030349458114466 0.015889655413451945 0 0.0092157985051871984 0.015749482028082868 0 0.0089756961849734411 0.015698571499016961 0 0.0088144849178326979 0.015768344258161659 0 0.0090030349458114466 0.015889655413451945 0 0.0090030349458114466 0.015889655413451945 0 0.008752408922780416 0.015884660294134188 0 0.0090235326533729086 0.01619731431998133 0 0.0090030349458114466 0.015889655413451945 0 0.0090235326533729086 0.01619731431998133 0 0.0092472274548188581 0.016064667382019945 0 0.0087317754792353552 0.015881164049848042 0 0.0090795554531265792 0.016050966707216913 0 0.0088144849178326979 0.015768344258161659 0 0.0090030349458114466 0.015889655413451945 0 0.008752408922780416 0.015884660294134188 0 0.0088407287251349616 0.015818164988286837 0 0.008752408922780416 0.015884660294134188 0 0.0087691390939972236 0.015882655857863689 0 0.0086896470345795649 0.015916088555282405 0 0.008752408922780416 0.015884660294134188 0 0.0087691390939972236 0.015882655857863689 0 0.0088407287251349616 0.015818164988286837 0 0.008752408922780416 0.015884660294134188 0 0.0088600641213326219 0.015781691441982919 0 0.0088939877381686658 0.015708595763846533 0 0.0088407287251349616 0.015818164988286837 0 0.0088600641213326219 0.015781691441982919 0 0.0090235326533729086 0.01619731431998133 0 0.0094401323359714715 0.016486566583073056 0 0.0092472274548188581 0.016064667382019945 0 0.0090795554531265792 0.016050966707216913 0 0.0086540730049778653 0.01569260571481949 0 0.0094401323359714715 0.016486566583073056 0 0.0092472274548188581 0.016064667382019945 0 0.0095869359322039889 0.016129659180580323 0 0.0088939877381686658 0.015708595763846533 0 0.0088600641213326219 0.015781691441982919 0 0.0089091714226634238 0.015614450466650083 0 0.01169172788571579 0.018872943123626831 0 0.011454446886649511 0.018185457007918328 0 0.0092472274548188581 0.016064667382019945 0 0.0095869359322039889 0.016129659180580323 0 0.0092157985051871984 0.015749482028082868 0 0.0090030349458114466 0.015889655413451945 0 0.0092472274548188581 0.016064667382019945 0 0.0092157985051871984 0.015749482028082868 0 0.013636541371439208 0.021309544439741663 0 0.013791809324549088 0.021336238579283573 0 0.013699522393411056 0.021233984386857221 0 0.011428802290068341 0.018704990913134722 0 0.01169172788571579 0.018872943123626831 0 0.010015444731402609 0.016752332882834637 0 0.0094401323359714715 0.016486566583073056 0 0.0095869359322039889 0.016129659180580323 0 0.013772009346354322 0.02145282283177798 0 0.013850581671332182 0.021400871939638202 0 0.013791809324549088 0.021336238579283573 0 0.013772009346354322 0.02145282283177798 0 0.013636541371439208 0.021309544439741663 0 0.013791809324549088 0.021336238579283573 0 0.013850581671332182 0.021400871939638202 0 0.013791809324549088 0.021336238579283573 0 0.013927532941449083 0.021366085895469959 0 0.013991083845875127 0.021424511266170135 0 0.013927532941449083 0.021366085895469959 0 0.014037516989671893 0.021376610952056424 0 0.013913709312819971 0.021442399037929171 0 0.013991083845875127 0.021424511266170135 0 0.013927532941449083 0.021366085895469959 0 0.013913709312819971 0.021442399037929171 0 0.013850581671332182 0.021400871939638202 0 0.013927532941449083 0.021366085895469959 0 0.013927532941449083 0.021366085895469959 0 0.014009923803907686 0.02129045622634685 0 0.014037516989671893 0.021376610952056424 0 0.013927532941449083 0.021366085895469959 0 0.013905529608658174 0.02123819327919502 0 0.014009923803907686 0.02129045622634685 0 0.013791809324549088 0.021336238579283573 0 0.013927532941449083 0.021366085895469959 0 0.013905529608658174 0.02123819327919502 0 0.013905529608658174 0.02123819327919502 0 0.014009923803907686 0.02129045622634685 0 0.014116715932075171 0.021181507277461053 0 0.013791809324549088 0.021336238579283573 0 0.013905529608658174 0.02123819327919502 0 0.013699522393411056 0.021233984386857221 0 0.013905529608658174 0.02123819327919502 0 0.013810216163072318 0.021165615716460619 0 0.013699522393411056 0.021233984386857221 0 0.013905529608658174 0.02123819327919502 0 0.014008760112943755 0.021099243698521914 0 0.014116715932075171 0.021181507277461053 0 0.013905529608658174 0.02123819327919502 0 0.013810216163072318 0.021165615716460619 0 0.014008760112943755 0.021099243698521914 0 0.014008760112943755 0.021099243698521914 0 0.01411702910056801 0.02100174271279796 0 0.013851469502979117 0.021097683016053081 0 0.013810216163072318 0.021165615716460619 0 0.014008760112943755 0.021099243698521914 0 0.013851469502979117 0.021097683016053081 0 0.013810216163072318 0.021165615716460619 0 0.013575809142868562 0.021170520962925599 0 0.013851469502979117 0.021097683016053081 0 0.013575809142868562 0.021170520962925599 0 0.013484980210910682 0.021216232101982011 0 0.013375550555008624 0.021172635129943145 0 0.013575809142868562 0.021170520962925599 0 0.013484980210910682 0.021216232101982011 0 0.013699522393411056 0.021233984386857221 0 0.013636541371439208 0.021309544439741663 0 0.013484980210910682 0.021216232101982011 0 0.013699522393411056 0.021233984386857221 0 0.013810216163072318 0.021165615716460619 0 0.013575809142868562 0.021170520962925599 0 0.013699522393411056 0.021233984386857221 0 0.01559613729543795 0.020854660091071939 0 0.015462361449514813 0.021218442300819776 0 0.015224199407860458 0.020877109613756762 0 0.01559613729543795 0.020854660091071939 0 0.015224199407860458 0.020877109613756762 0 0.015724823688160826 0.020641021294776338 0 0.016045532270691613 0.020780949336963478 0 0.01559613729543795 0.020854660091071939 0 0.015724823688160826 0.020641021294776338 0 0.016045532270691613 0.020780949336963478 0 0.01559613729543795 0.020854660091071939 0 0.015462361449514813 0.021218442300819776 0 0.015151172623237688 0.021785245176314142 0 0.016177841115508112 0.021413175098049991 0 0.015462361449514813 0.021218442300819776 0 0.015462361449514813 0.021218442300819776 0 0.014715425072573011 0.02138880362811638 0 0.014725409178678742 0.02099331244774983 0 0.015151172623237688 0.021785245176314142 0 0.015462361449514813 0.021218442300819776 0 0.014715425072573011 0.02138880362811638 0 0.014561649157545048 0.021651139411584506 0 0.015151172623237688 0.021785245176314142 0 0.014715425072573011 0.02138880362811638 0 0.014715425072573011 0.02138880362811638 0 0.014725409178678742 0.02099331244774983 0 0.014374717230601115 0.021187335914486967 0 0.015423241043004741 0.021232914110642459 0 0.014994263385019394 0.020963594500993037 0 0.014725409178678742 0.02099331244774983 0 0.014374717230601115 0.021187335914486967 0 0.014308618771121825 0.020968426619652716 0 0.014374717230601115 0.021187335914486967 0 0.014116715932075171 0.021181507277461053 0 0.014308618771121825 0.020968426619652716 0 0.014715425072573011 0.02138880362811638 0 0.014374717230601115 0.021187335914486967 0 0.014360874382305423 0.021423747251984416 0 0.014561649157545048 0.021651139411584506 0 0.014715425072573011 0.02138880362811638 0 0.014360874382305423 0.021423747251984416 0 0.014242407066121929 0.021691312828832621 0 0.014561649157545048 0.021651139411584506 0 0.014360874382305423 0.021423747251984416 0 0.014242407066121929 0.021691312828832621 0 0.014360874382305423 0.021423747251984416 0 0.014179361570554194 0.021474465732000302 0 0.014454468934000304 0.021298888608195159 0 0.014379744303574879 0.021415515944438211 0 0.014360874382305423 0.021423747251984416 0 0.014179361570554194 0.021474465732000302 0 0.01417184018781285 0.021320973877137064 0 0.014374717230601115 0.021187335914486967 0 0.014360874382305423 0.021423747251984416 0 0.01417184018781285 0.021320973877137064 0 0.01417184018781285 0.021320973877137064 0 0.014101107835361065 0.021446595869658636 0 0.014037516989671893 0.021376610952056424 0 0.014165667629202933 0.0214815306886657 0 0.014179361570554194 0.021474465732000302 0 0.014101107835361065 0.021446595869658636 0 0.014179361570554194 0.021474465732000302 0 0.01417184018781285 0.021320973877137064 0 0.014101107835361065 0.021446595869658636 0 0.013991083845875127 0.021424511266170135 0 0.014101107835361065 0.021446595869658636 0 0.014037516989671893 0.021376610952056424 0 0.014009923803907686 0.02129045622634685 0 0.01417184018781285 0.021320973877137064 0 0.014037516989671893 0.021376610952056424 0 0.014009923803907686 0.02129045622634685 0 0.01417184018781285 0.021320973877137064 0 0.014116715932075171 0.021181507277461053 0 0.014374717230601115 0.021187335914486967 0 0.01417184018781285 0.021320973877137064 0 0.014116715932075171 0.021181507277461053 0 0.014008760112943755 0.021099243698521914 0 0.014116715932075171 0.021181507277461053 0 0.014308618771121825 0.020968426619652716 0 0.014008760112943755 0.021099243698521914 0 0.01411702910056801 0.02100174271279796 0 0.014308618771121825 0.020968426619652716 0 0.014603658858788331 0.020926943948980665 0 0.014949469536476282 0.02085309647108265 0 0.014858591038041123 0.020762674439899289 0 0.014344904306684473 0.020951139658640316 0 0.014629624152488576 0.020909563187403606 0 0.014949469536476282 0.02085309647108265 0 0.015097724059981905 0.02072417188298134 0 0.014858591038041123 0.020762674439899289 0 0.014994263385019394 0.020963594500993037 0 0.014629624152488576 0.020909563187403606 0 0.015224199407860458 0.020877109613756762 0 0.015097724059981905 0.02072417188298134 0 0.015454653951776995 0.020605478003493556 0 0.015224199407860458 0.020877109613756762 0 0.014949469536476282 0.02085309647108265 0 0.015097724059981905 0.02072417188298134 0 0.015097724059981905 0.02072417188298134 0 0.015454653951776995 0.020605478003493556 0 0.015185248744324755 0.020562068595921856 0 0.015827821592511802 0.020491701137000023 0 0.015454653951776995 0.020605478003493556 0 0.015724823688160826 0.020641021294776338 0 0.015224199407860458 0.020877109613756762 0 0.015454653951776995 0.020605478003493556 0 0.015724823688160826 0.020641021294776338 0 0.015185248744324755 0.020562068595921856 0 0.014931322629382775 0.020584244672680392 0 0.015189052395498004 0.02047553081069247 0 0.015547355571898383 0.020412051181245804 0 0.015185248744324755 0.020562068595921856 0 0.015189052395498004 0.02047553081069247 0 0.015696289975548811 0.02044922870834498 0 0.015454653951776995 0.020605478003493556 0 0.015185248744324755 0.020562068595921856 0 0.015696289975548811 0.02044922870834498 0 0.015547355571898383 0.020412051181245804 0 0.015185248744324755 0.020562068595921856 0 0.015185248744324755 0.020562068595921856 0 0.014798008376966546 0.02067473414140766 0 0.014858591038041123 0.020762674439899289 0 0.015097724059981905 0.02072417188298134 0 0.015185248744324755 0.020562068595921856 0 0.014858591038041123 0.020762674439899289 0 0.015185248744324755 0.020562068595921856 0 0.014798008376966546 0.02067473414140766 0 0.014931322629382775 0.020584244672680392 0 0.014798008376966546 0.02067473414140766 0 0.014858591038041123 0.020762674439899289 0 0.014487919584685302 0.020808799440024693 0 0.014798008376966546 0.02067473414140766 0 0.014487919584685302 0.020808799440024693 0 0.01462301911357498 0.020694867794857394 0 0.014603658858788331 0.020926943948980665 0 0.014858591038041123 0.020762674439899289 0 0.014487919584685302 0.020808799440024693 0 0.014344904306684473 0.020951139658640316 0 0.014106393146545049 0.02093876824039342 0 0.014603658858788331 0.020926943948980665 0 0.014487919584685302 0.020808799440024693 0 0.01407647157492622 0.020981202930269439 0 0.014487919584685302 0.020808799440024693 0 0.014374517160579565 0.020750071880101965 0 0.014113627233413435 0.020858370791100773 0 0.014487919584685302 0.020808799440024693 0 0.014374517160579565 0.020750071880101965 0 0.01462301911357498 0.020694867794857394 0 0.014374517160579565 0.020750071880101965 0 0.014481693257981184 0.02066716923340443 0 0.01462301911357498 0.020694867794857394 0 0.014374517160579565 0.020750071880101965 0 0.014481693257981184 0.02066716923340443 0 0.014223933203841617 0.020712153366321512 0 0.014374517160579565 0.020750071880101965 0 0.014113627233413435 0.020858370791100773 0 0.014223933203841617 0.020712153366321512 0 0.014391160759426595 0.020579798401401821 0 0.014223933203841617 0.020712153366321512 0 0.014121865592919189 0.020482331700853344 0 0.014391160759426595 0.020579798401401821 0 0.014481693257981184 0.02066716923340443 0 0.014223933203841617 0.020712153366321512 0 0.014391160759426595 0.020579798401401821 0 0.014481693257981184 0.02066716923340443 0 0.014541107135342674 0.020600843172795577 0 0.014481693257981184 0.02066716923340443 0 0.014541107135342674 0.020600843172795577 0 0.014659726137234791 0.020659440480610816 0 0.014717136522507109 0.020771116115294596 0 0.014232141993474959 0.021361863353478321 0 0.014200286288619149 0.021400814252358496 0 0.014659726137234791 0.020659440480610816 0 0.014717136522507109 0.020771116115294596 0 0.014636904529797648 0.020481789216446028 0 0.014541107135342674 0.020600843172795577 0 0.014659726137234791 0.020659440480610816 0 0.014636904529797648 0.020481789216446028 0 0.014391160759426595 0.020579798401401821 0 0.014541107135342674 0.020600843172795577 0 0.014636904529797648 0.020481789216446028 0 0.014659726137234791 0.020659440480610816 0 0.01462301911357498 0.020694867794857394 0 0.014769552369857388 0.020653487860810549 0 0.014481693257981184 0.02066716923340443 0 0.014659726137234791 0.020659440480610816 0 0.01462301911357498 0.020694867794857394 0 0.014798008376966546 0.02067473414140766 0 0.01462301911357498 0.020694867794857394 0 0.014769552369857388 0.020653487860810549 0 0.014931322629382775 0.020584244672680392 0 0.014717136522507109 0.020771116115294596 0 0.014897388747271636 0.020619852287204768 0 0.014931322629382775 0.020584244672680392 0 0.014769552369857388 0.020653487860810549 0 0.014717136522507109 0.020771116115294596 0 0.014798008376966546 0.02067473414140766 0 0.014931322629382775 0.020584244672680392 0 0.014769552369857388 0.020653487860810549 0 0.014659726137234791 0.020659440480610816 0 0.014769552369857388 0.020653487860810549 0 0.014717136522507109 0.020771116115294596 0 0.014717136522507109 0.020771116115294596 0 0.014327514438219157 0.021268601139989973 0 0.014232141993474959 0.021361863353478321 0 0.014717136522507109 0.020771116115294596 0 0.014673671267602294 0.020872928638469773 0 0.014327514438219157 0.021268601139989973 0 0.014641254684467616 0.020718990251971714 0 0.014080613187173885 0.021362385949752333 0 0.014717136522507109 0.020771116115294596 0 0.014673671267602294 0.020872928638469773 0 0.014897388747271636 0.020619852287204768 0 0.015050231493294472 0.020499535053802927 0 0.014673671267602294 0.020872928638469773 0 0.014897388747271636 0.020619852287204768 0 0.014931322629382775 0.020584244672680392 0 0.015189052395498004 0.02047553081069247 0 0.014897388747271636 0.020619852287204768 0 0.015050231493294472 0.020499535053802927 0 0.015189052395498004 0.02047553081069247 0 0.014897388747271636 0.020619852287204768 0 0.013546629343806434 0.02107017994980925 0 0.013407286270848709 0.021144199266625634 0 0.01330860128195146 0.021159138164725439 0 0.013546629343806434 0.02107017994980925 0 0.013603938490880671 0.021109899578735169 0 0.013810490875047392 0.021011063853713177 0 0.013546629343806434 0.02107017994980925 0 0.013407286270848709 0.021144199266625634 0 0.013603938490880671 0.021109899578735169 0 0.01325983407710621 0.021188038472759393 0 0.013407286270848709 0.021144199266625634 0 0.013375550555008624 0.021172635129943145 0 0.01325983407710621 0.021188038472759393 0 0.013407286270848709 0.021144199266625634 0 0.01330860128195146 0.021159138164725439 0 0.013575809142868562 0.021170520962925599 0 0.013485738899206519 0.021149603885215845 0 0.013375550555008624 0.021172635129943145 0 0.013407286270848709 0.021144199266625634 0 0.013485738899206519 0.021149603885215845 0 0.013375550555008624 0.021172635129943145 0 0.013575809142868562 0.021170520962925599 0 0.013603938490880671 0.021109899578735169 0 0.013851469502979117 0.021097683016053081 0 0.013575809142868562 0.021170520962925599 0 0.013485738899206519 0.021149603885215845 0 0.013603938490880671 0.021109899578735169 0 0.013407286270848709 0.021144199266625634 0 0.013485738899206519 0.021149603885215845 0 0.013603938490880671 0.021109899578735169 0 0.013851469502979117 0.021097683016053081 0 0.01407647157492622 0.020981202930269439 0 0.013810490875047392 0.021011063853713177 0 0.013603938490880671 0.021109899578735169 0 0.013851469502979117 0.021097683016053081 0 0.013810490875047392 0.021011063853713177 0 0.01411702910056801 0.02100174271279796 0 0.013851469502979117 0.021097683016053081 0 0.01407647157492622 0.020981202930269439 0 0.01407647157492622 0.020981202930269439 0 0.013810490875047392 0.021011063853713177 0 0.014113627233413435 0.020858370791100773 0 0.014487919584685302 0.020808799440024693 0 0.01407647157492622 0.020981202930269439 0 0.014113627233413435 0.020858370791100773 0 0.013810490875047392 0.021011063853713177 0 0.013794860390571781 0.020891763070119918 0 0.014113627233413435 0.020858370791100773 0 0.013546629343806434 0.02107017994980925 0 0.013810490875047392 0.021011063853713177 0 0.013794860390571781 0.020891763070119918 0 0.013794860390571781 0.020891763070119918 0 0.014113627233413435 0.020858370791100773 0 0.014223933203841617 0.020712153366321512 0 0.013794860390571781 0.020891763070119918 0 0.014223933203841617 0.020712153366321512 0 0.014121865592919189 0.020482331700853344 0 0.013794860390571781 0.020891763070119918 0 0.013504511135322982 0.020765941941616049 0 0.014121865592919189 0.020482331700853344 0 0.013794860390571781 0.020891763070119918 0 0.013480337964499415 0.021035220498305394 0 0.013504511135322982 0.020765941941616049 0 0.013480337964499415 0.021035220498305394 0 0.013215936756364816 0.021192494662612412 0 0.013504511135322982 0.020765941941616049 0 0.013546629343806434 0.02107017994980925 0 0.013480337964499415 0.021035220498305394 0 0.01330860128195146 0.021159138164725439 0 0.013546629343806434 0.02107017994980925 0 0.013794860390571781 0.020891763070119918 0 0.013480337964499415 0.021035220498305394 0 0.013132380932596603 0.02131685483471369 0 0.01330860128195146 0.021159138164725439 0 0.013215936756364816 0.021192494662612412 0 0.013480337964499415 0.021035220498305394 0 0.01330860128195146 0.021159138164725439 0 0.013215936756364816 0.021192494662612412 0 0.013132380932596603 0.02131685483471369 0 0.013215936756364816 0.021192494662612412 0 0.012983471519695642 0.021535154560049414 0 0.012748675887564823 0.021826513049747847 0 0.013140874158300946 0.021984401329493353 0 0.012983471519695642 0.021535154560049414 0 0.013356579164219569 0.02138339752541012 0 0.013059800152952626 0.021509786762682108 0 0.013215936756364816 0.021192494662612412 0 0.013504511135322982 0.020765941941616049 0 0.012983471519695642 0.021535154560049414 0 0.013116750091061998 0.021892614524725348 0 0.013307005810122311 0.021926795925071133 0 0.01325006213679982 0.021875424341412934 0 0.012748675887564823 0.021826513049747847 0 0.013116750091061998 0.021892614524725348 0 0.013140874158300946 0.021984401329493353 0 0.012748675887564823 0.021826513049747847 0 0.013116750091061998 0.021892614524725348 0 0.01325006213679982 0.021875424341412934 0 0.013116750091061998 0.021892614524725348 0 0.013140874158300946 0.021984401329493353 0 0.013307005810122311 0.021926795925071133 0 0.013140874158300946 0.021984401329493353 0 0.01330174703106651 0.021949573980798106 0 0.01336180624581112 0.022014792801808115 0 0.013140874158300946 0.021984401329493353 0 0.01330174703106651 0.021949573980798106 0 0.013307005810122311 0.021926795925071133 0 0.013356579164219569 0.02138339752541012 0 0.013738862439649698 0.021241037615972312 0 0.01330174703106651 0.021949573980798106 0 0.01336180624581112 0.022014792801808115 0 0.01341507581046057 0.021956845299000601 0 0.01330174703106651 0.021949573980798106 0 0.013325048234161139 0.021927287275420801 0 0.01341507581046057 0.021956845299000601 0 0.01330174703106651 0.021949573980798106 0 0.013325048234161139 0.021927287275420801 0 0.013307005810122311 0.021926795925071133 0 0.013307005810122311 0.021926795925071133 0 0.013492524334369663 0.022051982793126271 0 0.01325006213679982 0.021875424341412934 0 0.013542674303072247 0.021951171104592337 0 0.013497813756178164 0.02202303720456698 0 0.013325048234161139 0.021927287275420801 0 0.013307005810122311 0.021926795925071133 0 0.013492524334369663 0.022051982793126271 0 0.013492524334369663 0.022051982793126271 0 0.013646410304395593 0.022182242439179906 0 0.01325006213679982 0.021875424341412934 0 0.013772076890234993 0.02200505917629238 0 0.013492524334369663 0.022051982793126271 0 0.013676531224174945 0.022166101157847288 0 0.013772076890234993 0.02200505917629238 0 0.013676531224174945 0.022166101157847288 0 0.013616802565124406 0.022199112018995368 0 0.013717104279424776 0.02237163193067215 0 0.013646410304395593 0.022182242439179906 0 0.013814298223629843 0.02270683759165662 0 0.011452274877491104 0.023028464601143009 0 0.011758021080095308 0.024262413940359634 0 0.013676531224174945 0.022166101157847288 0 0.013610886799213427 0.02242907043886155 0 0.013616802565124406 0.022199112018995368 0 0.013676531224174945 0.022166101157847288 0 0.013717104279424776 0.02237163193067215 0 0.013610886799213427 0.02242907043886155 0 0.013717104279424776 0.02237163193067215 0 0.013610886799213427 0.02242907043886155 0 0.013776185696036711 0.02258798284958536 0 0.013610886799213427 0.02242907043886155 0 0.013516366000696731 0.022796646702981579 0 0.013776185696036711 0.02258798284958536 0 0.013676531224174945 0.022166101157847288 0 0.013717104279424776 0.02237163193067215 0 0.013646410304395593 0.022182242439179906 0 0.013492524334369663 0.022051982793126271 0 0.013676531224174945 0.022166101157847288 0 0.013646410304395593 0.022182242439179906 0 0.0094408150916383948 0.023776320903454502 0 0.010977605978242672 0.023825568564916227 0 0.010085105401649768 0.024515672608730638 0 0.010977605978242672 0.023825568564916227 0 0.012401057328348598 0.023796961208709305 0 0.010648314873329269 0.025323702912222159 0 0.0094408150916383948 0.023776320903454502 0 0.010977605978242672 0.023825568564916227 0 0.011117203358167085 0.022467322657190057 0 0.011452274877491104 0.023028464601143009 0 0.012182186352439809 0.02222439477069911 0 0.010977605978242672 0.023825568564916227 0 0.012401057328348598 0.023796961208709305 0 0.01237834669883672 0.022647969576513802 0 0.012644024762580235 0.021874385978845751 0 0.012182186352439809 0.02222439477069911 0 0.012748675887564823 0.021826513049747847 0 0.01237834669883672 0.022647969576513802 0 0.011117203358167085 0.022467322657190057 0 0.010977605978242672 0.023825568564916227 0 0.01237834669883672 0.022647969576513802 0 0.011117203358167085 0.022467322657190057 0 0.014202748746434918 0.02158056239511752 0 0.014293060620599938 0.021331153648138035 0 0.013786533399772014 0.021759194737162549 0 0.014642528414712131 0.020991545092280156 0 0.014202748746434918 0.02158056239511752 0 0.014293060620599938 0.021331153648138035 0 0.014673671267602294 0.020872928638469773 0 0.014293060620599938 0.021331153648138035 0 0.014327514438219157 0.021268601139989973 0 0.014642528414712131 0.020991545092280156 0 0.014673671267602294 0.020872928638469773 0 0.014293060620599938 0.021331153648138035 0 0.014293060620599938 0.021331153648138035 0 0.014327514438219157 0.021268601139989973 0 0.014065289365930747 0.021501383452386138 0 0.014327514438219157 0.021268601139989973 0 0.014065289365930747 0.021501383452386138 0 0.01407983822345219 0.021486294518613856 0 0.014065289365930747 0.021501383452386138 0 0.013857393889601447 0.021714507972532483 0 0.013786533399772014 0.021759194737162549 0 0.014293060620599938 0.021331153648138035 0 0.014065289365930747 0.021501383452386138 0 0.013786533399772014 0.021759194737162549 0 0.013857393889601447 0.021714507972532483 0 0.01407983822345219 0.021486294518613856 0 0.013881522900879777 0.021709321898615144 0 0.014065289365930747 0.021501383452386138 0 0.013857393889601447 0.021714507972532483 0 0.01407983822345219 0.021486294518613856 0 0.01407983822345219 0.021486294518613856 0 0.014181030758212559 0.021392090409214113 0 0.013881522900879777 0.021709321898615144 0 0.014080613187173885 0.021362385949752333 0 0.013624403978677415 0.021833615381026308 0 0.014327514438219157 0.021268601139989973 0 0.01407983822345219 0.021486294518613856 0 0.014232141993474959 0.021361863353478321 0 0.01407983822345219 0.021486294518613856 0 0.014232141993474959 0.021361863353478321 0 0.014181030758212559 0.021392090409214113 0 0.014098349312695047 0.021363171117906844 0 0.014080613187173885 0.021362385949752333 0 0.01336180624581112 0.022014792801808115 0 0.013494172445722888 0.022007776664117913 0 0.01341507581046057 0.021956845299000601 0 0.013738862439649698 0.021241037615972312 0 0.014080613187173885 0.021362385949752333 0 0.014391160759426595 0.020579798401401821 0 0.014121865592919189 0.020482331700853344 0 0.014636904529797648 0.020481789216446028 0 0.013542674303072247 0.021951171104592337 0 0.013624403978677415 0.021833615381026308 0 0.013857393889601447 0.021714507972532483 0 0.013881522900879777 0.021709321898615144 0 0.013722042344946245 0.021927289132034837 0 0.013772076890234993 0.02200505917629238 0 0.013881522900879777 0.021709321898615144 0 0.013722042344946245 0.021927289132034837 0 0.013772076890234993 0.02200505917629238 0 0.013722042344946245 0.021927289132034837 0 0.013616802565124406 0.022199112018995368 0 0.013722042344946245 0.021927289132034837 0 0.013616802565124406 0.022199112018995368 0 0.013380548666609779 0.022382145537887199 0 0.013610886799213427 0.02242907043886155 0 0.013616802565124406 0.022199112018995368 0 0.013384976565140231 0.022527571348731689 0 0.013610886799213427 0.02242907043886155 0 0.013256868011243464 0.022821862773716409 0 0.013516366000696731 0.022796646702981579 0 0.013610886799213427 0.02242907043886155 0 0.013384976565140231 0.022527571348731689 0 0.013256868011243464 0.022821862773716409 0 0.013384976565140231 0.022527571348731689 0 0.013038184215961458 0.022949669921525247 0 0.013256868011243464 0.022821862773716409 0 0.013384976565140231 0.022527571348731689 0 0.013380548666609779 0.022382145537887199 0 0.013038184215961458 0.022949669921525247 0 0.013616802565124406 0.022199112018995368 0 0.013384976565140231 0.022527571348731689 0 0.013380548666609779 0.022382145537887199 0 0.013380548666609779 0.022382145537887199 0 0.013096393637983209 0.022713183629933843 0 0.013529424414107306 0.022085170458104993 0 0.013380548666609779 0.022382145537887199 0 0.013096393637983209 0.022713183629933843 0 0.013038184215961458 0.022949669921525247 0 0.013857393889601447 0.021714507972532483 0 0.013722042344946245 0.021927289132034837 0 0.013529424414107306 0.022085170458104993 0 0.013722042344946245 0.021927289132034837 0 0.013380548666609779 0.022382145537887199 0 0.013529424414107306 0.022085170458104993 0 0.013786533399772014 0.021759194737162549 0 0.01332423588750639 0.02229304314945486 0 0.013387789388040401 0.022037659303518694 0 0.013857393889601447 0.021714507972532483 0 0.013529424414107306 0.022085170458104993 0 0.013786533399772014 0.021759194737162549 0 0.013529424414107306 0.022085170458104993 0 0.013786533399772014 0.021759194737162549 0 0.01332423588750639 0.02229304314945486 0 0.013096393637983209 0.022713183629933843 0 0.013529424414107306 0.022085170458104993 0 0.01332423588750639 0.02229304314945486 0 0.013096393637983209 0.022713183629933843 0 0.01332423588750639 0.02229304314945486 0 0.012827854506532999 0.023133377606726173 0 0.01332423588750639 0.02229304314945486 0 0.013387789388040401 0.022037659303518694 0 0.012827854506532999 0.023133377606726173 0 0.013387789388040401 0.022037659303518694 0 0.012486317750387142 0.023357815529374364 0 0.012827854506532999 0.023133377606726173 0 0.014202748746434918 0.02158056239511752 0 0.013786533399772014 0.021759194737162549 0 0.013387789388040401 0.022037659303518694 0 0.011904971261972114 0.024016559699290792 0 0.012214058672332117 0.024256585554631328 0 0.01205482353935421 0.024569759475962592 0 0.011904971261972114 0.024016559699290792 0 0.012486317750387142 0.023357815529374364 0 0.012214058672332117 0.024256585554631328 0 0.012486317750387142 0.023357815529374364 0 0.012827854506532999 0.023133377606726173 0 0.012214058672332117 0.024256585554631328 0 0.012827854506532999 0.023133377606726173 0 0.012214058672332117 0.024256585554631328 0 0.012463640201791465 0.023748873646064379 0 0.012214058672332117 0.024256585554631328 0 0.012463640201791465 0.023748873646064379 0 0.011593895739114927 0.024783967878394136 0 0.012463640201791465 0.023748873646064379 0 0.012199674923386923 0.024345338281652085 0 0.011593895739114927 0.024783967878394136 0 0.013096393637983209 0.022713183629933843 0 0.012827854506532999 0.023133377606726173 0 0.012463640201791465 0.023748873646064379 0 0.013096393637983209 0.022713183629933843 0 0.012463640201791465 0.023748873646064379 0 0.013038184215961458 0.022949669921525247 0 0.012463640201791465 0.023748873646064379 0 0.012930437844382855 0.023298291839815941 0 0.013038184215961458 0.022949669921525247 0 0.012642405417238609 0.024100395830869845 0 0.011758021080095308 0.024262413940359634 0 0.012930437844382855 0.023298291839815941 0 0.012199674923386923 0.024345338281652085 0 0.01392521861092165 0.023117825507221638 0 0.012930437844382855 0.023298291839815941 0 0.013038184215961458 0.022949669921525247 0 0.013256868011243464 0.022821862773716409 0 0.012930437844382855 0.023298291839815941 0 0.013256868011243464 0.022821862773716409 0 0.013516366000696731 0.022796646702981579 0 0.012930437844382855 0.023298291839815941 0 0.013516366000696731 0.022796646702981579 0 0.01392521861092165 0.023117825507221638 0 0.012199674923386923 0.024345338281652085 0 0.011799296087061956 0.024726369033492655 0 0.011610606980915955 0.024512443126087219 0 0.012463640201791465 0.023748873646064379 0 0.012930437844382855 0.023298291839815941 0 0.012199674923386923 0.024345338281652085 0 0.012199674923386923 0.024345338281652085 0 0.010850469937180428 0.024865635599561085 0 0.011610606980915955 0.024512443126087219 0 0.010850469937180428 0.024865635599561085 0 0.010426286009808241 0.02499947628254302 0 0.0093754224593850799 0.024999633854024671 0 0.010850469937180428 0.024865635599561085 0 0.011610606980915955 0.024512443126087219 0 0.0093754224593850799 0.024999633854024671 0 0.010426286009808241 0.02499947628254302 0 0.011593895739114927 0.024783967878394136 0 0.011480954775842675 0.024999381556168127 0 0.010850469937180428 0.024865635599561085 0 0.010426286009808241 0.02499947628254302 0 0.011593895739114927 0.024783967878394136 0 0.012199674923386923 0.024345338281652085 0 0.010850469937180428 0.024865635599561085 0 0.011593895739114927 0.024783967878394136 0 0.012214058672332117 0.024256585554631328 0 0.011593895739114927 0.024783967878394136 0 0.011862881424301999 0.024816833677695136 0 0.011593895739114927 0.024783967878394136 0 0.011862881424301999 0.024816833677695136 0 0.011480954775842675 0.024999381556168127 0 0.01253135269691617 0.024999976539678087 0 0.011862881424301999 0.024816833677695136 0 0.01205482353935421 0.024569759475962592 0 0.01253135269691617 0.024999976539678087 0 0.011862881424301999 0.024816833677695136 0 0.011480954775842675 0.024999381556168127 0 0.012214058672332117 0.024256585554631328 0 0.011862881424301999 0.024816833677695136 0 0.01205482353935421 0.024569759475962592 0 0.007753735966208407 0.026145830548582896 0 0.0068262269113769057 0.026417491919995827 0 0.0074161678094236518 0.025719530846308843 0 0.007753735966208407 0.026145830548582896 0 0.0068262269113769057 0.026417491919995827 0 0.0074572138846147711 0.026944641452708484 0 0.0065615822788936537 0.027317756683873706 0 0.0068262269113769057 0.026417491919995827 0 0.005907209626729918 0.026803292762696017 0 0.0065615822788936537 0.027317756683873706 0 0.0068262269113769057 0.026417491919995827 0 0.0074572138846147711 0.026944641452708484 0 0.009470795467066374 0.025546400897573564 0 0.009050607465335073 0.026083943275039868 0 0.010977605978242672 0.023825568564916227 0 0.010648314873329269 0.025323702912222159 0 0.010085105401649768 0.024515672608730638 0 0.010648314873329269 0.025323702912222159 0 0.010085105401649768 0.024515672608730638 0 0.0092946438118286286 0.025123188166696592 0 0.0094408150916383948 0.023776320903454502 0 0.010085105401649768 0.024515672608730638 0 0.0092946438118286286 0.025123188166696592 0 0.0094408150916383948 0.023776320903454502 0 0.0092946438118286286 0.025123188166696592 0 0.0082498811034458601 0.025332445948291878 0 0.010648314873329269 0.025323702912222159 0 0.0092946438118286286 0.025123188166696592 0 0.008657595396725103 0.026204909663963452 0 0.013516366000696731 0.022796646702981579 0 0.013776185696036711 0.02258798284958536 0 0.01392521861092165 0.023117825507221638 0 0.012557766818977687 0.02291057723189446 0 0.011758021080095308 0.024262413940359634 0 0.013717104279424776 0.02237163193067215 0 0.013776185696036711 0.02258798284958536 0 0.013814298223629843 0.02270683759165662 0 0.0092946438118286286 0.025123188166696592 0 0.0082498811034458601 0.025332445948291878 0 0.0085880359075663389 0.025828854971860184 0 0.011758021080095308 0.024262413940359634 0 0.0099128910987615979 0.0253676187429073 0 0.0082498811034458601 0.025332445948291878 0 0.0085880359075663389 0.025828854971860184 0 0.008827071845756802 0.02612229447511796 0 0.0085880359075663389 0.025828854971860184 0 0.008657595396725103 0.026204909663963452 0 0.008827071845756802 0.02612229447511796 0 0.007753735966208407 0.026145830548582896 0 0.0074572138846147711 0.026944641452708484 0 0.008657595396725103 0.026204909663963452 0 0.0092946438118286286 0.025123188166696592 0 0.0085880359075663389 0.025828854971860184 0 0.008657595396725103 0.026204909663963452 0 0.009050607465335073 0.026083943275039868 0 0.0087335935314313187 0.02620357607804397 0 0.007753735966208407 0.026145830548582896 0 0.0083506755654885138 0.025717182254701692 0 0.0074161678094236518 0.025719530846308843 0 0.007753735966208407 0.026145830548582896 0 0.008657595396725103 0.026204909663963452 0 0.0083506755654885138 0.025717182254701692 0 0.008657595396725103 0.026204909663963452 0 0.0083506755654885138 0.025717182254701692 0 0.008827071845756802 0.02612229447511796 0 0.0083506755654885138 0.025717182254701692 0 0.0093713312832383062 0.025000071938660849 0 0.0080891599736925852 0.024999817541198011 0 0.0083506755654885138 0.025717182254701692 0 0.008827071845756802 0.02612229447511796 0 0.0093713312832383062 0.025000071938660849 0 0.0099128910987615979 0.0253676187429073 0 0.0093724705547873523 0.024999317195055552 0 0.0083506755654885138 0.025717182254701692 0 0.0080891599736925852 0.024999817541198011 0 0.0074161678094236518 0.025719530846308843 0 0.0080891599736925852 0.024999817541198011 0 0.0074161678094236518 0.025719530846308843 0 0.0068061637379827691 0.02499981721367003 0 0.0068262269113769057 0.026417491919995827 0 0.0064754642600473372 0.025697003952542048 0 0.0061711397141448387 0.02610057806508399 0 0.0068262269113769057 0.026417491919995827 0 0.0074161678094236518 0.025719530846308843 0 0.0064754642600473372 0.025697003952542048 0 0.0064754642600473372 0.025697003952542048 0 0.0068061637379827691 0.02499981721367003 0 0.0058195416497470826 0.025398975862776983 0 0.0074161678094236518 0.025719530846308843 0 0.0064754642600473372 0.025697003952542048 0 0.0068061637379827691 0.02499981721367003 0 0.0068061637379827691 0.02499981721367003 0 0.0058195416497470826 0.025398975862776983 0 0.0055236225691507497 0.024999881606133874 0 0.0055236225691507497 0.024999881606133874 0 0.0051333854615843609 0.025200499748868968 0 0.0042403982364520934 0.024999888275366731 0 0.0058195416497470826 0.025398975862776983 0 0.0055236225691507497 0.024999881606133874 0 0.0051333854615843609 0.025200499748868968 0 0.0058195416497470826 0.025398975862776983 0 0.0051333854615843609 0.025200499748868968 0 0.0053161732441298166 0.02564251810295155 0 0.0053161732441298166 0.02564251810295155 0 0.0048072477331224436 0.025786187250851359 0 0.005446017348381166 0.026087599986825395 0 0.0051333854615843609 0.025200499748868968 0 0.0053161732441298166 0.02564251810295155 0 0.0048072477331224436 0.025786187250851359 0 0.0053161732441298166 0.02564251810295155 0 0.0057699660625011098 0.025763074268111388 0 0.005446017348381166 0.026087599986825395 0 0.0057699660625011098 0.025763074268111388 0 0.0061711397141448387 0.02610057806508399 0 0.005446017348381166 0.026087599986825395 0 0.0064754642600473372 0.025697003952542048 0 0.0057699660625011098 0.025763074268111388 0 0.0061711397141448387 0.02610057806508399 0 0.0064754642600473372 0.025697003952542048 0 0.0058195416497470826 0.025398975862776983 0 0.0057699660625011098 0.025763074268111388 0 0.0058195416497470826 0.025398975862776983 0 0.0053161732441298166 0.02564251810295155 0 0.0057699660625011098 0.025763074268111388 0 0.0042403982364520934 0.024999888275366731 0 0.0040999757780307705 0.026002591556823693 0 0.0032480282348689733 0.025780729327586373 0 0.0042403982364520934 0.024999888275366731 0 0.0032480282348689733 0.025780729327586373 0 0.0029574581918206614 0.024999867596564578 0 0.0051040665247996074 0.025219773138853405 0 0.004464697141067054 0.02586448202992311 0 0.0051333854615843609 0.025200499748868968 0 0.0042403982364520934 0.024999888275366731 0 0.0040999757780307705 0.026002591556823693 0 0.0040999757780307705 0.026002591556823693 0 0.0032480282348689733 0.025780729327586373 0 0.0033402381653299569 0.026550804772672042 0 0.004464697141067054 0.02586448202992311 0 0.003731105851221014 0.026450118063417551 0 0.0048072477331224436 0.025786187250851359 0 0.0041424185757193638 0.026301100846875609 0 0.0051652125542833351 0.026608055552142674 0 0.0041424185757193638 0.026301100846875609 0 0.0051652125542833351 0.026608055552142674 0 0.0045635410620612077 0.027212015308924191 0 0.0041424185757193638 0.026301100846875609 0 0.0045635410620612077 0.027212015308924191 0 0.0030955806682586759 0.027030810642969083 0 0.0061711397141448387 0.02610057806508399 0 0.005446017348381166 0.026087599986825395 0 0.005907209626729918 0.026803292762696017 0 0.0068262269113769057 0.026417491919995827 0 0.0061711397141448387 0.02610057806508399 0 0.005907209626729918 0.026803292762696017 0 0.005446017348381166 0.026087599986825395 0 0.0051652125542833351 0.026608055552142674 0 0.005907209626729918 0.026803292762696017 0 0.0048072477331224436 0.025786187250851359 0 0.005446017348381166 0.026087599986825395 0 0.0051652125542833351 0.026608055552142674 0 0.0051652125542833351 0.026608055552142674 0 0.005907209626729918 0.026803292762696017 0 0.005363634284629824 0.027277116731197582 0 0.009470795467066374 0.025546400897573564 0 0.0094066307789716936 0.025118231179916524 0 0.0065615822788936537 0.027317756683873706 0 0.005907209626729918 0.026803292762696017 0 0.0058396632333482194 0.027646067251122102 0 0.012748675887564823 0.021826513049747847 0 0.01237834669883672 0.022647969576513802 0 0.013159933183833 0.022459619550808444 0 0.012401057328348598 0.023796961208709305 0 0.01237834669883672 0.022647969576513802 0 0.013159933183833 0.022459619550808444 0 0.0094066307789716936 0.025118231179916524 0 0.0095820432535693636 0.024986831332782677 0 0.0058396632333482194 0.027646067251122102 0 0.005363634284629824 0.027277116731197582 0 0.0053483347996023545 0.027974262948904236 0 0.005907209626729918 0.026803292762696017 0 0.0058396632333482194 0.027646067251122102 0 0.005363634284629824 0.027277116731197582 0 0.0045635410620612077 0.027212015308924191 0 0.0053483347996023545 0.027974262948904236 0 0.0038693061612981431 0.027987746526043369 0 0.0051652125542833351 0.026608055552142674 0 0.005363634284629824 0.027277116731197582 0 0.0045635410620612077 0.027212015308924191 0 0.005363634284629824 0.027277116731197582 0 0.0045635410620612077 0.027212015308924191 0 0.0053483347996023545 0.027974262948904236 0 0.0053483347996023545 0.027974262948904236 0 0.0047316563023107093 0.028360797788107517 0 0.0038693061612981431 0.027987746526043369 0 0.0095820432535693636 0.024986831332782677 0 0.0061748209957237267 0.024495881571324745 0 0.0061748209957237267 0.024495881571324745 0 0.0039111787766534165 0.029264464099669953 0 0.0034498355454374427 0.024853902805030314 0 0.0061748209957237267 0.024495881571324745 0 0.013142727326464522 0.021547150347958122 0 0.012890318748388722 0.022013759825516857 0 0.013072648312245394 0.021729891229206228 0 0.012991449265742489 0.02205915180537708 0 0.012890318748388722 0.022013759825516857 0 0.013072648312245394 0.021729891229206228 0 0.013072648312245394 0.021729891229206228 0 0.012983471519695642 0.021535154560049414 0 0.013041537263194038 0.021892367478748884 0 0.012748675887564823 0.021826513049747847 0 0.013159933183833 0.022459619550808444 0 0.013041537263194038 0.021892367478748884 0 0.012748675887564823 0.021826513049747847 0 0.012983471519695642 0.021535154560049414 0 0.013041537263194038 0.021892367478748884 0 0.013159933183833 0.022459619550808444 0 0.012991449265742489 0.02205915180537708 0 0.013041537263194038 0.021892367478748884 0 0.012991449265742489 0.02205915180537708 0 0.013072648312245394 0.021729891229206228 0 0.013041537263194038 0.021892367478748884 0 0.002148203605203426 0.028566111726207585 0 0.0027495561077176718 0.028091997582104428 0 0.0018618439604640305 0.028024583707361297 0 0.002148203605203426 0.028566111726207585 0 0.0015006839777712141 0.028669256778707266 0 0.0018618439604640305 0.028024583707361297 0 0.0015006839777712141 0.028669256778707266 0 0.00080775396285338245 0.02805250951386095 0 0.00077567243666783322 0.029092276197946607 0 0.0015006839777712141 0.028669256778707266 0 0.0018618439604640305 0.028024583707361297 0 0.00080775396285338245 0.02805250951386095 0 0.001542105215575913 0.029611761690445482 0 0.0015240557763710888 0.029219342220921644 0 0.00077567243666783322 0.029092276197946607 0 0.0015850790055801801 0.028580726537819245 0 0.00064259377408405999 0.029004610829797724 0 0.0015006839777712141 0.028669256778707266 0 0.0015240557763710888 0.029219342220921644 0 0.00077567243666783322 0.029092276197946607 0 0.001542105215575913 0.029611761690445482 0 0.0015240557763710888 0.029219342220921644 0 0.0018567567959761491 0.029363289690002257 0 0.0015240557763710888 0.029219342220921644 0 0.0018567567959761491 0.029363289690002257 0 0.0019730649687626101 0.029058852314552221 0 0.002148203605203426 0.028566111726207585 0 0.0015006839777712141 0.028669256778707266 0 0.0019730649687626101 0.029058852314552221 0 0.0015006839777712141 0.028669256778707266 0 0.0015240557763710888 0.029219342220921644 0 0.0019730649687626101 0.029058852314552221 0 0.002148203605203426 0.028566111726207585 0 0.0019730649687626101 0.029058852314552221 0 0.0026759905528856609 0.028989468289460522 0 0.0023264609772009554 0.029603097186885603 0 0.0018567567959761491 0.029363289690002257 0 0.0019730649687626101 0.029058852314552221 0 0.0023264609772009554 0.029603097186885603 0 0.0019730649687626101 0.029058852314552221 0 0.0026759905528856609 0.028989468289460522 0 0.0034701507096697604 0.029586239846595461 0 0.0023264609772009554 0.029603097186885603 0 0.0026759905528856609 0.028989468289460522 0 0.0034701507096697604 0.029586239846595461 0 0.0043857681627917731 0.028898918240210701 0 0.0034207002357788869 0.028746383500674228 0 0.0034701507096697604 0.029586239846595461 0 0.0026759905528856609 0.028989468289460522 0 0.0034207002357788869 0.028746383500674228 0 0.0034207002357788869 0.028746383500674228 0 0.0027495561077176718 0.028091997582104428 0 0.0038693061612981431 0.027987746526043369 0 0.0043857681627917731 0.028898918240210701 0 0.0034207002357788869 0.028746383500674228 0 0.0038693061612981431 0.027987746526043369 0 0.002148203605203426 0.028566111726207585 0 0.0026759905528856609 0.028989468289460522 0 0.0027495561077176718 0.028091997582104428 0 0.0026759905528856609 0.028989468289460522 0 0.0034207002357788869 0.028746383500674228 0 0.0027495561077176718 0.028091997582104428 0 0.0027495561077176718 0.028091997582104428 0 0.0038693061612981431 0.027987746526043369 0 0.0030955806682586759 0.027030810642969083 0 0.0045635410620612077 0.027212015308924191 0 0.0038693061612981431 0.027987746526043369 0 0.0030955806682586759 0.027030810642969083 0 0.0027495561077176718 0.028091997582104428 0 0.0030955806682586759 0.027030810642969083 0 0.0020739442934360293 0.02717165814475336 0 0.0020739442934360293 0.02717165814475336 0 0.0018618439604640305 0.028024583707361297 0 0.0013078835723906745 0.027469816894282427 0 0.0027495561077176718 0.028091997582104428 0 0.0020739442934360293 0.02717165814475336 0 0.0018618439604640305 0.028024583707361297 0 0.0018618439604640305 0.028024583707361297 0 0.0013078835723906745 0.027469816894282427 0 0.00080775396285338245 0.02805250951386095 0 0.0020739442934360293 0.02717165814475336 0 0.0013078835723906745 0.027469816894282427 0 0.0012730617506814632 0.026902058247905692 0 0.0013078835723906745 0.027469816894282427 0 0.0012730617506814632 0.026902058247905692 0 0.00052343595105615271 0.027039660167931173 0 0.0012730617506814632 0.026902058247905692 0 0.0009623228060767552 0.0264147925529368 0 0.00052343595105615271 0.027039660167931173 0 0.0012730617506814632 0.026902058247905692 0 0.0009623228060767552 0.0264147925529368 0 0.0016138711097179951 0.026428891294484644 0 0.0020739442934360293 0.02717165814475336 0 0.0016138711097179951 0.026428891294484644 0 0.0024872451144599284 0.026391695561598285 0 0.0020739442934360293 0.02717165814475336 0 0.0012730617506814632 0.026902058247905692 0 0.0016138711097179951 0.026428891294484644 0 0.0016138711097179951 0.026428891294484644 0 0.0018385942838635295 0.025954183947692774 0 0.001143293492681406 0.025869309052751865 0 0.0016138711097179951 0.026428891294484644 0 0.0018385942838635295 0.025954183947692774 0 0.0024872451144599284 0.026391695561598285 0 0.0009623228060767552 0.0264147925529368 0 0.0016138711097179951 0.026428891294484644 0 0.001143293492681406 0.025869309052751865 0 0.003731105851221014 0.026450118063417551 0 0.0031231738726698313 0.027023021493526027 0 0.0033402381653299569 0.026550804772672042 0 0.0030955806682586759 0.027030810642969083 0 0.0024872451144599284 0.026391695561598285 0 0.0030955806682586759 0.027030810642969083 0 0.0020739442934360293 0.02717165814475336 0 0.0024872451144599284 0.026391695561598285 0 0.0024872451144599284 0.026391695561598285 0 0.0028429269314264238 0.026127976412072571 0 0.0023006936496601173 0.025705563676297918 0 0.0018385942838635295 0.025954183947692774 0 0.0024872451144599284 0.026391695561598285 0 0.0023006936496601173 0.025705563676297918 0 0.0033402381653299569 0.026550804772672042 0 0.0024872451144599284 0.026391695561598285 0 0.0028429269314264238 0.026127976412072571 0 0.0032480282348689733 0.025780729327586373 0 0.0033402381653299569 0.026550804772672042 0 0.0028429269314264238 0.026127976412072571 0 0.0032480282348689733 0.025780729327586373 0 0.0028429269314264238 0.026127976412072571 0 0.0023006936496601173 0.025705563676297918 0 0.0023006936496601173 0.025705563676297918 0 0.0016758867717205379 0.024999864487215376 0 0.0029574581918206614 0.024999867596564578 0 0.0023006936496601173 0.025705563676297918 0 0.0016758867717205379 0.024999864487215376 0 0.0015778543809194827 0.025453009550446246 0 0.0032480282348689733 0.025780729327586373 0 0.0023006936496601173 0.025705563676297918 0 0.0029574581918206614 0.024999867596564578 0 0.00086795717618663607 0.025553372482714238 0 0.001143293492681406 0.025869309052751865 0 0.0011430885279980997 0.025498629275130857 0 0.0011336782165945684 0.025848368609932781 0 0.0013661409203093451 0.025475744846766034 0 0.0018385942838635295 0.025954183947692774 0 0.0023006936496601173 0.025705563676297918 0 0.0015778543809194827 0.025453009550446246 0 0.0018385942838635295 0.025954183947692774 0 0.001143293492681406 0.025869309052751865 0 0.0015778543809194827 0.025453009550446246 0 0.001674091351728539 0.024999879009196705 0 0.0011430885279980997 0.025498629275130857 0 0.00086802412674306061 0.025000135230316901 0 0.0016747415333355174 0.025000068054418706 0 0.0013661409203093451 0.025475744846766034 0 0.0004883306272928323 0.02565196389393604 0 0.00086703124216202891 0.025000102162360538 0 0.00086795717618663607 0.025553372482714238 0 0.0011430885279980997 0.025498629275130857 0 0.00086802412674306061 0.025000135230316901 0 0.00011133397678429321 0.02580113001259211 0 0.00031379843787993653 0.024999936508133067 0 -0.00027847020724134237 0.025206890628926608 0 0.00011133397678429321 0.02580113001259211 0 0.00086681224220106574 0.02500005269825956 0 0.00031379843787993653 0.024999936508133067 0 0.00031356840000543233 0.024999999388251502 0 -0.00027514242773101497 0.024999999435217458 0 -0.00038994051426479527 0.025214956571470337 0 -0.00027520051480770582 0.024999986484813073 0 -0.00039029285330621419 0.025214873131756639 0 -0.0015838951711511439 0.025000022743618285 0 0.00031339689293314211 0.025000058369969422 0 -0.00040182518934588388 0.025215348141892881 0 -0.0002752802463032891 0.025000214161355772 0 -0.00040182518934588388 0.025215348141892881 0 0.0004883306272928323 0.02565196389393604 0 -5.6701467479266938e-05 0.026281503809693445 0 0.00011133397678429321 0.02580113001259211 0 -0.00027847020724134237 0.025206890628926608 0 -0.00074624886152971099 0.026145578522192001 0 0.00011133397678429321 0.02580113001259211 0 -0.00074624886152971099 0.026145578522192001 0 -0.00050401639721737806 0.026500724492885052 0 -0.00040182518934588388 0.025215348141892881 0 -0.00089955446722145033 0.026208932579921469 0 0.00086795717618663607 0.025553372482714238 0 0.001143293492681406 0.025869309052751865 0 0.00042372398930260076 0.02603280109803852 0 -0.0010806988059864052 0.026325954631806408 0 -0.0016750045637618067 0.025599993292435536 0 -0.0018785759181561064 0.026286295494461241 0 -0.00040182518934588388 0.025215348141892881 0 -0.0016304749698097336 0.025587288335891616 0 -0.00049867221921508426 0.025242059746782973 0 -0.0010806988059864052 0.026325954631806408 0 -0.0016750045637618067 0.025599993292435536 0 -0.00039029285330621419 0.025214873131756639 0 -0.0015838951711511439 0.025000022743618285 0 -0.0016750045637618067 0.025599993292435536 0 -0.0015838951711511439 0.025000022743618285 0 -0.0021795149849475636 0.025397112744488477 0 -0.0028934211824680105 0.024999863393984949 0 -0.0015838951711511439 0.025000022743618285 0 -0.0021795149849475636 0.025397112744488477 0 -0.0016750045637618067 0.025599993292435536 0 -0.0021795149849475636 0.025397112744488477 0 -0.00242998634916506 0.025708881426725949 0 -0.0020980704349474718 0.025831751108742296 0 -0.0021795149849475636 0.025397112744488477 0 -0.0016750045637618067 0.025599993292435536 0 -0.0020980704349474718 0.025831751108742296 0 -0.0031392388387128148 0.02523910015406854 0 -0.0028934211824680105 0.024999863393984949 0 -0.0026625552203598411 0.025376906949815259 0 -0.0021795149849475636 0.025397112744488477 0 -0.0028934211824680105 0.024999863393984949 0 -0.0026625552203598411 0.025376906949815259 0 -0.0021795149849475636 0.025397112744488477 0 -0.00242998634916506 0.025708881426725949 0 -0.0026625552203598411 0.025376906949815259 0 -0.00242998634916506 0.025708881426725949 0 -0.0027111826980519677 0.025737720593913525 0 -0.0026625552203598411 0.025376906949815259 0 -0.0031392388387128148 0.02523910015406854 0 -0.0027111826980519677 0.025737720593913525 0 -0.0026625552203598411 0.025376906949815259 0 -0.0031392388387128148 0.02523910015406854 0 -0.0027111826980519677 0.025737720593913525 0 -0.0027463840939224429 0.026380456659104504 0 -0.0032028211623814952 0.025253921075957669 0 -0.0032093806111364274 0.025969148891475349 0 -0.0031392388387128148 0.02523910015406854 0 -0.0035695163609941469 0.025481326601455048 0 -0.0037354369923818134 0.025640589912082078 0 -0.0027111826980519677 0.025737720593913525 0 -0.0025809281930761173 0.025970180677429337 0 -0.0027463840939224429 0.026380456659104504 0 -0.00242998634916506 0.025708881426725949 0 -0.0025809281930761173 0.025970180677429337 0 -0.0023367462826472982 0.026151005262804859 0 -0.00242998634916506 0.025708881426725949 0 -0.0027111826980519677 0.025737720593913525 0 -0.0025809281930761173 0.025970180677429337 0 -0.0025809281930761173 0.025970180677429337 0 -0.0027463840939224429 0.026380456659104504 0 -0.0023367462826472982 0.026151005262804859 0 -0.0027463840939224429 0.026380456659104504 0 -0.0023367462826472982 0.026151005262804859 0 -0.0022523793890701434 0.026628958377301289 0 -0.0035695163609941469 0.025481326601455048 0 -0.0037354369923818134 0.025640589912082078 0 -0.0037881154898987543 0.025570691670025913 0 -0.0037354369923818134 0.025640589912082078 0 -0.00391996565625092 0.025781811287763825 0 -0.0037881154898987543 0.025570691670025913 0 -0.0010806988059864052 0.026325954631806408 0 -0.0018785759181561064 0.026286295494461241 0 -0.001879981035998933 0.026810728994825003 0 -0.0016750045637618067 0.025599993292435536 0 -0.0020980704349474718 0.025831751108742296 0 -0.0018785759181561064 0.026286295494461241 0 -0.0020980704349474718 0.025831751108742296 0 -0.0023367462826472982 0.026151005262804859 0 -0.0018785759181561064 0.026286295494461241 0 -0.00242998634916506 0.025708881426725949 0 -0.0020980704349474718 0.025831751108742296 0 -0.0023367462826472982 0.026151005262804859 0 -0.0023367462826472982 0.026151005262804859 0 -0.0018785759181561064 0.026286295494461241 0 -0.0022523793890701434 0.026628958377301289 0 -0.001879981035998933 0.026810728994825003 0 -0.002469565761002736 0.027397980928599561 0 -0.0016827310128313695 0.027387392744452618 0 -0.001879981035998933 0.026810728994825003 0 -0.0022523793890701434 0.026628958377301289 0 -0.002469565761002736 0.027397980928599561 0 -0.0018785759181561064 0.026286295494461241 0 -0.001879981035998933 0.026810728994825003 0 -0.0022523793890701434 0.026628958377301289 0 -0.0032093806111364274 0.025969148891475349 0 -0.0031886905926895481 0.026963706519231329 0 -0.0027463840939224429 0.026380456659104504 0 -0.0022523793890701434 0.026628958377301289 0 -0.002469565761002736 0.027397980928599561 0 -0.0037354369923818134 0.025640589912082078 0 -0.0039653730936638426 0.026066638979895394 0 -0.0036914932625347215 0.026449782906588382 0 -0.0037354369923818134 0.025640589912082078 0 -0.00391996565625092 0.025781811287763825 0 -0.0039653730936638426 0.026066638979895394 0 -0.0036914932625347215 0.026449782906588382 0 -0.0042421652527187886 0.026411910459069141 0 -0.0041296552987691564 0.027097269641234507 0 -0.0039653730936638426 0.026066638979895394 0 -0.0036914932625347215 0.026449782906588382 0 -0.0042421652527187886 0.026411910459069141 0 -0.002469565761002736 0.027397980928599561 0 -0.0016827310128313695 0.027387392744452618 0 -0.002228748575541009 0.028386147617072116 0 -0.0014865732485924892 0.027298061070793266 0 -0.0016598968968506368 0.027558771423305147 0 -0.0011774404387729187 0.026985341329233345 0 -0.001064369604371956 0.027155697708080601 0 -0.0015982738698623886 0.027772440217524719 0 -0.00019083299682731705 0.02664739063105603 0 0.00042372398930260076 0.02603280109803852 0 0.00052343595105615271 0.027039660167931173 0 -0.0011774404387729187 0.026985341329233345 0 -0.001064369604371956 0.027155697708080601 0 -0.00050401639721737806 0.026500724492885052 0 0.0009623228060767552 0.0264147925529368 0 0.00042372398930260076 0.02603280109803852 0 0.00052343595105615271 0.027039660167931173 0 0.0009623228060767552 0.0264147925529368 0 0.001143293492681406 0.025869309052751865 0 0.00042372398930260076 0.02603280109803852 0 -0.0010806988059864052 0.026325954631806408 0 -0.001879981035998933 0.026810728994825003 0 -0.0016827310128313695 0.027387392744452618 0 -0.00055988972723968876 0.026874544300349665 0 -5.6701467479266938e-05 0.026281503809693445 0 -0.00089955446722145033 0.026208932579921469 0 -0.0014865732485924892 0.027298061070793266 0 -0.00074624886152971099 0.026145578522192001 0 -0.0011774404387729187 0.026985341329233345 0 -0.00050401639721737806 0.026500724492885052 0 -0.0060130781236085113 0.025724476939298 0 -0.0067584218226219381 0.025721456607693177 0 -0.0060130781236085113 0.025724476939298 0 -0.0076951495684921397 0.02551723082844852 0 -0.0055762728086126423 0.025648879444989614 0 -0.0053117081991410136 0.026240871067384874 0 -0.0063080744858261296 0.025969819434380381 0 -0.0064055473151977769 0.025683023610935711 0 -0.0072930626232054277 0.025426172985656092 0 -0.0075927412450584025 0.02565626667808173 0 -0.0064076935616498385 0.025309902677322697 0 -0.0071056296387433477 0.02581513716423214 0 -0.007615564879531629 0.025428952906231723 0 -0.0061231490077813533 0.025291031380452789 0 -0.0055500323330839856 0.024999995821132302 0 -0.0068983783301471502 0.024999979803546429 0 -0.0061231490077813533 0.025291031380452789 0 -0.0055762728086126423 0.025648879444989614 0 -0.0063080744858261296 0.025969819434380381 0 -0.0061231490077813533 0.025291031380452789 0 -0.0055500323330839856 0.024999995821132302 0 -0.0055762728086126423 0.025648879444989614 0 -0.0055500323330839856 0.024999995821132302 0 -0.0055762728086126423 0.025648879444989614 0 -0.0047735111407463246 0.025668202321391491 0 -0.0055500323330839856 0.024999995821132302 0 -0.0047735111407463246 0.025668202321391491 0 -0.0042017419113372576 0.024999996679201851 0 -0.0055762728086126423 0.025648879444989614 0 -0.0047735111407463246 0.025668202321391491 0 -0.0053117081991410136 0.026240871067384874 0 -0.0047735111407463246 0.025668202321391491 0 -0.0053117081991410136 0.026240871067384874 0 -0.0040661512580647341 0.026251867722092741 0 -0.0060130781236085113 0.025724476939298 0 -0.0048298350703683329 0.025725654589587928 0 -0.005896637185390248 0.025673746138519127 0 -0.0046691012019262883 0.025687505603419078 0 -0.0046294201589960615 0.026031426264874442 0 -0.0060130781236085113 0.025724476939298 0 -0.0043067296698054286 0.025854528536520368 0 -0.0043067296698054286 0.025854528536520368 0 -0.0048298350703683329 0.025725654589587928 0 -0.0043067296698054286 0.025854528536520368 0 -0.0042014927738443135 0.025000355650690014 0 -0.0038919910163549209 0.025707782764716629 0 -0.0042013798306604891 0.025000051622170817 0 -0.0037960878020854068 0.025437229590685246 0 -0.0047735111407463246 0.025668202321391491 0 -0.0040661512580647341 0.026251867722092741 0 -0.0042017419113372576 0.024999996679201851 0 -0.0042013798306604891 0.025000051622170817 0 -0.0037960878020854068 0.025437229590685246 0 -0.003538921660253074 0.025376693392320033 0 -0.0031392388387128148 0.02523910015406854 0 -0.0042013798306604891 0.025000051622170817 0 -0.003538921660253074 0.025376693392320033 0 -0.0037960878020854068 0.025437229590685246 0 -0.003538921660253074 0.025376693392320033 0 -0.0037267939408705477 0.025538120496677329 0 -0.0031392388387128148 0.02523910015406854 0 -0.0028934211824680105 0.024999863393984949 0 -0.0042013798306604891 0.025000051622170817 0 -0.0031392388387128148 0.02523910015406854 0 -0.0035695163609941469 0.025481326601455048 0 -0.003538921660253074 0.025376693392320033 0 -0.0035695163609941469 0.025481326601455048 0 -0.003538921660253074 0.025376693392320033 0 -0.0037267939408705477 0.025538120496677329 0 -0.0046431090683658281 0.025506387373034616 0 -0.0037881154898987543 0.025570691670025913 0 -0.0041913130019268748 0.025876190913280847 0 -0.0043067296698054286 0.025854528536520368 0 -0.0038402117616062985 0.025572241516839785 0 -0.0038919910163549209 0.025707782764716629 0 -0.0037267939408705477 0.025538120496677329 0 -0.0037881154898987543 0.025570691670025913 0 -0.0035695163609941469 0.025481326601455048 0 -0.0037267939408705477 0.025538120496677329 0 -0.0037881154898987543 0.025570691670025913 0 -0.0038919910163549209 0.025707782764716629 0 -0.0037960878020854068 0.025437229590685246 0 -0.0037267939408705477 0.025538120496677329 0 -0.0046431090683658281 0.025506387373034616 0 -0.0041913130019268748 0.025876190913280847 0 -0.0046187005393845291 0.025744348079844773 0 -0.0041913130019268748 0.025876190913280847 0 -0.0049632789213812254 0.026515685573226779 0 -0.0042421652527187886 0.026411910459069141 0 -0.0041913130019268748 0.025876190913280847 0 -0.0049632789213812254 0.026515685573226779 0 -0.0048901174894711939 0.025657809938709246 0 -0.00391996565625092 0.025781811287763825 0 -0.0037881154898987543 0.025570691670025913 0 -0.0041913130019268748 0.025876190913280847 0 -0.00391996565625092 0.025781811287763825 0 -0.0039653730936638426 0.026066638979895394 0 -0.0041913130019268748 0.025876190913280847 0 -0.0042734207227363222 0.025854288803904432 0 -0.0048298350703683329 0.025725654589587928 0 -0.0039653730936638426 0.026066638979895394 0 -0.0041913130019268748 0.025876190913280847 0 -0.0042421652527187886 0.026411910459069141 0 -0.0049632789213812254 0.026515685573226779 0 -0.0042421652527187886 0.026411910459069141 0 -0.0049408806437804603 0.02710118744861699 0 -0.0042421652527187886 0.026411910459069141 0 -0.0049408806437804603 0.02710118744861699 0 -0.0041296552987691564 0.027097269641234507 0 -0.0049632789213812254 0.026515685573226779 0 -0.0059628489020792279 0.026224102959383194 0 -0.0057732060673943153 0.027002938867315071 0 -0.0049632789213812254 0.026515685573226779 0 -0.0057732060673943153 0.027002938867315071 0 -0.0049408806437804603 0.02710118744861699 0 -0.0049757988712799605 0.026412066109176228 0 -0.0048298350703683329 0.025725654589587928 0 -0.0049632789213812254 0.026515685573226779 0 -0.0051390764758925929 0.025579800324822422 0 -0.0059628489020792279 0.026224102959383194 0 -0.0064076935616498385 0.025309902677322697 0 -0.0059628489020792279 0.026224102959383194 0 -0.0066785121903890866 0.026180793197520865 0 -0.0064076935616498385 0.025309902677322697 0 -0.0051390764758925929 0.025579800324822422 0 -0.0059628489020792279 0.026224102959383194 0 -0.0059628489020792279 0.026224102959383194 0 -0.0065903288622801799 0.026857401334881403 0 -0.0066785121903890866 0.026180793197520865 0 -0.0059628489020792279 0.026224102959383194 0 -0.0065903288622801799 0.026857401334881403 0 -0.0057732060673943153 0.027002938867315071 0 -0.0065903288622801799 0.026857401334881403 0 -0.0071549816988252021 0.02675050983856251 0 -0.0066785121903890866 0.026180793197520865 0 -0.0065903288622801799 0.026857401334881403 0 -0.0071549816988252021 0.02675050983856251 0 -0.0069964168272734087 0.027199034606490365 0 -0.0071549816988252021 0.02675050983856251 0 -0.0066785121903890866 0.026180793197520865 0 -0.0073098200260857055 0.026275141070322409 0 -0.0066785121903890866 0.026180793197520865 0 -0.0071056296387433477 0.02581513716423214 0 -0.0073098200260857055 0.026275141070322409 0 -0.0064076935616498385 0.025309902677322697 0 -0.0066785121903890866 0.026180793197520865 0 -0.0071056296387433477 0.02581513716423214 0 -0.0071905349111906353 0.02773847203878696 0 -0.0065569396236758943 0.028216338821515939 0 -0.0075714775655390957 0.028367467887900014 0 -0.0071905349111906353 0.02773847203878696 0 -0.0064903626720204284 0.027468875240837999 0 -0.0065569396236758943 0.028216338821515939 0 -0.0071905349111906353 0.02773847203878696 0 -0.0069964168272734087 0.027199034606490365 0 -0.0075352140584444812 0.027171408701623247 0 -0.0071549816988252021 0.02675050983856251 0 -0.0069964168272734087 0.027199034606490365 0 -0.0075352140584444812 0.027171408701623247 0 -0.0065903288622801799 0.026857401334881403 0 -0.0069964168272734087 0.027199034606490365 0 -0.0064903626720204284 0.027468875240837999 0 -0.0071905349111906353 0.02773847203878696 0 -0.0069964168272734087 0.027199034606490365 0 -0.0064903626720204284 0.027468875240837999 0 -0.0064903626720204284 0.027468875240837999 0 -0.0057032146113952017 0.027655891831875817 0 -0.0057732060673943153 0.027002938867315071 0 -0.0065903288622801799 0.026857401334881403 0 -0.0064903626720204284 0.027468875240837999 0 -0.0057732060673943153 0.027002938867315071 0 -0.0064903626720204284 0.027468875240837999 0 -0.0057032146113952017 0.027655891831875817 0 -0.0065569396236758943 0.028216338821515939 0 -0.0057032146113952017 0.027655891831875817 0 -0.0055350338877499655 0.028380537614997255 0 -0.0065569396236758943 0.028216338821515939 0 -0.0057032146113952017 0.027655891831875817 0 -0.0047235757041340035 0.027694876064727612 0 -0.0055350338877499655 0.028380537614997255 0 -0.0057032146113952017 0.027655891831875817 0 -0.0057732060673943153 0.027002938867315071 0 -0.0049408806437804603 0.02710118744861699 0 -0.0057032146113952017 0.027655891831875817 0 -0.0049408806437804603 0.02710118744861699 0 -0.0047235757041340035 0.027694876064727612 0 -0.0049408806437804603 0.02710118744861699 0 -0.0047235757041340035 0.027694876064727612 0 -0.0041296552987691564 0.027097269641234507 0 -0.0047235757041340035 0.027694876064727612 0 -0.00448489724326156 0.028402936539306586 0 -0.0055350338877499655 0.028380537614997255 0 -0.0031537336392019888 0.028193669559774481 0 -0.0038885545400523594 0.02901743982221475 0 -0.00448489724326156 0.028402936539306586 0 -0.0054445642495109473 0.029227994028987937 0 -0.0055350338877499655 0.028380537614997255 0 -0.0017326038087056058 0.028730049927598953 0 -0.002282085431025341 0.028848175947970709 0 -0.0020756903482129097 0.028973175892385405 0 -0.0016539258092019165 0.028032961655699695 0 -0.0017326038087056058 0.028730049927598953 0 -0.002282085431025341 0.028848175947970709 0 -0.0054445642495109473 0.029227994028987937 0 -0.0055350338877499655 0.028380537614997255 0 -0.0064187705932026752 0.029063951616569952 0 -0.0055350338877499655 0.028380537614997255 0 -0.0065569396236758943 0.028216338821515939 0 -0.0064187705932026752 0.029063951616569952 0 -0.0054445642495109473 0.029227994028987937 0 -0.0064187705932026752 0.029063951616569952 0 -0.0063279088860105949 0.030001758949450699 0 -0.0070819024651791653 0.02878324326600842 0 -0.0071338011479273105 0.029476578987181298 0 -0.0077087064493872948 0.029048217078581108 0 -0.0064187705932026752 0.029063951616569952 0 -0.0070819024651791653 0.02878324326600842 0 -0.0071338011479273105 0.029476578987181298 0 -0.0065569396236758943 0.028216338821515939 0 -0.0070819024651791653 0.02878324326600842 0 -0.0075714775655390957 0.028367467887900014 0 -0.0065569396236758943 0.028216338821515939 0 -0.0064187705932026752 0.029063951616569952 0 -0.0070819024651791653 0.02878324326600842 0 0.0013078835723906745 0.027469816894282427 0 0.00052343595105615271 0.027039660167931173 0 0.00080775396285338245 0.02805250951386095 0 -0.00010233339538491358 0.027704931089254699 0 0.00052343595105615271 0.027039660167931173 0 0.00080775396285338245 0.02805250951386095 0 -0.00010233339538491358 0.027704931089254699 0 0.00052343595105615271 0.027039660167931173 0 -0.00014777865248030345 0.027175454231111406 0 -0.00019083299682731705 0.02664739063105603 0 0.00052343595105615271 0.027039660167931173 0 -0.00014777865248030345 0.027175454231111406 0 -0.00055988972723968876 0.026874544300349665 0 -0.0016598968968506368 0.027558771423305147 0 -0.00019083299682731705 0.02664739063105603 0 -0.00014777865248030345 0.027175454231111406 0 -0.00080503642727794466 0.027295941653762732 0 -0.00010233339538491358 0.027704931089254699 0 -0.00014777865248030345 0.027175454231111406 0 -0.00080503642727794466 0.027295941653762732 0 -0.0047235757041340035 0.027694876064727612 0 -0.0035222624261089181 0.027438255010308551 0 -0.0041296552987691564 0.027097269641234507 0 -0.0031886905926895481 0.026963706519231329 0 -0.0016598968968506368 0.027558771423305147 0 -0.0036914932625347215 0.026449782906588382 0 -0.0035222624261089181 0.027438255010308551 0 -0.0041296552987691564 0.027097269641234507 0 -0.0016598968968506368 0.027558771423305147 0 -0.0011405322941137274 0.027638969778507102 0 -0.0031537336392019888 0.028193669559774481 0 -0.0016598968968506368 0.027558771423305147 0 -0.0047235757041340035 0.027694876064727612 0 -0.00448489724326156 0.028402936539306586 0 -0.0035222624261089181 0.027438255010308551 0 -0.0016539258092019165 0.028032961655699695 0 -0.00098724024764476441 0.027232693102710263 0 -0.0013392266060732159 0.027893189731926709 0 -0.0016598968968506368 0.027558771423305147 0 -0.00047891049971544489 0.028067986636992375 0 -0.00010233339538491358 0.027704931089254699 0 -0.00080503642727794466 0.027295941653762732 0 -0.00066794069642235187 0.02822676760822096 0 -0.00093404502972901482 0.027126146706301969 0 -0.0013392266060732159 0.027893189731926709 0 -0.00066794069642235187 0.02822676760822096 0 -0.00066794069642235187 0.02822676760822096 0 -0.00066925629148189257 0.028777935284280465 0 1.2280479491071095e-05 0.028516023626879276 0 -0.00066794069642235187 0.02822676760822096 0 -0.0012900045403880611 0.028390639103042847 0 -0.00066925629148189257 0.028777935284280465 0 -0.0016539258092019165 0.028032961655699695 0 -0.0017326038087056058 0.028730049927598953 0 -0.0012900045403880611 0.028390639103042847 0 -0.0013392266060732159 0.027893189731926709 0 -0.00066794069642235187 0.02822676760822096 0 -0.0012900045403880611 0.028390639103042847 0 -0.0016539258092019165 0.028032961655699695 0 -0.0013392266060732159 0.027893189731926709 0 -0.0012900045403880611 0.028390639103042847 0 -0.0012900045403880611 0.028390639103042847 0 -0.0013246669812990227 0.028846076836091458 0 -0.00066925629148189257 0.028777935284280465 0 -0.0017326038087056058 0.028730049927598953 0 -0.0012900045403880611 0.028390639103042847 0 -0.0013246669812990227 0.028846076836091458 0 -0.0017326038087056058 0.028730049927598953 0 -0.0013246669812990227 0.028846076836091458 0 -0.001702263716720455 0.029131947200404913 0 -0.0013246669812990227 0.028846076836091458 0 -0.00066925629148189257 0.028777935284280465 0 -0.00095181093168186879 0.029289877308448963 0 -0.00066925629148189257 0.028777935284280465 0 1.7551456206294114e-06 0.029018602189451081 0 1.2280479491071095e-05 0.028516023626879276 0 -0.00066925629148189257 0.028777935284280465 0 1.7551456206294114e-06 0.029018602189451081 0 -0.00040991580061841001 0.029277077980859424 0 -0.00010233339538491358 0.027704931089254699 0 -0.00066794069642235187 0.02822676760822096 0 1.2280479491071095e-05 0.028516023626879276 0 -0.00010233339538491358 0.027704931089254699 0 1.2280479491071095e-05 0.028516023626879276 0 0.00080775396285338245 0.02805250951386095 0 1.2280479491071095e-05 0.028516023626879276 0 0.00080775396285338245 0.02805250951386095 0 0.00077567243666783322 0.029092276197946607 0 1.7551456206294114e-06 0.029018602189451081 0 1.2280479491071095e-05 0.028516023626879276 0 0.00049438858971436394 0.028825841985267341 0 5.9945743231225414e-05 0.028552296100363871 0 0.00064259377408405999 0.029004610829797724 0 1.7551456206294114e-06 0.029018602189451081 0 -4.5961413385452045e-05 0.029482745276099374 0 0.00043058761340163598 0.029592356044678768 0 1.7551456206294114e-06 0.029018602189451081 0 0.00049438858971436394 0.028825841985267341 0 0.00043058761340163598 0.029592356044678768 0 1.7551456206294114e-06 0.029018602189451081 0 -0.00040991580061841001 0.029277077980859424 0 -4.5961413385452045e-05 0.029482745276099374 0 -0.00040991580061841001 0.029277077980859424 0 -4.5961413385452045e-05 0.029482745276099374 0 -0.00021839250917173297 0.030057199020122851 0 -4.5961413385452045e-05 0.029482745276099374 0 -0.00021839250917173297 0.030057199020122851 0 0.00043058761340163598 0.029592356044678768 0 -0.00074189234905386856 0.027291298497643224 0 0.00088804024679889067 0.027402254616670459 0 0.00045140441986888931 0.025871618654229309 0 0.0010619579160310599 0.025462862079924414 0 0.00097503071559473006 0.026026589529724132 0 0.0014322886022309338 0.025712922804268592 0 0.0010619579160310599 0.025462862079924414 0 0.00097503071559473006 0.026026589529724132 0 0.0007941443858852093 0.02429617891515511 0 0.00016561565805696781 0.024102647893206167 0 3.551870199160604e-05 0.024889103169643829 0 0.0016712157276725518 0.023044526270171995 0 0.00059011145041081708 0.025072465027591771 0 0.00016561565805696781 0.024102647893206167 0 -0.00034453817834483784 0.024389376794493066 0 3.551870199160604e-05 0.024889103169643829 0 -0.00074189234905386856 0.027291298497643224 0 0.00059011145041081708 0.025072465027591771 0 -0.00045833118302500593 0.02391639674704614 0 -0.00034453817834483784 0.024389376794493066 0 -0.001002908728740141 0.02428347889635029 0 -0.00034453817834483784 0.024389376794493066 0 -0.00061342734064658618 0.024811391878518319 0 -0.001002908728740141 0.02428347889635029 0 -0.00045833118302500593 0.02391639674704614 0 0.00016561565805696781 0.024102647893206167 0 -0.00034453817834483784 0.024389376794493066 0 -0.00061342734064658618 0.024811391878518319 0 3.551870199160604e-05 0.024889103169643829 0 -0.00070676313960488734 0.025458802375085795 0 -0.00034453817834483784 0.024389376794493066 0 -0.00061342734064658618 0.024811391878518319 0 3.551870199160604e-05 0.024889103169643829 0 0.0018981659096271226 0.021845032614039171 0 0.0017243300237299185 0.022153958191355658 0 0.0016002856269123579 0.022074017653955346 0 0.0016712157276725518 0.023044526270171995 0 0.00075019823174653645 0.023657264654325459 0 -0.0032695930911729723 0.026235555491308394 0 -0.0048407287346227826 0.025863649430029275 0 -0.0055801258728418067 0.026282285089376814 0 -0.0054371380378086115 0.025048388875459831 0 -0.0043599444805046388 0.025292666345010002 0 -0.0055801258728418067 0.026282285089376814 0 -0.0054371380378086115 0.025048388875459831 0 -0.0064471046345983942 0.02470401916231358 0 -0.0020674040551501766 0.025026077103746009 0 -0.0028539440475489528 0.024166006011257578 0 -0.0026068728342431573 0.023968367833476553 0 -0.0032695930911729723 0.026235555491308394 0 -0.0044788827918533494 0.024285044645363792 0 -0.0032695930911729723 0.026235555491308394 0 -0.0019603795327566226 0.024527586246707429 0 -0.001583113288101355 0.024617988012226446 0 -0.001125004410767535 0.025057192483577451 0 -0.001002908728740141 0.02428347889635029 0 -0.00061342734064658618 0.024811391878518319 0 -0.001125004410767535 0.025057192483577451 0 -0.001002908728740141 0.02428347889635029 0 -0.00061342734064658618 0.024811391878518319 0 -0.001125004410767535 0.025057192483577451 0 -0.00070676313960488734 0.025458802375085795 0 -0.0032695930911729723 0.026235555491308394 0 -0.0018572474159331666 0.026364715000390119 0 -0.00074189234905386856 0.027291298497643224 0 -0.0018572474159331666 0.026364715000390119 0 -0.0028287949919475817 0.028557005977212196 0 -0.0027348961220094534 0.028552321461972674 0 -0.0027014187269520222 0.028794491558301983 0 -0.0027348961220094534 0.028552321461972674 0 -0.0026259695757313295 0.028553412909959979 0 -0.0025430793456256151 0.028726310351517386 0 -0.0026825267543125696 0.028453361356644453 0 -0.0027348961220094534 0.028552321461972674 0 -0.0026259695757313295 0.028553412909959979 0 -0.0026825267543125696 0.028453361356644453 0 -0.0028287949919475817 0.028557005977212196 0 -0.0027348961220094534 0.028552321461972674 0 -0.0026811575206367537 0.028424485416372637 0 -0.0026259695757313295 0.028553412909959979 0 -0.002505923017268266 0.028649750445678291 0 -0.0032695930911729723 0.026235555491308394 0 -0.0023562475878009408 0.028566420249974037 0 -0.0032695930911729723 0.026235555491308394 0 -0.0032481595735709902 0.028303887366376412 0 -0.0027348961220094534 0.028552321461972674 0 -0.0027014187269520222 0.028794491558301983 0 -0.0025430793456256151 0.028726310351517386 0 -0.00074189234905386856 0.027291298497643224 0 -0.0021268957494106314 0.029549783776350987 0 -0.00021839250917173297 0.030057199020122851 0 -0.0012973237255944241 0.029720989544802255 0 -0.00095181093168186879 0.029289877308448963 0 -0.0029467723097430804 0.028643542683261018 0 -0.0028287949919475817 0.028557005977212196 0 -0.0027014187269520222 0.028794491558301983 0 -0.00040991580061841001 0.029277077980859424 0 -0.00021839250917173297 0.030057199020122851 0 -0.00095181093168186879 0.029289877308448963 0 -0.00066925629148189257 0.028777935284280465 0 -0.00040991580061841001 0.029277077980859424 0 -0.00095181093168186879 0.029289877308448963 0 -0.0013246669812990227 0.028846076836091458 0 -0.00095181093168186879 0.029289877308448963 0 -0.001702263716720455 0.029131947200404913 0 -0.0012973237255944241 0.029720989544802255 0 -0.00095181093168186879 0.029289877308448963 0 -0.001702263716720455 0.029131947200404913 0 -0.001702263716720455 0.029131947200404913 0 -0.0020756903482129097 0.028973175892385405 0 -0.0023077581914085939 0.029034293369246119 0 -0.0012973237255944241 0.029720989544802255 0 -0.001702263716720455 0.029131947200404913 0 -0.0023077581914085939 0.029034293369246119 0 -0.0017326038087056058 0.028730049927598953 0 -0.001702263716720455 0.029131947200404913 0 -0.0020756903482129097 0.028973175892385405 0 -0.0038885545400523594 0.02901743982221475 0 -0.0037277876041710623 0.029621162807497523 0 -0.002282085431025341 0.028848175947970709 0 -0.0022281404927385695 0.028985340500913337 0 -0.002025272799190203 0.029021096399906129 0 -0.002282085431025341 0.028848175947970709 0 -0.0022281404927385695 0.028985340500913337 0 -0.0023077581914085939 0.029034293369246119 0 -0.002282085431025341 0.028848175947970709 0 -0.0020756903482129097 0.028973175892385405 0 -0.0023077581914085939 0.029034293369246119 0 -0.0022281404927385695 0.028985340500913337 0 -0.0021843710253992422 0.028831949206548101 0 -0.002025272799190203 0.029021096399906129 0 -0.0022281404927385695 0.028985340500913337 0 -0.0023077581914085939 0.029034293369246119 0 -0.0023823015702847468 0.028890903904984295 0 -0.0022281404927385695 0.028985340500913337 0 -0.0023823015702847468 0.028890903904984295 0 -0.0021843710253992422 0.028831949206548101 0 -0.0023823015702847468 0.028890903904984295 0 -0.0021843710253992422 0.028831949206548101 0 -0.0023081954631554782 0.028576965694896029 0 -0.0021843710253992422 0.028831949206548101 0 -0.0023081954631554782 0.028576965694896029 0 -0.0021258216668004109 0.028400344990703773 0 -0.0021258216668004109 0.028400344990703773 0 -0.002631229946881186 0.028080894177604034 0 -0.0018842468642534275 0.027628722046329018 0 -0.0023081954631554782 0.028576965694896029 0 -0.0021258216668004109 0.028400344990703773 0 -0.002631229946881186 0.028080894177604034 0 -0.0023823015702847468 0.028890903904984295 0 -0.002631229946881186 0.028080894177604034 0 -0.003949371528458181 0.027805349404718259 0 -0.0023823015702847468 0.028890903904984295 0 -0.0023081954631554782 0.028576965694896029 0 -0.002631229946881186 0.028080894177604034 0 -0.0024948902879360019 0.028813971099576351 0 -0.0032481595735709902 0.028303887366376412 0 -0.0021268957494106314 0.029549783776350987 0 -0.0022334744985328218 0.028980375976746815 0 -0.0023823015702847468 0.028890903904984295 0 -0.0025430793456256151 0.028726310351517386 0 -0.002505923017268266 0.028649750445678291 0 -0.0027014187269520222 0.028794491558301983 0 -0.0023077581914085939 0.029034293369246119 0 -0.0025430793456256151 0.028726310351517386 0 -0.0023077581914085939 0.029034293369246119 0 -0.0023823015702847468 0.028890903904984295 0 -0.0025430793456256151 0.028726310351517386 0 -0.0071338011479273105 0.029476578987181298 0 -0.007277766246913963 0.030137379897466263 0 -0.0078742357409760256 0.029709095724191635 0 -0.0071338011479273105 0.029476578987181298 0 -0.0063279088860105949 0.030001758949450699 0 -0.007277766246913963 0.030137379897466263 0 -0.0064187705932026752 0.029063951616569952 0 -0.0071338011479273105 0.029476578987181298 0 -0.0063279088860105949 0.030001758949450699 0 -0.0037277876041710623 0.029621162807497523 0 -0.0069471419194908927 0.027711347051815636 0 -0.0020384053461677378 0.028878062879242439 0 -0.0018477197934213142 0.027862701401175055 0 -0.0027220801773014947 0.027466605589533864 0 -0.002025272799190203 0.029021096399906129 0 -0.0020384053461677378 0.028878062879242439 0 -0.0018477197934213142 0.027862701401175055 0 -0.0021258216668004109 0.028400344990703773 0 -0.0020384053461677378 0.028878062879242439 0 -0.0018842468642534275 0.027628722046329018 0 -0.002025272799190203 0.029021096399906129 0 -0.0018477197934213142 0.027862701401175055 0 -0.00081031063699408168 0.027435006401974535 0 -0.0021111391134951227 0.028530183529462332 0 -0.0020881909081308381 0.027969792735637111 0 -0.0021843710253992422 0.028831949206548101 0 -0.0021258216668004109 0.028400344990703773 0 -0.0020384053461677378 0.028878062879242439 0 -0.0021843710253992422 0.028831949206548101 0 -0.002025272799190203 0.029021096399906129 0 -0.0020384053461677378 0.028878062879242439 0 -0.007277766246913963 0.030137379897466263 0 -0.0071851828766372264 0.030905476057544793 0 -0.0078909027982002281 0.030531810126125672 0 -0.0063279088860105949 0.030001758949450699 0 -0.007277766246913963 0.030137379897466263 0 -0.0071851828766372264 0.030905476057544793 0 -0.0097275456913537336 0.02159938047365699 0 -0.010450984227441817 0.021164769169877969 0 -0.009816731724296748 0.020647368182094283 0 -0.0069471419194908927 0.027711347051815636 0 -0.006512360029691985 0.023671446365235466 0 -0.0018477197934213142 0.027862701401175055 0 -0.00081031063699408168 0.027435006401974535 0 -0.0019820228376133827 0.02669241814358625 0 -0.0018477197934213142 0.027862701401175055 0 -0.0019820228376133827 0.02669241814358625 0 -0.0027220801773014947 0.027466605589533864 0 -0.010450984227441817 0.021164769169877969 0 -0.01053838069820049 0.020413645889914192 0 -0.011168569423348006 0.020749449527925571 0 -0.010450984227441817 0.021164769169877969 0 -0.01053838069820049 0.020413645889914192 0 -0.009816731724296748 0.020647368182094283 0 -0.0097275456913537336 0.02159938047365699 0 -0.009816731724296748 0.020647368182094283 0 -0.0089744047507501201 0.020572918888662913 0 -0.0041237923188247542 0.026508195934406942 0 -0.003949371528458181 0.027805349404718259 0 -0.0030702396554459872 0.026987506996844258 0 -0.0055185398550420903 0.02629937152529805 0 -0.0041237923188247542 0.026508195934406942 0 -0.003949371528458181 0.027805349404718259 0 -0.0026259695757313295 0.028553412909959979 0 -0.0025430793456256151 0.028726310351517386 0 -0.002505923017268266 0.028649750445678291 0 -0.002631229946881186 0.028080894177604034 0 -0.003949371528458181 0.027805349404718259 0 -0.0030702396554459872 0.026987506996844258 0 -0.0018842468642534275 0.027628722046329018 0 -0.0030702396554459872 0.026987506996844258 0 -0.0024041137803086665 0.025657680775218652 0 -0.0020881909081308381 0.027969792735637111 0 -0.0053060856774838202 0.023994561102823168 0 -0.0019820228376133827 0.02669241814358625 0 -0.0027220801773014947 0.027466605589533864 0 -0.0033361593513498446 0.025903844555152 0 -0.002631229946881186 0.028080894177604034 0 -0.0018842468642534275 0.027628722046329018 0 -0.0030702396554459872 0.026987506996844258 0 -0.006512360029691985 0.023671446365235466 0 -0.0053060856774838202 0.023994561102823168 0 -0.0030702396554459872 0.026987506996844258 0 -0.0024041137803086665 0.025657680775218652 0 -0.0034195615346515286 0.025987135090735296 0 -0.0029445464534326679 0.025305319376636312 0 -0.0024041137803086665 0.025657680775218652 0 -0.0034195615346515286 0.025987135090735296 0 -0.0033639111194210306 0.025079607645414205 0 -0.0053060856774838202 0.023994561102823168 0 -0.0029445464534326679 0.025305319376636312 0 -0.0034195615346515286 0.025987135090735296 0 -0.0043599444805046388 0.025292666345010002 0 -0.0041237923188247542 0.026508195934406942 0 -0.0030702396554459872 0.026987506996844258 0 -0.0034195615346515286 0.025987135090735296 0 -0.0041237923188247542 0.026508195934406942 0 -0.0034195615346515286 0.025987135090735296 0 -0.0043599444805046388 0.025292666345010002 0 -0.0055185398550420903 0.02629937152529805 0 -0.0041237923188247542 0.026508195934406942 0 -0.0043599444805046388 0.025292666345010002 0 -0.0043599444805046388 0.025292666345010002 0 -0.0032579085971523531 0.023162526221110303 0 -0.005308370785592282 0.023834733144627755 0 -0.0029445464534326679 0.025305319376636312 0 -0.0043599444805046388 0.025292666345010002 0 -0.0032579085971523531 0.023162526221110303 0 -0.01053838069820049 0.020413645889914192 0 -0.011168569423348006 0.020749449527925571 0 -0.011555390859413584 0.019677945328740606 0 -0.0053060856774838202 0.023994561102823168 0 -0.0075591838421499007 0.021283475616210794 0 -0.0029445464534326679 0.025305319376636312 0 -0.0023760267857277301 0.025627022478500044 0 -0.0032579085971523531 0.023162526221110303 0 -0.011555390859413584 0.019677945328740606 0 -0.010314016103794408 0.019582180229971925 0 -0.010999690868389738 0.018815407782333541 0 -0.011555390859413584 0.019677945328740606 0 -0.011938952227777253 0.018601563951473585 0 -0.010999690868389738 0.018815407782333541 0 -0.0075591838421499007 0.021283475616210794 0 -0.0083243463524981642 0.019364978107692044 0 -0.0032579085971523531 0.023162526221110303 0 -0.005308370785592282 0.023834733144627755 0 -0.0056931842662714055 0.02199357731568654 0 -0.0032579085971523531 0.023162526221110303 0 -0.0041582237361099299 0.020734751054691851 0 -0.0056931842662714055 0.02199357731568654 0 -0.009816731724296748 0.020647368182094283 0 -0.010314016103794408 0.019582180229971925 0 -0.0093998074818452872 0.019854883525319066 0 -0.01053838069820049 0.020413645889914192 0 -0.009816731724296748 0.020647368182094283 0 -0.010314016103794408 0.019582180229971925 0 -0.01053838069820049 0.020413645889914192 0 -0.011555390859413584 0.019677945328740606 0 -0.010314016103794408 0.019582180229971925 0 -0.010314016103794408 0.019582180229971925 0 -0.0094091340425166824 0.018989715661542235 0 -0.0093998074818452872 0.019854883525319066 0 -0.010314016103794408 0.019582180229971925 0 -0.01026697986186979 0.018424186865645828 0 -0.0094091340425166824 0.018989715661542235 0 -0.01026697986186979 0.018424186865645828 0 -0.009527954341990174 0.018000638179422032 0 -0.0094091340425166824 0.018989715661542235 0 -0.010314016103794408 0.019582180229971925 0 -0.01026697986186979 0.018424186865645828 0 -0.010999690868389738 0.018815407782333541 0 -0.01026697986186979 0.018424186865645828 0 -0.010999690868389738 0.018815407782333541 0 -0.010952001408621055 0.017789412502036962 0 -0.01026697986186979 0.018424186865645828 0 -0.010952001408621055 0.017789412502036962 0 -0.010222024776909264 0.017478003557020443 0 -0.01026697986186979 0.018424186865645828 0 -0.009527954341990174 0.018000638179422032 0 -0.010222024776909264 0.017478003557020443 0 -0.009527954341990174 0.018000638179422032 0 -0.010222024776909264 0.017478003557020443 0 -0.0093735375685767633 0.017248580611185525 0 -0.011938952227777253 0.018601563951473585 0 -0.010999690868389738 0.018815407782333541 0 -0.010952001408621055 0.017789412502036962 0 -0.0083243463524981642 0.019364978107692044 0 -0.012145834994606346 0.01783977136826741 0 -0.0083243463524981642 0.019364978107692044 0 -0.0079725594907378763 0.015955488061413808 0 -0.011621113474784138 0.01832003324841594 0 -0.011428971038240377 0.017549732078705877 0 -0.011946309545586448 0.017470697076599338 0 -0.011621113474784138 0.01832003324841594 0 -0.010952001408621055 0.017789412502036962 0 -0.011428971038240377 0.017549732078705877 0 -0.0056601968395612011 0.018843310843028951 0 -0.0057170976798931079 0.018771037611501916 0 -0.0057551845909995705 0.019003810663126879 0 -0.0058706651659113035 0.018707182733473063 0 -0.0057170976798931079 0.018771037611501916 0 -0.0057551845909995705 0.019003810663126879 0 -0.0064558966562475242 0.01747141371925303 0 -0.0079725594907378763 0.015955488061413808 0 -0.0086791769772119939 0.014044226390370956 0 -0.0078862698012443031 0.013096182912199751 0 -0.0086208224756382113 0.013123626091609242 0 -0.0056601968395612011 0.018843310843028951 0 -0.0055548056937776069 0.018831344173148187 0 -0.0057551845909995705 0.019003810663126879 0 -0.0056601968395612011 0.018843310843028951 0 -0.0056341615975602872 0.018807487650186985 0 -0.0055548056937776069 0.018831344173148187 0 -0.0057170976798931079 0.018771037611501916 0 -0.005564525927658194 0.018680654098314459 0 -0.0056465652081242679 0.018541545909664989 0 -0.0058706651659113035 0.018707182733473063 0 -0.0057170976798931079 0.018771037611501916 0 -0.0056465652081242679 0.018541545909664989 0 -0.0057170976798931079 0.018771037611501916 0 -0.0056015306362192444 0.018785462789019585 0 -0.005564525927658194 0.018680654098314459 0 -0.0057170976798931079 0.018771037611501916 0 -0.0056341615975602872 0.018807487650186985 0 -0.0056015306362192444 0.018785462789019585 0 -0.0056015306362192444 0.018785462789019585 0 -0.005564525927658194 0.018680654098314459 0 -0.0055548056937776069 0.018831344173148187 0 -0.0056601968395612011 0.018843310843028951 0 -0.0057170976798931079 0.018771037611501916 0 -0.0056341615975602872 0.018807487650186985 0 -0.0056341615975602872 0.018807487650186985 0 -0.0056015306362192444 0.018785462789019585 0 -0.0055548056937776069 0.018831344173148187 0 -0.0083243463524981642 0.019364978107692044 0 -0.0055574146328667895 0.020187067422750442 0 -0.005564525927658194 0.018680654098314459 0 -0.0053485471714319619 0.018671132047148712 0 -0.0054402147697391549 0.018546452446841454 0 -0.005564525927658194 0.018680654098314459 0 -0.0053485471714319619 0.018671132047148712 0 -0.0055548056937776069 0.018831344173148187 0 -0.0055036895790284215 0.018774727163873305 0 -0.0064558966562475242 0.01747141371925303 0 -0.0052953102801697139 0.01883463589716421 0 -0.0052772667694234937 0.018866205946172217 0 -0.0055605083477260394 0.018895995158584103 0 -0.0053485471714319619 0.018671132047148712 0 -0.0052953102801697139 0.01883463589716421 0 -0.0055605083477260394 0.018895995158584103 0 -0.0064274934480214371 0.017146215251916362 0 -0.0066008734043614568 0.016857021666583188 0 -0.0066008734043614568 0.016857021666583188 0 -0.0064558966562475242 0.01747141371925303 0 -0.0095430106596972684 0.014155029578542498 0 -0.0090429035740289907 0.013577403716978621 0 -0.009500942166179591 0.013360290817470002 0 -0.0095430106596972684 0.014155029578542498 0 -0.0086791769772119939 0.014044226390370956 0 -0.0090429035740289907 0.013577403716978621 0 -0.0090429035740289907 0.013577403716978621 0 -0.0086208224756382113 0.013123626091609242 0 -0.0092488908751143031 0.01279472926001431 0 -0.0086791769772119939 0.014044226390370956 0 -0.0090429035740289907 0.013577403716978621 0 -0.0086208224756382113 0.013123626091609242 0 -0.0090429035740289907 0.013577403716978621 0 -0.009500942166179591 0.013360290817470002 0 -0.0092488908751143031 0.01279472926001431 0 0.00013833997316169434 0.01926779385410194 0 -0.00087404143023555767 0.017101773414109487 0 -0.0066008734043614568 0.016857021666583188 0 -0.007039418665222028 0.0144215184369139 0 -0.0095430106596972684 0.014155029578542498 0 -0.009500942166179591 0.013360290817470002 0 -0.010108204093995163 0.013131954547797248 0 -0.010216393932419522 0.013131722279312967 0 -0.007039418665222028 0.0144215184369139 0 -0.0032905289296584163 0.016812816247026043 0 -0.0032821944970687286 0.017089551040342821 0 -0.0030733638372710433 0.017157833097816783 0 -0.0034529980655111799 0.016831618465200066 0 -0.0032905289296584163 0.016812816247026043 0 -0.0032821944970687286 0.017089551040342821 0 0.0031167232555315678 0.020112810659389701 0 0.0029401622288835749 0.020023257193093599 0 0.0030707143834864193 0.020210415078197645 0 0.0032038217593931646 0.020164141681878706 0 0.0031167232555315678 0.020112810659389701 0 0.0030707143834864193 0.020210415078197645 0 0.0032398190332383627 0.02005214740510175 0 0.0031167232555315678 0.020112810659389701 0 0.0029401622288835749 0.020023257193093599 0 0.0034825987149294728 0.020563588170902453 0 0.0032346195177207302 0.020490192914032066 0 0.0029058182982116256 0.020783766220815059 0 0.0039841176344888605 0.020436179822505646 0 0.00013833997316169434 0.01926779385410194 0 0.0032346195177207302 0.020490192914032066 0 0.0029058182982116256 0.020783766220815059 0 0.0026074306668322916 0.020411195320470598 0 -0.0053485471714319619 0.018671132047148712 0 -0.0052953102801697139 0.01883463589716421 0 -0.0050720123351234835 0.018841843149378135 0 -0.0052953102801697139 0.01883463589716421 0 -0.0052737677732724838 0.018868032787994579 0 -0.0050720123351234835 0.018841843149378135 0 -0.0066008734043614568 0.016857021666583188 0 0.00013833997316169434 0.01926779385410194 0 0.00013833997316169434 0.01926779385410194 0 -0.0014176212524720912 0.019342469677218772 0 -0.0053485471714319619 0.018671132047148712 0 -0.0050720123351234835 0.018841843149378135 0 -0.0052561444445909621 0.018579163427300489 0 0.0032346195177207302 0.020490192914032066 0 0.0026074306668322916 0.020411195320470598 0 0.0027687136551676731 0.020131071782566411 0 0.0032785892723589988 0.020443021749333986 0 0.0022859787460187686 0.020894783071932994 0 0.0032346195177207302 0.020490192914032066 0 0.002819453253011498 0.020081341511543491 0 0.0027687136551676731 0.020131071782566411 0 0.0026074306668322916 0.020411195320470598 0 0.0026053821025661238 0.020086720875818063 0 0.0027687136551676731 0.020131071782566411 0 0.0028187331852606765 0.020081863035045899 0 0.0026053821025661238 0.020086720875818063 0 0.0027687136551676731 0.020131071782566411 0 0.0022859787460187686 0.020894783071932994 0 0.0024024030372040788 0.020764790882684153 0 0.0034298571239746861 0.020451317429583331 0 0.0032346195177207302 0.020490192914032066 0 0.0033196323162995164 0.020433970134186775 0 0.0032346195177207302 0.020490192914032066 0 0.0032243902878792614 0.020441918069151216 0 0.0033196323162995164 0.020433970134186775 0 0.0017243300237299185 0.022153958191355658 0 0.0016002856269123579 0.022074017653955346 0 0.0014482210323245844 0.022407313247751595 0 0.0024833629042477785 0.02135659513186881 0 0.0022859787460187686 0.020894783071932994 0 0.003354191147273138 0.02038049862878813 0 0.0032243902878792614 0.020441918069151216 0 0.0033196323162995164 0.020433970134186775 0 0.00075019823174653645 0.023657264654325459 0 2.7339653892204987e-05 0.022691786374670019 0 0.0016002856269123579 0.022074017653955346 0 0.0014482210323245844 0.022407313247751595 0 0.0013189283723151785 0.022286061240170421 0 0.0028187331852606765 0.020081863035045899 0 0.0026053821025661238 0.020086720875818063 0 0.0025270353763520289 0.019814325173523873 0 0.0022859787460187686 0.020894783071932994 0 2.7339653892204987e-05 0.022691786374670019 0 -0.0019603795327566226 0.024527586246707429 0 2.7339653892204987e-05 0.022691786374670019 0 0.0026053821025661238 0.020086720875818063 0 0.0025270353763520289 0.019814325173523873 0 0.0023022765410438961 0.019985974529838569 0 -0.0035836083005094783 0.023388267342337041 0 -0.0031140711374993304 0.023007877265078067 0 -0.0026068728342431573 0.023968367833476553 0 2.7339653892204987e-05 0.022691786374670019 0 -0.0037256844458704755 0.021468427320603591 0 -0.0037256844458704755 0.021468427320603591 0 -0.0044788827918533494 0.024285044645363792 0 -0.0028539440475489528 0.024166006011257578 0 -0.0035836083005094783 0.023388267342337041 0 -0.0026068728342431573 0.023968367833476553 0 -0.0072325155801037802 0.023242174066386703 0 -0.0064471046345983942 0.02470401916231358 0 -0.005308370785592282 0.023834733144627755 0 -0.0054371380378086115 0.025048388875459831 0 -0.0064471046345983942 0.02470401916231358 0 -0.005308370785592282 0.023834733144627755 0 -0.0054371380378086115 0.025048388875459831 0 -0.0043599444805046388 0.025292666345010002 0 -0.005308370785592282 0.023834733144627755 0 -0.0072325155801037802 0.023242174066386703 0 -0.005308370785592282 0.023834733144627755 0 -0.0056931842662714055 0.02199357731568654 0 -0.005564525927658194 0.018680654098314459 0 -0.0056465652081242679 0.018541545909664989 0 -0.0054402147697391549 0.018546452446841454 0 -0.0053485471714319619 0.018671132047148712 0 -0.0052561444445909621 0.018579163427300489 0 -0.0054402147697391549 0.018546452446841454 0 -0.0052561444445909621 0.018579163427300489 0 -0.0053935870922220608 0.01836874952765933 0 -0.0054402147697391549 0.018546452446841454 0 -0.0014176212524720912 0.019342469677218772 0 -0.0037256844458704755 0.021468427320603591 0 0.0026074306668322916 0.020411195320470598 0 0.0026053821025661238 0.020086720875818063 0 0.0023022765410438961 0.019985974529838569 0 -0.0037256844458704755 0.021468427320603591 0 -0.0055574146328667895 0.020187067422750442 0 -0.0053935870922220608 0.01836874952765933 0 -0.0056465652081242679 0.018541545909664989 0 -0.0054402147697391549 0.018546452446841454 0 -0.007776067058880877 0.029170570508546 0 -0.010995085015992659 0.026707843845325218 0 -0.0074554078047585895 0.029107197256303851 0 -0.0081439241065636141 0.028075836419130525 0 -0.0088641610251893547 0.02914771641556238 0 -0.007776067058880877 0.029170570508546 0 -0.0090109820231467127 0.029189965085780985 0 -0.0088495153768545099 0.029363325140118225 0 -0.0088641610251893547 0.02914771641556238 0 -0.0089414832278957961 0.029516421094382718 0 -0.0088754490304981271 0.029417883508449021 0 -0.0088495153768545099 0.029363325140118225 0 -0.0088641610251893547 0.02914771641556238 0 -0.0088372911994523979 0.029385135376909129 0 -0.0088495153768545099 0.029363325140118225 0 -0.0089414832278957961 0.029516421094382718 0 -0.0088372911994523979 0.029385135376909129 0 -0.0088495153768545099 0.029363325140118225 0 -0.0089166215776412573 0.029374451152489933 0 -0.0088372911994523979 0.029385135376909129 0 -0.0089166215776412573 0.029374451152489933 0 -0.0089072020410622572 0.029374687671532645 0 -0.0088754490304981271 0.029417883508449021 0 -0.0088495153768545099 0.029363325140118225 0 -0.0089385828869510183 0.029385420900087268 0 -0.0088495153768545099 0.029363325140118225 0 -0.0089385828869510183 0.029385420900087268 0 -0.0089166215776412573 0.029374451152489933 0 -0.0089385828869510183 0.029385420900087268 0 -0.0089166215776412573 0.029374451152489933 0 -0.009032357100294687 0.029366307249089622 0 -0.0088754490304981271 0.029417883508449021 0 -0.0089385828869510183 0.029385420900087268 0 -0.0090906045886975789 0.029410275364499458 0 -0.0089166215776412573 0.029374451152489933 0 -0.009011024915459024 0.029349404689703439 0 -0.009032357100294687 0.029366307249089622 0 -0.0089166215776412573 0.029374451152489933 0 -0.0089072020410622572 0.029374687671532645 0 -0.009011024915459024 0.029349404689703439 0 -0.009032357100294687 0.029366307249089622 0 -0.0090906045886975789 0.029410275364499458 0 -0.0092875090897463798 0.029242074856480338 0 -0.010068323363556777 0.029382820474251371 0 -0.010216071602931536 0.029628128177194998 0 -0.0089231177082852199 0.029370399730737774 0 -0.009011024915459024 0.029349404689703439 0 -0.0092875090897463798 0.029242074856480338 0 -0.0089231177082852199 0.029370399730737774 0 -0.0092435483195104778 0.030271590576273481 0 -0.0091167753878051306 0.02913521090106461 0 -0.009011024915459024 0.029349404689703439 0 -0.009032357100294687 0.029366307249089622 0 -0.0092875090897463798 0.029242074856480338 0 -0.0090906045886975789 0.029410275364499458 0 -0.0092875090897463798 0.029242074856480338 0 -0.0092788335840012018 0.029388308540087751 0 -0.0090906045886975789 0.029410275364499458 0 -0.0092788335840012018 0.029388308540087751 0 -0.0092892925717614292 0.029544099699205972 0 -0.0089385828869510183 0.029385420900087268 0 -0.009032357100294687 0.029366307249089622 0 -0.0090906045886975789 0.029410275364499458 0 -0.010425649808927861 0.030216110586786842 0 -0.013195391548371387 0.029870251172535368 0 -0.0092875090897463798 0.029242074856480338 0 -0.0097144883022841459 0.029393417739302589 0 -0.010188410351168313 0.029463037124107572 0 -0.010068323363556777 0.029382820474251371 0 -0.010216071602931536 0.029628128177194998 0 -0.011332155170699911 0.029629687787959175 0 -0.011393252411160674 0.030989466022108683 0 -0.011632869215526269 0.030719530662801579 0 -0.012083980701109503 0.031160413896463537 0 -0.0092435483195104778 0.030271590576273481 0 -0.014229186138203018 0.023706843919390659 0 -0.0092875090897463798 0.029242074856480338 0 -0.0093907289040094672 0.029390289162715539 0 -0.0097144883022841459 0.029393417739302589 0 -0.0092875090897463798 0.029242074856480338 0 -0.0092788335840012018 0.029388308540087751 0 -0.0093907289040094672 0.029390289162715539 0 -0.0097144883022841459 0.029393417739302589 0 -0.0092892925717614292 0.029544099699205972 0 -0.010188410351168313 0.029463037124107572 0 -0.011184073108069155 0.027178057327863048 0 -0.014229186138203018 0.023706843919390659 0 -0.014838764146274556 0.024061586300266488 0 -0.013210447755572943 0.023283634703408964 0 -0.011575703070899316 0.02398626909533581 0 -0.0093907289040094672 0.029390289162715539 0 -0.0097144883022841459 0.029393417739302589 0 -0.0092892925717614292 0.029544099699205972 0 -0.0092788335840012018 0.029388308540087751 0 -0.0093907289040094672 0.029390289162715539 0 -0.0092892925717614292 0.029544099699205972 0 -0.014838764146274556 0.024061586300266488 0 -0.014242079023613873 0.022819372384462459 0 -0.015370703745058327 0.022523348496310443 0 -0.014838764146274556 0.024061586300266488 0 -0.014242079023613873 0.022819372384462459 0 -0.013210447755572943 0.023283634703408964 0 -0.010995085015992659 0.026707843845325218 0 -0.011861299765258879 0.024508473339927544 0 -0.0088754490304981271 0.029417883508449021 0 -0.0090906045886975789 0.029410275364499458 0 -0.0091012240348619117 0.029500164860741297 0 -0.016088315324355805 0.024084242560637379 0 -0.016809959291714135 0.021326054120815632 0 -0.015370703745058327 0.022523348496310443 0 -0.0074554078047585895 0.029107197256303851 0 -0.0066309855094319331 0.029075536020225341 0 -0.0068625719548764397 0.027901551780265273 0 -0.0090906045886975789 0.029410275364499458 0 -0.0092892925717614292 0.029544099699205972 0 -0.0091012240348619117 0.029500164860741297 0 -0.011184073108069155 0.027178057327863048 0 -0.010995085015992659 0.026707843845325218 0 -0.014838764146274556 0.024061586300266488 0 -0.016088315324355805 0.024084242560637379 0 -0.015370703745058327 0.022523348496310443 0 -0.016809959291714135 0.021326054120815632 0 -0.015370703745058327 0.022523348496310443 0 -0.013547474745999297 0.021398053843042757 0 -0.014242079023613873 0.022819372384462459 0 -0.013210447755572943 0.023283634703408964 0 -0.013547474745999297 0.021398053843042757 0 -0.014242079023613873 0.022819372384462459 0 -0.015370703745058327 0.022523348496310443 0 -0.013547474745999297 0.021398053843042757 0 -0.017368013559425619 0.016789365671177982 0 -0.017333408228010445 0.016476475537585574 0 -0.017520920248310756 0.016379447797867683 0 -0.015626087237791318 0.018532008970592338 0 -0.016510496346273707 0.017681904913698386 0 -0.016809959291714135 0.021326054120815632 0 -0.013547474745999297 0.021398053843042757 0 -0.015583626215090551 0.018755518027361171 0 -0.016809959291714135 0.021326054120815632 0 -0.015583626215090551 0.018755518027361171 0 -0.017524262223669113 0.018513836319578189 0 -0.0075360022559340066 0.027425834018803545 0 -0.0084900381438810044 0.02668399791578524 0 -0.0070829921867817218 0.026593153322443715 0 -0.0068625719548764397 0.027901551780265273 0 -0.0075360022559340066 0.027425834018803545 0 -0.0070829921867817218 0.026593153322443715 0 -0.011861299765258879 0.024508473339927544 0 -0.012557582024990405 0.022909695842587032 0 -0.0074554078047585895 0.029107197256303851 0 -0.0068625719548764397 0.027901551780265273 0 -0.0081439241065636141 0.028075836419130525 0 -0.0068625719548764397 0.027901551780265273 0 -0.0075360022559340066 0.027425834018803545 0 -0.0081439241065636141 0.028075836419130525 0 -0.0075360022559340066 0.027425834018803545 0 -0.0081439241065636141 0.028075836419130525 0 -0.0084900381438810044 0.02668399791578524 0 -0.0081439241065636141 0.028075836419130525 0 -0.0084900381438810044 0.02668399791578524 0 -0.0092795162886049505 0.028168560835588871 0 -0.0064701908913691389 0.017371057497934196 0 -0.0078128439685802593 0.017651723983760883 0 -0.0074349904679519947 0.018548301757015797 0 -0.0072163682370473903 0.022385176341199263 0 -0.008367723765412784 0.023279219428463775 0 -0.0078128439685802593 0.017651723983760883 0 -0.0087296218435486579 0.017618540264684384 0 -0.00817664495109649 0.01716887159293946 0 -0.0078128439685802593 0.017651723983760883 0 -0.0074349904679519947 0.018548301757015797 0 -0.0085781560558823283 0.018406951582780724 0 -0.0074349904679519947 0.018548301757015797 0 -0.0085781560558823283 0.018406951582780724 0 -0.0082382440515378387 0.019564319225831042 0 -0.0081439241065636141 0.028075836419130525 0 -0.0092795162886049505 0.028168560835588871 0 -0.0088641610251893547 0.02914771641556238 0 -0.009527954341990174 0.018000638179422032 0 -0.0087296218435486579 0.017618540264684384 0 -0.0085781560558823283 0.018406951582780724 0 -0.009527954341990174 0.018000638179422032 0 -0.0087296218435486579 0.017618540264684384 0 -0.0093735375685767633 0.017248580611185525 0 -0.0078128439685802593 0.017651723983760883 0 -0.0087296218435486579 0.017618540264684384 0 -0.0085781560558823283 0.018406951582780724 0 -0.009527954341990174 0.018000638179422032 0 -0.0085781560558823283 0.018406951582780724 0 -0.0094091340425166824 0.018989715661542235 0 -0.0094091340425166824 0.018989715661542235 0 -0.0082382440515378387 0.019564319225831042 0 -0.0093998074818452872 0.019854883525319066 0 -0.0085781560558823283 0.018406951582780724 0 -0.0094091340425166824 0.018989715661542235 0 -0.0082382440515378387 0.019564319225831042 0 -0.0094558500525686456 0.029195576021521816 0 -0.0091782115728830556 0.029653618721338156 0 -0.0092583448448897657 0.029559674877297465 0 -0.0087819235341350301 0.024403852985628451 0 -0.0094709195066258554 0.024779746017208441 0 -0.009816731724296748 0.020647368182094283 0 -0.0093998074818452872 0.019854883525319066 0 -0.0089744047507501201 0.020572918888662913 0 -0.0082382440515378387 0.019564319225831042 0 -0.0093998074818452872 0.019854883525319066 0 -0.0089744047507501201 0.020572918888662913 0 -0.0092795162886049505 0.028168560835588871 0 -0.0094558500525686456 0.029195576021521816 0 -0.0088641610251893547 0.02914771641556238 0 -0.008367723765412784 0.023279219428463775 0 -0.0087819235341350301 0.024403852985628451 0 -0.0094558500525686456 0.029195576021521816 0 -0.0088641610251893547 0.02914771641556238 0 -0.0090933094989648824 0.029497074832017939 0 -0.0094558500525686456 0.029195576021521816 0 -0.0090933094989648824 0.029497074832017939 0 -0.0091782115728830556 0.029653618721338156 0 -0.0088641610251893547 0.02914771641556238 0 -0.0090933094989648824 0.029497074832017939 0 -0.0089414832278957961 0.029516421094382718 0 -0.0090933094989648824 0.029497074832017939 0 -0.0091450399036203736 0.02986398707308657 0 -0.0089414832278957961 0.029516421094382718 0 -0.0090933094989648824 0.029497074832017939 0 -0.0091450399036203736 0.02986398707308657 0 -0.0091782115728830556 0.029653618721338156 0 -0.0091782115728830556 0.029653618721338156 0 -0.0090878636680128671 0.029798575225223129 0 -0.0090599451671877634 0.02973282198962773 0 -0.0091450399036203736 0.02986398707308657 0 -0.0091782115728830556 0.029653618721338156 0 -0.0090878636680128671 0.029798575225223129 0 -0.0091450399036203736 0.02986398707308657 0 -0.0092632201892478734 0.029682651161185843 0 -0.009561559136095488 0.02961785250263228 0 -0.0091450399036203736 0.02986398707308657 0 -0.0090878636680128671 0.029798575225223129 0 -0.0092632201892478734 0.029682651161185843 0 -0.0069471419194908927 0.027711347051815636 0 -0.0094709195066258554 0.024779746017208441 0 -0.0091782115728830556 0.029653618721338156 0 -0.0092583448448897657 0.029559674877297465 0 -0.0090599451671877634 0.02973282198962773 0 -0.0090878636680128671 0.029798575225223129 0 -0.0090599451671877634 0.02973282198962773 0 -0.0087559586369083623 0.02990480376637436 0 -0.0092495825398147165 0.029728105754839466 0 -0.0092583448448897657 0.029559674877297465 0 -0.0091366912980128164 0.029808240564964773 0 -0.0092583448448897657 0.029559674877297465 0 -0.0090599451671877634 0.02973282198962773 0 -0.0091366912980128164 0.029808240564964773 0 -0.0069471419194908927 0.027711347051815636 0 -0.0084601676000254453 0.030115182136862508 0 -0.007277766246913963 0.030137379897466263 0 -0.0078909027982002281 0.030531810126125672 0 -0.0078742357409760256 0.029709095724191635 0 -0.0078909027982002281 0.030531810126125672 0 -0.0087559586369083623 0.02990480376637436 0 -0.0078742357409760256 0.029709095724191635 0 -0.0084601676000254453 0.030115182136862508 0 -0.0087416007138002346 0.029956210540020293 0 -0.0090599451671877634 0.02973282198962773 0 -0.0091366912980128164 0.029808240564964773 0 -0.0087559586369083623 0.02990480376637436 0 -0.0084131364992993188 0.029311093904818099 0 -0.0089285075645341855 0.029575159557035137 0 -0.0088219088344698663 0.028906450940365033 0 -0.0087559586369083623 0.02990480376637436 0 -0.0084131364992993188 0.029311093904818099 0 -0.0078742357409760256 0.029709095724191635 0 -0.0087559586369083623 0.02990480376637436 0 -0.0084131364992993188 0.029311093904818099 0 -0.0089285075645341855 0.029575159557035137 0 -0.0084131364992993188 0.029311093904818099 0 -0.0078742357409760256 0.029709095724191635 0 -0.0077087064493872948 0.029048217078581108 0 -0.0071338011479273105 0.029476578987181298 0 -0.0078742357409760256 0.029709095724191635 0 -0.0077087064493872948 0.029048217078581108 0 -0.0090878636680128671 0.029798575225223129 0 -0.0092632201892478734 0.029682651161185843 0 -0.0092601487203856515 0.029515699778644915 0 -0.0092632201892478734 0.029682651161185843 0 -0.0095477694079688057 0.029384691694634823 0 -0.009561559136095488 0.02961785250263228 0 -0.0092632201892478734 0.029682651161185843 0 -0.0095477694079688057 0.029384691694634823 0 -0.0092601487203856515 0.029515699778644915 0 -0.0090878636680128671 0.029798575225223129 0 -0.0089285075645341855 0.029575159557035137 0 -0.0092601487203856515 0.029515699778644915 0 -0.0090878636680128671 0.029798575225223129 0 -0.0087559586369083623 0.02990480376637436 0 -0.0089285075645341855 0.029575159557035137 0 -0.0089285075645341855 0.029575159557035137 0 -0.0092601487203856515 0.029515699778644915 0 -0.0093730978198768283 0.029073827793269828 0 -0.0095477694079688057 0.029384691694634823 0 -0.0092601487203856515 0.029515699778644915 0 -0.0093730978198768283 0.029073827793269828 0 -0.0095477694079688057 0.029384691694634823 0 -0.0098829806120492962 0.029329497552801873 0 -0.009561559136095488 0.02961785250263228 0 -0.0095477694079688057 0.029384691694634823 0 -0.0098829806120492962 0.029329497552801873 0 -0.0099817157468187669 0.02882452178666885 0 -0.010442817260695713 0.029621862144674441 0 -0.010972511320623369 0.029810096671264184 0 -0.010558504724816549 0.029155436166191574 0 -0.010972511320623369 0.029810096671264184 0 -0.011076695311076704 0.029091745413368578 0 -0.010558504724816549 0.029155436166191574 0 -0.010442817260695713 0.029621862144674441 0 -0.010776480752790044 0.030155735519337246 0 -0.010972511320623369 0.029810096671264184 0 -0.0098829806120492962 0.029329497552801873 0 -0.0098032166461644778 0.029710724616978591 0 -0.010110768991708496 0.029676314707233965 0 -0.010776480752790044 0.030155735519337246 0 -0.010934712525658427 0.030304790447014264 0 -0.010972511320623369 0.029810096671264184 0 -0.010168717341846743 0.029439382641220382 0 -0.01044567352229051 0.029953396897972561 0 -0.0098829806120492962 0.029329497552801873 0 -0.009561559136095488 0.02961785250263228 0 -0.0098032166461644778 0.029710724616978591 0 -0.0091450399036203736 0.02986398707308657 0 -0.009561559136095488 0.02961785250263228 0 -0.0097370482052462747 0.029936756420134956 0 -0.009561559136095488 0.02961785250263228 0 -0.0097370482052462747 0.029936756420134956 0 -0.0098032166461644778 0.029710724616978591 0 -0.0097370482052462747 0.029936756420134956 0 -0.0098032166461644778 0.029710724616978591 0 -0.0099364685104738511 0.029852846002156777 0 -0.010110768991708496 0.029676314707233965 0 -0.010144811357919429 0.030145465817728822 0 -0.010740376108278686 0.030694726157682917 0 -0.01044567352229051 0.029953396897972561 0 -0.010728248279125701 0.030670837967818675 0 -0.010776480752790044 0.030155735519337246 0 -0.010740376108278686 0.030694726157682917 0 -0.010934712525658427 0.030304790447014264 0 -0.0098032166461644778 0.029710724616978591 0 -0.0099364685104738511 0.029852846002156777 0 -0.010110768991708496 0.029676314707233965 0 -0.0097370482052462747 0.029936756420134956 0 -0.0099364685104738511 0.029852846002156777 0 -0.010144811357919429 0.030145465817728822 0 -0.0099364685104738511 0.029852846002156777 0 -0.010110768991708496 0.029676314707233965 0 -0.010144811357919429 0.030145465817728822 0 -0.0097370482052462747 0.029936756420134956 0 -0.010144811357919429 0.030145465817728822 0 -0.010203998460119535 0.030608896186828105 0 -0.010068323363556777 0.029382820474251371 0 -0.0089231177082852199 0.029370399730737774 0 -0.0087678238566783161 0.029341099693481788 0 -0.010144811357919429 0.030145465817728822 0 -0.010203998460119535 0.030608896186828105 0 -0.010740376108278686 0.030694726157682917 0 -0.0089072020410622572 0.029374687671532645 0 -0.009011024915459024 0.029349404689703439 0 -0.0089231177082852199 0.029370399730737774 0 -0.0089072020410622572 0.029374687671532645 0 -0.0089231177082852199 0.029370399730737774 0 -0.0088632402713980166 0.029377433386702474 0 -0.0089231177082852199 0.029370399730737774 0 -0.0087678238566783161 0.029341099693481788 0 -0.0088632402713980166 0.029377433386702474 0 -0.0088372911994523979 0.029385135376909129 0 -0.0089072020410622572 0.029374687671532645 0 -0.0088632402713980166 0.029377433386702474 0 -0.0088372911994523979 0.029385135376909129 0 -0.0087678238566783161 0.029341099693481788 0 -0.0088632402713980166 0.029377433386702474 0 -0.0091450399036203736 0.02986398707308657 0 -0.0087678238566783161 0.029341099693481788 0 -0.0089414832278957961 0.029516421094382718 0 -0.0088372911994523979 0.029385135376909129 0 -0.0087678238566783161 0.029341099693481788 0 -0.0089414832278957961 0.029516421094382718 0 -0.0091636139539585226 0.029877900706340835 0 -0.0096060673567865684 0.029980800655001884 0 -0.0091450399036203736 0.02986398707308657 0 -0.0097370482052462747 0.029936756420134956 0 -0.010203998460119535 0.030608896186828105 0 -0.011632869215526269 0.030719530662801579 0 -0.011297270833496938 0.030507890516399516 0 -0.01184284207298208 0.030398072826167088 0 -0.011632869215526269 0.030719530662801579 0 -0.011296854160836452 0.030726784748554486 0 -0.011297270833496938 0.030507890516399516 0 -0.011393252411160674 0.030989466022108683 0 -0.011632869215526269 0.030719530662801579 0 -0.011296854160836452 0.030726784748554486 0 -0.011393252411160674 0.030989466022108683 0 -0.011296854160836452 0.030726784748554486 0 -0.010740376108278686 0.030694726157682917 0 -0.011393252411160674 0.030989466022108683 0 -0.010203998460119535 0.030608896186828105 0 -0.010740376108278686 0.030694726157682917 0 -0.010425649808927861 0.030216110586786842 0 -0.0096060673567865684 0.029980800655001884 0 -0.010740376108278686 0.030694726157682917 0 -0.011297270833496938 0.030507890516399516 0 -0.010934712525658427 0.030304790447014264 0 -0.011296854160836452 0.030726784748554486 0 -0.010740376108278686 0.030694726157682917 0 -0.011297270833496938 0.030507890516399516 0 -0.011297270833496938 0.030507890516399516 0 -0.011285806530411349 0.030302657117052816 0 -0.010934712525658427 0.030304790447014264 0 -0.011285806530411349 0.030302657117052816 0 -0.010934712525658427 0.030304790447014264 0 -0.011444068451994749 0.030112446784156525 0 -0.011285806530411349 0.030302657117052816 0 -0.011444068451994749 0.030112446784156525 0 -0.01184284207298208 0.030398072826167088 0 -0.011297270833496938 0.030507890516399516 0 -0.011285806530411349 0.030302657117052816 0 -0.01184284207298208 0.030398072826167088 0 -0.011444068451994749 0.030112446784156525 0 -0.011687579759016129 0.029838445287732114 0 -0.01184284207298208 0.030398072826167088 0 -0.012111149756113035 0.030083926588902306 0 -0.012395215241006712 0.031395708862565104 0 -0.010969819075170363 0.030295725744123925 0 -0.011134520366789412 0.029842531294116417 0 -0.010934712525658427 0.030304790447014264 0 -0.011444068451994749 0.030112446784156525 0 -0.011317568924851489 0.029837291742273613 0 -0.011444068451994749 0.030112446784156525 0 -0.011687579759016129 0.029838445287732114 0 -0.011317568924851489 0.029837291742273613 0 -0.011687579759016129 0.029838445287732114 0 -0.011317568924851489 0.029837291742273613 0 -0.011621675777215684 0.029667054441875805 0 -0.011317568924851489 0.029837291742273613 0 -0.011621675777215684 0.029667054441875805 0 -0.011525686662994958 0.029469928526653876 0 -0.011134520366789412 0.029842531294116417 0 -0.01129470147775842 0.029272844696725493 0 -0.011687579759016129 0.029838445287732114 0 -0.011621675777215684 0.029667054441875805 0 -0.011934573820014492 0.029396695095019992 0 -0.012111149756113035 0.030083926588902306 0 -0.011933506303743919 0.029449219740694633 0 -0.012539631563165629 0.030582310902418901 0 -0.011934573820014492 0.029396695095019992 0 -0.013009728416685695 0.029846112402612014 0 -0.011934573820014492 0.029396695095019992 0 -0.013009728416685695 0.029846112402612014 0 -0.0126901949254207 0.029228066074767942 0 -0.011934573820014492 0.029396695095019992 0 -0.012312072619444293 0.028848263290226019 0 -0.011569378574224437 0.028572096998881084 0 -0.011934573820014492 0.029396695095019992 0 -0.012312072619444293 0.028848263290226019 0 -0.0126901949254207 0.029228066074767942 0 -0.012312072619444293 0.028848263290226019 0 -0.012484186279163544 0.028214747165048591 0 -0.012918997610634159 0.028857356579482143 0 -0.011934573820014492 0.029396695095019992 0 -0.011525686662994958 0.029469928526653876 0 -0.011569378574224437 0.028572096998881084 0 -0.011076695311076704 0.029091745413368578 0 -0.010691901360847909 0.028612911946812446 0 -0.011251932446305688 0.028281117286151691 0 -0.01129470147775842 0.029272844696725493 0 -0.011418468124329461 0.028399536562848337 0 -0.011621675777215684 0.029667054441875805 0 -0.011934573820014492 0.029396695095019992 0 -0.011525686662994958 0.029469928526653876 0 -0.010558504724816549 0.029155436166191574 0 -0.0099817157468187669 0.02882452178666885 0 -0.010691901360847909 0.028612911946812446 0 -0.011076695311076704 0.029091745413368578 0 -0.010558504724816549 0.029155436166191574 0 -0.010691901360847909 0.028612911946812446 0 -0.010442817260695713 0.029621862144674441 0 -0.010558504724816549 0.029155436166191574 0 -0.0099817157468187669 0.02882452178666885 0 -0.010168717341846743 0.029439382641220382 0 -0.0099781094649407879 0.028846260822194741 0 -0.0099817157468187669 0.02882452178666885 0 -0.010691901360847909 0.028612911946812446 0 -0.010176890427170281 0.028080472078414357 0 -0.0099817157468187669 0.02882452178666885 0 -0.010176890427170281 0.028080472078414357 0 -0.0094681429721770113 0.028305768679104622 0 -0.010691901360847909 0.028612911946812446 0 -0.010903293957158375 0.027819089259068057 0 -0.011251932446305688 0.028281117286151691 0 -0.010691901360847909 0.028612911946812446 0 -0.010903293957158375 0.027819089259068057 0 -0.010176890427170281 0.028080472078414357 0 -0.010176890427170281 0.028080472078414357 0 -0.0094681429721770113 0.028305768679104622 0 -0.0096912836223096658 0.02750582527748106 0 -0.010176890427170281 0.028080472078414357 0 -0.010442205710942259 0.02726782020049872 0 -0.0096912836223096658 0.02750582527748106 0 -0.010442205710942259 0.02726782020049872 0 -0.0096912836223096658 0.02750582527748106 0 -0.0098552758737110308 0.026766286139830796 0 -0.010903293957158375 0.027819089259068057 0 -0.010176890427170281 0.028080472078414357 0 -0.010442205710942259 0.02726782020049872 0 -0.010903293957158375 0.027819089259068057 0 -0.010442205710942259 0.02726782020049872 0 -0.011561799589095693 0.027472127520856485 0 -0.011561799589095693 0.027472127520856485 0 -0.012484186279163544 0.028214747165048591 0 -0.012771916495184905 0.027382914579688351 0 -0.012312072619444293 0.028848263290226019 0 -0.012484186279163544 0.028214747165048591 0 -0.011569378574224437 0.028572096998881084 0 -0.010903293957158375 0.027819089259068057 0 -0.011561799589095693 0.027472127520856485 0 -0.011251932446305688 0.028281117286151691 0 -0.01154508634190581 0.02751364375495936 0 -0.011418468124329461 0.028399536562848337 0 -0.011561799589095693 0.027472127520856485 0 -0.012484186279163544 0.028214747165048591 0 -0.011569378574224437 0.028572096998881084 0 -0.0070819024651791653 0.02878324326600842 0 -0.0075714775655390957 0.028367467887900014 0 -0.0077087064493872948 0.029048217078581108 0 -0.0075714775655390957 0.028367467887900014 0 -0.0077087064493872948 0.029048217078581108 0 -0.0082560212764331686 0.02867949829720862 0 -0.0075714775655390957 0.028367467887900014 0 -0.0082560212764331686 0.02867949829720862 0 -0.008233824394260611 0.028191713531690008 0 -0.0084131364992993188 0.029311093904818099 0 -0.0077087064493872948 0.029048217078581108 0 -0.0082560212764331686 0.02867949829720862 0 -0.0084131364992993188 0.029311093904818099 0 -0.0082560212764331686 0.02867949829720862 0 -0.0088219088344698663 0.028906450940365033 0 -0.0082560212764331686 0.02867949829720862 0 -0.008718877177708452 0.028246861918983641 0 -0.0088219088344698663 0.028906450940365033 0 -0.0082560212764331686 0.02867949829720862 0 -0.008718877177708452 0.028246861918983641 0 -0.008233824394260611 0.028191713531690008 0 -0.0091020722788111765 0.028643539337516736 0 -0.008718877177708452 0.028246861918983641 0 -0.0088219088344698663 0.028906450940365033 0 -0.0091020722788111765 0.028643539337516736 0 -0.008718877177708452 0.028246861918983641 0 -0.0094681429721770113 0.028305768679104622 0 -0.0089285075645341855 0.029575159557035137 0 -0.0088219088344698663 0.028906450940365033 0 -0.0093730978198768283 0.029073827793269828 0 -0.0091020722788111765 0.028643539337516736 0 -0.0088219088344698663 0.028906450940365033 0 -0.0093730978198768283 0.029073827793269828 0 -0.0095477694079688057 0.029384691694634823 0 -0.0099817157468187669 0.02882452178666885 0 -0.0093730978198768283 0.029073827793269828 0 -0.0091020722788111765 0.028643539337516736 0 -0.0093730978198768283 0.029073827793269828 0 -0.0094681429721770113 0.028305768679104622 0 -0.0099817157468187669 0.02882452178666885 0 -0.0093730978198768283 0.029073827793269828 0 -0.0094681429721770113 0.028305768679104622 0 -0.0094681429721770113 0.028305768679104622 0 -0.0096912836223096658 0.02750582527748106 0 -0.0089557291896591607 0.027630583943363599 0 -0.0096912836223096658 0.02750582527748106 0 -0.0089557291896591607 0.027630583943363599 0 -0.00926074128273509 0.026940400653551754 0 -0.0089557291896591607 0.027630583943363599 0 -0.0083618883208619547 0.027276306868747789 0 -0.008738569212042132 0.026933957580691444 0 -0.0089557291896591607 0.027630583943363599 0 -0.008738569212042132 0.026933957580691444 0 -0.00926074128273509 0.026940400653551754 0 -0.008718877177708452 0.028246861918983641 0 -0.0089557291896591607 0.027630583943363599 0 -0.0083633343478181198 0.027798763421852533 0 -0.008718877177708452 0.028246861918983641 0 -0.0094681429721770113 0.028305768679104622 0 -0.0089557291896591607 0.027630583943363599 0 -0.008718877177708452 0.028246861918983641 0 -0.008233824394260611 0.028191713531690008 0 -0.0083633343478181198 0.027798763421852533 0 -0.008233824394260611 0.028191713531690008 0 -0.0083633343478181198 0.027798763421852533 0 -0.0078389851261116521 0.027916488294979957 0 -0.0083633343478181198 0.027798763421852533 0 -0.0078833023676245194 0.027486954091867355 0 -0.0078389851261116521 0.027916488294979957 0 -0.0089557291896591607 0.027630583943363599 0 -0.0083633343478181198 0.027798763421852533 0 -0.0083618883208619547 0.027276306868747789 0 -0.0083618883208619547 0.027276306868747789 0 -0.0078833023676245194 0.027486954091867355 0 -0.0079201100418859437 0.027065563601915935 0 -0.0083633343478181198 0.027798763421852533 0 -0.0083618883208619547 0.027276306868747789 0 -0.0078833023676245194 0.027486954091867355 0 -0.0071905349111906353 0.02773847203878696 0 -0.0078833023676245194 0.027486954091867355 0 -0.0075352140584444812 0.027171408701623247 0 -0.0078833023676245194 0.027486954091867355 0 -0.0079201100418859437 0.027065563601915935 0 -0.0075352140584444812 0.027171408701623247 0 -0.0075714775655390957 0.028367467887900014 0 -0.008233824394260611 0.028191713531690008 0 -0.0078389851261116521 0.027916488294979957 0 -0.0071905349111906353 0.02773847203878696 0 -0.0078833023676245194 0.027486954091867355 0 -0.0078389851261116521 0.027916488294979957 0 -0.0071905349111906353 0.02773847203878696 0 -0.0075714775655390957 0.028367467887900014 0 -0.0078389851261116521 0.027916488294979957 0 -0.0071056296387433477 0.02581513716423214 0 -0.0075469581976117146 0.025914112573812723 0 -0.007615564879531629 0.025428952906231723 0 -0.0071056296387433477 0.02581513716423214 0 -0.0075469581976117146 0.025914112573812723 0 -0.0073098200260857055 0.026275141070322409 0 -0.0075469581976117146 0.025914112573812723 0 -0.007870015686786358 0.025817737393080072 0 -0.007615564879531629 0.025428952906231723 0 -0.0075469581976117146 0.025914112573812723 0 -0.007870015686786358 0.025817737393080072 0 -0.0079946397672724639 0.026116067352553573 0 -0.0075469581976117146 0.025914112573812723 0 -0.007710494678537543 0.026327798906311786 0 -0.0079946397672724639 0.026116067352553573 0 -0.0075469581976117146 0.025914112573812723 0 -0.007710494678537543 0.026327798906311786 0 -0.0073098200260857055 0.026275141070322409 0 -0.0071549816988252021 0.02675050983856251 0 -0.0073098200260857055 0.026275141070322409 0 -0.0076459500145641592 0.026705704539765292 0 -0.007710494678537543 0.026327798906311786 0 -0.0073098200260857055 0.026275141070322409 0 -0.0076459500145641592 0.026705704539765292 0 -0.0071549816988252021 0.02675050983856251 0 -0.0075352140584444812 0.027171408701623247 0 -0.0076459500145641592 0.026705704539765292 0 -0.0079201100418859437 0.027065563601915935 0 -0.0075352140584444812 0.027171408701623247 0 -0.0076459500145641592 0.026705704539765292 0 -0.0079201100418859437 0.027065563601915935 0 -0.0076459500145641592 0.026705704539765292 0 -0.0081625874829359072 0.02668048229097782 0 -0.007710494678537543 0.026327798906311786 0 -0.0076459500145641592 0.026705704539765292 0 -0.0081625874829359072 0.02668048229097782 0 -0.0083618883208619547 0.027276306868747789 0 -0.0079201100418859437 0.027065563601915935 0 -0.0081625874829359072 0.02668048229097782 0 -0.0083618883208619547 0.027276306868747789 0 -0.0081625874829359072 0.02668048229097782 0 -0.008738569212042132 0.026933957580691444 0 -0.0081625874829359072 0.02668048229097782 0 -0.0085336200214777488 0.02632839698598078 0 -0.008738569212042132 0.026933957580691444 0 -0.007710494678537543 0.026327798906311786 0 -0.0081625874829359072 0.02668048229097782 0 -0.0079946397672724639 0.026116067352553573 0 -0.0081625874829359072 0.02668048229097782 0 -0.0085336200214777488 0.02632839698598078 0 -0.0079946397672724639 0.026116067352553573 0 -0.007870015686786358 0.025817737393080072 0 -0.0079946397672724639 0.026116067352553573 0 -0.0083116495264610787 0.025812857514572261 0 -0.0085336200214777488 0.02632839698598078 0 -0.0079946397672724639 0.026116067352553573 0 -0.0083116495264610787 0.025812857514572261 0 -0.0085336200214777488 0.02632839698598078 0 -0.0083116495264610787 0.025812857514572261 0 -0.0089191994677755935 0.025967430301503391 0 -0.0089191994677755935 0.025967430301503391 0 -0.0089945935872041312 0.026495859437661529 0 -0.0093918706611309643 0.026337006294329546 0 -0.0085336200214777488 0.02632839698598078 0 -0.0089191994677755935 0.025967430301503391 0 -0.0089945935872041312 0.026495859437661529 0 -0.0085336200214777488 0.02632839698598078 0 -0.008738569212042132 0.026933957580691444 0 -0.0089945935872041312 0.026495859437661529 0 -0.008738569212042132 0.026933957580691444 0 -0.0089945935872041312 0.026495859437661529 0 -0.00926074128273509 0.026940400653551754 0 -0.00926074128273509 0.026940400653551754 0 -0.0093918706611309643 0.026337006294329546 0 -0.0098552758737110308 0.026766286139830796 0 -0.0089945935872041312 0.026495859437661529 0 -0.00926074128273509 0.026940400653551754 0 -0.0093918706611309643 0.026337006294329546 0 -0.0096912836223096658 0.02750582527748106 0 -0.00926074128273509 0.026940400653551754 0 -0.0098552758737110308 0.026766286139830796 0 -0.0093918706611309643 0.026337006294329546 0 -0.0098552758737110308 0.026766286139830796 0 -0.0098502679769242353 0.026120045862453641 0 -0.0089191994677755935 0.025967430301503391 0 -0.0093918706611309643 0.026337006294329546 0 -0.0094221462094753912 0.025778253817633826 0 -0.0093918706611309643 0.026337006294329546 0 -0.0094221462094753912 0.025778253817633826 0 -0.0098502679769242353 0.026120045862453641 0 -0.0094221462094753912 0.025778253817633826 0 -0.0098502679769242353 0.026120045862453641 0 -0.0098662627498456428 0.025642666568401661 0 -0.0094221462094753912 0.025778253817633826 0 -0.0094723872614040482 0.025428429997771795 0 -0.0090893258847964866 0.025442287878822682 0 -0.0094723872614040482 0.025428429997771795 0 -0.0098662627498456428 0.025642666568401661 0 -0.0097112882674807062 0.025252615408199522 0 -0.0094221462094753912 0.025778253817633826 0 -0.0094723872614040482 0.025428429997771795 0 -0.0098662627498456428 0.025642666568401661 0 -0.0094723872614040482 0.025428429997771795 0 -0.0092228242016575441 0.025041223613960658 0 -0.0097112882674807062 0.025252615408199522 0 -0.0087229244651601083 0.025397288883086663 0 -0.0082465551173797075 0.025000060393584989 0 -0.0095953551070121056 0.024999795147399004 0 -0.0094723872614040482 0.025428429997771795 0 -0.0092228242016575441 0.025041223613960658 0 -0.0090893258847964866 0.025442287878822682 0 -0.0092228242016575441 0.025041223613960658 0 -0.0089009067560367715 0.025011309573394258 0 -0.0090893258847964866 0.025442287878822682 0 -0.0089009067560367715 0.025011309573394258 0 -0.0086752128316859613 0.025605322810152643 0 -0.0081363652713595941 0.025203414064156847 0 -0.0082767428473476574 0.0253764116975452 0 -0.0082465551173797075 0.025000060393584989 0 -0.007421934151200891 0.025343446071043028 0 -0.0084951388773875508 0.025262056320482545 0 -0.0074064733694250619 0.02533412154115226 0 -0.0087229244651601083 0.025397288883086663 0 -0.0082767428473476574 0.0253764116975452 0 -0.0082465551173797075 0.025000060393584989 0 -0.0089811724329520049 0.025241300502536753 0 -0.0084951388773875508 0.025262056320482545 0 -0.0083116495264610787 0.025812857514572261 0 -0.0089191994677755935 0.025967430301503391 0 -0.0086752128316859613 0.025605322810152643 0 -0.0089009067560367715 0.025011309573394258 0 -0.0090893258847964866 0.025442287878822682 0 -0.0086752128316859613 0.025605322810152643 0 -0.0089191994677755935 0.025967430301503391 0 -0.0094221462094753912 0.025778253817633826 0 -0.0090893258847964866 0.025442287878822682 0 -0.0089191994677755935 0.025967430301503391 0 -0.0090893258847964866 0.025442287878822682 0 -0.0086752128316859613 0.025605322810152643 0 -0.0085671648226585025 0.025599040373751374 0 -0.0076951495684921397 0.02551723082844852 0 -0.0086752128316859613 0.025605322810152643 0 -0.0081363652713595941 0.025203414064156847 0 -0.0075927412450584025 0.02565626667808173 0 -0.0083116495264610787 0.025812857514572261 0 -0.0086752128316859613 0.025605322810152643 0 -0.007615564879531629 0.025428952906231723 0 -0.0084951388773875508 0.025262056320482545 0 -0.0077670616071254328 0.02542966018740362 0 -0.0082465551173797075 0.025000060393584989 0 -0.007421934151200891 0.025343446071043028 0 -0.0068983783301471502 0.024999979803546429 0 -0.008376684365255186 0.025360530659007112 0 -0.0074774410628162197 0.025327599684521529 0 -0.00733491009321313 0.025681399754395741 0 -0.0062120334009274098 0.025293412311035542 0 -0.0074064733694250619 0.02533412154115226 0 -0.0061231490077813533 0.025291031380452789 0 -0.00733491009321313 0.025681399754395741 0 -0.0063080744858261296 0.025969819434380381 0 -0.0061231490077813533 0.025291031380452789 0 -0.0074774410628162197 0.025327599684521529 0 -0.00733491009321313 0.025681399754395741 0 -0.0061231490077813533 0.025291031380452789 0 -0.007421934151200891 0.025343446071043028 0 -0.0068983783301471502 0.024999979803546429 0 -0.007870015686786358 0.025817737393080072 0 -0.0083116495264610787 0.025812857514572261 0 -0.007615564879531629 0.025428952906231723 0 -0.0077670616071254328 0.02542966018740362 0 -0.0067584218226219381 0.025721456607693177 0 -0.0081363652713595941 0.025203414064156847 0 -0.0072930626232054277 0.025426172985656092 0 -0.0075927412450584025 0.02565626667808173 0 -0.011665804153148171 0.026297801385495059 0 -0.010965906269501072 0.026722473238423534 0 -0.010914423498130528 0.025950311633528452 0 -0.011665804153148171 0.026297801385495059 0 -0.010914423498130528 0.025950311633528452 0 -0.011747555473148227 0.025694740249793874 0 -0.011665804153148171 0.026297801385495059 0 -0.012452060852062749 0.026059124378274102 0 -0.011747555473148227 0.025694740249793874 0 -0.011665804153148171 0.026297801385495059 0 -0.012452060852062749 0.026059124378274102 0 -0.012319729887738598 0.026760197751083792 0 -0.011665804153148171 0.026297801385495059 0 -0.012319729887738598 0.026760197751083792 0 -0.011624631077115689 0.026813060109059317 0 -0.011561799589095693 0.027472127520856485 0 -0.012319729887738598 0.026760197751083792 0 -0.012771916495184905 0.027382914579688351 0 -0.011561799589095693 0.027472127520856485 0 -0.011624631077115689 0.026813060109059317 0 -0.010965906269501072 0.026722473238423534 0 -0.011561799589095693 0.027472127520856485 0 -0.012319729887738598 0.026760197751083792 0 -0.011624631077115689 0.026813060109059317 0 -0.011665804153148171 0.026297801385495059 0 -0.011624631077115689 0.026813060109059317 0 -0.010965906269501072 0.026722473238423534 0 -0.010442205710942259 0.02726782020049872 0 -0.011561799589095693 0.027472127520856485 0 -0.010965906269501072 0.026722473238423534 0 -0.010442205710942259 0.02726782020049872 0 -0.010965906269501072 0.026722473238423534 0 -0.01034787665781115 0.026455732298746974 0 -0.010442205710942259 0.02726782020049872 0 -0.0098552758737110308 0.026766286139830796 0 -0.01034787665781115 0.026455732298746974 0 -0.0098552758737110308 0.026766286139830796 0 -0.01034787665781115 0.026455732298746974 0 -0.0098502679769242353 0.026120045862453641 0 -0.01034787665781115 0.026455732298746974 0 -0.0098502679769242353 0.026120045862453641 0 -0.010296510382332027 0.025899699048806169 0 -0.010965906269501072 0.026722473238423534 0 -0.01034787665781115 0.026455732298746974 0 -0.010914423498130528 0.025950311633528452 0 -0.01034787665781115 0.026455732298746974 0 -0.010914423498130528 0.025950311633528452 0 -0.010296510382332027 0.025899699048806169 0 -0.010914423498130528 0.025950311633528452 0 -0.0103558416450188 0.025567084527002081 0 -0.011070720435392355 0.025117535744841477 0 -0.010914423498130528 0.025950311633528452 0 -0.010296510382332027 0.025899699048806169 0 -0.0103558416450188 0.025567084527002081 0 -0.0098502679769242353 0.026120045862453641 0 -0.010296510382332027 0.025899699048806169 0 -0.0098662627498456428 0.025642666568401661 0 -0.010296510382332027 0.025899699048806169 0 -0.0103558416450188 0.025567084527002081 0 -0.0098662627498456428 0.025642666568401661 0 -0.0103558416450188 0.025567084527002081 0 -0.0098662627498456428 0.025642666568401661 0 -0.0097112882674807062 0.025252615408199522 0 -0.0089811724329520049 0.025241300502536753 0 -0.010024752198646564 0.025313809002568088 0 -0.0092228242016575441 0.025041223613960658 0 -0.010113251325779019 0.025335411141478852 0 -0.0097112882674807062 0.025252615408199522 0 -0.010113251325779019 0.025335411141478852 0 -0.0097112882674807062 0.025252615408199522 0 -0.010863241754202103 0.025608338574609778 0 -0.0087229244651601083 0.025397288883086663 0 -0.010113251325779019 0.025335411141478852 0 -0.0095953551070121056 0.024999795147399004 0 -0.0097932071487238422 0.025262802840281953 0 -0.010967940855070682 0.025360045850249441 0 -0.010113251325779019 0.025335411141478852 0 -0.0095953551070121056 0.024999795147399004 0 -0.010943090066999957 0.025000012240626767 0 -0.0103558416450188 0.025567084527002081 0 -0.0097112882674807062 0.025252615408199522 0 -0.011070720435392355 0.025117535744841477 0 -0.010113251325779019 0.025335411141478852 0 -0.010863241754202103 0.025608338574609778 0 -0.010943090066999957 0.025000012240626767 0 -0.010863241754202103 0.025608338574609778 0 -0.010943090066999957 0.025000012240626767 0 -0.011630087005774828 0.025318960806708372 0 -0.010967940855070682 0.025360045850249441 0 -0.012475149664541281 0.025472557420563265 0 -0.010863241754202103 0.025608338574609778 0 -0.011630087005774828 0.025318960806708372 0 -0.012426058298936286 0.025695922876457312 0 -0.010943090066999957 0.025000012240626767 0 -0.011630087005774828 0.025318960806708372 0 -0.012291671588975059 0.024999987640447082 0 -0.010914423498130528 0.025950311633528452 0 -0.011070720435392355 0.025117535744841477 0 -0.011747555473148227 0.025694740249793874 0 -0.011070720435392355 0.025117535744841477 0 -0.011747555473148227 0.025694740249793874 0 -0.012521083208260789 0.025239553152041391 0 -0.012452060852062749 0.026059124378274102 0 -0.011747555473148227 0.025694740249793874 0 -0.012521083208260789 0.025239553152041391 0 -0.011630087005774828 0.025318960806708372 0 -0.012426058298936286 0.025695922876457312 0 -0.012291671588975059 0.024999987640447082 0 -0.012475149664541281 0.025472557420563265 0 -0.01380288707917565 0.025595321100011011 0 -0.012426058298936286 0.025695922876457312 0 -0.012291671588975059 0.024999987640447082 0 -0.013640005228252438 0.024999832342507876 0 -0.013640005228252438 0.024999832342507876 0 -0.013889883302851179 0.025609364725768868 0 -0.014585038005856399 0.025545383087622785 0 -0.012426058298936286 0.025695922876457312 0 -0.013640005228252438 0.024999832342507876 0 -0.013889883302851179 0.025609364725768868 0 -0.013889883302851179 0.025609364725768868 0 -0.01378761671563344 0.026049626201361781 0 -0.013184692446386327 0.025913797843333287 0 -0.013889883302851179 0.025609364725768868 0 -0.01378761671563344 0.026049626201361781 0 -0.014381526877004778 0.026041014269724137 0 -0.012521083208260789 0.025239553152041391 0 -0.013889883302851179 0.025609364725768868 0 -0.013184692446386327 0.025913797843333287 0 -0.012452060852062749 0.026059124378274102 0 -0.012521083208260789 0.025239553152041391 0 -0.013184692446386327 0.025913797843333287 0 -0.012452060852062749 0.026059124378274102 0 -0.013184692446386327 0.025913797843333287 0 -0.013316461968188475 0.0266002549215874 0 -0.012452060852062749 0.026059124378274102 0 -0.012319729887738598 0.026760197751083792 0 -0.013316461968188475 0.0266002549215874 0 -0.01378761671563344 0.026049626201361781 0 -0.013184692446386327 0.025913797843333287 0 -0.013316461968188475 0.0266002549215874 0 -0.01378761671563344 0.026049626201361781 0 -0.013316461968188475 0.0266002549215874 0 -0.014071331734814643 0.026478061071205226 0 -0.013316461968188475 0.0266002549215874 0 -0.014071331734814643 0.026478061071205226 0 -0.014071632889053455 0.027011106598100888 0 -0.013541025104138158 0.027324170553896483 0 -0.014071632889053455 0.027011106598100888 0 -0.01408094904903745 0.027707021863920957 0 -0.013316461968188475 0.0266002549215874 0 -0.013541025104138158 0.027324170553896483 0 -0.014071632889053455 0.027011106598100888 0 -0.012319729887738598 0.026760197751083792 0 -0.013316461968188475 0.0266002549215874 0 -0.012771916495184905 0.027382914579688351 0 -0.013316461968188475 0.0266002549215874 0 -0.013541025104138158 0.027324170553896483 0 -0.012771916495184905 0.027382914579688351 0 -0.015268567664066444 0.026946704230621801 0 -0.014570611644148022 0.02730819691573777 0 -0.014632545197116592 0.02673239664877209 0 -0.015268567664066444 0.026946704230621801 0 -0.015760149719043461 0.027554800739989595 0 -0.015138254660966849 0.027510403859422713 0 -0.015268567664066444 0.026946704230621801 0 -0.014570611644148022 0.02730819691573777 0 -0.015138254660966849 0.027510403859422713 0 -0.014071632889053455 0.027011106598100888 0 -0.014570611644148022 0.02730819691573777 0 -0.01408094904903745 0.027707021863920957 0 -0.014071632889053455 0.027011106598100888 0 -0.014570611644148022 0.02730819691573777 0 -0.014632545197116592 0.02673239664877209 0 -0.014632545197116592 0.02673239664877209 0 -0.015059117402687457 0.026186296554534194 0 -0.014381526877004778 0.026041014269724137 0 -0.014071331734814643 0.026478061071205226 0 -0.014632545197116592 0.02673239664877209 0 -0.014381526877004778 0.026041014269724137 0 -0.014071331734814643 0.026478061071205226 0 -0.014071632889053455 0.027011106598100888 0 -0.014632545197116592 0.02673239664877209 0 -0.01378761671563344 0.026049626201361781 0 -0.014071331734814643 0.026478061071205226 0 -0.014381526877004778 0.026041014269724137 0 -0.015268567664066444 0.026946704230621801 0 -0.014632545197116592 0.02673239664877209 0 -0.015059117402687457 0.026186296554534194 0 -0.015268567664066444 0.026946704230621801 0 -0.015059117402687457 0.026186296554534194 0 -0.0157719481604464 0.026319783412034982 0 -0.015059117402687457 0.026186296554534194 0 -0.014585038005856399 0.025545383087622785 0 -0.015557266102614884 0.025587420816363709 0 -0.015059117402687457 0.026186296554534194 0 -0.015557266102614884 0.025587420816363709 0 -0.0157719481604464 0.026319783412034982 0 -0.015059117402687457 0.026186296554534194 0 -0.014381526877004778 0.026041014269724137 0 -0.014585038005856399 0.025545383087622785 0 -0.013889883302851179 0.025609364725768868 0 -0.014381526877004778 0.026041014269724137 0 -0.014585038005856399 0.025545383087622785 0 -0.013640005228252438 0.024999832342507876 0 -0.014585038005856399 0.025545383087622785 0 -0.014988240716552033 0.02499985525745502 0 -0.014585038005856399 0.025545383087622785 0 -0.015557266102614884 0.025587420816363709 0 -0.014988240716552033 0.02499985525745502 0 -0.015557266102614884 0.025587420816363709 0 -0.016336035959494181 0.024999904480621712 0 -0.016307452299909694 0.025773340833487469 0 -0.015557266102614884 0.025587420816363709 0 -0.014988240716552033 0.02499985525745502 0 -0.016336035959494181 0.024999904480621712 0 -0.016336545788520656 0.025000165444526261 0 -0.016435296062681928 0.025806827687132619 0 -0.017144210944457783 0.0249999763329091 0 -0.016560854706441488 0.025874158522033772 0 -0.017207837183190567 0.025748802352753668 0 -0.01633669648020521 0.0249999524143876 0 -0.017144210944457783 0.0249999763329091 0 -0.016560854706441488 0.025874158522033772 0 -0.016435296062681928 0.025806827687132619 0 -0.016555871842502557 0.026591239208783292 0 -0.016560854706441488 0.025874158522033772 0 -0.017207837183190567 0.025748802352753668 0 -0.016667825351341727 0.02662087640606588 0 -0.015557266102614884 0.025587420816363709 0 -0.016307452299909694 0.025773340833487469 0 -0.0157719481604464 0.026319783412034982 0 -0.017952215679893024 0.024999994903391862 0 -0.019225614224982795 0.024999963485355815 0 -0.01906634261569223 0.025993173694766569 0 -0.017951977425910693 0.025000133437546968 0 -0.017908616075430119 0.026206026748239571 0 -0.017951701807487255 0.025000015173606928 0 -0.017207837183190567 0.025748802352753668 0 -0.017699740058477673 0.026153072119032859 0 -0.017144210944457783 0.0249999763329091 0 -0.017951701807487255 0.025000015173606928 0 -0.017207837183190567 0.025748802352753668 0 -0.017207837183190567 0.025748802352753668 0 -0.017699740058477673 0.026153072119032859 0 -0.016667825351341727 0.02662087640606588 0 -0.017952215679893024 0.024999994903391862 0 -0.018117980769370705 0.026278189716194288 0 -0.01906634261569223 0.025993173694766569 0 -0.018117980769370705 0.026278189716194288 0 -0.01906634261569223 0.025993173694766569 0 -0.01898707491753427 0.026959284640615967 0 -0.018117980769370705 0.026278189716194288 0 -0.018241578887145841 0.027490533449491154 0 -0.01898707491753427 0.026959284640615967 0 -0.017908616075430119 0.026206026748239571 0 -0.017930908527432819 0.027244279312421175 0 -0.017699740058477673 0.026153072119032859 0 -0.01756818933534136 0.027137188746090352 0 -0.016667825351341727 0.02662087640606588 0 -0.01756818933534136 0.027137188746090352 0 -0.016667825351341727 0.02662087640606588 0 -0.016679325159333829 0.027333638593748641 0 -0.018241578887145841 0.027490533449491154 0 -0.01898707491753427 0.026959284640615967 0 -0.019361721107071985 0.027967257092425736 0 -0.016307452299909694 0.025773340833487469 0 -0.0157719481604464 0.026319783412034982 0 -0.016433630913017937 0.026514623601672487 0 -0.015268567664066444 0.026946704230621801 0 -0.0157719481604464 0.026319783412034982 0 -0.015976597364967308 0.026950733007394673 0 -0.0157719481604464 0.026319783412034982 0 -0.016433630913017937 0.026514623601672487 0 -0.015976597364967308 0.026950733007394673 0 -0.016433630913017937 0.026514623601672487 0 -0.016679325159333829 0.027333638593748641 0 -0.015976597364967308 0.026950733007394673 0 -0.016555871842502557 0.026591239208783292 0 -0.016674982667719981 0.027278287897146543 0 -0.016679325159333829 0.027333638593748641 0 -0.015976597364967308 0.026950733007394673 0 -0.015760149719043461 0.027554800739989595 0 -0.015268567664066444 0.026946704230621801 0 -0.015976597364967308 0.026950733007394673 0 -0.015760149719043461 0.027554800739989595 0 -0.015760149719043461 0.027554800739989595 0 -0.015861243631191443 0.028240998961941738 0 -0.015346312063821607 0.027914400253614 0 -0.015760149719043461 0.027554800739989595 0 -0.016501428084241043 0.027980848127742604 0 -0.015861243631191443 0.028240998961941738 0 -0.016679325159333829 0.027333638593748641 0 -0.015760149719043461 0.027554800739989595 0 -0.016501428084241043 0.027980848127742604 0 -0.016501428084241043 0.027980848127742604 0 -0.016580713305510652 0.02854805099609516 0 -0.015861243631191443 0.028240998961941738 0 -0.016580713305510652 0.02854805099609516 0 -0.015861243631191443 0.028240998961941738 0 -0.015973174493406447 0.028745072801986862 0 -0.01557023586069128 0.028644824347657392 0 -0.015861243631191443 0.028240998961941738 0 -0.015174191015950619 0.028398771338045425 0 -0.01557023586069128 0.028644824347657392 0 -0.015861243631191443 0.028240998961941738 0 -0.015973174493406447 0.028745072801986862 0 -0.018241578887145841 0.027490533449491154 0 -0.018327150545508798 0.02866531393041576 0 -0.019361721107071985 0.027967257092425736 0 -0.017930908527432819 0.027244279312421175 0 -0.017745145559198313 0.028720640198380262 0 -0.01756818933534136 0.027137188746090352 0 -0.016679325159333829 0.027333638593748641 0 -0.017546153552056833 0.02820595137417202 0 -0.016679325159333829 0.027333638593748641 0 -0.016501428084241043 0.027980848127742604 0 -0.017546153552056833 0.02820595137417202 0 -0.016580713305510652 0.02854805099609516 0 -0.017546153552056833 0.02820595137417202 0 -0.017040386350622053 0.028966629304449078 0 -0.016501428084241043 0.027980848127742604 0 -0.016580713305510652 0.02854805099609516 0 -0.017546153552056833 0.02820595137417202 0 -0.017745145559198313 0.028720640198380262 0 -0.01951483968357802 0.02825215263904569 0 -0.01951483968357802 0.02825215263904569 0 -0.020306544247447558 0.02757920102231241 0 -0.018327150545508798 0.02866531393041576 0 -0.018389934219203305 0.02979580152114554 0 -0.019233210139791148 0.029347200222692917 0 -0.017546153552056833 0.02820595137417202 0 -0.017040386350622053 0.028966629304449078 0 -0.01757206472700033 0.029307430759427787 0 -0.017040386350622053 0.028966629304449078 0 -0.017048844999551858 0.029599976346358033 0 -0.01757206472700033 0.029307430759427787 0 -0.017040386350622053 0.028966629304449078 0 -0.017048844999551858 0.029599976346358033 0 -0.016446106135636223 0.029188047727125417 0 -0.020633551739013815 0.026486977505560894 0 -0.020152519887940153 0.026487236757414753 0 -0.020694384079373119 0.025884519702359294 0 -0.020633551739013815 0.026486977505560894 0 -0.021179063995218465 0.026189208836481681 0 -0.020694384079373119 0.025884519702359294 0 -0.018284495892452384 0.028282470154154842 0 -0.01951483968357802 0.02825215263904569 0 -0.01882769132520673 0.027566193286021518 0 -0.020442965212671176 0.026674045036576135 0 -0.020467817738062551 0.027544603527103938 0 -0.018284495892452384 0.028282470154154842 0 -0.021681915150765133 0.025466348954807483 0 -0.021030203956732437 0.026042388930629861 0 -0.021034832554229572 0.026122983806336441 0 -0.021382560273431637 0.026097361829630461 0 -0.01951483968357802 0.02825215263904569 0 -0.021681915150765133 0.025466348954807483 0 -0.015969583242521249 0.029180391003819153 0 -0.015575482771268854 0.02901245303697287 0 -0.015973174493406447 0.028745072801986862 0 -0.015969583242521249 0.029180391003819153 0 -0.015973174493406447 0.028745072801986862 0 -0.016446106135636223 0.029188047727125417 0 -0.015969583242521249 0.029180391003819153 0 -0.015575482771268854 0.02901245303697287 0 -0.01543707818815713 0.029449654840385836 0 -0.01557023586069128 0.028644824347657392 0 -0.015575482771268854 0.02901245303697287 0 -0.015973174493406447 0.028745072801986862 0 -0.016580713305510652 0.02854805099609516 0 -0.017040386350622053 0.028966629304449078 0 -0.016446106135636223 0.029188047727125417 0 -0.016580713305510652 0.02854805099609516 0 -0.015973174493406447 0.028745072801986862 0 -0.016446106135636223 0.029188047727125417 0 -0.017257619069669404 0.0294883642635758 0 -0.016530311951365013 0.02991254714860608 0 -0.015880980473964773 0.029578624226360414 0 -0.017048844999551858 0.029599976346358033 0 -0.016446106135636223 0.029188047727125417 0 -0.015880980473964773 0.029578624226360414 0 -0.018284495892452384 0.028282470154154842 0 -0.015463105508840029 0.029888732834229916 0 -0.018284495892452384 0.028282470154154842 0 -0.019148031237853497 0.027883826781774441 0 -0.016530311951365013 0.02991254714860608 0 -0.016184607368302094 0.029848767054969982 0 -0.015880980473964773 0.029578624226360414 0 -0.016184607368302094 0.029848767054969982 0 -0.015880980473964773 0.029578624226360414 0 -0.015715961174715829 0.029819172895292029 0 -0.015969583242521249 0.029180391003819153 0 -0.016446106135636223 0.029188047727125417 0 -0.015880980473964773 0.029578624226360414 0 -0.015969583242521249 0.029180391003819153 0 -0.015880980473964773 0.029578624226360414 0 -0.01543707818815713 0.029449654840385836 0 -0.015715961174715829 0.029819172895292029 0 -0.01543707818815713 0.029449654840385836 0 -0.015314898107107938 0.029995229584855169 0 -0.015880980473964773 0.029578624226360414 0 -0.015715961174715829 0.029819172895292029 0 -0.01543707818815713 0.029449654840385836 0 -0.014892651966255284 0.029739979730739302 0 -0.01543707818815713 0.029449654840385836 0 -0.015314898107107938 0.029995229584855169 0 -0.014892651966255284 0.029739979730739302 0 -0.014955873494977453 0.029317960825400051 0 -0.01543707818815713 0.029449654840385836 0 -0.014955873494977453 0.029317960825400051 0 -0.01543707818815713 0.029449654840385836 0 -0.015133310742910328 0.028935413573936093 0 -0.015575482771268854 0.02901245303697287 0 -0.01543707818815713 0.029449654840385836 0 -0.015133310742910328 0.028935413573936093 0 -0.014955873494977453 0.029317960825400051 0 -0.015133310742910328 0.028935413573936093 0 -0.014618635872273172 0.029112277007214162 0 -0.015133310742910328 0.028935413573936093 0 -0.014677334254270412 0.028730178491889056 0 -0.014618635872273172 0.029112277007214162 0 -0.015133310742910328 0.028935413573936093 0 -0.014677334254270412 0.028730178491889056 0 -0.015174191015950619 0.028398771338045425 0 -0.01557023586069128 0.028644824347657392 0 -0.015133310742910328 0.028935413573936093 0 -0.015174191015950619 0.028398771338045425 0 -0.01557023586069128 0.028644824347657392 0 -0.015575482771268854 0.02901245303697287 0 -0.015133310742910328 0.028935413573936093 0 -0.014185592347845248 0.028711961452338935 0 -0.014677334254270412 0.028730178491889056 0 -0.014618635872273172 0.029112277007214162 0 -0.014185592347845248 0.028711961452338935 0 -0.014618635872273172 0.029112277007214162 0 -0.014008713622791836 0.029147995985891018 0 -0.014618635872273172 0.029112277007214162 0 -0.014436746720696772 0.029488873272324238 0 -0.014008713622791836 0.029147995985891018 0 -0.014892651966255284 0.029739979730739302 0 -0.014955873494977453 0.029317960825400051 0 -0.014436746720696772 0.029488873272324238 0 -0.014955873494977453 0.029317960825400051 0 -0.014618635872273172 0.029112277007214162 0 -0.014436746720696772 0.029488873272324238 0 -0.014892651966255284 0.029739979730739302 0 -0.014436746720696772 0.029488873272324238 0 -0.014380276216603564 0.030014083596693917 0 -0.014436746720696772 0.029488873272324238 0 -0.013795730672468984 0.029737363355109916 0 -0.014380276216603564 0.030014083596693917 0 -0.013795730672468984 0.029737363355109916 0 -0.013009728416685695 0.029846112402612014 0 -0.013488004326813066 0.030140877948174626 0 -0.013795730672468984 0.029737363355109916 0 -0.013376229721388527 0.029264934643926765 0 -0.014008713622791836 0.029147995985891018 0 -0.014436746720696772 0.029488873272324238 0 -0.013795730672468984 0.029737363355109916 0 -0.014008713622791836 0.029147995985891018 0 -0.013795730672468984 0.029737363355109916 0 -0.013009728416685695 0.029846112402612014 0 -0.013376229721388527 0.029264934643926765 0 -0.013009728416685695 0.029846112402612014 0 -0.0126901949254207 0.029228066074767942 0 -0.013376229721388527 0.029264934643926765 0 -0.013376229721388527 0.029264934643926765 0 -0.012918997610634159 0.028857356579482143 0 -0.013566264067603247 0.02860417134632939 0 -0.012312072619444293 0.028848263290226019 0 -0.0126901949254207 0.029228066074767942 0 -0.012918997610634159 0.028857356579482143 0 -0.0126901949254207 0.029228066074767942 0 -0.013376229721388527 0.029264934643926765 0 -0.012918997610634159 0.028857356579482143 0 -0.013376229721388527 0.029264934643926765 0 -0.014008713622791836 0.029147995985891018 0 -0.013566264067603247 0.02860417134632939 0 -0.014185592347845248 0.028711961452338935 0 -0.014008713622791836 0.029147995985891018 0 -0.013566264067603247 0.02860417134632939 0 -0.013566264067603247 0.02860417134632939 0 -0.0138229874205275 0.028212262179793661 0 -0.013348683022508537 0.027948784175189666 0 -0.014185592347845248 0.028711961452338935 0 -0.013566264067603247 0.02860417134632939 0 -0.0138229874205275 0.028212262179793661 0 -0.0138229874205275 0.028212262179793661 0 -0.01408094904903745 0.027707021863920957 0 -0.014280808913449208 0.028292327158112501 0 -0.012484186279163544 0.028214747165048591 0 -0.012918997610634159 0.028857356579482143 0 -0.013079639924226163 0.028407415268194753 0 -0.013566264067603247 0.02860417134632939 0 -0.013079639924226163 0.028407415268194753 0 -0.013348683022508537 0.027948784175189666 0 -0.012484186279163544 0.028214747165048591 0 -0.013079639924226163 0.028407415268194753 0 -0.013348683022508537 0.027948784175189666 0 -0.012918997610634159 0.028857356579482143 0 -0.013566264067603247 0.02860417134632939 0 -0.013079639924226163 0.028407415268194753 0 -0.013541025104138158 0.027324170553896483 0 -0.013348683022508537 0.027948784175189666 0 -0.012771916495184905 0.027382914579688351 0 -0.012484186279163544 0.028214747165048591 0 -0.013348683022508537 0.027948784175189666 0 -0.012771916495184905 0.027382914579688351 0 -0.013541025104138158 0.027324170553896483 0 -0.013348683022508537 0.027948784175189666 0 -0.01408094904903745 0.027707021863920957 0 -0.0138229874205275 0.028212262179793661 0 -0.013348683022508537 0.027948784175189666 0 -0.01408094904903745 0.027707021863920957 0 -0.01408094904903745 0.027707021863920957 0 -0.014849977137338721 0.027906327051368179 0 -0.014280808913449208 0.028292327158112501 0 -0.014570611644148022 0.02730819691573777 0 -0.01408094904903745 0.027707021863920957 0 -0.014849977137338721 0.027906327051368179 0 -0.014570611644148022 0.02730819691573777 0 -0.015138254660966849 0.027510403859422713 0 -0.014849977137338721 0.027906327051368179 0 -0.015760149719043461 0.027554800739989595 0 -0.015138254660966849 0.027510403859422713 0 -0.015346312063821607 0.027914400253614 0 -0.015138254660966849 0.027510403859422713 0 -0.015346312063821607 0.027914400253614 0 -0.014849977137338721 0.027906327051368179 0 -0.014849977137338721 0.027906327051368179 0 -0.015174191015950619 0.028398771338045425 0 -0.014754836290048798 0.028358670310048923 0 -0.015861243631191443 0.028240998961941738 0 -0.015346312063821607 0.027914400253614 0 -0.015174191015950619 0.028398771338045425 0 -0.015346312063821607 0.027914400253614 0 -0.014849977137338721 0.027906327051368179 0 -0.015174191015950619 0.028398771338045425 0 -0.014677334254270412 0.028730178491889056 0 -0.015174191015950619 0.028398771338045425 0 -0.014754836290048798 0.028358670310048923 0 -0.014677334254270412 0.028730178491889056 0 -0.014754836290048798 0.028358670310048923 0 -0.014280808913449208 0.028292327158112501 0 -0.014185592347845248 0.028711961452338935 0 -0.0138229874205275 0.028212262179793661 0 -0.014280808913449208 0.028292327158112501 0 -0.014185592347845248 0.028711961452338935 0 -0.014677334254270412 0.028730178491889056 0 -0.014280808913449208 0.028292327158112501 0 -0.014849977137338721 0.027906327051368179 0 -0.014754836290048798 0.028358670310048923 0 -0.014280808913449208 0.028292327158112501 0 -0.025046977461813794 0.022657559041710761 0 -0.024143985858741775 0.023250121274953454 0 -0.024047895665217124 0.02429741537379931 0 -0.025062566771554742 0.022675849806447563 0 -0.024902353773029344 0.022935422145809771 0 -0.025046977461813794 0.022657559041710761 0 -0.025883893591692665 0.021518436144301954 0 -0.024999938098967972 0.021648224283139717 0 -0.025046977461813794 0.022657559041710761 0 -0.024999924754335785 0.022846052361062293 0 -0.024999938098967972 0.021648224283139717 0 -0.025046977461813794 0.022657559041710761 0 -0.024143985858741775 0.023250121274953454 0 -0.024474528776878581 0.022694121651264963 0 -0.024143985858741775 0.023250121274953454 0 -0.023592038368072582 0.023705582299874753 0 -0.023523157711542522 0.022604813512420777 0 -0.024143985858741775 0.023250121274953454 0 -0.023592038368072582 0.023705582299874753 0 -0.024047895665217124 0.02429741537379931 0 -0.024143985858741775 0.023250121274953454 0 -0.023523157711542522 0.022604813512420777 0 -0.024474528776878581 0.022694121651264963 0 -0.023523157711542522 0.022604813512420777 0 -0.024474528776878581 0.022694121651264963 0 -0.024179418903321339 0.021667960760645304 0 -0.024474528776878581 0.022694121651264963 0 -0.024999924754335785 0.022846052361062293 0 -0.024179418903321339 0.021667960760645304 0 -0.024999932176705458 0.022844344538636846 0 -0.024126622663635668 0.024228251023508354 0 -0.025046977461813794 0.022657559041710761 0 -0.024474528776878581 0.022694121651264963 0 -0.024999924754335785 0.022846052361062293 0 -0.025001210156601894 0.022845858634957885 0 -0.024996936636584338 0.02500078511753381 0 -0.025544597798937956 0.024097261280055137 0 -0.024699256451728938 0.025000564891798641 0 -0.024126622663635668 0.024228251023508354 0 -0.024996936636584338 0.02500078511753381 0 -0.024703985276008415 0.024998344575091442 0 -0.025544597798937956 0.024097261280055137 0 -0.024126622663635668 0.024228251023508354 0 -0.023247729181174716 0.025001150528568276 0 -0.024699053977096104 0.024999981478449469 0 -0.024079603108453904 0.025995045563461532 0 -0.023247813970647957 0.024999989439776802 0 -0.023068397959273349 0.023595874839307418 0 -0.024126622663635668 0.024228251023508354 0 -0.022603348844668025 0.024816787242672517 0 -0.022752439916355616 0.025066807936118138 0 -0.022800272948437433 0.025122953354919684 0 -0.022752439916355616 0.025066807936118138 0 -0.022800272948437433 0.025122953354919684 0 -0.023245309615728658 0.024999907767330333 0 -0.022800272948437433 0.025122953354919684 0 -0.023245309615728658 0.024999907767330333 0 -0.022607941865854631 0.025172548932728866 0 -0.023245309615728658 0.024999907767330333 0 -0.022607941865854631 0.025172548932728866 0 -0.021775480104538392 0.024999569614026523 0 -0.022607941865854631 0.025172548932728866 0 -0.022694009031763215 0.025196089736038818 0 -0.021775480104538392 0.024999569614026523 0 -0.022800272948437433 0.025122953354919684 0 -0.022694009031763215 0.025196089736038818 0 -0.022829311270889902 0.02487688946432581 0 -0.022800272948437433 0.025122953354919684 0 -0.022607941865854631 0.025172548932728866 0 -0.022694009031763215 0.025196089736038818 0 -0.022212389086156591 0.025511323048532292 0 -0.022481940713993263 0.025873679092879326 0 -0.022694009031763215 0.025196089736038818 0 -0.023105261949431785 0.024638008203872051 0 -0.022829311270889902 0.02487688946432581 0 -0.023105261949431785 0.024638008203872051 0 -0.022829311270889902 0.02487688946432581 0 -0.022967460746417673 0.024380559629593949 0 -0.022603348844668025 0.024816787242672517 0 -0.022800272948437433 0.025122953354919684 0 -0.022829311270889902 0.02487688946432581 0 -0.022603348844668025 0.024816787242672517 0 -0.022829311270889902 0.02487688946432581 0 -0.022967460746417673 0.024380559629593949 0 -0.022603348844668025 0.024816787242672517 0 -0.022878827368929332 0.02402010701841216 0 -0.022967460746417673 0.024380559629593949 0 -0.023068397959273349 0.023595874839307418 0 -0.022892712486219387 0.024011707420936394 0 -0.023592038368072582 0.023705582299874753 0 -0.023523157711542522 0.022604813512420777 0 -0.022878827368929332 0.02402010701841216 0 -0.023592038368072582 0.023705582299874753 0 -0.022878827368929332 0.02402010701841216 0 -0.023390307939309855 0.02420968711254156 0 -0.022878827368929332 0.02402010701841216 0 -0.022929528165087254 0.024116152462368756 0 -0.0229866251808627 0.024200869505576993 0 -0.022878827368929332 0.02402010701841216 0 -0.022929528165087254 0.024116152462368756 0 -0.022967460746417673 0.024380559629593949 0 -0.022481940713993263 0.025873679092879326 0 -0.02218209208838938 0.025604622709795719 0 -0.023105261949431785 0.024638008203872051 0 -0.022967460746417673 0.024380559629593949 0 -0.023040049571837515 0.024065513104917977 0 -0.022929528165087254 0.024116152462368756 0 -0.022967460746417673 0.024380559629593949 0 -0.023040049571837515 0.024065513104917977 0 -0.021853812438165886 0.026957468917779028 0 -0.020913922611792264 0.02740987756213354 0 -0.021947599364314289 0.027905928821690809 0 -0.020913922611792264 0.02740987756213354 0 -0.02006870227944503 0.026884430103124714 0 -0.020298202881749168 0.027914206746312124 0 -0.021149426887594511 0.026689955634940008 0 -0.020866887025880736 0.025886508474474434 0 -0.02006870227944503 0.026884430103124714 0 -0.020913922611792264 0.02740987756213354 0 -0.021149426887594511 0.026689955634940008 0 -0.02006870227944503 0.026884430103124714 0 -0.021795122648741509 0.026000646497149789 0 -0.021853812438165886 0.026957468917779028 0 -0.021149426887594511 0.026689955634940008 0 -0.021853812438165886 0.026957468917779028 0 -0.020913922611792264 0.02740987756213354 0 -0.021149426887594511 0.026689955634940008 0 -0.021795122648741509 0.026000646497149789 0 -0.021149426887594511 0.026689955634940008 0 -0.020866887025880736 0.025886508474474434 0 -0.021795122648741509 0.026000646497149789 0 -0.021772615652499633 0.024999984275363565 0 -0.020866887025880736 0.025886508474474434 0 -0.022212389086156591 0.025511323048532292 0 -0.021773014711425495 0.024999990615713511 0 -0.021772615652499633 0.024999984275363565 0 -0.020499242107638992 0.024999966934352282 0 -0.020866887025880736 0.025886508474474434 0 -0.020499242107638992 0.024999966934352282 0 -0.020866887025880736 0.025886508474474434 0 -0.019940824520261684 0.025663035628292568 0 -0.019940824520261684 0.025663035628292568 0 -0.01906634261569223 0.025993173694766569 0 -0.02006870227944503 0.026884430103124714 0 -0.020866887025880736 0.025886508474474434 0 -0.019940824520261684 0.025663035628292568 0 -0.02006870227944503 0.026884430103124714 0 -0.020499242107638992 0.024999966934352282 0 -0.019940824520261684 0.025663035628292568 0 -0.019225614224982795 0.024999963485355815 0 -0.019940824520261684 0.025663035628292568 0 -0.019225614224982795 0.024999963485355815 0 -0.01906634261569223 0.025993173694766569 0 -0.01906634261569223 0.025993173694766569 0 -0.01898707491753427 0.026959284640615967 0 -0.02006870227944503 0.026884430103124714 0 -0.02006870227944503 0.026884430103124714 0 -0.019361721107071985 0.027967257092425736 0 -0.020298202881749168 0.027914206746312124 0 -0.01898707491753427 0.026959284640615967 0 -0.02006870227944503 0.026884430103124714 0 -0.019361721107071985 0.027967257092425736 0 -0.018327150545508798 0.02866531393041576 0 -0.019361721107071985 0.027967257092425736 0 -0.019233210139791148 0.029347200222692917 0 -0.019361721107071985 0.027967257092425736 0 -0.020118787952801327 0.028887528515394185 0 -0.019233210139791148 0.029347200222692917 0 -0.019361721107071985 0.027967257092425736 0 -0.020298202881749168 0.027914206746312124 0 -0.020118787952801327 0.028887528515394185 0 -0.020833334281740654 0.027318429775988667 0 -0.020306544247447558 0.02757920102231241 0 -0.021030203956732437 0.026042388930629861 0 -0.021281752116495242 0.025900318105393966 0 -0.021382560273431637 0.026097361829630461 0 -0.021281752116495242 0.025900318105393966 0 -0.021382560273431637 0.026097361829630461 0 -0.021471071451743498 0.025960487608873012 0 -0.021681915150765133 0.025466348954807483 0 -0.022749593374751232 0.024622746995002567 0 -0.021382560273431637 0.026097361829630461 0 -0.021471071451743498 0.025960487608873012 0 -0.021688892865679869 0.026062709409440086 0 -0.022749593374751232 0.024622746995002567 0 -0.021889050121269144 0.024932064069617583 0 -0.023540952598415175 0.02338571188847529 0 -0.022594769906852784 0.023372104502972623 0 -0.02290535344626143 0.022733488685973559 0 -0.021518309891293504 0.025777951933070881 0 -0.021281752116495242 0.025900318105393966 0 -0.021471071451743498 0.025960487608873012 0 -0.021518309891293504 0.025777951933070881 0 -0.021471071451743498 0.025960487608873012 0 -0.021688892865679869 0.026062709409440086 0 -0.021518309891293504 0.025777951933070881 0 -0.021688892865679869 0.026062709409440086 0 -0.021834610377051651 0.025911244005731637 0 -0.021889050121269144 0.024932064069617583 0 -0.022705403681971676 0.023141948449707916 0 -0.021688892865679869 0.026062709409440086 0 -0.021834610377051651 0.025911244005731637 0 -0.021976423945530444 0.026027801247535905 0 -0.022594769906852784 0.023372104502972623 0 -0.021680179634577575 0.023369648706758828 0 -0.022206304393977479 0.022684025502828695 0 -0.021834610377051651 0.025911244005731637 0 -0.021733996535480658 0.025661492184935984 0 -0.021969261762044969 0.025777633998143888 0 -0.021518309891293504 0.025777951933070881 0 -0.021834610377051651 0.025911244005731637 0 -0.021733996535480658 0.025661492184935984 0 -0.020833334281740654 0.027318429775988667 0 -0.021284605193519414 0.027173811019491154 0 -0.020298202881749168 0.027914206746312124 0 -0.020118787952801327 0.028887528515394185 0 -0.02103410414507996 0.028408657196464123 0 -0.020913922611792264 0.02740987756213354 0 -0.020298202881749168 0.027914206746312124 0 -0.02103410414507996 0.028408657196464123 0 -0.021284605193519414 0.027173811019491154 0 -0.02218209208838938 0.025604622709795719 0 -0.020913922611792264 0.02740987756213354 0 -0.02103410414507996 0.028408657196464123 0 -0.021947599364314289 0.027905928821690809 0 -0.021733996535480658 0.025661492184935984 0 -0.021939813516382051 0.025549459486493124 0 -0.021969261762044969 0.025777633998143888 0 -0.022908756836701467 0.024327162624233345 0 -0.022768068636261088 0.0241755403573292 0 -0.022796262090635094 0.024782470204921223 0 -0.02218209208838938 0.025604622709795719 0 -0.022294290293103369 0.025591891461447087 0 -0.022835846061491014 0.024987926278996125 0 -0.02218209208838938 0.025604622709795719 0 -0.022929528165087254 0.024116152462368756 0 -0.022908756836701467 0.024327162624233345 0 -0.0229866251808627 0.024200869505576993 0 -0.022929528165087254 0.024116152462368756 0 -0.022908756836701467 0.024327162624233345 0 -0.022768068636261088 0.0241755403573292 0 -0.022878827368929332 0.02402010701841216 0 -0.0229866251808627 0.024200869505576993 0 -0.023390307939309855 0.02420968711254156 0 -0.0229866251808627 0.024200869505576993 0 -0.023390307939309855 0.02420968711254156 0 -0.023098760352548688 0.02443332370602274 0 -0.023390307939309855 0.02420968711254156 0 -0.023098760352548688 0.02443332370602274 0 -0.023286044685186913 0.024874775165833241 0 -0.022908756836701467 0.024327162624233345 0 -0.0229866251808627 0.024200869505576993 0 -0.023098760352548688 0.02443332370602274 0 -0.023098760352548688 0.02443332370602274 0 -0.023286044685186913 0.024874775165833241 0 -0.022796262090635094 0.024782470204921223 0 -0.022908756836701467 0.024327162624233345 0 -0.023098760352548688 0.02443332370602274 0 -0.022796262090635094 0.024782470204921223 0 -0.022294290293103369 0.025591891461447087 0 -0.023811783035056548 0.023286885022143985 0 -0.021834610377051651 0.025911244005731637 0 -0.021969261762044969 0.025777633998143888 0 -0.022003195456143154 0.025992547991239182 0 -0.023286044685186913 0.024874775165833241 0 -0.022796262090635094 0.024782470204921223 0 -0.022881996688308284 0.025308997997658771 0 -0.021834610377051651 0.025911244005731637 0 -0.021976423945530444 0.026027801247535905 0 -0.022003195456143154 0.025992547991239182 0 -0.02312370502665578 0.022175782852980372 0 -0.022904741137201715 0.022177648841775019 0 -0.022740425816946012 0.020706649441203318 0 -0.025397504219090559 0.020533642188241611 0 -0.025101748380093963 0.020533223780154351 0 -0.025335842796928909 0.019992034791644818 0 -0.027176465973264424 0.019629829825697342 0 -0.027159125427860486 0.01951296681759122 0 -0.026750793174119832 0.019513998769526947 0 -0.022705403681971676 0.023141948449707916 0 -0.023811783035056548 0.023286885022143985 0 -0.023965400675475139 0.022567067592195764 0 -0.023871768333171454 0.022689503744677576 0 -0.023857639630197276 0.022567923444270586 0 -0.023811783035056548 0.023286885022143985 0 -0.02413135202765403 0.02203965047226257 0 -0.022705403681971676 0.023141948449707916 0 -0.02413135202765403 0.02203965047226257 0 -0.026813126001819992 0.019380333027313207 0 -0.026588692248150598 0.019875464631239657 0 -0.025922167516201598 0.01934213521757578 0 -0.027176465973264424 0.019629829825697342 0 -0.026750793174119832 0.019513998769526947 0 -0.026588692248150598 0.019875464631239657 0 -0.02413135202765403 0.02203965047226257 0 -0.026675495486668008 0.019660557853964349 0 -0.026675495486668008 0.019660557853964349 0 -0.026645426636921689 0.0197431750070442 0 -0.026611674250163683 0.020462067036255065 0 -0.027176465973264424 0.019629829825697342 0 -0.026588692248150598 0.019875464631239657 0 -0.02519876912890822 0.022462464478632121 0 -0.023811783035056548 0.023286885022143985 0 -0.026611674250163683 0.020462067036255065 0 -0.026588692248150598 0.019875464631239657 0 -0.025864158960060626 0.020112942665820296 0 -0.026588692248150598 0.019875464631239657 0 -0.025864158960060626 0.020112942665820296 0 -0.025922167516201598 0.01934213521757578 0 -0.026675495486668008 0.019660557853964349 0 -0.025979297533259383 0.019267580965069558 0 -0.026944240496565651 0.019220183579744973 0 -0.025975527547028164 0.019230137975364929 0 -0.026451546164823665 0.018580797608330764 0 -0.025975527547028164 0.019230137975364929 0 -0.025690835296891014 0.018525338855438299 0 -0.026451546164823665 0.018580797608330764 0 -0.025864158960060626 0.020112942665820296 0 -0.025922167516201598 0.01934213521757578 0 -0.024999989326415617 0.01925296932192622 0 -0.025975527547028164 0.019230137975364929 0 -0.024999992885831858 0.019252722205628688 0 -0.025690835296891014 0.018525338855438299 0 -0.025979297533259383 0.019267580965069558 0 -0.025000177688197709 0.019252776215673194 0 -0.025864158960060626 0.020112942665820296 0 -0.024999989326415617 0.01925296932192622 0 -0.024999990736860163 0.020450367860487678 0 -0.024999990736860163 0.020450367860487678 0 -0.025632325406656969 0.020817624280171559 0 -0.024999938098967972 0.021648224283139717 0 -0.025864158960060626 0.020112942665820296 0 -0.024999990736860163 0.020450367860487678 0 -0.025632325406656969 0.020817624280171559 0 -0.026611674250163683 0.020462067036255065 0 -0.025632325406656969 0.020817624280171559 0 -0.025883893591692665 0.021518436144301954 0 -0.026611674250163683 0.020462067036255065 0 -0.025864158960060626 0.020112942665820296 0 -0.025632325406656969 0.020817624280171559 0 -0.02519876912890822 0.022462464478632121 0 -0.024902353773029344 0.022935422145809771 0 -0.023390307939309855 0.02420968711254156 0 -0.023286044685186913 0.024874775165833241 0 -0.024047895665217124 0.02429741537379931 0 -0.023592038368072582 0.023705582299874753 0 -0.023390307939309855 0.02420968711254156 0 -0.024047895665217124 0.02429741537379931 0 -0.025632325406656969 0.020817624280171559 0 -0.025883893591692665 0.021518436144301954 0 -0.024999938098967972 0.021648224283139717 0 -0.024999985306063847 0.016366244948364077 0 -0.025873782176382178 0.016836996935521407 0 -0.026067498330448923 0.015544522457700553 0 -0.025873782176382178 0.016836996935521407 0 -0.026649032348742604 0.016689339693026026 0 -0.026067498330448923 0.015544522457700553 0 -0.025873782176382178 0.016836996935521407 0 -0.026439851709788641 0.017744155134725603 0 -0.026649032348742604 0.016689339693026026 0 -0.024999985306063847 0.016366244948364077 0 -0.025873782176382178 0.016836996935521407 0 -0.024999988458218787 0.017809507095645459 0 -0.024999988458218787 0.017809507095645459 0 -0.025690835296891014 0.018525338855438299 0 -0.026439851709788641 0.017744155134725603 0 -0.024999992885831858 0.019252722205628688 0 -0.024999988458218787 0.017809507095645459 0 -0.025690835296891014 0.018525338855438299 0 -0.025690835296891014 0.018525338855438299 0 -0.026451546164823665 0.018580797608330764 0 -0.026439851709788641 0.017744155134725603 0 -0.025873782176382178 0.016836996935521407 0 -0.024999988458218787 0.017809507095645459 0 -0.026439851709788641 0.017744155134725603 0 -0.026439851709788641 0.017744155134725603 0 -0.027414292159958688 0.018177195685735892 0 -0.027309598043258342 0.017160127626808498 0 -0.026439851709788641 0.017744155134725603 0 -0.027309598043258342 0.017160127626808498 0 -0.026649032348742604 0.016689339693026026 0 -0.026944240496565651 0.019220183579744973 0 -0.026451546164823665 0.018580797608330764 0 -0.027414292159958688 0.018177195685735892 0 -0.026451546164823665 0.018580797608330764 0 -0.026439851709788641 0.017744155134725603 0 -0.027414292159958688 0.018177195685735892 0 -0.026675495486668008 0.019660557853964349 0 -0.025144508552912712 0.019462609594023964 0 -0.02413135202765403 0.02203965047226257 0 -0.025144508552912712 0.019462609594023964 0 -0.02312370502665578 0.022175782852980372 0 -0.022740425816946012 0.020706649441203318 0 -0.024229450455968315 0.020773653648883394 0 -0.025144508552912712 0.019462609594023964 0 -0.024502587090415241 0.018534427139488129 0 -0.025302501749633426 0.019044640707243859 0 -0.025846921455797211 0.017821116462797285 0 -0.025188811026070474 0.018001370163607696 0 -0.022740425816946012 0.020706649441203318 0 -0.02347432618702653 0.019032249750412296 0 -0.024229450455968315 0.020773653648883394 0 -0.025144508552912712 0.019462609594023964 0 -0.026302944665841217 0.017426955340570212 0 -0.025846921455797211 0.017821116462797285 0 -0.025658025629089153 0.01721526299600909 0 -0.0262359365696909 0.0169415101481191 0 -0.025188811026070474 0.018001370163607696 0 -0.025084391279957419 0.016968134623239765 0 -0.025658025629089153 0.01721526299600909 0 -0.025846921455797211 0.017821116462797285 0 -0.025188811026070474 0.018001370163607696 0 -0.025658025629089153 0.01721526299600909 0 -0.027309598043258342 0.017160127626808498 0 -0.026649032348742604 0.016689339693026026 0 -0.02719992256259934 0.016140855845702632 0 -0.026302944665841217 0.017426955340570212 0 -0.026113070062471305 0.016626640391472311 0 -0.026649032348742604 0.016689339693026026 0 -0.02719992256259934 0.016140855845702632 0 -0.026067498330448923 0.015544522457700553 0 -0.025084391279957419 0.016968134623239765 0 -0.025605100133036816 0.016656846058940834 0 -0.024981649162409868 0.015949060482943686 0 -0.025605100133036816 0.016656846058940834 0 -0.0262359365696909 0.0169415101481191 0 -0.025811305922758397 0.016161914268376754 0 -0.025605100133036816 0.016656846058940834 0 -0.025658025629089153 0.01721526299600909 0 -0.0262359365696909 0.0169415101481191 0 -0.025084391279957419 0.016968134623239765 0 -0.025605100133036816 0.016656846058940834 0 -0.025658025629089153 0.01721526299600909 0 -0.024009719437990799 0.017770641138441408 0 -0.024219345834136763 0.017287934362806335 0 -0.024558018097712492 0.018566824775217903 0 -0.024219345834136763 0.017287934362806335 0 -0.025294400262447309 0.017711224889953678 0 -0.024558018097712492 0.018566824775217903 0 -0.024736920194054768 0.017436932008051329 0 -0.024460271728100631 0.017553089012539397 0 -0.024219345834136763 0.017287934362806335 0 -0.025294400262447309 0.017711224889953678 0 -0.024947307660295095 0.017004335192910523 0 -0.025294400262447309 0.017711224889953678 0 -0.025677033321278325 0.016552665060957268 0 -0.024947307660295095 0.017004335192910523 0 -0.025294400262447309 0.017711224889953678 0 -0.026557770601500143 0.017904113846915367 0 -0.025677033321278325 0.016552665060957268 0 -0.025294400262447309 0.017711224889953678 0 -0.024558018097712492 0.018566824775217903 0 -0.025368773725051356 0.019363485050231243 0 -0.025294400262447309 0.017711224889953678 0 -0.025368773725051356 0.019363485050231243 0 -0.026557770601500143 0.017904113846915367 0 -0.024558018097712492 0.018566824775217903 0 -0.024406358388492005 0.019436675455722831 0 -0.025368773725051356 0.019363485050231243 0 -0.024502587090415241 0.018534427139488129 0 -0.024736920194054768 0.017436932008051329 0 -0.02347432618702653 0.019032249750412296 0 -0.024009719437990799 0.017770641138441408 0 -0.024558018097712492 0.018566824775217903 0 -0.02347432618702653 0.019032249750412296 0 -0.024558018097712492 0.018566824775217903 0 -0.024406358388492005 0.019436675455722831 0 -0.02347432618702653 0.019032249750412296 0 -0.024406358388492005 0.019436675455722831 0 -0.024229450455968315 0.020773653648883394 0 -0.024406358388492005 0.019436675455722831 0 -0.024229450455968315 0.020773653648883394 0 -0.025368773725051356 0.019363485050231243 0 -0.022705403681971676 0.023141948449707916 0 -0.023190472138789012 0.021678087843264211 0 -0.022594769906852784 0.023372104502972623 0 -0.022206304393977479 0.022684025502828695 0 -0.02290535344626143 0.022733488685973559 0 -0.023190472138789012 0.021678087843264211 0 -0.024066618865021237 0.020662633221436737 0 -0.022206304393977479 0.022684025502828695 0 -0.02290535344626143 0.022733488685973559 0 -0.022746354567916027 0.021960521460378055 0 -0.02290535344626143 0.022733488685973559 0 -0.022746354567916027 0.021960521460378055 0 -0.023561679832158056 0.022440265042329429 0 -0.023540952598415175 0.02338571188847529 0 -0.02290535344626143 0.022733488685973559 0 -0.023561679832158056 0.022440265042329429 0 -0.02449746926155575 0.023398265380335195 0 -0.023540952598415175 0.02338571188847529 0 -0.023561679832158056 0.022440265042329429 0 -0.023561679832158056 0.022440265042329429 0 -0.023982783552831392 0.021709206577927236 0 -0.024502040788448348 0.022390815619791605 0 -0.022746354567916027 0.021960521460378055 0 -0.023561679832158056 0.022440265042329429 0 -0.023305464600217287 0.021219445672104022 0 -0.023561679832158056 0.022440265042329429 0 -0.023982783552831392 0.021709206577927236 0 -0.023305464600217287 0.021219445672104022 0 -0.024066618865021237 0.020662633221436737 0 -0.024908531022462183 0.01957722386875449 0 -0.024908531022462183 0.01957722386875449 0 -0.025954617551278536 0.018319444482261846 0 -0.023305464600217287 0.021219445672104022 0 -0.024024543307344229 0.02113094275453601 0 -0.023875707240547935 0.020414258594380168 0 -0.023982783552831392 0.021709206577927236 0 -0.023305464600217287 0.021219445672104022 0 -0.024024543307344229 0.02113094275453601 0 -0.024024543307344229 0.02113094275453601 0 -0.023875707240547935 0.020414258594380168 0 -0.024269238882589347 0.020737829040340612 0 -0.026557770601500143 0.017904113846915367 0 -0.026659130490021003 0.015680110838180706 0 -0.025677033321278325 0.016552665060957268 0 -0.026557770601500143 0.017904113846915367 0 -0.027772865582929684 0.016391685581942993 0 -0.026659130490021003 0.015680110838180706 0 -0.026659130490021003 0.015680110838180706 0 -0.025902970286498139 0.014709635447119835 0 -0.025677033321278325 0.016552665060957268 0 -0.026659130490021003 0.015680110838180706 0 -0.027781365054933102 0.015132517203352685 0 -0.025902970286498139 0.014709635447119835 0 -0.027772865582929684 0.016391685581942993 0 -0.026659130490021003 0.015680110838180706 0 -0.027781365054933102 0.015132517203352685 0 -0.027772865582929684 0.016391685581942993 0 -0.027781365054933102 0.015132517203352685 0 -0.028946887397999412 0.014842258818851995 0 -0.027781365054933102 0.015132517203352685 0 -0.027875397106692588 0.013871971853718348 0 -0.025902970286498139 0.014709635447119835 0 -0.027781365054933102 0.015132517203352685 0 -0.027875397106692588 0.013871971853718348 0 -0.028399041007037665 0.014341945192008243 0 -0.027721042020038531 0.013316924567623723 0 -0.02756364821423998 0.014121116425138374 0 -0.027875397106692588 0.013871971853718348 0 -0.027457391616858784 0.013382944418328791 0 -0.026777550975722392 0.013573875643386524 0 -0.027875397106692588 0.013871971853718348 0 -0.027457391616858784 0.013382944418328791 0 -0.028850561915430308 0.013822618218247635 0 -0.028041704872036402 0.012707364474328254 0 -0.027538127962855277 0.013270462923959742 0 -0.027120462453603555 0.012474282775664635 0 -0.028041704872036402 0.012707364474328254 0 -0.027538127962855277 0.013270462923959742 0 -0.028663467970015989 0.01361096563562531 0 -0.027457391616858784 0.013382944418328791 0 -0.026777550975722392 0.013573875643386524 0 -0.026358189157522593 0.012931711474196719 0 -0.027538127962855277 0.013270462923959742 0 -0.026358189157522593 0.012931711474196719 0 -0.027120462453603555 0.012474282775664635 0 -0.027721042020038531 0.013316924567623723 0 -0.026331824122789359 0.012945688992682176 0 -0.027875397106692588 0.013871971853718348 0 -0.026571126878163067 0.014276357060791649 0 -0.026777550975722392 0.013573875643386524 0 -0.027908374136862899 0.013858550828014128 0 -0.025993309660587948 0.014556165238514978 0 -0.026571126878163067 0.014276357060791649 0 -0.026777550975722392 0.013573875643386524 0 -0.025319812878104371 0.013570363791834633 0 -0.026777550975722392 0.013573875643386524 0 -0.026358189157522593 0.012931711474196719 0 -0.025319812878104371 0.013570363791834633 0 -0.026358189157522593 0.012931711474196719 0 -0.025319812878104371 0.013570363791834633 0 -0.025364783161923851 0.012273410797904449 0 -0.027971622215804119 0.013180760962271649 0 -0.027320814312389505 0.012197284215890525 0 -0.028004709027513508 0.012163601666401083 0 -0.026724238154216623 0.013262596725606791 0 -0.026679041690055784 0.012248159990547659 0 -0.026724238154216623 0.013262596725606791 0 -0.025840363061133315 0.015004280315962579 0 -0.026571126878163067 0.014276357060791649 0 -0.025319812878104371 0.013570363791834633 0 -0.02529077385508555 0.01480030198494711 0 -0.027971622215804119 0.013180760962271649 0 -0.027934725967171437 0.014199755323133827 0 -0.027258766809847554 0.013919630546834162 0 -0.025902970286498139 0.014709635447119835 0 -0.025677033321278325 0.016552665060957268 0 -0.024729927469063561 0.016310687245164459 0 -0.025902970286498139 0.014709635447119835 0 -0.024021667036687649 0.015514102423993722 0 -0.024729927469063561 0.016310687245164459 0 -0.025993309660587948 0.014556165238514978 0 -0.025840363061133315 0.015004280315962579 0 -0.025677033321278325 0.016552665060957268 0 -0.024947307660295095 0.017004335192910523 0 -0.024729927469063561 0.016310687245164459 0 -0.024736920194054768 0.017436932008051329 0 -0.025840363061133315 0.015004280315962579 0 -0.024219345834136763 0.017287934362806335 0 -0.024021667036687649 0.015514102423993722 0 -0.024729927469063561 0.016310687245164459 0 -0.0262359365696909 0.0169415101481191 0 -0.026252979525400962 0.015417498533734765 0 -0.025811305922758397 0.016161914268376754 0 -0.024003401307856206 0.017773747900548208 0 -0.024219345834136763 0.017287934362806335 0 -0.024021667036687649 0.015514102423993722 0 -0.024219345834136763 0.017287934362806335 0 -0.024947307660295095 0.017004335192910523 0 -0.024729927469063561 0.016310687245164459 0 -0.025605100133036816 0.016656846058940834 0 -0.025811305922758397 0.016161914268376754 0 -0.024981649162409868 0.015949060482943686 0 -0.026252979525400962 0.015417498533734765 0 -0.025811305922758397 0.016161914268376754 0 -0.024981649162409868 0.015949060482943686 0 -0.025840363061133315 0.015004280315962579 0 -0.026630611735290643 0.015262606383534997 0 -0.026630611735290643 0.015262606383534997 0 -0.026312715934212173 0.015448954648793032 0 -0.02719992256259934 0.016140855845702632 0 -0.027084762250499647 0.015130866152540149 0 -0.026067498330448923 0.015544522457700553 0 -0.026113070062471305 0.016626640391472311 0 -0.026630611735290643 0.015262606383534997 0 -0.026630611735290643 0.015262606383534997 0 -0.026872510598384171 0.013486402656635605 0 -0.026866585800240012 0.014647555399276563 0 -0.027258766809847554 0.013919630546834162 0 -0.026752124936275715 0.013466956177784527 0 -0.027086294235046243 0.015106784541505556 0 -0.026912585097071309 0.013699332813028906 0 -0.026072399428616604 0.014297446072467286 0 -0.027934725967171437 0.014199755323133827 0 -0.026866585800240012 0.014647555399276563 0 -0.027258766809847554 0.013919630546834162 0 -0.027971622215804119 0.013180760962271649 0 -0.027258766809847554 0.013919630546834162 0 -0.02706466733976352 0.012842913810810225 0 -0.027971622215804119 0.013180760962271649 0 -0.02706466733976352 0.012842913810810225 0 -0.027320814312389505 0.012197284215890525 0 -0.026912585097071309 0.013699332813028906 0 -0.0260995146956195 0.013244994802637 0 -0.026672443131889597 0.012310528942799206 0 -0.02706466733976352 0.012842913810810225 0 -0.026752124936275715 0.013466956177784527 0 -0.026672443131889597 0.012310528942799206 0 -0.026872510598384171 0.013486402656635605 0 -0.026673787548217129 0.012416826454556312 0 -0.027258766809847554 0.013919630546834162 0 -0.02706466733976352 0.012842913810810225 0 -0.026752124936275715 0.013466956177784527 0 -0.026912585097071309 0.013699332813028906 0 -0.0260995146956195 0.013244994802637 0 -0.026072399428616604 0.014297446072467286 0 -0.0260995146956195 0.013244994802637 0 -0.025820582650164011 0.012475395310691688 0 -0.026672443131889597 0.012310528942799206 0 -0.02499996405083291 0.013479683082948522 0 -0.025000004830441458 0.012036586815373031 0 -0.025820582650164011 0.012475395310691688 0 -0.0260995146956195 0.013244994802637 0 -0.02499996405083291 0.013479683082948522 0 -0.025820582650164011 0.012475395310691688 0 -0.0260995146956195 0.013244994802637 0 -0.02499996405083291 0.013479683082948522 0 -0.026072399428616604 0.014297446072467286 0 -0.02499996405083291 0.013479683082948522 0 -0.026072399428616604 0.014297446072467286 0 -0.024999981431895937 0.014922987751909372 0 -0.027086294235046243 0.015106784541505556 0 -0.026072399428616604 0.014297446072467286 0 -0.026067498330448923 0.015544522457700553 0 -0.024999985306063847 0.016366244948364077 0 -0.026067498330448923 0.015544522457700553 0 -0.024999981431895937 0.014922987751909372 0 -0.026072399428616604 0.014297446072467286 0 -0.026067498330448923 0.015544522457700553 0 -0.024999981431895937 0.014922987751909372 0 -0.018707853227132865 0.028470630473870114 0 -0.018936014391827172 0.027758427710080507 0 -0.014283167303493459 0.031817386559981176 0 -0.013876233801974365 0.031150133265121206 0 -0.015007764978654888 0.031054105339382018 0 -0.022412324387093771 0.024505627286200791 0 -0.022978028166958108 0.024228479315361647 0 -0.022401383971192752 0.025014923781149428 0 -0.022412324387093771 0.024505627286200791 0 -0.022297028123228559 0.024036147826497007 0 -0.021957620124665882 0.024752078754598339 0 -0.022412324387093771 0.024505627286200791 0 -0.022401383971192752 0.025014923781149428 0 -0.021957620124665882 0.024752078754598339 0 -0.022412324387093771 0.024505627286200791 0 -0.022297028123228559 0.024036147826497007 0 -0.022978028166958108 0.024228479315361647 0 -0.022297028123228559 0.024036147826497007 0 -0.022978028166958108 0.024228479315361647 0 -0.022899453948667409 0.023644795585869804 0 -0.014283167303493459 0.031817386559981176 0 -0.01366650758822029 0.031969212982422286 0 -0.013662032986312621 0.032509133242327778 0 -0.014283167303493459 0.031817386559981176 0 -0.01366650758822029 0.031969212982422286 0 -0.013876233801974365 0.031150133265121206 0 -0.011632869215526269 0.030719530662801579 0 -0.01184284207298208 0.030398072826167088 0 -0.012083980701109503 0.031160413896463537 0 -0.012395215241006712 0.031395708862565104 0 -0.013195391548371387 0.029870251172535368 0 -0.01366650758822029 0.031969212982422286 0 -0.013002264423514865 0.031557292627250169 0 -0.013358347215982462 0.032428088755666939 0 -0.013002264423514865 0.031557292627250169 0 -0.013876233801974365 0.031150133265121206 0 -0.013289220185435041 0.030618295325465443 0 -0.01366650758822029 0.031969212982422286 0 -0.013002264423514865 0.031557292627250169 0 -0.013876233801974365 0.031150133265121206 0 -0.013876233801974365 0.031150133265121206 0 -0.01385634921081968 0.030351386291859878 0 -0.014505209162427039 0.030553641938029712 0 -0.013876233801974365 0.031150133265121206 0 -0.013289220185435041 0.030618295325465443 0 -0.01385634921081968 0.030351386291859878 0 -0.012539631563165629 0.030582310902418901 0 -0.013002264423514865 0.031557292627250169 0 -0.013289220185435041 0.030618295325465443 0 -0.013009728416685695 0.029846112402612014 0 -0.013289220185435041 0.030618295325465443 0 -0.013488004326813066 0.030140877948174626 0 -0.012539631563165629 0.030582310902418901 0 -0.013009728416685695 0.029846112402612014 0 -0.013289220185435041 0.030618295325465443 0 -0.013289220185435041 0.030618295325465443 0 -0.01385634921081968 0.030351386291859878 0 -0.013488004326813066 0.030140877948174626 0 -0.013795730672468984 0.029737363355109916 0 -0.01385634921081968 0.030351386291859878 0 -0.013488004326813066 0.030140877948174626 0 -0.013795730672468984 0.029737363355109916 0 -0.01385634921081968 0.030351386291859878 0 -0.014380276216603564 0.030014083596693917 0 -0.014892651966255284 0.029739979730739302 0 -0.014380276216603564 0.030014083596693917 0 -0.01484224913712495 0.030159954807224859 0 -0.014380276216603564 0.030014083596693917 0 -0.014505209162427039 0.030553641938029712 0 -0.01484224913712495 0.030159954807224859 0 -0.01385634921081968 0.030351386291859878 0 -0.014380276216603564 0.030014083596693917 0 -0.014505209162427039 0.030553641938029712 0 -0.013876233801974365 0.031150133265121206 0 -0.014505209162427039 0.030553641938029712 0 -0.015007764978654888 0.031054105339382018 0 -0.018936014391827172 0.027758427710080507 0 -0.017595880156839251 0.028816073560817751 0 -0.015007764978654888 0.031054105339382018 0 -0.015159033563972404 0.030505516168495256 0 -0.015800274569678252 0.030182492168568349 0 -0.014505209162427039 0.030553641938029712 0 -0.015007764978654888 0.031054105339382018 0 -0.015159033563972404 0.030505516168495256 0 -0.015159033563972404 0.030505516168495256 0 -0.015314898107107938 0.029995229584855169 0 -0.015807430977651107 0.030236476532325248 0 -0.015159033563972404 0.030505516168495256 0 -0.01484224913712495 0.030159954807224859 0 -0.015314898107107938 0.029995229584855169 0 -0.014505209162427039 0.030553641938029712 0 -0.015159033563972404 0.030505516168495256 0 -0.01484224913712495 0.030159954807224859 0 -0.014892651966255284 0.029739979730739302 0 -0.01484224913712495 0.030159954807224859 0 -0.015314898107107938 0.029995229584855169 0 -0.021726836881772234 0.025891285433439066 0 -0.021235028256751113 0.025680649086023397 0 -0.021617778107989812 0.02519754385423115 0 -0.015715961174715829 0.029819172895292029 0 -0.015314898107107938 0.029995229584855169 0 -0.015807430977651107 0.030236476532325248 0 -0.014613391410223988 0.0308189657530877 0 -0.017595880156839251 0.028816073560817751 0 -0.016530311951365013 0.02991254714860608 0 -0.016184607368302094 0.029848767054969982 0 -0.015854015505531838 0.030259611234320648 0 -0.016184607368302094 0.029848767054969982 0 -0.015715961174715829 0.029819172895292029 0 -0.015807430977651107 0.030236476532325248 0 -0.015968371836275429 0.030327417969563435 0 -0.017595880156839251 0.028816073560817751 0 -0.019148031237853497 0.027883826781774441 0 -0.017595880156839251 0.028816073560817751 0 -0.021179063995218465 0.026189208836481681 0 -0.021726836881772234 0.025891285433439066 0 -0.021235028256751113 0.025680649086023397 0 -0.021235028256751113 0.025680649086023397 0 -0.020956449087686034 0.025233374748570913 0 -0.020694384079373119 0.025884519702359294 0 -0.021179063995218465 0.026189208836481681 0 -0.021235028256751113 0.025680649086023397 0 -0.020694384079373119 0.025884519702359294 0 -0.020956449087686034 0.025233374748570913 0 -0.021617778107989812 0.02519754385423115 0 -0.021316892580501755 0.024615798939783474 0 -0.021235028256751113 0.025680649086023397 0 -0.020956449087686034 0.025233374748570913 0 -0.021617778107989812 0.02519754385423115 0 -0.022401383971192752 0.025014923781149428 0 -0.021617778107989812 0.02519754385423115 0 -0.021957620124665882 0.024752078754598339 0 -0.022401383971192752 0.025014923781149428 0 -0.021726836881772234 0.025891285433439066 0 -0.021617778107989812 0.02519754385423115 0 -0.021681915150765133 0.025466348954807483 0 -0.022417138036461785 0.023755976249767118 0 -0.02449746926155575 0.023398265380335195 0 -0.023561679832158056 0.022440265042329429 0 -0.024502040788448348 0.022390815619791605 0 -0.020152519887940153 0.026487236757414753 0 -0.020694384079373119 0.025884519702359294 0 -0.020126999482558028 0.025383227014212521 0 -0.020956449087686034 0.025233374748570913 0 -0.020126999482558028 0.025383227014212521 0 -0.020650765407331743 0.024683189819033682 0 -0.020956449087686034 0.025233374748570913 0 -0.020694384079373119 0.025884519702359294 0 -0.020126999482558028 0.025383227014212521 0 -0.022417138036461785 0.023755976249767118 0 -0.022165553071589756 0.022873876955406939 0 -0.023982783552831392 0.021709206577927236 0 -0.024502040788448348 0.022390815619791605 0 -0.024519152531454893 0.021347139765489669 0 -0.023982783552831392 0.021709206577927236 0 -0.024024543307344229 0.02113094275453601 0 -0.024519152531454893 0.021347139765489669 0 -0.020126999482558028 0.025383227014212521 0 -0.020650765407331743 0.024683189819033682 0 -0.020101057458751521 0.024246672878648651 0 -0.020754381207486003 0.023921060353785856 0 -0.020101057458751521 0.024246672878648651 0 -0.020086628274372811 0.023076905811826479 0 -0.020650765407331743 0.024683189819033682 0 -0.020754381207486003 0.023921060353785856 0 -0.020101057458751521 0.024246672878648651 0 -0.024024543307344229 0.02113094275453601 0 -0.024519152531454893 0.021347139765489669 0 -0.024269238882589347 0.020737829040340612 0 -0.022165553071589756 0.022873876955406939 0 -0.023300392340690729 0.021441797823827703 0 -0.021933688310033738 0.024700022592607083 0 -0.021537559034104509 0.0240312216377086 0 -0.021957620124665882 0.024752078754598339 0 -0.021316892580501755 0.024615798939783474 0 -0.021470726369768347 0.023975840434325796 0 -0.021617778107989812 0.02519754385423115 0 -0.021957620124665882 0.024752078754598339 0 -0.021316892580501755 0.024615798939783474 0 -0.020650765407331743 0.024683189819033682 0 -0.020754381207486003 0.023921060353785856 0 -0.021316892580501755 0.024615798939783474 0 -0.020956449087686034 0.025233374748570913 0 -0.020650765407331743 0.024683189819033682 0 -0.021316892580501755 0.024615798939783474 0 -0.020754381207486003 0.023921060353785856 0 -0.021470726369768347 0.023975840434325796 0 -0.020973723144295586 0.023198137236119604 0 -0.020754381207486003 0.023921060353785856 0 -0.021316892580501755 0.024615798939783474 0 -0.021470726369768347 0.023975840434325796 0 -0.022297028123228559 0.024036147826497007 0 -0.021957620124665882 0.024752078754598339 0 -0.021575734637865079 0.024101613711603936 0 -0.022297028123228559 0.024036147826497007 0 -0.021575734637865079 0.024101613711603936 0 -0.02182329800977648 0.023435258991679725 0 -0.021537559034104509 0.0240312216377086 0 -0.020924589720653589 0.02349230570240687 0 -0.021575734637865079 0.024101613711603936 0 -0.02182329800977648 0.023435258991679725 0 -0.021180211673625743 0.023451590318933662 0 -0.021305480147342279 0.022977347430803742 0 -0.021765806588249642 0.022803090500038439 0 -0.020948749303262005 0.02248937769297165 0 -0.02182329800977648 0.023435258991679725 0 -0.021180211673625743 0.023451590318933662 0 -0.021305480147342279 0.022977347430803742 0 -0.02182329800977648 0.023435258991679725 0 -0.021305480147342279 0.022977347430803742 0 -0.021765806588249642 0.022803090500038439 0 -0.025298649516856189 0.018870366212571401 0 -0.026941990056757594 0.018876313456092017 0 -0.02182329800977648 0.023435258991679725 0 -0.021765806588249642 0.022803090500038439 0 -0.022572572448594987 0.023111199613962803 0 -0.023875707240547935 0.020414258594380168 0 -0.024269238882589347 0.020737829040340612 0 -0.024614977112739328 0.020183476306729103 0 -0.024519152531454893 0.021347139765489669 0 -0.024269238882589347 0.020737829040340612 0 -0.02451343207829881 0.020297033219359592 0 -0.024462378169533328 0.020243055745287401 0 -0.023300392340690729 0.021441797823827703 0 -0.020754381207486003 0.023921060353785856 0 -0.020973723144295586 0.023198137236119604 0 -0.020086628274372811 0.023076905811826479 0 -0.021305480147342279 0.022977347430803742 0 -0.02077608540027406 0.022791157808394493 0 -0.020948749303262005 0.02248937769297165 0 -0.020973723144295586 0.023198137236119604 0 -0.020086628274372811 0.023076905811826479 0 -0.020462062450675708 0.022411572330637987 0 -0.020924589720653589 0.02349230570240687 0 -0.022683808795701282 0.020837971881047829 0 -0.021180211673625743 0.023451590318933662 0 -0.021305480147342279 0.022977347430803742 0 -0.02077608540027406 0.022791157808394493 0 -0.025954617551278536 0.018319444482261846 0 -0.026017884351854807 0.017360449426593486 0 -0.023300392340690729 0.021441797823827703 0 -0.022683808795701282 0.020837971881047829 0 -0.023921829570317681 0.020979331531334963 0 -0.024933442909416289 0.019160601204419554 0 -0.023877530967869157 0.019198075099483815 0 -0.023875707240547935 0.020414258594380168 0 -0.024614977112739328 0.020183476306729103 0 -0.024602987561963136 0.019433026123901933 0 -0.027781365054933102 0.015132517203352685 0 -0.028946887397999412 0.014842258818851995 0 -0.028399041007037665 0.014341945192008243 0 -0.023300392340690729 0.021441797823827703 0 -0.026017884351854807 0.017360449426593486 0 -0.027875397106692588 0.013871971853718348 0 -0.028399041007037665 0.014341945192008243 0 -0.028850561915430308 0.013822618218247635 0 -0.028946887397999412 0.014842258818851995 0 -0.028399041007037665 0.014341945192008243 0 -0.028850561915430308 0.013822618218247635 0 -0.026383232711701392 0.017236037676297274 0 -0.027137413329685254 0.016283415850171287 0 -0.026331837851412354 0.015137123137359145 0 -0.026017884351854807 0.017360449426593486 0 -0.02756364821423998 0.014121116425138374 0 -0.024933442909416289 0.019160601204419554 0 -0.023877530967869157 0.019198075099483815 0 -0.024451505500837169 0.018471558006786185 0 -0.026017884351854807 0.017360449426593486 0 -0.025334115204857448 0.017159379300761498 0 -0.025334115204857448 0.017159379300761498 0 -0.02756364821423998 0.014121116425138374 0 -0.02756364821423998 0.014121116425138374 0 -0.026438545554494 0.015422795420670175 0 -0.028021209448880778 0.012940109680064817 0 -0.028378825728649987 0.013070803475122151 0 -0.028287918542862969 0.012761940525250584 0 -0.026432222537112998 0.015164361361135945 0 -0.02657928291260948 0.01535793174160777 0 -0.0263406723284535 0.015279064153373398 0 -0.025665731583812818 0.015538746441285136 0 -0.026518243008354411 0.01580884361089311 0 -0.027374062757449726 0.013388711565477681 0 -0.026438545554494 0.015422795420670175 0 -0.024686987947243475 0.016905741454050719 0 -0.022683808795701282 0.020837971881047829 0 -0.024686987947243475 0.016905741454050719 0 -0.025334115204857448 0.017159379300761498 0 -0.026438545554494 0.015422795420670175 0 -0.024030339607585577 0.017637136003009868 0 -0.024488246206844616 0.017058775656756724 0 -0.025204405227620255 0.017286857677483353 0 -0.024573785023600418 0.018416910807542385 0 -0.024030339607585577 0.017637136003009868 0 -0.025204405227620255 0.017286857677483353 0 -0.022683808795701282 0.020837971881047829 0 -0.025334115204857448 0.017159379300761498 0 -0.024686987947243475 0.016905741454050719 0 -0.028204395771972073 0.012976457050003028 0 -0.026518243008354411 0.01580884361089311 0 -0.027374062757449726 0.013388711565477681 0 -0.027795250077788526 0.013522256809568121 0 -0.026438545554494 0.015422795420670175 0 -0.028274105555606249 0.012710134179675838 0 -0.028404874054303822 0.012390792180547307 0 -0.028024007559000159 0.012279625741987802 0 -0.028484529246108763 0.012035476021320175 0 -0.028820286250209992 0.01248940608624588 0 -0.028404874054303822 0.012390792180547307 0 -0.028484529246108763 0.012035476021320175 0 -0.028378825728649987 0.013070803475122151 0 -0.028820286250209992 0.01248940608624588 0 -0.028287918542862969 0.012761940525250584 0 -0.028820286250209992 0.01248940608624588 0 -0.028404874054303822 0.012390792180547307 0 -0.028287918542862969 0.012761940525250584 0 -0.027859710475375915 0.012368809605584834 0 -0.02756364821423998 0.014121116425138374 0 -0.027589299213912021 0.012199318466210821 0 -0.02807874750804568 0.012928544860893945 0 -0.028066069285741832 0.01226874540358374 0 -0.028021209448880778 0.012940109680064817 0 -0.028287918542862969 0.012761940525250584 0 -0.028024007559000159 0.012279625741987802 0 -0.02756364821423998 0.014121116425138374 0 -0.028028794357388975 0.012071002886722221 0 -0.028404874054303822 0.012390792180547307 0 -0.028287918542862969 0.012761940525250584 0 -0.028024007559000159 0.012279625741987802 0 -0.029102197448942251 0.014585634967900638 0 -0.029233840940807988 0.013318901882681016 0 -0.03006728001522499 0.013977945785652025 0 -0.029102197448942251 0.014585634967900638 0 -0.027632791419083189 0.014161056800033912 0 -0.028142142448507938 0.01328770652883136 0 -0.025298649516856189 0.018870366212571401 0 -0.024686987947243475 0.016905741454050719 0 -0.029102197448942251 0.014585634967900638 0 -0.028142142448507938 0.01328770652883136 0 -0.029233840940807988 0.013318901882681016 0 -0.028142142448507938 0.01328770652883136 0 -0.028883788504635979 0.01288006753114221 0 -0.029233840940807988 0.013318901882681016 0 -0.028204395771972073 0.012976457050003028 0 -0.028887184201423648 0.01204576408629957 0 -0.028274105555606249 0.012710134179675838 0 -0.028887184201423648 0.01204576408629957 0 -0.027374062757449726 0.013388711565477681 0 -0.027795250077788526 0.013522256809568121 0 -0.029045992135513753 0.011307109789891764 0 -0.028142142448507938 0.01328770652883136 0 -0.028883788504635979 0.01288006753114221 0 -0.02865857393943266 0.012407354050529527 0 -0.028883788504635979 0.01288006753114221 0 -0.029233840940807988 0.013318901882681016 0 -0.029513015627667751 0.012497695764389305 0 -0.029233840940807988 0.013318901882681016 0 -0.030204831260965685 0.01293393167608572 0 -0.029513015627667751 0.012497695764389305 0 -0.029233840940807988 0.013318901882681016 0 -0.030204831260965685 0.01293393167608572 0 -0.03006728001522499 0.013977945785652025 0 -0.030204831260965685 0.01293393167608572 0 -0.030762243762804925 0.013469171501498201 0 -0.03006728001522499 0.013977945785652025 0 -0.030204831260965685 0.01293393167608572 0 -0.030762243762804925 0.013469171501498201 0 -0.030948040286712469 0.012714142684360283 0 -0.030762243762804925 0.013469171501498201 0 -0.031640518157761956 0.013368485751545983 0 -0.030948040286712469 0.012714142684360283 0 -0.030762243762804925 0.013469171501498201 0 -0.030870696526555993 0.014369154503477762 0 -0.031640518157761956 0.013368485751545983 0 -0.030870696526555993 0.014369154503477762 0 -0.031687406134293876 0.014804805455444563 0 -0.031640518157761956 0.013368485751545983 0 -0.030870696526555993 0.014369154503477762 0 -0.03006728001522499 0.013977945785652025 0 -0.03043500893118865 0.014960987774268734 0 -0.030762243762804925 0.013469171501498201 0 -0.030870696526555993 0.014369154503477762 0 -0.03006728001522499 0.013977945785652025 0 -0.029102197448942251 0.014585634967900638 0 -0.03006728001522499 0.013977945785652025 0 -0.03043500893118865 0.014960987774268734 0 -0.030870696526555993 0.014369154503477762 0 -0.03043500893118865 0.014960987774268734 0 -0.031508304258889307 0.014778710465839487 0 -0.026941990056757594 0.018876313456092017 0 -0.025151550810207458 0.020980690390263852 0 -0.03043500893118865 0.014960987774268734 0 -0.031524879748213476 0.015351985175435155 0 -0.031508304258889307 0.014778710465839487 0 -0.032517032493959638 0.01519547423078715 0 -0.024703993593852308 0.016910906981237185 0 -0.022572572448594987 0.023111199613962803 0 -0.022899453948667409 0.023644795585869804 0 -0.023348598874126707 0.023407779948746994 0 -0.022978028166958108 0.024228479315361647 0 -0.022899453948667409 0.023644795585869804 0 -0.023352706372681001 0.023633511793717712 0 -0.022297028123228559 0.024036147826497007 0 -0.022572572448594987 0.023111199613962803 0 -0.022899453948667409 0.023644795585869804 0 -0.022297028123228559 0.024036147826497007 0 -0.02182329800977648 0.023435258991679725 0 -0.022572572448594987 0.023111199613962803 0 -0.010216071602931536 0.029628128177194998 0 -0.011332155170699911 0.029629687787959175 0 -0.011501333967161555 0.030096871542630733 0 -0.01366650758822029 0.031969212982422286 0 -0.013358347215982462 0.032428088755666939 0 -0.013662032986312621 0.032509133242327778 0 -0.013195391548371387 0.029870251172535368 0 -0.014229186138203018 0.023706843919390659 0 -0.0149072600460013 0.027020762546427709 0 -0.014010257226562481 0.026725141631818154 0 -0.014593846291440312 0.025963804927872678 0 -0.013195391548371387 0.029870251172535368 0 -0.01725465841219952 0.02559089017307916 0 -0.018707853227132865 0.028470630473870114 0 -0.01725465841219952 0.02559089017307916 0 -0.022978028166958108 0.024228479315361647 0 -0.023352706372681001 0.023633511793717712 0 -0.023525887033638532 0.023470041859624181 0 -0.022899453948667409 0.023644795585869804 0 -0.023352706372681001 0.023633511793717712 0 -0.023348598874126707 0.023407779948746994 0 -0.024606635190811906 0.023041535955461726 0 -0.025151550810207458 0.020980690390263852 0 -0.023352706372681001 0.023633511793717712 0 -0.023328930842611579 0.023397406231498712 0 -0.023525887033638532 0.023470041859624181 0 -0.019983822825298789 0.020839551405210283 0 -0.018648537222419746 0.020419096091419675 0 -0.018884527800185076 0.02129987652658007 0 -0.025151550810207458 0.020980690390263852 0 -0.01725465841219952 0.02559089017307916 0 -0.019480378921115815 0.021964095152619524 0 -0.02021729080793978 0.023384192870043424 0 -0.017393163362187467 0.022040214160534512 0 -0.019165393792154477 0.022623603000116427 0 -0.014229186138203018 0.023706843919390659 0 -0.018884527800185076 0.02129987652658007 0 -0.019480378921115815 0.021964095152619524 0 -0.017349529448692141 0.022063259778307906 0 -0.024703993593852308 0.016910906981237185 0 -0.014229186138203018 0.023706843919390659 0 -0.018648537222419746 0.020419096091419675 0 -0.018884527800185076 0.02129987652658007 0 -0.017349529448692141 0.022063259778307906 0 -0.019983822825298789 0.020839551405210283 0 -0.018884527800185076 0.02129987652658007 0 -0.019480378921115815 0.021964095152619524 0 -0.019983822825298789 0.020839551405210283 0 -0.019480378921115815 0.021964095152619524 0 -0.02021729080793978 0.023384192870043424 0 -0.025151550810207458 0.020980690390263852 0 -0.024703993593852308 0.016910906981237185 0 -0.016858293163594856 0.017111295637457627 0 -0.017058400070268799 0.017082630713931471 0 -0.017095639483808104 0.01728324836907395 0 -0.015626087237791318 0.018532008970592338 0 -0.014229186138203018 0.023706843919390659 0 -0.017368013559425619 0.016789365671177982 0 -0.017058400070268799 0.017082630713931471 0 -0.01709641244052167 0.017280597600123949 0 -0.014958890905873571 0.017711962752522369 0 -0.014229186138203018 0.023706843919390659 0 -0.013210447755572943 0.023283634703408964 0 -0.013547474745999297 0.021398053843042757 0 -0.011575703070899316 0.02398626909533581 0 -0.01725465841219952 0.02559089017307916 0 -0.014229186138203018 0.023706843919390659 0 -0.017368013559425619 0.016789365671177982 0 -0.017058400070268799 0.017082630713931471 0 -0.017096223496608737 0.016712028808104136 0 -0.016858293163594856 0.017111295637457627 0 -0.017096223496608737 0.016712028808104136 0 -0.016852171674118944 0.016572806462718592 0 -0.016858293163594856 0.017111295637457627 0 -0.017058400070268799 0.017082630713931471 0 -0.017096223496608737 0.016712028808104136 0 -0.024703993593852308 0.016910906981237185 0 -0.024188378695290627 0.01476031111860396 0 -0.017096223496608737 0.016712028808104136 0 -0.016852171674118944 0.016572806462718592 0 -0.017175342025980565 0.016349297418427965 0 -0.017368013559425619 0.016789365671177982 0 -0.017333408228010445 0.016476475537585574 0 -0.017096223496608737 0.016712028808104136 0 -0.017333408228010445 0.016476475537585574 0 -0.017096223496608737 0.016712028808104136 0 -0.017175342025980565 0.016349297418427965 0 -0.017175342025980565 0.016349297418427965 0 -0.016840423366528655 0.016145583919585389 0 -0.017245887164213148 0.016035275103562376 0 -0.017175342025980565 0.016349297418427965 0 -0.017245887164213148 0.016035275103562376 0 -0.017386118124353138 0.016250059558574583 0 -0.016852171674118944 0.016572806462718592 0 -0.017175342025980565 0.016349297418427965 0 -0.016840423366528655 0.016145583919585389 0 -0.024188378695290627 0.01476031111860396 0 -0.024198234034521027 0.014097902153243845 0 -0.016840423366528655 0.016145583919585389 0 -0.017245887164213148 0.016035275103562376 0 -0.017174066273002411 0.015708626547742788 0 -0.024198234034521027 0.014097902153243845 0 -0.024064869482983531 0.013068841017157848 0 -0.016840423366528655 0.016145583919585389 0 -0.017174066273002411 0.015708626547742788 0 -0.016654573377620868 0.015476014162774642 0 -0.017245887164213148 0.016035275103562376 0 -0.017174066273002411 0.015708626547742788 0 -0.017277390351662123 0.015791792623000008 0 -0.017216684374901783 0.015676277092004694 0 -0.017637745168244456 0.015138154117745918 0 -0.017174066273002411 0.015708626547742788 0 -0.017176784278391657 0.015616683279412989 0 -0.017277390351662123 0.015791792623000008 0 -0.017174066273002411 0.015708626547742788 0 -0.017100789045684094 0.014839972862884699 0 -0.017876572011261489 0.014770272273540486 0 -0.017174066273002411 0.015708626547742788 0 -0.017100789045684094 0.014839972862884699 0 -0.016654573377620868 0.015476014162774642 0 -0.017100789045684094 0.014839972862884699 0 -0.016654573377620868 0.015476014162774642 0 -0.016466869842095527 0.014032688946106538 0 -0.017100789045684094 0.014839972862884699 0 -0.017311975183642383 0.014041088124626342 0 -0.016466869842095527 0.014032688946106538 0 -0.017100789045684094 0.014839972862884699 0 -0.017876572011261489 0.014770272273540486 0 -0.017311975183642383 0.014041088124626342 0 -0.017876572011261489 0.014770272273540486 0 -0.017808219036516089 0.013900563992582672 0 -0.017311975183642383 0.014041088124626342 0 -0.017637745168244456 0.015138154117745918 0 -0.01489044923564567 0.013754409435860799 0 -0.030519755084633667 0.0098895784541233461 0 -0.030319244442192441 0.010739683743572896 0 -0.029653242165078277 0.010062202041972966 0 -0.024064869482983531 0.013068841017157848 0 -0.023915116128041307 0.011754981388748186 0 -0.030519755084633667 0.0098895784541233461 0 -0.031460466066346136 0.01070101699540431 0 -0.031423554217002721 0.00954828723783957 0 -0.031460466066346136 0.01070101699540431 0 -0.030319244442192441 0.010739683743572896 0 -0.030916563579421841 0.01129768943344126 0 -0.030519755084633667 0.0098895784541233461 0 -0.031460466066346136 0.01070101699540431 0 -0.030319244442192441 0.010739683743572896 0 -0.030319244442192441 0.010739683743572896 0 -0.030916563579421841 0.01129768943344126 0 -0.030387936174907537 0.011902378500795828 0 -0.030319244442192441 0.010739683743572896 0 -0.030387936174907537 0.011902378500795828 0 -0.029629815687262154 0.011436290109018395 0 -0.031559346319339307 0.011966242902175808 0 -0.030916563579421841 0.01129768943344126 0 -0.030387936174907537 0.011902378500795828 0 -0.031559346319339307 0.011966242902175808 0 -0.031460466066346136 0.01070101699540431 0 -0.030916563579421841 0.01129768943344126 0 -0.031640518157761956 0.013368485751545983 0 -0.031559346319339307 0.011966242902175808 0 -0.030948040286712469 0.012714142684360283 0 -0.031559346319339307 0.011966242902175808 0 -0.030948040286712469 0.012714142684360283 0 -0.030387936174907537 0.011902378500795828 0 -0.030204831260965685 0.01293393167608572 0 -0.030948040286712469 0.012714142684360283 0 -0.030387936174907537 0.011902378500795828 0 -0.030204831260965685 0.01293393167608572 0 -0.030387936174907537 0.011902378500795828 0 -0.029513015627667751 0.012497695764389305 0 -0.028887184201423648 0.01204576408629957 0 -0.029554132479651624 0.011522213436624516 0 -0.030387936174907537 0.011902378500795828 0 -0.029513015627667751 0.012497695764389305 0 -0.029629815687262154 0.011436290109018395 0 -0.029513015627667751 0.012497695764389305 0 -0.02865857393943266 0.012407354050529527 0 -0.029629815687262154 0.011436290109018395 0 -0.028883788504635979 0.01288006753114221 0 -0.029513015627667751 0.012497695764389305 0 -0.02865857393943266 0.012407354050529527 0 -0.029218755374778506 0.011936042658762585 0 -0.029194159550113442 0.011679214097424815 0 -0.029629815687262154 0.011436290109018395 0 -0.028820286250209992 0.01248940608624588 0 -0.029218755374778506 0.011936042658762585 0 -0.028966578114172047 0.011828597453593895 0 -0.028966578114172047 0.011828597453593895 0 -0.029121311100109053 0.011392457656999757 0 -0.028692151927976989 0.011592569679141511 0 -0.028966578114172047 0.011828597453593895 0 -0.029194159550113442 0.011679214097424815 0 -0.029121311100109053 0.011392457656999757 0 -0.029218755374778506 0.011936042658762585 0 -0.028966578114172047 0.011828597453593895 0 -0.029154037779160591 0.011837381291020863 0 -0.028966578114172047 0.011828597453593895 0 -0.029154037779160591 0.011837381291020863 0 -0.029194159550113442 0.011679214097424815 0 -0.029218755374778506 0.011936042658762585 0 -0.029154037779160591 0.011837381291020863 0 -0.029194159550113442 0.011679214097424815 0 -0.029194159550113442 0.011679214097424815 0 -0.029121311100109053 0.011392457656999757 0 -0.029629815687262154 0.011436290109018395 0 -0.029121311100109053 0.011392457656999757 0 -0.029629815687262154 0.011436290109018395 0 -0.029375952872714963 0.010808249377984327 0 -0.029121311100109053 0.011392457656999757 0 -0.028692151927976989 0.011592569679141511 0 -0.028800626365222536 0.011008632670967224 0 -0.029121311100109053 0.011392457656999757 0 -0.028800626365222536 0.011008632670967224 0 -0.029375952872714963 0.010808249377984327 0 -0.028028794357388975 0.012071002886722221 0 -0.028038161381085291 0.011786118663783339 0 -0.027589299213912021 0.012199318466210821 0 -0.028038379148805921 0.011639443186544982 0 -0.027625694063327183 0.011349784988737744 0 -0.027589299213912021 0.012199318466210821 0 -0.028066069285741832 0.01226874540358374 0 -0.028038379148805921 0.011639443186544982 0 -0.028024007559000159 0.012279625741987802 0 -0.028038379148805921 0.011639443186544982 0 -0.028484529246108763 0.012035476021320175 0 -0.028038379148805921 0.011639443186544982 0 -0.028484529246108763 0.012035476021320175 0 -0.028692151927976989 0.011592569679141511 0 -0.028820286250209992 0.01248940608624588 0 -0.028966578114172047 0.011828597453593895 0 -0.028484529246108763 0.012035476021320175 0 -0.028966578114172047 0.011828597453593895 0 -0.028484529246108763 0.012035476021320175 0 -0.028692151927976989 0.011592569679141511 0 -0.028038379148805921 0.011639443186544982 0 -0.028692151927976989 0.011592569679141511 0 -0.028257293138745171 0.011210889891129526 0 -0.028692151927976989 0.011592569679141511 0 -0.028800626365222536 0.011008632670967224 0 -0.028257293138745171 0.011210889891129526 0 -0.028257293138745171 0.011210889891129526 0 -0.027821766190368028 0.010861593934977038 0 -0.027625694063327183 0.011349784988737744 0 -0.028038379148805921 0.011639443186544982 0 -0.028257293138745171 0.011210889891129526 0 -0.027625694063327183 0.011349784988737744 0 -0.027821766190368028 0.010861593934977038 0 -0.028276673560854969 0.010610743704970147 0 -0.027624768985433361 0.010321563369128678 0 -0.028257293138745171 0.011210889891129526 0 -0.027821766190368028 0.010861593934977038 0 -0.028276673560854969 0.010610743704970147 0 -0.028800626365222536 0.011008632670967224 0 -0.028276673560854969 0.010610743704970147 0 -0.028825237029986218 0.010198857994025005 0 -0.028800626365222536 0.011008632670967224 0 -0.028257293138745171 0.011210889891129526 0 -0.028276673560854969 0.010610743704970147 0 -0.028276673560854969 0.010610743704970147 0 -0.028825237029986218 0.010198857994025005 0 -0.028021513177660884 0.0099088509396311683 0 -0.028825237029986218 0.010198857994025005 0 -0.028021513177660884 0.0099088509396311683 0 -0.028502069145261311 0.00924768500234667 0 -0.028276673560854969 0.010610743704970147 0 -0.028021513177660884 0.0099088509396311683 0 -0.027624768985433361 0.010321563369128678 0 -0.030319244442192441 0.010739683743572896 0 -0.029629815687262154 0.011436290109018395 0 -0.029375952872714963 0.010808249377984327 0 -0.030319244442192441 0.010739683743572896 0 -0.029375952872714963 0.010808249377984327 0 -0.029653242165078277 0.010062202041972966 0 -0.028825237029986218 0.010198857994025005 0 -0.029375952872714963 0.010808249377984327 0 -0.029653242165078277 0.010062202041972966 0 -0.028800626365222536 0.011008632670967224 0 -0.028825237029986218 0.010198857994025005 0 -0.029375952872714963 0.010808249377984327 0 -0.028825237029986218 0.010198857994025005 0 -0.029653242165078277 0.010062202041972966 0 -0.029177717066610574 0.0095369751752393921 0 -0.030519755084633667 0.0098895784541233461 0 -0.029653242165078277 0.010062202041972966 0 -0.029817242210228325 0.0093141104717564659 0 -0.029817242210228325 0.0093141104717564659 0 -0.029884288542871524 0.0085518268056370573 0 -0.03055407278340096 0.0089982797313392301 0 -0.029653242165078277 0.010062202041972966 0 -0.029817242210228325 0.0093141104717564659 0 -0.029177717066610574 0.0095369751752393921 0 -0.029817242210228325 0.0093141104717564659 0 -0.029177717066610574 0.0095369751752393921 0 -0.029130709492801367 0.0088354574891637006 0 -0.029817242210228325 0.0093141104717564659 0 -0.029130709492801367 0.0088354574891637006 0 -0.029884288542871524 0.0085518268056370573 0 -0.029130709492801367 0.0088354574891637006 0 -0.02868488877931093 0.008228803321029779 0 -0.029400410675870438 0.007920781474904352 0 -0.029130709492801367 0.0088354574891637006 0 -0.029884288542871524 0.0085518268056370573 0 -0.029400410675870438 0.007920781474904352 0 -0.028021513177660884 0.0099088509396311683 0 -0.027790610144747274 0.0092820018510631416 0 -0.028502069145261311 0.00924768500234667 0 -0.027790610144747274 0.0092820018510631416 0 -0.028502069145261311 0.00924768500234667 0 -0.02792164119883064 0.0085915434446527644 0 -0.028021513177660884 0.0099088509396311683 0 -0.027790610144747274 0.0092820018510631416 0 -0.027337381946023351 0.0096819254815270171 0 -0.029177717066610574 0.0095369751752393921 0 -0.029130709492801367 0.0088354574891637006 0 -0.028502069145261311 0.00924768500234667 0 -0.028825237029986218 0.010198857994025005 0 -0.029177717066610574 0.0095369751752393921 0 -0.028502069145261311 0.00924768500234667 0 -0.028502069145261311 0.00924768500234667 0 -0.02792164119883064 0.0085915434446527644 0 -0.02868488877931093 0.008228803321029779 0 -0.029130709492801367 0.0088354574891637006 0 -0.028502069145261311 0.00924768500234667 0 -0.02868488877931093 0.008228803321029779 0 -0.02792164119883064 0.0085915434446527644 0 -0.028235424663905603 0.0075456849543075917 0 -0.027613037475999552 0.0080368587141776866 0 -0.02792164119883064 0.0085915434446527644 0 -0.02868488877931093 0.008228803321029779 0 -0.028235424663905603 0.0075456849543075917 0 -0.028235424663905603 0.0075456849543075917 0 -0.027753736886647246 0.0075250059216307591 0 -0.027613037475999552 0.0080368587141776866 0 -0.02868488877931093 0.008228803321029779 0 -0.029045369954978174 0.0071764132908272524 0 -0.029400410675870438 0.007920781474904352 0 -0.02868488877931093 0.008228803321029779 0 -0.029045369954978174 0.0071764132908272524 0 -0.028235424663905603 0.0075456849543075917 0 -0.029045369954978174 0.0071764132908272524 0 -0.028235424663905603 0.0075456849543075917 0 -0.028739784790866574 0.0062989231541439325 0 -0.028235424663905603 0.0075456849543075917 0 -0.027936568668620338 0.0067564744012467669 0 -0.028739784790866574 0.0062989231541439325 0 -0.028235424663905603 0.0075456849543075917 0 -0.027936568668620338 0.0067564744012467669 0 -0.027753736886647246 0.0075250059216307591 0 -0.029884288542871524 0.0085518268056370573 0 -0.03008826786153285 0.007743872477073142 0 -0.030523412396096808 0.0082730874409049776 0 -0.029884288542871524 0.0085518268056370573 0 -0.03008826786153285 0.007743872477073142 0 -0.029400410675870438 0.007920781474904352 0 -0.03008826786153285 0.007743872477073142 0 -0.029400410675870438 0.007920781474904352 0 -0.029867383943819239 0.0069950824157119862 0 -0.03008826786153285 0.007743872477073142 0 -0.030317708485652031 0.0071908751822243452 0 -0.030688737634382086 0.0075080618586193257 0 -0.029045369954978174 0.0071764132908272524 0 -0.029400410675870438 0.007920781474904352 0 -0.029867383943819239 0.0069950824157119862 0 -0.029867383943819239 0.0069950824157119862 0 -0.030317708485652031 0.0071908751822243452 0 -0.030588981095935022 0.0066680379596995177 0 -0.03008826786153285 0.007743872477073142 0 -0.029867383943819239 0.0069950824157119862 0 -0.030317708485652031 0.0071908751822243452 0 -0.030688737634382086 0.0075080618586193257 0 -0.031363728376727108 0.0071846468323577386 0 -0.030588981095935022 0.0066680379596995177 0 -0.030317708485652031 0.0071908751822243452 0 -0.030688737634382086 0.0075080618586193257 0 -0.030588981095935022 0.0066680379596995177 0 -0.031363728376727108 0.0071846468323577386 0 -0.03083764449326884 0.0064351406825631291 0 -0.030588981095935022 0.0066680379596995177 0 -0.030688737634382086 0.0075080618586193257 0 -0.030523412396096808 0.0082730874409049776 0 -0.031413601987299741 0.0083784411198439789 0 -0.03008826786153285 0.007743872477073142 0 -0.030688737634382086 0.0075080618586193257 0 -0.030523412396096808 0.0082730874409049776 0 -0.016333673786527 0.010948936039626747 0 -0.017224796320907631 0.012168027465141886 0 -0.016389895240058402 0.012485321945742577 0 -0.030688737634382086 0.0075080618586193257 0 -0.031363728376727108 0.0071846468323577386 0 -0.031413601987299741 0.0083784411198439789 0 -0.021006966901483931 0.0085462898234681586 0 -0.024218872941554261 0.010572051474154626 0 -0.01857645078312457 0.0066721542568676092 0 -0.018565172300087453 0.0065247659096899849 0 -0.017776610676846921 0.0056222266465829921 0 -0.018570494979811943 0.0066770382063120253 0 -0.018891325169057793 0.0064922386496691162 0 -0.019251022973002376 0.0065965965207193909 0 -0.021006966901483931 0.0085462898234681586 0 -0.025916592519932915 0.0045809503581015964 0 -0.021006966901483931 0.0085462898234681586 0 -0.020854724958646067 0.0081495916934884709 0 -0.018565172300087453 0.0065247659096899849 0 -0.018937391571109338 0.0061347263367141167 0 -0.018640759795060982 0.0057114361387568761 0 -0.018891325169057793 0.0064922386496691162 0 -0.018937391571109338 0.0061347263367141167 0 -0.019251022973002376 0.0065965965207193909 0 -0.018570494979811943 0.0066770382063120253 0 -0.018891325169057793 0.0064922386496691162 0 -0.018565172300087453 0.0065247659096899849 0 -0.018891325169057793 0.0064922386496691162 0 -0.018565172300087453 0.0065247659096899849 0 -0.018937391571109338 0.0061347263367141167 0 -0.019251022973002376 0.0065965965207193909 0 -0.020176550173084423 0.0066278384738476144 0 -0.019559981322071606 0.0079899449088617677 0 -0.018937391571109338 0.0061347263367141167 0 -0.019251022973002376 0.0065965965207193909 0 -0.019340338028823158 0.0056810352710003906 0 -0.018570494979811943 0.0066770382063120253 0 -0.019251022973002376 0.0065965965207193909 0 -0.019559981322071606 0.0079899449088617677 0 -0.019251022973002376 0.0065965965207193909 0 -0.020176550173084423 0.0066278384738476144 0 -0.019340338028823158 0.0056810352710003906 0 -0.020176550173084423 0.0066278384738476144 0 -0.020771121913195589 0.0078543475565566231 0 -0.021131880971947539 0.0066543027875681339 0 -0.020176550173084423 0.0066278384738476144 0 -0.020928639118116141 0.0059922192026865264 0 -0.021131880971947539 0.0066543027875681339 0 -0.020176550173084423 0.0066278384738476144 0 -0.020356223188796707 0.0056655920863827938 0 -0.020928639118116141 0.0059922192026865264 0 -0.020176550173084423 0.0066278384738476144 0 -0.020771121913195589 0.0078543475565566231 0 -0.019559981322071606 0.0079899449088617677 0 -0.021006966901483931 0.0085462898234681586 0 -0.017969004883933003 0.0098329321470760778 0 -0.017224796320907631 0.012168027465141886 0 -0.017075365399628707 0.013173872135060834 0 -0.016389895240058402 0.012485321945742577 0 -0.017224796320907631 0.012168027465141886 0 -0.017075365399628707 0.013173872135060834 0 -0.017981015437568807 0.013434341913272817 0 -0.020771121913195589 0.0078543475565566231 0 -0.020578274822715112 0.0093126992940132693 0 -0.021227499718896228 0.0090259791670354497 0 -0.017224796320907631 0.012168027465141886 0 -0.018116134758217228 0.013374312125676092 0 -0.017981015437568807 0.013434341913272817 0 -0.020771121913195589 0.0078543475565566231 0 -0.019559981322071606 0.0079899449088617677 0 -0.020578274822715112 0.0093126992940132693 0 -0.017969004883933003 0.0098329321470760778 0 -0.018338247823243205 0.01232931390829513 0 -0.018338247823243205 0.01232931390829513 0 -0.01430171283675526 0.011633884189440422 0 -0.017876572011261489 0.014770272273540486 0 -0.017808219036516089 0.013900563992582672 0 -0.018408564059248091 0.013741546418196417 0 -0.015630665315972382 0.01237726442408792 0 -0.01552820554271383 0.012263165918378716 0 -0.015430254726613926 0.012456935275605784 0 -0.017981015437568807 0.013434341913272817 0 -0.017808219036516089 0.013900563992582672 0 -0.018408564059248091 0.013741546418196417 0 -0.018338247823243205 0.01232931390829513 0 -0.01489044923564567 0.013754409435860799 0 -0.018338247823243205 0.01232931390829513 0 -0.018213056340182558 0.012443446647865234 0 -0.018115413241288826 0.013375133795563522 0 -0.017981015437568807 0.013434341913272817 0 -0.018408564059248091 0.013741546418196417 0 -0.017981015437568807 0.013434341913272817 0 -0.017544513740098074 0.013637457670358207 0 -0.017808219036516089 0.013900563992582672 0 -0.017544513740098074 0.013637457670358207 0 -0.017808219036516089 0.013900563992582672 0 -0.017311975183642383 0.014041088124626342 0 -0.017075365399628707 0.013173872135060834 0 -0.017981015437568807 0.013434341913272817 0 -0.017544513740098074 0.013637457670358207 0 -0.017075365399628707 0.013173872135060834 0 -0.017544513740098074 0.013637457670358207 0 -0.017311975183642383 0.014041088124626342 0 -0.017075365399628707 0.013173872135060834 0 -0.017311975183642383 0.014041088124626342 0 -0.016466869842095527 0.014032688946106538 0 -0.023915116128041307 0.011754981388748186 0 -0.024218872941554261 0.010572051474154626 0 -0.031423554217002721 0.00954828723783957 0 -0.03055407278340096 0.0089982797313392301 0 -0.031413601987299741 0.0083784411198439789 0 -0.030519755084633667 0.0098895784541233461 0 -0.029817242210228325 0.0093141104717564659 0 -0.03055407278340096 0.0089982797313392301 0 -0.030519755084633667 0.0098895784541233461 0 -0.031423554217002721 0.00954828723783957 0 -0.03055407278340096 0.0089982797313392301 0 -0.03055407278340096 0.0089982797313392301 0 -0.030523412396096808 0.0082730874409049776 0 -0.031413601987299741 0.0083784411198439789 0 -0.029884288542871524 0.0085518268056370573 0 -0.03055407278340096 0.0089982797313392301 0 -0.030523412396096808 0.0082730874409049776 0 -0.017075365399628707 0.013173872135060834 0 -0.016466869842095527 0.014032688946106538 0 -0.016389895240058402 0.012485321945742577 0 -0.024999893888766552 0.0095118659579625717 0 -0.025708752400913103 0.0098798165541007302 0 -0.025806315076767082 0.0087697094701494303 0 -0.024999893888766552 0.0095118659579625717 0 -0.025708752400913103 0.0098798165541007302 0 -0.025413981419019377 0.010262710547507744 0 -0.025746591374797036 0.0098297836492925016 0 -0.02655521851182837 0.009079103826857093 0 -0.025708752400913103 0.0098798165541007302 0 -0.026060715057463091 0.010086134212176048 0 -0.026331761478287273 0.0092367904491304047 0 -0.025708752400913103 0.0098798165541007302 0 -0.025762292276326978 0.010337936071121606 0 -0.026060715057463091 0.010086134212176048 0 -0.025762292276326978 0.010337936071121606 0 -0.02605352117657414 0.010713951173724498 0 -0.026060715057463091 0.010086134212176048 0 -0.025762292276326978 0.010337936071121606 0 -0.025502245091772402 0.010763611782388089 0 -0.02605352117657414 0.010713951173724498 0 -0.024999893888766552 0.0095118659579625717 0 -0.025413981419019377 0.010262710547507744 0 -0.024999900418531024 0.010773909330596328 0 -0.025762292276326978 0.010337936071121606 0 -0.025502245091772402 0.010763611782388089 0 -0.025413981419019377 0.010262710547507744 0 -0.025708752400913103 0.0098798165541007302 0 -0.025762292276326978 0.010337936071121606 0 -0.025413981419019377 0.010262710547507744 0 -0.025502245091772402 0.010763611782388089 0 -0.025413981419019377 0.010262710547507744 0 -0.024999900418531024 0.010773909330596328 0 -0.025502245091772402 0.010763611782388089 0 -0.024999900418531024 0.010773909330596328 0 -0.025261356905920372 0.011727620162194799 0 -0.024999900418531024 0.010773909330596328 0 -0.024999999943345591 0.012036300971418869 0 -0.025261356905920372 0.011727620162194799 0 -0.025502245091772402 0.010763611782388089 0 -0.025261356905920372 0.011727620162194799 0 -0.02605352117657414 0.010713951173724498 0 -0.024999999943345591 0.012036300971418869 0 -0.025261356905920372 0.011727620162194799 0 -0.026336481419047271 0.011735686602987837 0 -0.025000193625007012 0.012036441062030596 0 -0.026366538870959945 0.011769622899451906 0 -0.025000004830441458 0.012036586815373031 0 -0.025820582650164011 0.012475395310691688 0 -0.026382986028310695 0.011807282599583219 0 -0.025820582650164011 0.012475395310691688 0 -0.026382986028310695 0.011807282599583219 0 -0.026672443131889597 0.012310528942799206 0 -0.025289958319475933 0.011669701466643144 0 -0.026094328215043212 0.010984212876985896 0 -0.025261356905920372 0.011727620162194799 0 -0.026336481419047271 0.011735686602987837 0 -0.026248315915212764 0.011192293981316364 0 -0.026336481419047271 0.011735686602987837 0 -0.026967814968833173 0.011236396550341695 0 -0.027557834753197279 0.011531141029914777 0 -0.026336481419047271 0.011735686602987837 0 -0.026248315915212764 0.011192293981316364 0 -0.026967814968833173 0.011236396550341695 0 -0.026366538870959945 0.011769622899451906 0 -0.027511594954377164 0.011538926260129877 0 -0.026382986028310695 0.011807282599583219 0 -0.026672443131889597 0.012310528942799206 0 -0.027320814312389505 0.012197284215890525 0 -0.02706466733976352 0.012842913810810225 0 -0.026672443131889597 0.012310528942799206 0 -0.027320814312389505 0.012197284215890525 0 -0.026382986028310695 0.011807282599583219 0 -0.027320814312389505 0.012197284215890525 0 -0.027557834753197279 0.011531141029914777 0 -0.027320814312389505 0.012197284215890525 0 -0.027557834753197279 0.011531141029914777 0 -0.028004709027513508 0.012163601666401083 0 -0.026967814968833173 0.011236396550341695 0 -0.027557834753197279 0.011531141029914777 0 -0.027473156330573598 0.01106091005422284 0 -0.027557834753197279 0.011531141029914777 0 -0.027473156330573598 0.01106091005422284 0 -0.028016929210086777 0.011126317729837239 0 -0.027473156330573598 0.01106091005422284 0 -0.027684193527503228 0.010743488330093705 0 -0.027145290755810368 0.010677322921744326 0 -0.027684193527503228 0.010743488330093705 0 -0.027145290755810368 0.010677322921744326 0 -0.028023552134268395 0.010124787675418682 0 -0.026967814968833173 0.011236396550341695 0 -0.027473156330573598 0.01106091005422284 0 -0.027145290755810368 0.010677322921744326 0 -0.02605352117657414 0.010713951173724498 0 -0.026068383613357133 0.01002972319866303 0 -0.026060715057463091 0.010086134212176048 0 -0.026094328215043212 0.010984212876985896 0 -0.026612149084663306 0.010347348715455477 0 -0.026248315915212764 0.011192293981316364 0 -0.026967814968833173 0.011236396550341695 0 -0.027145290755810368 0.010677322921744326 0 -0.026060715057463091 0.010086134212176048 0 -0.02689723534782415 0.0093811341155648504 0 -0.026331761478287273 0.0092367904491304047 0 -0.026068383613357133 0.01002972319866303 0 -0.026060715057463091 0.010086134212176048 0 -0.025820678968002334 0.009756102051468922 0 -0.02607417716816382 0.010037799318928118 0 -0.026378594819402308 0.0095421848696779412 0 -0.026068383613357133 0.01002972319866303 0 -0.025917419484137418 0.0098135825258965446 0 -0.025884053720448781 0.0097585676826965201 0 -0.026612149084663306 0.010347348715455477 0 -0.026883738166829534 0.0101174550313297 0 -0.026068383613357133 0.01002972319866303 0 -0.025915599474724903 0.0098308839587332199 0 -0.025820678968002334 0.009756102051468922 0 -0.025883929673218113 0.0097624057334300251 0 -0.025915599474724903 0.0098308839587332199 0 -0.025820678968002334 0.009756102051468922 0 -0.025883929673218113 0.0097624057334300251 0 -0.025915599474724903 0.0098308839587332199 0 -0.025917419484137418 0.0098135825258965446 0 -0.026068383613357133 0.01002972319866303 0 -0.025915599474724903 0.0098308839587332199 0 -0.025917419484137418 0.0098135825258965446 0 -0.025891028926902253 0.010001402583149629 0 -0.025859448197777673 0.010300279019711546 0 -0.025747548000593888 0.0099157565473409811 0 -0.025891028926902253 0.010001402583149629 0 -0.025859448197777673 0.010300279019711546 0 -0.026101242118239332 0.010103453381122316 0 -0.025892549324019697 0.0097685890117242911 0 -0.025917419484137418 0.0098135825258965446 0 -0.025884053720448781 0.0097585676826965201 0 -0.025892549324019697 0.0097685890117242911 0 -0.025867715992506476 0.009769257975074077 0 -0.025884053720448781 0.0097585676826965201 0 -0.025892549324019697 0.0097685890117242911 0 -0.025917419484137418 0.0098135825258965446 0 -0.025889011934440945 0.0097447316147928828 0 -0.025883929673218113 0.0097624057334300251 0 -0.025917419484137418 0.0098135825258965446 0 -0.025889011934440945 0.0097447316147928828 0 -0.025892549324019697 0.0097685890117242911 0 -0.025889011934440945 0.0097447316147928828 0 -0.025867715992506476 0.009769257975074077 0 -0.025889011934440945 0.0097447316147928828 0 -0.025867715992506476 0.009769257975074077 0 -0.025896571635015898 0.0096715568440887516 0 -0.025928750265121755 0.0097341641624214895 0 -0.025867715992506476 0.009769257975074077 0 -0.025896571635015898 0.0096715568440887516 0 -0.025928750265121755 0.0097341641624214895 0 -0.025876174260578883 0.0098264036609503631 0 -0.025940100787103935 0.0098452746011243163 0 -0.025928750265121755 0.0097341641624214895 0 -0.025867715992506476 0.009769257975074077 0 -0.025876174260578883 0.0098264036609503631 0 -0.025891028926902253 0.010001402583149629 0 -0.025854122143718569 0.0099246860697576253 0 -0.025747548000593888 0.0099157565473409811 0 -0.025867715992506476 0.009769257975074077 0 -0.025876174260578883 0.0098264036609503631 0 -0.025747548000593888 0.0099157565473409811 0 -0.026743889758678682 0.010003534332680541 0 -0.026883738166829534 0.0101174550313297 0 -0.025876174260578883 0.0098264036609503631 0 -0.025854122143718569 0.0099246860697576253 0 -0.025940100787103935 0.0098452746011243163 0 -0.025876174260578883 0.0098264036609503631 0 -0.025854122143718569 0.0099246860697576253 0 -0.025747548000593888 0.0099157565473409811 0 -0.025891028926902253 0.010001402583149629 0 -0.025940100787103935 0.0098452746011243163 0 -0.026072324051590594 0.0098228358452225085 0 -0.025891028926902253 0.010001402583149629 0 -0.025854122143718569 0.0099246860697576253 0 -0.025940100787103935 0.0098452746011243163 0 -0.025928750265121755 0.0097341641624214895 0 -0.025940100787103935 0.0098452746011243163 0 -0.026072324051590594 0.0098228358452225085 0 -0.025928750265121755 0.0097341641624214895 0 -0.026072324051590594 0.0098228358452225085 0 -0.026004480782300003 0.009620816539141536 0 -0.026072324051590594 0.0098228358452225085 0 -0.026365038794946574 0.0098559183065240145 0 -0.026101242118239332 0.010103453381122316 0 -0.026072324051590594 0.0098228358452225085 0 -0.026365038794946574 0.0098559183065240145 0 -0.02619483118285159 0.0096378397908700071 0 -0.025891028926902253 0.010001402583149629 0 -0.026072324051590594 0.0098228358452225085 0 -0.026101242118239332 0.010103453381122316 0 -0.026365038794946574 0.0098559183065240145 0 -0.026770279736787771 0.0098111760586050804 0 -0.026448499732379862 0.0095219968365792638 0 -0.026365038794946574 0.0098559183065240145 0 -0.026101242118239332 0.010103453381122316 0 -0.026547926881561511 0.010325540904696309 0 -0.026101242118239332 0.010103453381122316 0 -0.026030334090668007 0.010508882133237125 0 -0.026547926881561511 0.010325540904696309 0 -0.025859448197777673 0.010300279019711546 0 -0.026101242118239332 0.010103453381122316 0 -0.026030334090668007 0.010508882133237125 0 -0.026030334090668007 0.010508882133237125 0 -0.026547926881561511 0.010325540904696309 0 -0.026183520592920791 0.010890738316714889 0 -0.026547926881561511 0.010325540904696309 0 -0.026183520592920791 0.010890738316714889 0 -0.02669760272520838 0.01081886448266365 0 -0.026030334090668007 0.010508882133237125 0 -0.026183520592920791 0.010890738316714889 0 -0.025492932445275951 0.010999570438244616 0 -0.026883738166829534 0.0101174550313297 0 -0.026762005170424787 0.011053267232878554 0 -0.027684193527503228 0.010743488330093705 0 -0.028023552134268395 0.010124787675418682 0 -0.028016929210086777 0.011126317729837239 0 -0.025859448197777673 0.010300279019711546 0 -0.025747548000593888 0.0099157565473409811 0 -0.025492932445275951 0.010999570438244616 0 -0.025859448197777673 0.010300279019711546 0 -0.026030334090668007 0.010508882133237125 0 -0.025492932445275951 0.010999570438244616 0 -0.027473156330573598 0.01106091005422284 0 -0.027684193527503228 0.010743488330093705 0 -0.028016929210086777 0.011126317729837239 0 -0.025492932445275951 0.010999570438244616 0 -0.025364783161923851 0.012273410797904449 0 -0.026250598341885301 0.01168208211617809 0 -0.026762005170424787 0.011053267232878554 0 -0.026679041690055784 0.012248159990547659 0 -0.027557834753197279 0.011531141029914777 0 -0.028016929210086777 0.011126317729837239 0 -0.028004709027513508 0.012163601666401083 0 -0.026358189157522593 0.012931711474196719 0 -0.026250598341885301 0.01168208211617809 0 -0.027120462453603555 0.012474282775664635 0 -0.026358189157522593 0.012931711474196719 0 -0.025364783161923851 0.012273410797904449 0 -0.026250598341885301 0.01168208211617809 0 -0.026183520592920791 0.010890738316714889 0 -0.026250598341885301 0.01168208211617809 0 -0.02669760272520838 0.01081886448266365 0 -0.026183520592920791 0.010890738316714889 0 -0.025492932445275951 0.010999570438244616 0 -0.026250598341885301 0.01168208211617809 0 -0.027123913375285479 0.011494794633104622 0 -0.027192857226354658 0.010737038891649687 0 -0.02669760272520838 0.01081886448266365 0 -0.027251557578275378 0.011631791554402216 0 -0.026741012874232497 0.010882771818279038 0 -0.026250598341885301 0.01168208211617809 0 -0.027395433586827823 0.011765819914290583 0 -0.02669760272520838 0.01081886448266365 0 -0.026250598341885301 0.01168208211617809 0 -0.027395433586827823 0.011765819914290583 0 -0.027120462453603555 0.012474282775664635 0 -0.027859710475375915 0.012368809605584834 0 -0.027251557578275378 0.011631791554402216 0 -0.028041704872036402 0.012707364474328254 0 -0.027395433586827823 0.011765819914290583 0 -0.027120462453603555 0.012474282775664635 0 -0.027589299213912021 0.012199318466210821 0 -0.027123913375285479 0.011494794633104622 0 -0.027625694063327183 0.011349784988737744 0 -0.027123913375285479 0.011494794633104622 0 -0.027625694063327183 0.011349784988737744 0 -0.027192857226354658 0.010737038891649687 0 -0.027821766190368028 0.010861593934977038 0 -0.027625694063327183 0.011349784988737744 0 -0.027192857226354658 0.010737038891649687 0 -0.027821766190368028 0.010861593934977038 0 -0.027192857226354658 0.010737038891649687 0 -0.027624768985433361 0.010321563369128678 0 -0.027192857226354658 0.010737038891649687 0 -0.027624768985433361 0.010321563369128678 0 -0.027142157192968544 0.010158483871675832 0 -0.026547926881561511 0.010325540904696309 0 -0.027192857226354658 0.010737038891649687 0 -0.027142157192968544 0.010158483871675832 0 -0.026547926881561511 0.010325540904696309 0 -0.027192857226354658 0.010737038891649687 0 -0.02669760272520838 0.01081886448266365 0 -0.026547926881561511 0.010325540904696309 0 -0.026770279736787771 0.0098111760586050804 0 -0.027142157192968544 0.010158483871675832 0 -0.026365038794946574 0.0098559183065240145 0 -0.026547926881561511 0.010325540904696309 0 -0.026770279736787771 0.0098111760586050804 0 -0.026770279736787771 0.0098111760586050804 0 -0.027142157192968544 0.010158483871675832 0 -0.027337381946023351 0.0096819254815270171 0 -0.027624768985433361 0.010321563369128678 0 -0.027142157192968544 0.010158483871675832 0 -0.027337381946023351 0.0096819254815270171 0 -0.028021513177660884 0.0099088509396311683 0 -0.027624768985433361 0.010321563369128678 0 -0.027337381946023351 0.0096819254815270171 0 -0.027337381946023351 0.0096819254815270171 0 -0.026854845358144565 0.0093314555180709982 0 -0.027318608732917846 0.0089450289341576963 0 -0.027790610144747274 0.0092820018510631416 0 -0.027337381946023351 0.0096819254815270171 0 -0.027318608732917846 0.0089450289341576963 0 -0.026770279736787771 0.0098111760586050804 0 -0.027337381946023351 0.0096819254815270171 0 -0.026854845358144565 0.0093314555180709982 0 -0.026770279736787771 0.0098111760586050804 0 -0.026854845358144565 0.0093314555180709982 0 -0.026448499732379862 0.0095219968365792638 0 -0.026854845358144565 0.0093314555180709982 0 -0.026447847243261293 0.0091483282558657546 0 -0.026448499732379862 0.0095219968365792638 0 -0.026854845358144565 0.0093314555180709982 0 -0.026791707306873386 0.0088237092764892021 0 -0.027318608732917846 0.0089450289341576963 0 -0.026791707306873386 0.0088237092764892021 0 -0.026471978414974832 0.0087682067858388026 0 -0.026447847243261293 0.0091483282558657546 0 -0.026854845358144565 0.0093314555180709982 0 -0.026791707306873386 0.0088237092764892021 0 -0.026447847243261293 0.0091483282558657546 0 -0.026791707306873386 0.0088237092764892021 0 -0.026658492472918901 0.0083598141901632689 0 -0.026471978414974832 0.0087682067858388026 0 -0.026791707306873386 0.0088237092764892021 0 -0.027318608732917846 0.0089450289341576963 0 -0.02713409395580486 0.0083448506987894352 0 -0.026791707306873386 0.0088237092764892021 0 -0.02713409395580486 0.0083448506987894352 0 -0.026658492472918901 0.0083598141901632689 0 -0.027790610144747274 0.0092820018510631416 0 -0.02792164119883064 0.0085915434446527644 0 -0.027318608732917846 0.0089450289341576963 0 -0.027318608732917846 0.0089450289341576963 0 -0.027494867577720565 0.0084818014027290955 0 -0.02713409395580486 0.0083448506987894352 0 -0.02792164119883064 0.0085915434446527644 0 -0.027494867577720565 0.0084818014027290955 0 -0.027613037475999552 0.0080368587141776866 0 -0.02792164119883064 0.0085915434446527644 0 -0.027318608732917846 0.0089450289341576963 0 -0.027494867577720565 0.0084818014027290955 0 -0.027494867577720565 0.0084818014027290955 0 -0.027613037475999552 0.0080368587141776866 0 -0.02713409395580486 0.0083448506987894352 0 -0.027613037475999552 0.0080368587141776866 0 -0.02713409395580486 0.0083448506987894352 0 -0.027294895871009653 0.0078484678820277352 0 -0.027294895871009653 0.0078484678820277352 0 -0.027269756963094065 0.0074251685396380862 0 -0.026971810745955858 0.0078123947748143571 0 -0.02713409395580486 0.0083448506987894352 0 -0.027294895871009653 0.0078484678820277352 0 -0.026971810745955858 0.0078123947748143571 0 -0.027753736886647246 0.0075250059216307591 0 -0.027613037475999552 0.0080368587141776866 0 -0.027294895871009653 0.0078484678820277352 0 -0.027936568668620338 0.0067564744012467669 0 -0.027753736886647246 0.0075250059216307591 0 -0.027269756963094065 0.0074251685396380862 0 -0.027269756963094065 0.0074251685396380862 0 -0.027128082514474027 0.0069971356793531317 0 -0.026971810745955858 0.0078123947748143571 0 -0.027936568668620338 0.0067564744012467669 0 -0.027269756963094065 0.0074251685396380862 0 -0.026977842004186917 0.0067574577314675841 0 -0.027753736886647246 0.0075250059216307591 0 -0.027294895871009653 0.0078484678820277352 0 -0.027269756963094065 0.0074251685396380862 0 -0.027451040128259621 0.0072321582626872051 0 -0.027808709125349409 0.0064930935589798842 0 -0.027128082514474027 0.0069971356793531317 0 -0.026971810745955858 0.0078123947748143571 0 -0.026389490711112622 0.0079339879480459369 0 -0.029905450717170726 0.0062807023937877238 0 -0.029202118296618427 0.0064361413104947161 0 -0.029057174930034759 0.0071764117312334199 0 -0.027808709125349409 0.0064930935589798842 0 -0.027851494616940704 0.0075515095402844436 0 -0.026971810745955858 0.0078123947748143571 0 -0.026658492472918901 0.0083598141901632689 0 -0.026389490711112622 0.0079339879480459369 0 -0.02713409395580486 0.0083448506987894352 0 -0.026971810745955858 0.0078123947748143571 0 -0.026658492472918901 0.0083598141901632689 0 -0.028603260879357544 0.0071960381831020059 0 -0.029057174930034759 0.0071764117312334199 0 -0.027972513918192141 0.0083403042555648781 0 -0.026389490711112622 0.0079339879480459369 0 -0.025813712082295288 0.008986188790959115 0 -0.026296309174535487 0.0086119698938917945 0 -0.027851494616940704 0.0075515095402844436 0 -0.02689462817517993 0.0086540945344614137 0 -0.026658492472918901 0.0083598141901632689 0 -0.026389490711112622 0.0079339879480459369 0 -0.026296309174535487 0.0086119698938917945 0 -0.028603260879357544 0.0071960381831020059 0 -0.029057174930034759 0.0071764117312334199 0 -0.028715054023607071 0.0067179014579628439 0 -0.029202118296618427 0.0064361413104947161 0 -0.029057174930034759 0.0071764117312334199 0 -0.028715054023607071 0.0067179014579628439 0 -0.028603260879357544 0.0071960381831020059 0 -0.028715054023607071 0.0067179014579628439 0 -0.028329438532126341 0.0068922250100742271 0 -0.028715054023607071 0.0067179014579628439 0 -0.028153801322845493 0.006457171948303142 0 -0.028812095026042997 0.0061122034302456109 0 -0.029202118296618427 0.0064361413104947161 0 -0.028715054023607071 0.0067179014579628439 0 -0.028812095026042997 0.0061122034302456109 0 -0.028153801322845493 0.006457171948303142 0 -0.027862235117678828 0.0071838318830038713 0 -0.027382275587471513 0.0065526720379980707 0 -0.028715054023607071 0.0067179014579628439 0 -0.028153801322845493 0.006457171948303142 0 -0.028329438532126341 0.0068922250100742271 0 -0.028153801322845493 0.006457171948303142 0 -0.028329438532126341 0.0068922250100742271 0 -0.027862235117678828 0.0071838318830038713 0 -0.028603260879357544 0.0071960381831020059 0 -0.027862235117678828 0.0071838318830038713 0 -0.027727560638136913 0.0079907441463435442 0 -0.028603260879357544 0.0071960381831020059 0 -0.028329438532126341 0.0068922250100742271 0 -0.027862235117678828 0.0071838318830038713 0 -0.028553692078856621 0.0072491865671086538 0 -0.027568945519788828 0.0081156736090038737 0 -0.028603260879357544 0.0071960381831020059 0 -0.027972513918192141 0.0083403042555648781 0 -0.027378479189757211 0.0082584226511850985 0 -0.025813712082295288 0.008986188790959115 0 -0.025864172143058885 0.009444154005995492 0 -0.025957740571377352 0.0092773320143501922 0 -0.025813712082295288 0.008986188790959115 0 -0.026177674087174981 0.0089976724579147929 0 -0.025957740571377352 0.0092773320143501922 0 -0.025813712082295288 0.008986188790959115 0 -0.026296309174535487 0.0086119698938917945 0 -0.026177674087174981 0.0089976724579147929 0 -0.026296309174535487 0.0086119698938917945 0 -0.026471978414974832 0.0087682067858388026 0 -0.026177674087174981 0.0089976724579147929 0 -0.026658492472918901 0.0083598141901632689 0 -0.026296309174535487 0.0086119698938917945 0 -0.026471978414974832 0.0087682067858388026 0 -0.026471978414974832 0.0087682067858388026 0 -0.026177674087174981 0.0089976724579147929 0 -0.026447847243261293 0.0091483282558657546 0 -0.026177674087174981 0.0089976724579147929 0 -0.026118821599340373 0.0093847969182946998 0 -0.026447847243261293 0.0091483282558657546 0 -0.026177674087174981 0.0089976724579147929 0 -0.026118821599340373 0.0093847969182946998 0 -0.025957740571377352 0.0092773320143501922 0 -0.026118821599340373 0.0093847969182946998 0 -0.026447847243261293 0.0091483282558657546 0 -0.026448499732379862 0.0095219968365792638 0 -0.026365038794946574 0.0098559183065240145 0 -0.026448499732379862 0.0095219968365792638 0 -0.02619483118285159 0.0096378397908700071 0 -0.026118821599340373 0.0093847969182946998 0 -0.02619483118285159 0.0096378397908700071 0 -0.026004480782300003 0.009620816539141536 0 -0.026118821599340373 0.0093847969182946998 0 -0.026448499732379862 0.0095219968365792638 0 -0.02619483118285159 0.0096378397908700071 0 -0.026072324051590594 0.0098228358452225085 0 -0.02619483118285159 0.0096378397908700071 0 -0.026004480782300003 0.009620816539141536 0 -0.026118821599340373 0.0093847969182946998 0 -0.026004480782300003 0.009620816539141536 0 -0.025922241995753256 0.0095155473990921179 0 -0.025813712082295288 0.008986188790959115 0 -0.025864172143058885 0.009444154005995492 0 -0.025820678968002334 0.009756102051468922 0 -0.025928750265121755 0.0097341641624214895 0 -0.026004480782300003 0.009620816539141536 0 -0.025896571635015898 0.0096715568440887516 0 -0.026004480782300003 0.009620816539141536 0 -0.025922241995753256 0.0095155473990921179 0 -0.025896571635015898 0.0096715568440887516 0 -0.025889011934440945 0.0097447316147928828 0 -0.025896571635015898 0.0096715568440887516 0 -0.02587436015484124 0.009645563939559211 0 -0.025883929673218113 0.0097624057334300251 0 -0.025889011934440945 0.0097447316147928828 0 -0.02587436015484124 0.009645563939559211 0 -0.025922241995753256 0.0095155473990921179 0 -0.02587436015484124 0.009645563939559211 0 -0.025864172143058885 0.009444154005995492 0 -0.025922241995753256 0.0095155473990921179 0 -0.025896571635015898 0.0096715568440887516 0 -0.02587436015484124 0.009645563939559211 0 -0.025922241995753256 0.0095155473990921179 0 -0.025864172143058885 0.009444154005995492 0 -0.025957740571377352 0.0092773320143501922 0 -0.026118821599340373 0.0093847969182946998 0 -0.025922241995753256 0.0095155473990921179 0 -0.025957740571377352 0.0092773320143501922 0 -0.02689462817517993 0.0086540945344614137 0 -0.026378594819402308 0.0095421848696779412 0 -0.02689723534782415 0.0093811341155648504 0 -0.026331761478287273 0.0092367904491304047 0 -0.027378479189757211 0.0082584226511850985 0 -0.025883929673218113 0.0097624057334300251 0 -0.02587436015484124 0.009645563939559211 0 -0.025820678968002334 0.009756102051468922 0 -0.02587436015484124 0.009645563939559211 0 -0.025864172143058885 0.009444154005995492 0 -0.025820678968002334 0.009756102051468922 0 -0.02679879693043602 0.0089067131042613081 0 -0.027047284833937132 0.0079855811761269657 0 -0.0263864768363836 0.0083063616049731098 0 -0.027047284833937132 0.0079855811761269657 0 -0.026530335820740988 0.0077783995875538008 0 -0.0263864768363836 0.0083063616049731098 0 -0.02655521851182837 0.009079103826857093 0 -0.027568945519788828 0.0081156736090038737 0 -0.02679879693043602 0.0089067131042613081 0 -0.027047284833937132 0.0079855811761269657 0 -0.027727560638136913 0.0079907441463435442 0 -0.027972513918192141 0.0083403042555648781 0 -0.02689723534782415 0.0093811341155648504 0 -0.027378479189757211 0.0082584226511850985 0 -0.027047284833937132 0.0079855811761269657 0 -0.027727560638136913 0.0079907441463435442 0 -0.027568159681291546 0.0075406197805236328 0 -0.027862235117678828 0.0071838318830038713 0 -0.027568159681291546 0.0075406197805236328 0 -0.027119612289492966 0.0074286612996677494 0 -0.027862235117678828 0.0071838318830038713 0 -0.027119612289492966 0.0074286612996677494 0 -0.027382275587471513 0.0065526720379980707 0 -0.027862235117678828 0.0071838318830038713 0 -0.027727560638136913 0.0079907441463435442 0 -0.027568159681291546 0.0075406197805236328 0 -0.027047284833937132 0.0079855811761269657 0 -0.027568159681291546 0.0075406197805236328 0 -0.027119612289492966 0.0074286612996677494 0 -0.028153801322845493 0.006457171948303142 0 -0.027382275587471513 0.0065526720379980707 0 -0.027606760345941821 0.0058093225890589939 0 -0.027119612289492966 0.0074286612996677494 0 -0.027382275587471513 0.0065526720379980707 0 -0.026558105312594341 0.0064905597591758627 0 -0.027382275587471513 0.0065526720379980707 0 -0.026558105312594341 0.0064905597591758627 0 -0.026941758768756478 0.0059375142270534764 0 -0.027119612289492966 0.0074286612996677494 0 -0.026530335820740988 0.0077783995875538008 0 -0.02608513772082675 0.0072647138486201558 0 -0.027119612289492966 0.0074286612996677494 0 -0.026558105312594341 0.0064905597591758627 0 -0.026052820657414613 0.0071592026108337854 0 -0.0270590084853316 0.0074161540553472826 0 -0.026080901761871868 0.0072139703455958984 0 -0.027047284833937132 0.0079855811761269657 0 -0.027119612289492966 0.0074286612996677494 0 -0.026530335820740988 0.0077783995875538008 0 -0.026530335820740988 0.0077783995875538008 0 -0.02608513772082675 0.0072647138486201558 0 -0.025749004286248704 0.0079407505101933111 0 -0.026558105312594341 0.0064905597591758627 0 -0.026052820657414613 0.0071592026108337854 0 -0.025558983752474458 0.006245536649539485 0 -0.026052820657414613 0.0071592026108337854 0 -0.024999942421631689 0.0069869341227337834 0 -0.025558983752474458 0.006245536649539485 0 -0.02608513772082675 0.0072647138486201558 0 -0.024999981238053224 0.0069872462617711359 0 -0.025749004286248704 0.0079407505101933111 0 -0.024999981238053224 0.0069872462617711359 0 -0.024999940825028589 0.0082493676096509344 0 -0.025749004286248704 0.0079407505101933111 0 -0.026080901761871868 0.0072139703455958984 0 -0.025000178211324688 0.0069871416820123265 0 -0.024999940825028589 0.0082493676096509344 0 -0.025749004286248704 0.0079407505101933111 0 -0.025806315076767082 0.0087697094701494303 0 -0.025749004286248704 0.0079407505101933111 0 -0.0263864768363836 0.0083063616049731098 0 -0.025806315076767082 0.0087697094701494303 0 -0.026530335820740988 0.0077783995875538008 0 -0.025749004286248704 0.0079407505101933111 0 -0.0263864768363836 0.0083063616049731098 0 -0.02679879693043602 0.0089067131042613081 0 -0.0263864768363836 0.0083063616049731098 0 -0.025806315076767082 0.0087697094701494303 0 -0.025708752400913103 0.0098798165541007302 0 -0.02679879693043602 0.0089067131042613081 0 -0.025806315076767082 0.0087697094701494303 0 -0.024999893888766552 0.0095118659579625717 0 -0.024999940825028589 0.0082493676096509344 0 -0.025806315076767082 0.0087697094701494303 0 -0.025956352424365538 0.0031835504602153717 0 -0.024999968972325013 0.0040227750902119639 0 -0.024999851849500071 0.0025509869869277022 0 -0.025824188320820968 0.0035299233825463448 0 -0.025591966894202397 0.0040782639770593695 0 -0.024999891203595408 0.0040232035768267074 0 -0.025873110349904561 0.0033595308973125839 0 -0.025000127405416486 0.0040228902184734697 0 -0.025824188320820968 0.0035299233825463448 0 -0.025591966894202397 0.0040782639770593695 0 -0.026144171136508028 0.0042294289519621431 0 -0.025279683332578386 0.0046384882962897927 0 -0.026249669189025836 0.0043628341669803682 0 -0.025240101136807695 0.0046529683990747849 0 -0.025987244267685554 0.0050526686545948486 0 -0.026400029336981014 0.0044764339342002642 0 -0.025591966894202397 0.0040782639770593695 0 -0.025240101136807695 0.0046529683990747849 0 -0.026144171136508028 0.0042294289519621431 0 -0.025591966894202397 0.0040782639770593695 0 -0.025240101136807695 0.0046529683990747849 0 -0.024999891203595408 0.0040232035768267074 0 -0.025240101136807695 0.0046529683990747849 0 -0.025571301126803843 0.0053753094347307176 0 -0.025987244267685554 0.0050526686545948486 0 -0.025240101136807695 0.0046529683990747849 0 -0.024999891203595408 0.0040232035768267074 0 -0.024999927560738249 0.0055050863426093699 0 -0.025240101136807695 0.0046529683990747849 0 -0.025571301126803843 0.0053753094347307176 0 -0.024999927560738249 0.0055050863426093699 0 -0.024999942421631689 0.0069869341227337834 0 -0.024999927560738249 0.0055050863426093699 0 -0.025558983752474458 0.006245536649539485 0 -0.025571301126803843 0.0053753094347307176 0 -0.024999927560738249 0.0055050863426093699 0 -0.025558983752474458 0.006245536649539485 0 -0.026558105312594341 0.0064905597591758627 0 -0.025558983752474458 0.006245536649539485 0 -0.02625305658555593 0.0056936576640581821 0 -0.025571301126803843 0.0053753094347307176 0 -0.025558983752474458 0.006245536649539485 0 -0.02625305658555593 0.0056936576640581821 0 -0.025571301126803843 0.0053753094347307176 0 -0.02625305658555593 0.0056936576640581821 0 -0.025987244267685554 0.0050526686545948486 0 -0.025987244267685554 0.0050526686545948486 0 -0.026909535254919764 0.005156506600822691 0 -0.026400029336981014 0.0044764339342002642 0 -0.02625305658555593 0.0056936576640581821 0 -0.025987244267685554 0.0050526686545948486 0 -0.026909535254919764 0.005156506600822691 0 -0.02625305658555593 0.0056936576640581821 0 -0.026909535254919764 0.005156506600822691 0 -0.026941758768756478 0.0059375142270534764 0 -0.026558105312594341 0.0064905597591758627 0 -0.02625305658555593 0.0056936576640581821 0 -0.026941758768756478 0.0059375142270534764 0 -0.026909535254919764 0.005156506600822691 0 -0.026941758768756478 0.0059375142270534764 0 -0.027606760345941821 0.0058093225890589939 0 -0.027382275587471513 0.0065526720379980707 0 -0.026941758768756478 0.0059375142270534764 0 -0.027606760345941821 0.0058093225890589939 0 -0.026909535254919764 0.005156506600822691 0 -0.027606760345941821 0.0058093225890589939 0 -0.027650600054364198 0.0050461073401590452 0 -0.026909535254919764 0.005156506600822691 0 -0.027650600054364198 0.0050461073401590452 0 -0.027484533376508857 0.0041753571999328084 0 -0.027345027802920273 0.0040768416610515506 0 -0.026249669189025836 0.0043628341669803682 0 -0.027145436732261611 0.0039979596595363515 0 -0.026144171136508028 0.0042294289519621431 0 -0.02645902098522215 0.0036282995375105528 0 -0.026909535254919764 0.005156506600822691 0 -0.027484533376508857 0.0041753571999328084 0 -0.026400029336981014 0.0044764339342002642 0 -0.025824188320820968 0.0035299233825463448 0 -0.026144171136508028 0.0042294289519621431 0 -0.02645902098522215 0.0036282995375105528 0 -0.025824188320820968 0.0035299233825463448 0 -0.02645902098522215 0.0036282995375105528 0 -0.026640661651739918 0.0028634116044859576 0 -0.027145436732261611 0.0039979596595363515 0 -0.02645902098522215 0.0036282995375105528 0 -0.027448552006056136 0.0031739492679284725 0 -0.027145436732261611 0.0039979596595363515 0 -0.028524268086014517 0.0037605390045188374 0 -0.027448552006056136 0.0031739492679284725 0 -0.027345027802920273 0.0040768416610515506 0 -0.028469462488611128 0.0037748471968715633 0 -0.027850708065290448 0.0039969719347279853 0 -0.027507568006688386 0.0027162237409789204 0 -0.028524268086014517 0.0037605390045188374 0 -0.029039644029595749 0.0040069168284179776 0 -0.028471306673390047 0.0026803251468630156 0 -0.026669411177338127 0.003969178387895702 0 -0.027041349539587482 0.0031758036951222428 0 -0.026526054775970892 0.0027006592555915911 0 -0.028524268086014517 0.0037605390045188374 0 -0.028571916063693536 0.0044561923346821426 0 -0.029039644029595749 0.0040069168284179776 0 -0.028571916063693536 0.0044561923346821426 0 -0.029494104193144844 0.0051594098241456573 0 -0.029039644029595749 0.0040069168284179776 0 -0.027650600054364198 0.0050461073401590452 0 -0.027484533376508857 0.0041753571999328084 0 -0.028210947822099548 0.0049160053238809422 0 -0.027484533376508857 0.0041753571999328084 0 -0.028524268086014517 0.0037605390045188374 0 -0.028571916063693536 0.0044561923346821426 0 -0.027484533376508857 0.0041753571999328084 0 -0.028571916063693536 0.0044561923346821426 0 -0.028210947822099548 0.0049160053238809422 0 -0.027606760345941821 0.0058093225890589939 0 -0.027650600054364198 0.0050461073401590452 0 -0.028226629489649935 0.0056160103348858962 0 -0.027650600054364198 0.0050461073401590452 0 -0.028210947822099548 0.0049160053238809422 0 -0.028226629489649935 0.0056160103348858962 0 -0.028153801322845493 0.006457171948303142 0 -0.027606760345941821 0.0058093225890589939 0 -0.028226629489649935 0.0056160103348858962 0 -0.028153801322845493 0.006457171948303142 0 -0.028226629489649935 0.0056160103348858962 0 -0.028812095026042997 0.0061122034302456109 0 -0.028812095026042997 0.0061122034302456109 0 -0.028787857297276322 0.0053644301971585481 0 -0.029256525598333066 0.0058754900807440492 0 -0.028226629489649935 0.0056160103348858962 0 -0.028812095026042997 0.0061122034302456109 0 -0.028787857297276322 0.0053644301971585481 0 -0.029202118296618427 0.0064361413104947161 0 -0.028812095026042997 0.0061122034302456109 0 -0.029256525598333066 0.0058754900807440492 0 -0.028571916063693536 0.0044561923346821426 0 -0.028210947822099548 0.0049160053238809422 0 -0.028787857297276322 0.0053644301971585481 0 -0.028571916063693536 0.0044561923346821426 0 -0.028787857297276322 0.0053644301971585481 0 -0.029494104193144844 0.0051594098241456573 0 -0.028210947822099548 0.0049160053238809422 0 -0.028226629489649935 0.0056160103348858962 0 -0.028787857297276322 0.0053644301971585481 0 -0.028787857297276322 0.0053644301971585481 0 -0.029494104193144844 0.0051594098241456573 0 -0.029256525598333066 0.0058754900807440492 0 -0.029905450717170726 0.0062807023937877238 0 -0.029494104193144844 0.0051594098241456573 0 -0.029256525598333066 0.0058754900807440492 0 -0.029905450717170726 0.0062807023937877238 0 -0.029202118296618427 0.0064361413104947161 0 -0.029256525598333066 0.0058754900807440492 0 -0.027808709125349409 0.0064930935589798842 0 -0.028335196465421784 0.0051768159289365878 0 -0.027936568668620338 0.0067564744012467669 0 -0.026977842004186917 0.0067574577314675841 0 -0.02812947670217519 0.0055606509789835517 0 -0.027808709125349409 0.0064930935589798842 0 -0.027861381075641067 0.005666410636918238 0 -0.027334422285767025 0.0062783766396210128 0 -0.026973429051648547 0.0052276103445622942 0 -0.02812947670217519 0.0055606509789835517 0 -0.026973429051648547 0.0052276103445622942 0 -0.02783799425151251 0.0044996486012274708 0 -0.02812947670217519 0.0055606509789835517 0 -0.026973429051648547 0.0052276103445622942 0 -0.02783799425151251 0.0044996486012274708 0 -0.027372776371548491 0.0038766594794370428 0 -0.026973429051648547 0.0052276103445622942 0 -0.026669411177338127 0.003969178387895702 0 -0.027372776371548491 0.0038766594794370428 0 -0.028335196465421784 0.0051768159289365878 0 -0.027850708065290448 0.0039969719347279853 0 -0.027372776371548491 0.0038766594794370428 0 -0.027542258712500049 0.0029748572681073224 0 -0.027041349539587482 0.0031758036951222428 0 -0.026669411177338127 0.003969178387895702 0 -0.027372776371548491 0.0038766594794370428 0 -0.027041349539587482 0.0031758036951222428 0 -0.02783799425151251 0.0044996486012274708 0 -0.027372776371548491 0.0038766594794370428 0 -0.028160738038330108 0.0034323880238384028 0 -0.027372776371548491 0.0038766594794370428 0 -0.027542258712500049 0.0029748572681073224 0 -0.028160738038330108 0.0034323880238384028 0 -0.027542258712500049 0.0029748572681073224 0 -0.028160738038330108 0.0034323880238384028 0 -0.02816035272659943 0.0019117844432436435 0 -0.027041349539587482 0.0031758036951222428 0 -0.027160307820971299 0.0025248924110557167 0 -0.026526054775970892 0.0027006592555915911 0 -0.027542258712500049 0.0029748572681073224 0 -0.027041349539587482 0.0031758036951222428 0 -0.027160307820971299 0.0025248924110557167 0 -0.027160307820971299 0.0025248924110557167 0 -0.027159285285392232 0.0018249168274911656 0 -0.02816035272659943 0.0019117844432436435 0 -0.027160307820971299 0.0025248924110557167 0 -0.027159285285392232 0.0018249168274911656 0 -0.026526054775970892 0.0027006592555915911 0 -0.027542258712500049 0.0029748572681073224 0 -0.027160307820971299 0.0025248924110557167 0 -0.02816035272659943 0.0019117844432436435 0 -0.027159285285392232 0.0018249168274911656 0 -0.027583945462488848 0.0010046421688482607 0 -0.02816035272659943 0.0019117844432436435 0 -0.023968296136724954 -0.0025291553366104716 0 -0.023798929152232636 -0.0026910768516280018 0 -0.024314078335092082 -0.0021613365769127539 0 -0.023818579454680033 -0.0027192617759117365 0 -0.02377620370229231 -0.0027128340213657767 0 -0.023726633397458983 -0.0027454432003178098 0 -0.023680847487723637 -0.0027664839336039347 0 -0.02377620370229231 -0.0027128340213657767 0 -0.024314078335092082 -0.0021613365769127539 0 -0.024444722075113525 -0.0022109999185782659 0 -0.023818579454680033 -0.0027192617759117365 0 -0.026007839421725604 -0.0006017682512787267 0 -0.025996627445792717 -0.00039440514294223261 0 -0.023726633397458983 -0.0027454432003178098 0 -0.023709373373112557 -0.0027618720326363271 0 -0.023680847487723637 -0.0027664839336039347 0 -0.023726633397458983 -0.0027454432003178098 0 -0.023709373373112557 -0.0027618720326363271 0 -0.023721678195691608 -0.0027565194568525036 0 -0.023712572570256867 -0.0027683960469395584 0 -0.023709373373112557 -0.0027618720326363271 0 -0.023721678195691608 -0.0027565194568525036 0 -0.023712572570256867 -0.0027683960469395584 0 -0.023709373373112557 -0.0027618720326363271 0 -0.023701429245684944 -0.0027736158177667229 0 -0.023709373373112557 -0.0027618720326363271 0 -0.023680847487723637 -0.0027664839336039347 0 -0.023701429245684944 -0.0027736158177667229 0 -0.02368815611626731 -0.0027986671520597774 0 -0.023680847487723637 -0.0027664839336039347 0 -0.023693127921975296 -0.0027823352936177451 0 -0.023700541958637855 -0.0027891911364092883 0 -0.023693127921975296 -0.0027823352936177451 0 -0.023701429245684944 -0.0027736158177667229 0 -0.02368815611626731 -0.0027986671520597774 0 -0.023700541958637855 -0.0027891911364092883 0 -0.023693127921975296 -0.0027823352936177451 0 -0.023700541958637855 -0.0027891911364092883 0 -0.02370674587591207 -0.0027803529040918702 0 -0.023706304481580589 -0.0027895532126144249 0 -0.023700541958637855 -0.0027891911364092883 0 -0.02370674587591207 -0.0027803529040918702 0 -0.023701429245684944 -0.0027736158177667229 0 -0.023712572570256867 -0.0027683960469395584 0 -0.02370674587591207 -0.0027803529040918702 0 -0.023701429245684944 -0.0027736158177667229 0 -0.023680847487723637 -0.0027664839336039347 0 -0.023693127921975296 -0.0027823352936177451 0 -0.023701429245684944 -0.0027736158177667229 0 -0.025925946819601722 -0.00083522567322095564 0 -0.026007839421725604 -0.0006017682512787267 0 -0.02721806447577995 0.00036624719277590016 0 -0.027583945462488848 0.0010046421688482607 0 -0.027036299209036267 0.00091006165593091493 0 -0.027583945462488848 0.0010046421688482607 0 -0.027061154771825191 0.0013454307115010992 0 -0.027036299209036267 0.00091006165593091493 0 -0.024602887904152861 -0.0019837712627728773 0 -0.024314078335092082 -0.0021613365769127539 0 -0.024444722075113525 -0.0022109999185782659 0 -0.027159285285392232 0.0018249168274911656 0 -0.027583945462488848 0.0010046421688482607 0 -0.027061154771825191 0.0013454307115010992 0 -0.027061154771825191 0.0013454307115010992 0 -0.027036299209036267 0.00091006165593091493 0 -0.026548583045099886 0.0015348197144038709 0 -0.027159285285392232 0.0018249168274911656 0 -0.027061154771825191 0.0013454307115010992 0 -0.026548583045099886 0.0015348197144038709 0 -0.02721806447577995 0.00036624719277590016 0 -0.027036299209036267 0.00091006165593091493 0 -0.026870825541169426 0.00061484793558882654 0 -0.026903796500715633 0.000719274569369115 0 -0.027164052846501235 0.0015241152883192122 0 -0.027036299209036267 0.00091006165593091493 0 -0.026870825541169426 0.00061484793558882654 0 -0.026548583045099886 0.0015348197144038709 0 -0.026870825541169426 0.00061484793558882654 0 -0.027759006174941776 0.0014306104136393568 0 -0.027247116111225538 0.0014471580970376989 0 -0.027759006174941776 0.0014306104136393568 0 -0.027562014047948471 0.0020287193798040329 0 -0.028471306673390047 0.0026803251468630156 0 -0.027759006174941776 0.0014306104136393568 0 -0.027247116111225538 0.0014471580970376989 0 -0.027562014047948471 0.0020287193798040329 0 -0.027164052846501235 0.0015241152883192122 0 -0.027507568006688386 0.0027162237409789204 0 -0.027159285285392232 0.0018249168274911656 0 -0.026548583045099886 0.0015348197144038709 0 -0.026526054775970892 0.0027006592555915911 0 -0.028524268086014517 0.0037605390045188374 0 -0.028471306673390047 0.0026803251468630156 0 -0.027448552006056136 0.0031739492679284725 0 -0.027562014047948471 0.0020287193798040329 0 -0.028471306673390047 0.0026803251468630156 0 -0.027448552006056136 0.0031739492679284725 0 -0.027562014047948471 0.0020287193798040329 0 -0.027448552006056136 0.0031739492679284725 0 -0.026640661651739918 0.0028634116044859576 0 -0.02645902098522215 0.0036282995375105528 0 -0.027448552006056136 0.0031739492679284725 0 -0.026640661651739918 0.0028634116044859576 0 -0.025873110349904561 0.0033595308973125839 0 -0.02670030182897775 0.002667979943328621 0 -0.026756036545638226 0.0017266775625378471 0 -0.02632153575237656 0.0011510745381303395 0 -0.025940804063007764 0.0019769785811879987 0 -0.026716350133070194 0.0024853664722085736 0 -0.026756036545638226 0.0017266775625378471 0 -0.025940804063007764 0.0019769785811879987 0 -0.027247116111225538 0.0014471580970376989 0 -0.027562014047948471 0.0020287193798040329 0 -0.026756036545638226 0.0017266775625378471 0 -0.027532837649873857 0.0020657324533936362 0 -0.02670030182897775 0.002667979943328621 0 -0.027562014047948471 0.0020287193798040329 0 -0.026716350133070194 0.0024853664722085736 0 -0.026756036545638226 0.0017266775625378471 0 -0.027247116111225538 0.0014471580970376989 0 -0.026756036545638226 0.0017266775625378471 0 -0.026846442491305089 0.0012395617997388031 0 -0.026870825541169426 0.00061484793558882654 0 -0.027247116111225538 0.0014471580970376989 0 -0.026846442491305089 0.0012395617997388031 0 -0.02651909514264103 0.00037401595609613065 0 -0.026870825541169426 0.00061484793558882654 0 -0.026564563358685418 0.00073441390871674373 0 -0.026870825541169426 0.00061484793558882654 0 -0.026846442491305089 0.0012395617997388031 0 -0.026564563358685418 0.00073441390871674373 0 -0.026112075025200038 0.00036661538055987695 0 -0.026564563358685418 0.00073441390871674373 0 -0.02632153575237656 0.0011510745381303395 0 -0.02651909514264103 0.00037401595609613065 0 -0.026112075025200038 0.00036661538055987695 0 -0.026564563358685418 0.00073441390871674373 0 -0.026846442491305089 0.0012395617997388031 0 -0.026564563358685418 0.00073441390871674373 0 -0.02632153575237656 0.0011510745381303395 0 -0.026756036545638226 0.0017266775625378471 0 -0.026846442491305089 0.0012395617997388031 0 -0.02632153575237656 0.0011510745381303395 0 -0.02632153575237656 0.0011510745381303395 0 -0.025777882018354376 0.00082144932651531416 0 -0.025940804063007764 0.0019769785811879987 0 -0.026112075025200038 0.00036661538055987695 0 -0.02632153575237656 0.0011510745381303395 0 -0.025777882018354376 0.00082144932651531416 0 -0.026112075025200038 0.00036661538055987695 0 -0.025553780240054315 1.9084052005404833e-06 0 -0.025777882018354376 0.00082144932651531416 0 -0.024999957916567225 -0.00039212609646987242 0 -0.025553780240054315 1.9084052005404833e-06 0 -0.024999941978658027 0.0010793753916765142 0 -0.025553780240054315 1.9084052005404833e-06 0 -0.025777882018354376 0.00082144932651531416 0 -0.024999941978658027 0.0010793753916765142 0 -0.025777882018354376 0.00082144932651531416 0 -0.024999941978658027 0.0010793753916765142 0 -0.025940804063007764 0.0019769785811879987 0 -0.024999941978658027 0.0010793753916765142 0 -0.025940804063007764 0.0019769785811879987 0 -0.024999851849500071 0.0025509869869277022 0 -0.025956352424365538 0.0031835504602153717 0 -0.025940804063007764 0.0019769785811879987 0 -0.024999851849500071 0.0025509869869277022 0 -0.025956352424365538 0.0031835504602153717 0 -0.026716350133070194 0.0024853664722085736 0 -0.025940804063007764 0.0019769785811879987 0 -0.024216685953767022 -0.0020217685910889111 0 -0.024116656229266415 -0.0019570982476252315 0 -0.024170267569017967 -0.0021302692956379483 0 -0.024216685953767022 -0.0020217685910889111 0 -0.024116656229266415 -0.0019570982476252315 0 -0.02422053301486489 -0.0018714119792018452 0 -0.024116656229266415 -0.0019570982476252315 0 -0.024170267569017967 -0.0021302692956379483 0 -0.023964446950261023 -0.0022739231837544485 0 -0.024170267569017967 -0.0021302692956379483 0 -0.023964446950261023 -0.0022739231837544485 0 -0.024051785784135069 -0.0023297100259828565 0 -0.024216685953767022 -0.0020217685910889111 0 -0.024170267569017967 -0.0021302692956379483 0 -0.024221179681860588 -0.0019908174116824934 0 -0.024036110076861655 -0.0020944894842927077 0 -0.024547121186811821 -0.0021485694299266146 0 -0.024170267569017967 -0.0021302692956379483 0 -0.024239690066738425 -0.0022023582102946599 0 -0.024231786118257791 -0.0022442314666693327 0 -0.024239690066738425 -0.0022023582102946599 0 -0.02425286218969637 -0.0022388924034302078 0 -0.024231786118257791 -0.0022442314666693327 0 -0.024239690066738425 -0.0022023582102946599 0 -0.02425286218969637 -0.0022388924034302078 0 -0.024273822294563527 -0.0022274492235674613 0 -0.024547121186811821 -0.0021485694299266146 0 -0.022603021349864402 -0.0019841412886731223 0 -0.024221179681860588 -0.0019908174116824934 0 -0.024078529817977576 -0.0019296515940349199 0 -0.024075049354224779 -0.0019532128703206994 0 -0.024221179681860588 -0.0019908174116824934 0 -0.024211021907289694 -0.0020154864746168128 0 -0.024075049354224779 -0.0019532128703206994 0 -0.02425286218969637 -0.0022388924034302078 0 -0.024273834783405359 -0.0022316758716173488 0 -0.024273822294563527 -0.0022274492235674613 0 -0.019998810177598313 0.0035059987827160935 0 -0.021203218718577953 0.0024035808058813501 0 -0.021513350937699766 0.0039744986685941123 0 -0.022475408652393117 0.00071099274116386392 0 -0.020756461998475348 -0.00038697456438150236 0 -0.024216685953767022 -0.0020217685910889111 0 -0.024211021907289694 -0.0020154864746168128 0 -0.02422053301486489 -0.0018714119792018452 0 -0.024216685953767022 -0.0020217685910889111 0 -0.024221179681860588 -0.0019908174116824934 0 -0.024211021907289694 -0.0020154864746168128 0 -0.019998810177598313 0.0035059987827160935 0 -0.019903645629223522 0.0048260851534250243 0 -0.018857732385757133 0.004590746275040497 0 -0.022475408652393117 0.00071099274116386392 0 -0.020832793521341375 0.0012830266328435105 0 -0.019903645629223522 0.0048260851534250243 0 -0.019340338028823158 0.0056810352710003906 0 -0.018857732385757133 0.004590746275040497 0 -0.019998810177598313 0.0035059987827160935 0 -0.020989602892285662 0.0046655454887292993 0 -0.021513350937699766 0.0039744986685941123 0 -0.019903645629223522 0.0048260851534250243 0 -0.020989602892285662 0.0046655454887292993 0 -0.020356223188796707 0.0056655920863827938 0 -0.019998810177598313 0.0035059987827160935 0 -0.019903645629223522 0.0048260851534250243 0 -0.020989602892285662 0.0046655454887292993 0 -0.020989602892285662 0.0046655454887292993 0 -0.020356223188796707 0.0056655920863827938 0 -0.021205034458942951 0.0054903276063592073 0 -0.020356223188796707 0.0056655920863827938 0 -0.020928639118116141 0.0059922192026865264 0 -0.021205034458942951 0.0054903276063592073 0 -0.019903645629223522 0.0048260851534250243 0 -0.020356223188796707 0.0056655920863827938 0 -0.019340338028823158 0.0056810352710003906 0 -0.020176550173084423 0.0066278384738476144 0 -0.020356223188796707 0.0056655920863827938 0 -0.019340338028823158 0.0056810352710003906 0 -0.019340338028823158 0.0056810352710003906 0 -0.018640759795060982 0.0057114361387568761 0 -0.018857732385757133 0.004590746275040497 0 -0.020832793521341375 0.0012830266328435105 0 -0.025916592519932915 0.0045809503581015964 0 -0.018640759795060982 0.0057114361387568761 0 -0.018857732385757133 0.004590746275040497 0 -0.017776610676846921 0.0056222266465829921 0 -0.018937391571109338 0.0061347263367141167 0 -0.019340338028823158 0.0056810352710003906 0 -0.018640759795060982 0.0057114361387568761 0 -0.018565172300087453 0.0065247659096899849 0 -0.018640759795060982 0.0057114361387568761 0 -0.017776610676846921 0.0056222266465829921 0 -0.024116656229266415 -0.0019570982476252315 0 -0.02422053301486489 -0.0018714119792018452 0 -0.024113803402395849 -0.0016549511293121565 0 -0.024116656229266415 -0.0019570982476252315 0 -0.024113803402395849 -0.0016549511293121565 0 -0.023954068630140206 -0.0019074772656754225 0 -0.025916592519932915 0.0045809503581015964 0 -0.027253563369463593 0.0013045045609844583 0 -0.030927476863273677 0.0063464456540210951 0 -0.030588981095935022 0.0066680379596995177 0 -0.030206656373439261 0.0062051981977199406 0 -0.025916592519932915 0.0045809503581015964 0 -0.029309071167165624 0.0048925309763490285 0 -0.029867383943819239 0.0069950824157119862 0 -0.030588981095935022 0.0066680379596995177 0 -0.030206656373439261 0.0062051981977199406 0 -0.030927476863273677 0.0063464456540210951 0 -0.030206656373439261 0.0062051981977199406 0 -0.030224681115413286 0.0052206852279901451 0 -0.029867383943819239 0.0069950824157119862 0 -0.030206656373439261 0.0062051981977199406 0 -0.029449207738695728 0.0057879357515333903 0 -0.029045369954978174 0.0071764132908272524 0 -0.029867383943819239 0.0069950824157119862 0 -0.029449207738695728 0.0057879357515333903 0 -0.030206656373439261 0.0062051981977199406 0 -0.029449207738695728 0.0057879357515333903 0 -0.030224681115413286 0.0052206852279901451 0 -0.029449207738695728 0.0057879357515333903 0 -0.028739784790866574 0.0062989231541439325 0 -0.028644309408334435 0.0045835549142433972 0 -0.028739784790866574 0.0062989231541439325 0 -0.02812947670217519 0.0055606509789835517 0 -0.028644309408334435 0.0045835549142433972 0 -0.027936568668620338 0.0067564744012467669 0 -0.028739784790866574 0.0062989231541439325 0 -0.02812947670217519 0.0055606509789835517 0 -0.029045369954978174 0.0071764132908272524 0 -0.029449207738695728 0.0057879357515333903 0 -0.028739784790866574 0.0062989231541439325 0 -0.028644309408334435 0.0045835549142433972 0 -0.029521292501145088 0.0040628596285240959 0 -0.028825784442843217 0.0029603255277042897 0 -0.029449207738695728 0.0057879357515333903 0 -0.028644309408334435 0.0045835549142433972 0 -0.029521292501145088 0.0040628596285240959 0 -0.028644309408334435 0.0045835549142433972 0 -0.028160738038330108 0.0034323880238384028 0 -0.028825784442843217 0.0029603255277042897 0 -0.02783799425151251 0.0044996486012274708 0 -0.02812947670217519 0.0055606509789835517 0 -0.028644309408334435 0.0045835549142433972 0 -0.02783799425151251 0.0044996486012274708 0 -0.028644309408334435 0.0045835549142433972 0 -0.028160738038330108 0.0034323880238384028 0 -0.023794652749166305 -0.0025107037109825996 0 -0.023766196736953869 -0.002259959716590198 0 -0.023660333478655447 -0.0026738506572163661 0 -0.026632218950351793 0.00095460257487933135 0 -0.026243429441110362 0.00013781172504882301 0 -0.029449207738695728 0.0057879357515333903 0 -0.030224681115413286 0.0052206852279901451 0 -0.029521292501145088 0.0040628596285240959 0 -0.023954068630140206 -0.0019074772656754225 0 -0.023766196736953869 -0.002259959716590198 0 -0.023964446950261023 -0.0022739231837544485 0 -0.024116656229266415 -0.0019570982476252315 0 -0.023954068630140206 -0.0019074772656754225 0 -0.023964446950261023 -0.0022739231837544485 0 -0.027253563369463593 0.0013045045609844583 0 -0.026632218950351793 0.00095460257487933135 0 -0.023794652749166305 -0.0025107037109825996 0 -0.023766196736953869 -0.002259959716590198 0 -0.023964446950261023 -0.0022739231837544485 0 -0.023794652749166305 -0.0025107037109825996 0 -0.023964446950261023 -0.0022739231837544485 0 -0.024051785784135069 -0.0023297100259828565 0 -0.023794652749166305 -0.0025107037109825996 0 -0.023808497655704218 -0.0027986429047348184 0 -0.02380607517836952 -0.0029477103151658948 0 -0.023782501700766356 -0.0025202589616757851 0 -0.023871748910349724 -0.0026327929369848037 0 -0.023794652749166305 -0.0025107037109825996 0 -0.023738463347842163 -0.0026957435427919204 0 -0.023808497655704218 -0.0027986429047348184 0 -0.023738463347842163 -0.0026957435427919204 0 -0.023808497655704218 -0.0027986429047348184 0 -0.023725872546357486 -0.002765743168714925 0 -0.023808497655704218 -0.0027986429047348184 0 -0.023725872546357486 -0.002765743168714925 0 -0.023818669258475554 -0.0028474070872622037 0 -0.023808497655704218 -0.0027986429047348184 0 -0.023818669258475554 -0.0028474070872622037 0 -0.023797053056208814 -0.0029083197786346476 0 -0.023808497655704218 -0.0027986429047348184 0 -0.023797053056208814 -0.0029083197786346476 0 -0.02380607517836952 -0.0029477103151658948 0 -0.028160738038330108 0.0034323880238384028 0 -0.028825784442843217 0.0029603255277042897 0 -0.02816035272659943 0.0019117844432436435 0 -0.023794652749166305 -0.0025107037109825996 0 -0.023738463347842163 -0.0026957435427919204 0 -0.023660333478655447 -0.0026738506572163661 0 -0.023738463347842163 -0.0026957435427919204 0 -0.023660333478655447 -0.0026738506572163661 0 -0.023711285952576707 -0.0027227426245248132 0 -0.023738463347842163 -0.0026957435427919204 0 -0.023711285952576707 -0.0027227426245248132 0 -0.023725872546357486 -0.002765743168714925 0 -0.023711285952576707 -0.0027227426245248132 0 -0.023737200058196042 -0.0027327439916724956 0 -0.023725872546357486 -0.002765743168714925 0 -0.023711285952576707 -0.0027227426245248132 0 -0.02377620370229231 -0.0027128340213657767 0 -0.023737200058196042 -0.0027327439916724956 0 -0.026243429441110362 0.00013781172504882301 0 -0.025996627445792717 -0.00039440514294223261 0 -0.023660333478655447 -0.0026738506572163661 0 -0.023818579454680033 -0.0027192617759117365 0 -0.02377620370229231 -0.0027128340213657767 0 -0.023660333478655447 -0.0026738506572163661 0 -0.023711285952576707 -0.0027227426245248132 0 -0.02377620370229231 -0.0027128340213657767 0 -0.023726633397458983 -0.0027454432003178098 0 -0.023732268441694224 -0.0027458479774497601 0 -0.023738269702259229 -0.0027393980457335416 0 -0.023726633397458983 -0.0027454432003178098 0 -0.023732268441694224 -0.0027458479774497601 0 -0.023721678195691608 -0.0027565194568525036 0 -0.023732268441694224 -0.0027458479774497601 0 -0.023743830269996255 -0.0027362438645002784 0 -0.023738269702259229 -0.0027393980457335416 0 -0.023738344670177193 -0.002743436949585449 0 -0.023743830269996255 -0.0027362438645002784 0 -0.023745459041942561 -0.0027381761479352801 0 -0.023732268441694224 -0.0027458479774497601 0 -0.023738344670177193 -0.002743436949585449 0 -0.023729419424008909 -0.0027525046675266631 0 -0.023738344670177193 -0.002743436949585449 0 -0.023740671658117548 -0.0027458955359196237 0 -0.023729419424008909 -0.0027525046675266631 0 -0.023732268441694224 -0.0027458479774497601 0 -0.023738344670177193 -0.002743436949585449 0 -0.023743830269996255 -0.0027362438645002784 0 -0.023743830269996255 -0.0027362438645002784 0 -0.023749406497374448 -0.0027317747903481682 0 -0.023745459041942561 -0.0027381761479352801 0 -0.023743830269996255 -0.0027362438645002784 0 -0.023752696594914292 -0.0027286268467891605 0 -0.023749406497374448 -0.0027317747903481682 0 -0.023743830269996255 -0.0027362438645002784 0 -0.023750676339645234 -0.0027300222989696133 0 -0.023752696594914292 -0.0027286268467891605 0 -0.023726633397458983 -0.0027454432003178098 0 -0.023738269702259229 -0.0027393980457335416 0 -0.023750676339645234 -0.0027300222989696133 0 -0.023743830269996255 -0.0027362438645002784 0 -0.023738269702259229 -0.0027393980457335416 0 -0.023750676339645234 -0.0027300222989696133 0 -0.023726633397458983 -0.0027454432003178098 0 -0.02377620370229231 -0.0027128340213657767 0 -0.023750676339645234 -0.0027300222989696133 0 -0.02377620370229231 -0.0027128340213657767 0 -0.023750676339645234 -0.0027300222989696133 0 -0.023758888324984181 -0.0027241263202380048 0 -0.02377620370229231 -0.0027128340213657767 0 -0.023758888324984181 -0.0027241263202380048 0 -0.023753943117427369 -0.0027258784949675103 0 -0.023758888324984181 -0.0027241263202380048 0 -0.023752696594914292 -0.0027286268467891605 0 -0.023753943117427369 -0.0027258784949675103 0 -0.023752696594914292 -0.0027286268467891605 0 -0.023753943117427369 -0.0027258784949675103 0 -0.023749406497374448 -0.0027317747903481682 0 -0.023750676339645234 -0.0027300222989696133 0 -0.023758888324984181 -0.0027241263202380048 0 -0.023752696594914292 -0.0027286268467891605 0 -0.02377620370229231 -0.0027128340213657767 0 -0.023753943117427369 -0.0027258784949675103 0 -0.023737200058196042 -0.0027327439916724956 0 -0.023753943117427369 -0.0027258784949675103 0 -0.023748639982730902 -0.0027326948690791189 0 -0.023749406497374448 -0.0027317747903481682 0 -0.023753943117427369 -0.0027258784949675103 0 -0.023737200058196042 -0.0027327439916724956 0 -0.023748639982730902 -0.0027326948690791189 0 -0.023737200058196042 -0.0027327439916724956 0 -0.023748639982730902 -0.0027326948690791189 0 -0.023755108446047439 -0.0027430288388327561 0 -0.023748639982730902 -0.0027326948690791189 0 -0.023745459041942561 -0.0027381761479352801 0 -0.023755108446047439 -0.0027430288388327561 0 -0.023748639982730902 -0.0027326948690791189 0 -0.023749406497374448 -0.0027317747903481682 0 -0.023745459041942561 -0.0027381761479352801 0 -0.023745459041942561 -0.0027381761479352801 0 -0.023755108446047439 -0.0027430288388327561 0 -0.023740671658117548 -0.0027458955359196237 0 -0.023738344670177193 -0.002743436949585449 0 -0.023745459041942561 -0.0027381761479352801 0 -0.023740671658117548 -0.0027458955359196237 0 -0.023725872546357486 -0.002765743168714925 0 -0.023636359368807942 -0.0029171650135861498 0 -0.023744997363219621 -0.0028846121533085576 0 -0.023755108446047439 -0.0027430288388327561 0 -0.023725872546357486 -0.002765743168714925 0 -0.02378798347515795 -0.0027493446547270819 0 -0.023725872546357486 -0.002765743168714925 0 -0.023636359368807942 -0.0029171650135861498 0 -0.023458998033230212 -0.0029411992973505229 0 -0.023713047867833147 -0.0027694886276059148 0 -0.023614728585740288 -0.0028650954314232927 0 -0.023737200058196042 -0.0027327439916724956 0 -0.023755108446047439 -0.0027430288388327561 0 -0.023725872546357486 -0.002765743168714925 0 -0.023636359368807942 -0.0029171650135861498 0 -0.023565766126826069 -0.0030398685305820898 0 -0.023697418809436217 -0.0030159180550774368 0 -0.023380216927242434 -0.0031705186184688384 0 -0.023477016696219495 -0.0030765722434538349 0 -0.023458998033230212 -0.0029411992973505229 0 -0.023636359368807942 -0.0029171650135861498 0 -0.023565766126826069 -0.0030398685305820898 0 -0.023458998033230212 -0.0029411992973505229 0 -0.023565766126826069 -0.0030398685305820898 0 -0.023477016696219495 -0.0030765722434538349 0 -0.023458998033230212 -0.0029411992973505229 0 -0.023755108446047439 -0.0027430288388327561 0 -0.02378798347515795 -0.0027493446547270819 0 -0.023748687449110125 -0.0027506123202584256 0 -0.023755108446047439 -0.0027430288388327561 0 -0.023742819435949084 -0.0027493107187831494 0 -0.023748687449110125 -0.0027506123202584256 0 -0.023755108446047439 -0.0027430288388327561 0 -0.023740671658117548 -0.0027458955359196237 0 -0.023742819435949084 -0.0027493107187831494 0 -0.023740671658117548 -0.0027458955359196237 0 -0.023727922868193304 -0.002758025553948672 0 -0.023742819435949084 -0.0027493107187831494 0 -0.023727922868193304 -0.002758025553948672 0 -0.023742819435949084 -0.0027493107187831494 0 -0.023714378943666504 -0.0027758421233203801 0 -0.023714378943666504 -0.0027758421233203801 0 -0.023748687449110125 -0.0027506123202584256 0 -0.023699966425098237 -0.0027922218735205134 0 -0.023742819435949084 -0.0027493107187831494 0 -0.023714378943666504 -0.0027758421233203801 0 -0.023748687449110125 -0.0027506123202584256 0 -0.023727922868193304 -0.002758025553948672 0 -0.023714378943666504 -0.0027758421233203801 0 -0.023717692951534468 -0.0027710428880920032 0 -0.02378798347515795 -0.0027493446547270819 0 -0.023748687449110125 -0.0027506123202584256 0 -0.023699966425098237 -0.0027922218735205134 0 -0.023504302690813498 -0.0030630327872583898 0 -0.02378798347515795 -0.0027493446547270819 0 -0.023699966425098237 -0.0027922218735205134 0 -0.023714378943666504 -0.0027758421233203801 0 -0.023699966425098237 -0.0027922218735205134 0 -0.023706304481580589 -0.0027895532126144249 0 -0.023714378943666504 -0.0027758421233203801 0 -0.023713122784485327 -0.0027768928198233407 0 -0.023706304481580589 -0.0027895532126144249 0 -0.02370674587591207 -0.0027803529040918702 0 -0.023713122784485327 -0.0027768928198233407 0 -0.023706304481580589 -0.0027895532126144249 0 -0.023712572570256867 -0.0027683960469395584 0 -0.02370674587591207 -0.0027803529040918702 0 -0.023713122784485327 -0.0027768928198233407 0 -0.023712572570256867 -0.0027683960469395584 0 -0.023713122784485327 -0.0027768928198233407 0 -0.023719714935479114 -0.0027646861799283497 0 -0.023712572570256867 -0.0027683960469395584 0 -0.023719714935479114 -0.0027646861799283497 0 -0.023721678195691608 -0.0027565194568525036 0 -0.023714378943666504 -0.0027758421233203801 0 -0.023713122784485327 -0.0027768928198233407 0 -0.023717692951534468 -0.0027710428880920032 0 -0.023713122784485327 -0.0027768928198233407 0 -0.023717692951534468 -0.0027710428880920032 0 -0.023719714935479114 -0.0027646861799283497 0 -0.023727922868193304 -0.002758025553948672 0 -0.023717692951534468 -0.0027710428880920032 0 -0.023719714935479114 -0.0027646861799283497 0 -0.023727922868193304 -0.002758025553948672 0 -0.023719714935479114 -0.0027646861799283497 0 -0.023729419424008909 -0.0027525046675266631 0 -0.023740671658117548 -0.0027458955359196237 0 -0.023727922868193304 -0.002758025553948672 0 -0.023729419424008909 -0.0027525046675266631 0 -0.023732268441694224 -0.0027458479774497601 0 -0.023729419424008909 -0.0027525046675266631 0 -0.023721678195691608 -0.0027565194568525036 0 -0.023719714935479114 -0.0027646861799283497 0 -0.023729419424008909 -0.0027525046675266631 0 -0.023721678195691608 -0.0027565194568525036 0 -0.023829492707238178 -0.0028834446132815525 0 -0.023818669258475554 -0.0028474070872622037 0 -0.023797053056208814 -0.0029083197786346476 0 -0.023829492707238178 -0.0028834446132815525 0 -0.023818669258475554 -0.0028474070872622037 0 -0.023876147010933255 -0.0028933788404123116 0 -0.023725872546357486 -0.002765743168714925 0 -0.023818669258475554 -0.0028474070872622037 0 -0.023744997363219621 -0.0028846121533085576 0 -0.023818669258475554 -0.0028474070872622037 0 -0.023744997363219621 -0.0028846121533085576 0 -0.023820671718601517 -0.0029302091296449402 0 -0.023744997363219621 -0.0028846121533085576 0 -0.023697418809436217 -0.0030159180550774368 0 -0.023820671718601517 -0.0029302091296449402 0 -0.023636359368807942 -0.0029171650135861498 0 -0.023744997363219621 -0.0028846121533085576 0 -0.023697418809436217 -0.0030159180550774368 0 -0.023804166049654994 -0.003084408633013536 0 -0.023697418809436217 -0.0030159180550774368 0 -0.023820671718601517 -0.0029302091296449402 0 -0.023818669258475554 -0.0028474070872622037 0 -0.023820671718601517 -0.0029302091296449402 0 -0.023876147010933255 -0.0028933788404123116 0 -0.023910599769333074 -0.0029852486954632354 0 -0.023820671718601517 -0.0029302091296449402 0 -0.023876147010933255 -0.0028933788404123116 0 -0.023829492707238178 -0.0028834446132815525 0 -0.023876147010933255 -0.0028933788404123116 0 -0.023832916727689425 -0.0028697873506427769 0 -0.023944212293032119 -0.0028718099621149545 0 -0.023910599769333074 -0.0029852486954632354 0 -0.023876147010933255 -0.0028933788404123116 0 -0.023944212293032119 -0.0028718099621149545 0 -0.023876147010933255 -0.0028933788404123116 0 -0.023832916727689425 -0.0028697873506427769 0 -0.023944212293032119 -0.0028718099621149545 0 -0.023832916727689425 -0.0028697873506427769 0 -0.023717414243163221 -0.0027753939081246442 0 -0.023832916727689425 -0.0028697873506427769 0 -0.023717414243163221 -0.0027753939081246442 0 -0.023667650105536769 -0.0029022435834230023 0 -0.023717414243163221 -0.0027753939081246442 0 -0.023667650105536769 -0.0029022435834230023 0 -0.023309170948331705 -0.002688781875392998 0 -0.023667650105536769 -0.0029022435834230023 0 -0.023238874557100997 -0.0029317000514414936 0 -0.023309170948331705 -0.002688781875392998 0 -0.023667650105536769 -0.0029022435834230023 0 -0.023603268839837918 -0.0030169968223488844 0 -0.023238874557100997 -0.0029317000514414936 0 -0.023667650105536769 -0.0029022435834230023 0 -0.023797053056208814 -0.0029083197786346476 0 -0.023603268839837918 -0.0030169968223488844 0 -0.023829492707238178 -0.0028834446132815525 0 -0.023667650105536769 -0.0029022435834230023 0 -0.023797053056208814 -0.0029083197786346476 0 -0.023829492707238178 -0.0028834446132815525 0 -0.023832916727689425 -0.0028697873506427769 0 -0.023667650105536769 -0.0029022435834230023 0 -0.023797053056208814 -0.0029083197786346476 0 -0.023603268839837918 -0.0030169968223488844 0 -0.02380607517836952 -0.0029477103151658948 0 -0.023603268839837918 -0.0030169968223488844 0 -0.023420669890219688 -0.0032189511859614375 0 -0.02380607517836952 -0.0029477103151658948 0 -0.023603268839837918 -0.0030169968223488844 0 -0.023420669890219688 -0.0032189511859614375 0 -0.023214960336041104 -0.0030766077911654807 0 -0.024170267569017967 -0.0021302692956379483 0 -0.024209633569534185 -0.0023009780790621331 0 -0.024231786118257791 -0.0022442314666693327 0 -0.024170267569017967 -0.0021302692956379483 0 -0.024209633569534185 -0.0023009780790621331 0 -0.024051785784135069 -0.0023297100259828565 0 -0.023913643641370514 -0.0027421834528881996 0 -0.023871748910349724 -0.0026327929369848037 0 -0.024244998068577838 -0.0022846932586395126 0 -0.024248372540856114 -0.0022843860426855146 0 -0.024198204270301255 -0.0023115779696651186 0 -0.024461896130536422 -0.0021467588367417773 0 -0.023090168317696468 -0.0023084775265382372 0 -0.02425286218969637 -0.0022388924034302078 0 -0.024231786118257791 -0.0022442314666693327 0 -0.024244998068577838 -0.0022846932586395126 0 -0.02425286218969637 -0.0022388924034302078 0 -0.024244998068577838 -0.0022846932586395126 0 -0.024273834783405359 -0.0022316758716173488 0 -0.023052808624586779 -0.0028851360133380884 0 -0.023090168317696468 -0.0023084775265382372 0 -0.022082874191005332 -0.0029770536100152145 0 -0.022030400525477948 -0.0031387185767217693 0 -0.022045016402659542 -0.0033219314992826341 0 -0.022082874191005332 -0.0029770536100152145 0 -0.022006634612520452 -0.0030308849431965232 0 -0.022030400525477948 -0.0031387185767217693 0 -0.024209633569534185 -0.0023009780790621331 0 -0.024231786118257791 -0.0022442314666693327 0 -0.024244998068577838 -0.0022846932586395126 0 -0.023913643641370514 -0.0027421834528881996 0 -0.023052808624586779 -0.0028851360133380884 0 -0.023420669890219688 -0.0032189511859614375 0 -0.023214960336041104 -0.0030766077911654807 0 -0.022878337459192183 -0.0032297731347759374 0 -0.022138178494906798 -0.0030573270650507789 0 -0.022305806793411948 -0.0029078950355952179 0 -0.022087433288849521 -0.0029212066764868795 0 -0.024209633569534185 -0.0023009780790621331 0 -0.024244998068577838 -0.0022846932586395126 0 -0.024248372540856114 -0.0022843860426855146 0 -0.023052808624586779 -0.0028851360133380884 0 -0.022584194723004929 -0.0029690985681448323 0 -0.023214960336041104 -0.0030766077911654807 0 -0.022878337459192183 -0.0032297731347759374 0 -0.02288066247333663 -0.0029707403371182924 0 -0.022584194723004929 -0.0029690985681448323 0 -0.022689834532178207 -0.0026559651245844458 0 -0.02288066247333663 -0.0029707403371182924 0 -0.023238874557100997 -0.0029317000514414936 0 -0.022698285233135548 -0.002695894036675835 0 -0.022305806793411948 -0.0029078950355952179 0 -0.022135780456731584 -0.0027735915673162683 0 -0.022087433288849521 -0.0029212066764868795 0 -0.023603268839837918 -0.0030169968223488844 0 -0.023214960336041104 -0.0030766077911654807 0 -0.023238874557100997 -0.0029317000514414936 0 -0.023214960336041104 -0.0030766077911654807 0 -0.02288066247333663 -0.0029707403371182924 0 -0.023238874557100997 -0.0029317000514414936 0 -0.023238874557100997 -0.0029317000514414936 0 -0.023309170948331705 -0.002688781875392998 0 -0.022698285233135548 -0.002695894036675835 0 -0.022085572661346142 -0.0023221229246273151 0 -0.022698285233135548 -0.002695894036675835 0 -0.022135780456731584 -0.0027735915673162683 0 -0.022305806793411948 -0.0029078950355952179 0 -0.022698285233135548 -0.002695894036675835 0 -0.022135780456731584 -0.0027735915673162683 0 -0.022037278072736158 -0.0023053553025021252 0 -0.021525133276840885 -0.0031702001192328894 0 -0.022085572661346142 -0.0023221229246273151 0 -0.022135780456731584 -0.0027735915673162683 0 -0.021756856819905492 -0.0027023065708841167 0 -0.021756856819905492 -0.0027023065708841167 0 -0.021716962039060438 -0.0028799243879202075 0 -0.021565672092907464 -0.0029018229836171232 0 -0.021525133276840885 -0.0031702001192328894 0 -0.020079999602379005 -0.0024934953896599047 0 -0.021756856819905492 -0.0027023065708841167 0 -0.021716962039060438 -0.0028799243879202075 0 -0.021907673405156109 -0.0028605340260918878 0 -0.022135780456731584 -0.0027735915673162683 0 -0.021756856819905492 -0.0027023065708841167 0 -0.021907673405156109 -0.0028605340260918878 0 -0.022135780456731584 -0.0027735915673162683 0 -0.021907673405156109 -0.0028605340260918878 0 -0.022087433288849521 -0.0029212066764868795 0 -0.013566671042330546 0.0001713736376541781 0 -0.011630772831478901 0.00088918065235747668 0 -0.0068627863223292137 0.0034728227610214034 0 -0.006540513532184807 0.0039551173536931748 0 -0.0070332634766665809 0.0038738507032906981 0 -0.0065659325293489041 0.00393004998644691 0 -0.011630772831478901 0.00088918065235747668 0 -0.0071934156619094334 0.0029393100469866287 0 -0.0072243384304794978 0.0029600835315213088 0 -0.0072961656926929779 0.0029115073418113893 0 -0.020688593957871742 -0.0024934985951665942 0 -0.019789741811097217 -0.0022523316364604874 0 -0.019691966925772485 -0.0034112712141768226 0 -0.020688593957871742 -0.0024934985951665942 0 -0.021111250001884879 -0.0033380824969885098 0 -0.019691966925772485 -0.0034112712141768226 0 -0.011630772831478901 0.00088918065235747668 0 -0.020079999602379005 -0.0024934953896599047 0 -0.01348983961798909 0.0010463386121365387 0 -0.013476572463146194 0.00067233781181569568 0 -0.013756782468212703 0.00062662355487150137 0 -0.021111250001884879 -0.0033380824969885098 0 -0.019691966925772485 -0.0034112712141768226 0 -0.020212423188714926 -0.0042941934249394733 0 -0.006540513532184807 0.0039551173536931748 0 -0.0065373619189088997 0.0044901269884922764 0 -0.0069941642817106936 0.0044859361070533014 0 -0.011630772831478901 0.00088918065235747668 0 -0.010085420566424088 0.0029222031577361279 0 -0.006540513532184807 0.0039551173536931748 0 -0.0069941642817106936 0.0044859361070533014 0 -0.0070332634766665809 0.0038738507032906981 0 -0.0065373619189088997 0.0044901269884922764 0 -0.0065379691391702311 0.0050482611165592415 0 -0.0069941642817106936 0.0044859361070533014 0 -0.013476572463146194 0.00067233781181569568 0 -0.013756782468212703 0.00062662355487150137 0 -0.01344637150613485 0.00031018745221644676 0 -0.010085420566424088 0.0029222031577361279 0 -0.01161049043934758 0.0019203018380580792 0 -0.0065379691391702311 0.0050482611165592415 0 -0.0069938443362088766 0.0051132216740974786 0 -0.0069941642817106936 0.0044859361070533014 0 -0.020079999602379005 -0.0024934953896599047 0 -0.021787319500300172 -0.0031667200425167775 0 -0.021166988942931338 -0.0026592810177748921 0 -0.021183330055214725 -0.0028245075743611779 0 -0.021465897872612452 -0.00293414627184104 0 -0.021565672092907464 -0.0029018229836171232 0 -0.021597761597712713 -0.0029209418205179746 0 -0.021465897872612452 -0.00293414627184104 0 -0.020079999602379005 -0.0024934953896599047 0 -0.01161049043934758 0.0019203018380580792 0 -0.021166988942931338 -0.0026592810177748921 0 -0.021183330055214725 -0.0028245075743611779 0 -0.021236271656563551 -0.002965903573819872 0 -0.021071436212112746 -0.0026388637299869246 0 -0.020110551293663327 -0.0025630127562749358 0 -0.021046068836632171 -0.0025794587290538691 0 -0.021465897872612452 -0.00293414627184104 0 -0.021468348743052649 -0.0029880975049036218 0 -0.021046068836632171 -0.0025794587290538691 0 -0.021183330055214725 -0.0028245075743611779 0 -0.021465897872612452 -0.00293414627184104 0 -0.021046068836632171 -0.0025794587290538691 0 -0.021183330055214725 -0.0028245075743611779 0 -0.021236271656563551 -0.002965903573819872 0 -0.0062768346964779745 0.004751157971052352 0 -0.006289277762407168 0.0060370481055239435 0 -0.0069014475564768982 0.0056052676572492331 0 -0.01161049043934758 0.0019203018380580792 0 -0.014114641322726707 0.0020953638784522379 0 -0.021046068836632171 -0.0025794587290538691 0 -0.021236271656563551 -0.002965903573819872 0 -0.021599770638787659 -0.0015600120287297937 0 -0.01161049043934758 0.0019203018380580792 0 -0.0062294489337512823 0.0055440772570758282 0 -0.0065379691391702311 0.0050482611165592415 0 -0.0069014475564768982 0.0056052676572492331 0 -0.0069938443362088766 0.0051132216740974786 0 -0.021838310657988521 -0.0030083945588389146 0 -0.021984861366958788 -0.0029956598732316752 0 -0.02175700650812654 -0.0029469771598927535 0 -0.021838310657988521 -0.0030083945588389146 0 -0.02175700650812654 -0.0029469771598927535 0 -0.021722391164498818 -0.002998641065765795 0 -0.021838310657988521 -0.0030083945588389146 0 -0.021984861366958788 -0.0029956598732316752 0 -0.021945296897646387 -0.0030487526156501286 0 -0.023052808624586779 -0.0028851360133380884 0 -0.022019204085845723 -0.0028385184906057959 0 -0.022082874191005332 -0.0029770536100152145 0 -0.022006634612520452 -0.0030308849431965232 0 -0.021984861366958788 -0.0029956598732316752 0 -0.022006634612520452 -0.0030308849431965232 0 -0.021984861366958788 -0.0029956598732316752 0 -0.021945296897646387 -0.0030487526156501286 0 -0.021907673405156109 -0.0028605340260918878 0 -0.022087433288849521 -0.0029212066764868795 0 -0.021984861366958788 -0.0029956598732316752 0 -0.022138178494906798 -0.0030573270650507789 0 -0.022087433288849521 -0.0029212066764868795 0 -0.021984861366958788 -0.0029956598732316752 0 -0.021907673405156109 -0.0028605340260918878 0 -0.021984861366958788 -0.0029956598732316752 0 -0.02175700650812654 -0.0029469771598927535 0 -0.021716962039060438 -0.0028799243879202075 0 -0.021597761597712713 -0.0029209418205179746 0 -0.02175700650812654 -0.0029469771598927535 0 -0.021716962039060438 -0.0028799243879202075 0 -0.021907673405156109 -0.0028605340260918878 0 -0.02175700650812654 -0.0029469771598927535 0 -0.021716962039060438 -0.0028799243879202075 0 -0.021565672092907464 -0.0029018229836171232 0 -0.021597761597712713 -0.0029209418205179746 0 -0.021597761597712713 -0.0029209418205179746 0 -0.021639743312915082 -0.0029481838982336676 0 -0.021516007453808925 -0.0029483904242824264 0 -0.02175700650812654 -0.0029469771598927535 0 -0.021639743312915082 -0.0029481838982336676 0 -0.021722391164498818 -0.002998641065765795 0 -0.021597761597712713 -0.0029209418205179746 0 -0.02175700650812654 -0.0029469771598927535 0 -0.021639743312915082 -0.0029481838982336676 0 -0.021936112581091551 -0.0033548102319757244 0 -0.020726126039889999 -0.0021912818262674171 0 -0.021722391164498818 -0.002998641065765795 0 -0.021516007453808925 -0.0029483904242824264 0 -0.021818160985519287 -0.0031145177281280113 0 -0.021516007453808925 -0.0029483904242824264 0 -0.021841165039779366 -0.0032041126112931852 0 -0.021818160985519287 -0.0031145177281280113 0 -0.021639743312915082 -0.0029481838982336676 0 -0.021722391164498818 -0.002998641065765795 0 -0.021516007453808925 -0.0029483904242824264 0 -0.021516007453808925 -0.0029483904242824264 0 -0.021468348743052649 -0.0029880975049036218 0 -0.021493411325925811 -0.0029857363537237011 0 -0.021597761597712713 -0.0029209418205179746 0 -0.021465897872612452 -0.00293414627184104 0 -0.021516007453808925 -0.0029483904242824264 0 -0.021465897872612452 -0.00293414627184104 0 -0.021516007453808925 -0.0029483904242824264 0 -0.021468348743052649 -0.0029880975049036218 0 -0.021516007453808925 -0.0029483904242824264 0 -0.021841165039779366 -0.0032041126112931852 0 -0.021909320673202667 -0.0033707138081853637 0 -0.021841165039779366 -0.0032041126112931852 0 -0.021818160985519287 -0.0031145177281280113 0 -0.021955838737449999 -0.0032250990557047957 0 -0.021818160985519287 -0.0031145177281280113 0 -0.021946329026908861 -0.0031371463383441768 0 -0.021955838737449999 -0.0032250990557047957 0 -0.021818160985519287 -0.0031145177281280113 0 -0.021858562879884445 -0.0030722271866538251 0 -0.021946329026908861 -0.0031371463383441768 0 -0.021838310657988521 -0.0030083945588389146 0 -0.021858562879884445 -0.0030722271866538251 0 -0.021945296897646387 -0.0030487526156501286 0 -0.021722391164498818 -0.002998641065765795 0 -0.021818160985519287 -0.0031145177281280113 0 -0.021858562879884445 -0.0030722271866538251 0 -0.021838310657988521 -0.0030083945588389146 0 -0.021722391164498818 -0.002998641065765795 0 -0.021858562879884445 -0.0030722271866538251 0 -0.022006634612520452 -0.0030308849431965232 0 -0.021945296897646387 -0.0030487526156501286 0 -0.022030400525477948 -0.0031387185767217693 0 -0.021858562879884445 -0.0030722271866538251 0 -0.021945296897646387 -0.0030487526156501286 0 -0.021946329026908861 -0.0031371463383441768 0 -0.021945296897646387 -0.0030487526156501286 0 -0.021946329026908861 -0.0031371463383441768 0 -0.022030400525477948 -0.0031387185767217693 0 -0.022030400525477948 -0.0031387185767217693 0 -0.022005110588508302 -0.003214187967957729 0 -0.022045016402659542 -0.0033219314992826341 0 -0.021946329026908861 -0.0031371463383441768 0 -0.022030400525477948 -0.0031387185767217693 0 -0.022005110588508302 -0.003214187967957729 0 -0.021946329026908861 -0.0031371463383441768 0 -0.022005110588508302 -0.003214187967957729 0 -0.021955838737449999 -0.0032250990557047957 0 -0.021955838737449999 -0.0032250990557047957 0 -0.022003185042477801 -0.003267477762148811 0 -0.021978439139032333 -0.0033260623350159129 0 -0.021841165039779366 -0.0032041126112931852 0 -0.021955838737449999 -0.0032250990557047957 0 -0.021978439139032333 -0.0033260623350159129 0 -0.022005110588508302 -0.003214187967957729 0 -0.022003185042477801 -0.003267477762148811 0 -0.022045016402659542 -0.0033219314992826341 0 -0.022005110588508302 -0.003214187967957729 0 -0.021955838737449999 -0.0032250990557047957 0 -0.022003185042477801 -0.003267477762148811 0 -0.023090168317696468 -0.0023084775265382372 0 -0.022603021349864402 -0.0019841412886731223 0 -0.022045016402659542 -0.0033219314992826341 0 -0.021978439139032333 -0.0033260623350159129 0 -0.022039040812892919 -0.0033614669283518537 0 -0.022003185042477801 -0.003267477762148811 0 -0.022045016402659542 -0.0033219314992826341 0 -0.021978439139032333 -0.0033260623350159129 0 -0.022603021349864402 -0.0019841412886731223 0 -0.020726126039889999 -0.0021912818262674171 0 -0.021978439139032333 -0.0033260623350159129 0 -0.022039040812892919 -0.0033614669283518537 0 -0.021909320673202667 -0.0033707138081853637 0 -0.020726126039889999 -0.0021912818262674171 0 -0.020756461998475348 -0.00038697456438150236 0 -0.021317481121805398 -0.0019438078555878331 0 -0.021130434895287174 -0.0019103076998461907 0 -0.021294453631132314 -0.0020460625846160955 0 -0.022603021349864402 -0.0019841412886731223 0 -0.020756461998475348 -0.00038697456438150236 0 -0.017470215555653642 -0.0018690248718291533 0 -0.0179764045142644 -0.0010036234727224063 0 -0.018502262030834129 -0.0014985124748701447 0 -0.021841165039779366 -0.0032041126112931852 0 -0.021978439139032333 -0.0033260623350159129 0 -0.021909320673202667 -0.0033707138081853637 0 -0.017470215555653642 -0.0018690248718291533 0 -0.0179764045142644 -0.0010036234727224063 0 -0.016944459509573549 -0.0014006457125623974 0 -0.0179764045142644 -0.0010036234727224063 0 -0.016944459509573549 -0.0014006457125623974 0 -0.018151092600731646 0.00065141775374082827 0 -0.020756461998475348 -0.00038697456438150236 0 -0.018602127104033268 0.0013248182795267327 0 -0.018267574623901842 0.0010855133734783084 0 -0.018578246709331968 0.0028454827218846383 0 -0.019245976021310958 0.0028328319228929353 0 -0.020756461998475348 -0.00038697456438150236 0 -0.020011136918420713 0.0037264039031749741 0 -0.018151092600731646 0.00065141775374082827 0 -0.019528019115814935 -0.00032234917701858608 0 -0.018705226792122904 -0.00079840817321758938 0 -0.0179764045142644 -0.0010036234727224063 0 -0.018151092600731646 0.00065141775374082827 0 -0.018705226792122904 -0.00079840817321758938 0 -0.018151092600731646 0.00065141775374082827 0 -0.019528019115814935 -0.00032234917701858608 0 -0.02004953458229139 0.0012422341853515091 0 -0.019528019115814935 -0.00032234917701858608 0 -0.019279184002426602 -0.0013276536987912968 0 -0.018705226792122904 -0.00079840817321758938 0 -0.019164226663830931 -0.0022507783562499138 0 -0.017470215555653642 -0.0018690248718291533 0 -0.018502262030834129 -0.0014985124748701447 0 -0.020110551293663327 -0.0025630127562749358 0 -0.020726126039889999 -0.0021912818262674171 0 -0.019279184002426602 -0.0013276536987912968 0 -0.018705226792122904 -0.00079840817321758938 0 -0.018502262030834129 -0.0014985124748701447 0 -0.0179764045142644 -0.0010036234727224063 0 -0.018705226792122904 -0.00079840817321758938 0 -0.018502262030834129 -0.0014985124748701447 0 -0.019164226663830931 -0.0022507783562499138 0 -0.019279184002426602 -0.0013276536987912968 0 -0.020231370321172042 -0.0014980977658586459 0 -0.019164226663830931 -0.0022507783562499138 0 -0.019279184002426602 -0.0013276536987912968 0 -0.018502262030834129 -0.0014985124748701447 0 -0.021046068836632171 -0.0025794587290538691 0 -0.019164226663830931 -0.0022507783562499138 0 -0.020231370321172042 -0.0014980977658586459 0 -0.021046068836632171 -0.0025794587290538691 0 -0.020231370321172042 -0.0014980977658586459 0 -0.021599770638787659 -0.0015600120287297937 0 -0.020231370321172042 -0.0014980977658586459 0 -0.021599770638787659 -0.0015600120287297937 0 -0.020715670477755119 -0.0002863138169111209 0 -0.019528019115814935 -0.00032234917701858608 0 -0.019279184002426602 -0.0013276536987912968 0 -0.020231370321172042 -0.0014980977658586459 0 -0.006289277762407168 0.0060370481055239435 0 -0.006805226844916675 0.0060852450271544388 0 -0.0069014475564768982 0.0056052676572492331 0 -0.006289277762407168 0.0060370481055239435 0 -0.0068205019373965029 0.0066900556531770605 0 -0.006805226844916675 0.0060852450271544388 0 -0.006289277762407168 0.0060370481055239435 0 -0.0063429194149391922 0.0074402624261960017 0 -0.0068205019373965029 0.0066900556531770605 0 -0.014114641322726707 0.0020953638784522379 0 -0.014226678914134839 0.0043089407929658438 0 -0.021599770638787659 -0.0015600120287297937 0 -0.020715670477755119 -0.0002863138169111209 0 -0.021857731690158744 0.0012517756909127442 0 -0.020715670477755119 -0.0002863138169111209 0 -0.019468141574691823 0.0019405986276607732 0 -0.021857731690158744 0.0012517756909127442 0 -0.019528019115814935 -0.00032234917701858608 0 -0.020715670477755119 -0.0002863138169111209 0 -0.02004953458229139 0.0012422341853515091 0 -0.020502076606370115 0.00011363540031343714 0 -0.020081245699716345 0.001021538652467145 0 -0.019528019115814935 -0.00032234917701858608 0 -0.020231370321172042 -0.0014980977658586459 0 -0.020715670477755119 -0.0002863138169111209 0 -0.020081245699716345 0.001021538652467145 0 -0.01657108239212254 0.0060536802571250397 0 -0.014226678914134839 0.0043089407929658438 0 -0.012629325881078438 0.0070275595701334969 0 -0.0063429194149391922 0.0074402624261960017 0 -0.0064777454451755857 0.0088204145218237131 0 -0.007254239558994382 0.0082930670523414535 0 -0.019468141574691823 0.0019405986276607732 0 -0.021857731690158744 0.0012517756909127442 0 -0.021999355050264846 0.0044208692735806633 0 -0.012629325881078438 0.0070275595701334969 0 -0.011106614726836423 0.0096487188983455305 0 -0.012629325881078438 0.0070275595701334969 0 -0.01657108239212254 0.0060536802571250397 0 -0.010702805556046269 0.0094949709741874444 0 -0.011662375359872143 0.009518428014080248 0 -0.01113365481334007 0.0092370855640569217 0 -0.019468141574691823 0.0019405986276607732 0 -0.021999355050264846 0.0044208692735806633 0 -0.018275282431854133 0.0042543756252680781 0 -0.01657108239212254 0.0060536802571250397 0 -0.020154386544348677 0.005456151451469154 0 -0.020928639118116141 0.0059922192026865264 0 -0.021761909708731941 0.0055208134381151764 0 -0.021131880971947539 0.0066543027875681339 0 -0.020928639118116141 0.0059922192026865264 0 -0.021205034458942951 0.0054903276063592073 0 -0.021761909708731941 0.0055208134381151764 0 -0.020989602892285662 0.0046655454887292993 0 -0.021205034458942951 0.0054903276063592073 0 -0.021803850483437286 0.0055151108223258378 0 -0.021425152335924704 0.0055060128871226039 0 -0.020154386544348677 0.005456151451469154 0 -0.020989602892285662 0.0046655454887292993 0 -0.021513350937699766 0.0039744986685941123 0 -0.021803850483437286 0.0055151108223258378 0 -0.018578246709331968 0.0028454827218846383 0 -0.019245976021310958 0.0028328319228929353 0 -0.018918270890918659 0.0045503737103480043 0 -0.020011136918420713 0.0037264039031749741 0 -0.020154386544348677 0.005456151451469154 0 -0.018602127104033268 0.0013248182795267327 0 -0.01657108239212254 0.0060536802571250397 0 -0.018151092600731646 0.00065141775374082827 0 -0.02004953458229139 0.0012422341853515091 0 -0.019255423600653531 0.0028417998345417598 0 -0.019245976021310958 0.0028328319228929353 0 -0.020132304232903742 0.0046073201308689605 0 -0.018918270890918659 0.0045503737103480043 0 -0.0088074939899037748 0.0082671266549142735 0 -0.0092170944153843071 0.007802143033907364 0 -0.0083088288330281229 0.0075995981387133012 0 -0.0088074939899037748 0.0082671266549142735 0 -0.0092170944153843071 0.007802143033907364 0 -0.0094759571730178103 0.0084372796279416854 0 -0.0088074939899037748 0.0082671266549142735 0 -0.0094759571730178103 0.0084372796279416854 0 -0.0091955826628737688 0.0087002853915919571 0 -0.0092170944153843071 0.007802143033907364 0 -0.010028478177364087 0.008208457754270003 0 -0.0099847858936009688 0.0075798439555517638 0 -0.010028478177364087 0.008208457754270003 0 -0.0099847858936009688 0.0075798439555517638 0 -0.010659627311409839 0.0084364340884225345 0 -0.010028478177364087 0.008208457754270003 0 -0.0094759571730178103 0.0084372796279416854 0 -0.0099703230950333576 0.0087582900578842583 0 -0.0092170944153843071 0.007802143033907364 0 -0.010028478177364087 0.008208457754270003 0 -0.0094759571730178103 0.0084372796279416854 0 -0.0094759571730178103 0.0084372796279416854 0 -0.0095568423134051762 0.0088288691283113507 0 -0.0099703230950333576 0.0087582900578842583 0 -0.0095568423134051762 0.0088288691283113507 0 -0.0099703230950333576 0.0087582900578842583 0 -0.0098063599444386303 0.0090520121589449769 0 -0.0095568423134051762 0.0088288691283113507 0 -0.0095516003777668911 0.0092448734686380266 0 -0.0091955826628737688 0.0087002853915919571 0 -0.010028478177364087 0.008208457754270003 0 -0.0099703230950333576 0.0087582900578842583 0 -0.010418708725535925 0.0086929850393083433 0 -0.0099703230950333576 0.0087582900578842583 0 -0.010050226545359591 0.0091018126049774266 0 -0.010451970250340444 0.009035949879565016 0 -0.010050226545359591 0.0091018126049774266 0 -0.010183722624402347 0.0093224569939776066 0 -0.010451970250340444 0.009035949879565016 0 -0.010050226545359591 0.0091018126049774266 0 -0.0098434930112748942 0.0093241321158917083 0 -0.0098063599444386303 0.0090520121589449769 0 -0.0099703230950333576 0.0087582900578842583 0 -0.010050226545359591 0.0091018126049774266 0 -0.0098063599444386303 0.0090520121589449769 0 -0.010050226545359591 0.0091018126049774266 0 -0.0098434930112748942 0.0093241321158917083 0 -0.010183722624402347 0.0093224569939776066 0 -0.0095568423134051762 0.0088288691283113507 0 -0.0095516003777668911 0.0092448734686380266 0 -0.0098063599444386303 0.0090520121589449769 0 -0.0098434930112748942 0.0093241321158917083 0 -0.0095516003777668911 0.0092448734686380266 0 -0.0098063599444386303 0.0090520121589449769 0 -0.0098434930112748942 0.0093241321158917083 0 -0.0095516003777668911 0.0092448734686380266 0 -0.0095373003839276712 0.0093220670151676691 0 -0.0095516003777668911 0.0092448734686380266 0 -0.0091955826628737688 0.0087002853915919571 0 -0.008603900107438044 0.0087602182988945447 0 -0.0095516003777668911 0.0092448734686380266 0 -0.0098945666820458994 0.0093609862420496633 0 -0.0095373003839276712 0.0093220670151676691 0 -0.0095516003777668911 0.0092448734686380266 0 -0.008603900107438044 0.0087602182988945447 0 -0.0079812187122055445 0.0089517183551840115 0 -0.0099389359029421667 0.0091755928031811811 0 -0.0080124514837537925 0.0094176149583865519 0 -0.0094759571730178103 0.0084372796279416854 0 -0.0095568423134051762 0.0088288691283113507 0 -0.0091955826628737688 0.0087002853915919571 0 -0.0088074939899037748 0.0082671266549142735 0 -0.0091955826628737688 0.0087002853915919571 0 -0.008603900107438044 0.0087602182988945447 0 -0.0079812187122055445 0.0089517183551840115 0 -0.007254239558994382 0.0082930670523414535 0 -0.0081079113108217127 0.008250443332635608 0 -0.0088074939899037748 0.0082671266549142735 0 -0.008603900107438044 0.0087602182988945447 0 -0.0081079113108217127 0.008250443332635608 0 -0.008603900107438044 0.0087602182988945447 0 -0.0079812187122055445 0.0089517183551840115 0 -0.0081079113108217127 0.008250443332635608 0 -0.010663211854734929 0.0094335379538641653 0 -0.0098945666820458994 0.0093609862420496633 0 -0.010415504906122875 0.0092327828459728613 0 -0.0064777454451755857 0.0088204145218237131 0 -0.0079812187122055445 0.0089517183551840115 0 -0.007254239558994382 0.0082930670523414535 0 -0.012629325881078438 0.0070275595701334969 0 -0.0080124514837537925 0.0094176149583865519 0 -0.0098945666820458994 0.0093609862420496633 0 -0.010415504906122875 0.0092327828459728613 0 -0.010220838896785137 0.0091508943554751924 0 -0.0063429194149391922 0.0074402624261960017 0 -0.007254239558994382 0.0082930670523414535 0 -0.0073820206214571579 0.0075456593952493807 0 -0.007254239558994382 0.0082930670523414535 0 -0.0073820206214571579 0.0075456593952493807 0 -0.0081079113108217127 0.008250443332635608 0 -0.0073820206214571579 0.0075456593952493807 0 -0.0081079113108217127 0.008250443332635608 0 -0.0083088288330281229 0.0075995981387133012 0 -0.0088074939899037748 0.0082671266549142735 0 -0.0081079113108217127 0.008250443332635608 0 -0.0083088288330281229 0.0075995981387133012 0 -0.0083088288330281229 0.0075995981387133012 0 -0.0076706020284780709 0.0069102037564328818 0 -0.0086737110424815102 0.0067922060626538598 0 -0.0076706020284780709 0.0069102037564328818 0 -0.0072448052531013706 0.0059929285243202944 0 -0.0086737110424815102 0.0067922060626538598 0 -0.0073820206214571579 0.0075456593952493807 0 -0.0083088288330281229 0.0075995981387133012 0 -0.0076706020284780709 0.0069102037564328818 0 -0.0063429194149391922 0.0074402624261960017 0 -0.0073820206214571579 0.0075456593952493807 0 -0.0068205019373965029 0.0066900556531770605 0 -0.0073820206214571579 0.0075456593952493807 0 -0.0076706020284780709 0.0069102037564328818 0 -0.0068205019373965029 0.0066900556531770605 0 -0.0076706020284780709 0.0069102037564328818 0 -0.0068205019373965029 0.0066900556531770605 0 -0.0072448052531013706 0.0059929285243202944 0 -0.0068205019373965029 0.0066900556531770605 0 -0.006805226844916675 0.0060852450271544388 0 -0.0072448052531013706 0.0059929285243202944 0 -0.0072448052531013706 0.0059929285243202944 0 -0.0069014475564768982 0.0056052676572492331 0 -0.0072575613644628402 0.005438512847297924 0 -0.006805226844916675 0.0060852450271544388 0 -0.0072448052531013706 0.0059929285243202944 0 -0.0069014475564768982 0.0056052676572492331 0 -0.0072448052531013706 0.0059929285243202944 0 -0.0078497484768066481 0.006419384542790201 0 -0.007748904837876742 0.005547373287241357 0 -0.0072448052531013706 0.0059929285243202944 0 -0.0072575613644628402 0.005438512847297924 0 -0.007748904837876742 0.005547373287241357 0 -0.0072973454605250463 0.0060381549638823407 0 -0.0082519052979416821 0.0066112080408333588 0 -0.0082860728136229522 0.0058866879989624256 0 -0.0078497484768066481 0.006419384542790201 0 -0.008874409284725257 0.0064483965517819347 0 -0.0082860728136229522 0.0058866879989624256 0 -0.0078497484768066481 0.006419384542790201 0 -0.007748904837876742 0.005547373287241357 0 -0.0092170944153843071 0.007802143033907364 0 -0.0086737110424815102 0.0067922060626538598 0 -0.0099847858936009688 0.0075798439555517638 0 -0.0082519052979416821 0.0066112080408333588 0 -0.0095765012081030082 0.0074450314573597173 0 -0.0092170944153843071 0.007802143033907364 0 -0.0083088288330281229 0.0075995981387133012 0 -0.0086737110424815102 0.0067922060626538598 0 -0.008874409284725257 0.0064483965517819347 0 -0.0090926987026337027 0.0073214370711862627 0 -0.010465367750668033 0.0067768659252049196 0 -0.0078497484768066481 0.006419384542790201 0 -0.008874409284725257 0.0064483965517819347 0 -0.0090926987026337027 0.0073214370711862627 0 -0.0082860728136229522 0.0058866879989624256 0 -0.0092375799890169388 0.0058390288981575826 0 -0.0081792796905366585 0.0053591213930569747 0 -0.0082860728136229522 0.0058866879989624256 0 -0.008874409284725257 0.0064483965517819347 0 -0.0092375799890169388 0.0058390288981575826 0 -0.0082160559519945508 0.005719438849231033 0 -0.0082755657236174892 0.0055286354943950124 0 -0.0082687957968472763 0.0056970258853996569 0 -0.0082160559519945508 0.005719438849231033 0 -0.0082755657236174892 0.0055286354943950124 0 -0.0081792796905366585 0.0053591213930569747 0 -0.0088205312610202639 0.0058304592613139432 0 -0.0082487669126076382 0.0053933560208057818 0 -0.0081792796905366585 0.0053591213930569747 0 -0.0082195514112860194 0.0050657736735429011 0 -0.0083276525303216248 0.0053475422765461916 0 -0.0082755657236174892 0.0055286354943950124 0 -0.0081792796905366585 0.0053591213930569747 0 -0.0083276525303216248 0.0053475422765461916 0 -0.0081792796905366585 0.0053591213930569747 0 -0.0077591547260140812 0.0049014246241970063 0 -0.007748904837876742 0.005547373287241357 0 -0.0082860728136229522 0.0058866879989624256 0 -0.0081792796905366585 0.0053591213930569747 0 -0.007748904837876742 0.005547373287241357 0 -0.0081792796905366585 0.0053591213930569747 0 -0.0077591547260140812 0.0049014246241970063 0 -0.0082195514112860194 0.0050657736735429011 0 -0.0077591547260140812 0.0049014246241970063 0 -0.0082195514112860194 0.0050657736735429011 0 -0.0082608336603112262 0.0045621833884228156 0 -0.0082195514112860194 0.0050657736735429011 0 -0.0082608336603112262 0.0045621833884228156 0 -0.0085299541842222791 0.0050287382066281864 0 -0.0069014475564768982 0.0056052676572492331 0 -0.0069938443362088766 0.0051132216740974786 0 -0.0072575613644628402 0.005438512847297924 0 -0.0069938443362088766 0.0051132216740974786 0 -0.0072575613644628402 0.005438512847297924 0 -0.0074219659528097972 0.0049519247503110294 0 -0.0072575613644628402 0.005438512847297924 0 -0.007748904837876742 0.005547373287241357 0 -0.0074219659528097972 0.0049519247503110294 0 -0.007865714344052914 0.0047667042531750765 0 -0.0077508968284836994 0.0054907147220964667 0 -0.0079843232420750733 0.0046205542096462776 0 -0.0074219659528097972 0.0049519247503110294 0 -0.0075672999978413759 0.0044410376309490665 0 -0.0079843232420750733 0.0046205542096462776 0 -0.007748904837876742 0.005547373287241357 0 -0.0074219659528097972 0.0049519247503110294 0 -0.0074219659528097972 0.0049519247503110294 0 -0.0069941642817106936 0.0044859361070533014 0 -0.0075672999978413759 0.0044410376309490665 0 -0.0069938443362088766 0.0051132216740974786 0 -0.0074219659528097972 0.0049519247503110294 0 -0.0069941642817106936 0.0044859361070533014 0 -0.0069941642817106936 0.0044859361070533014 0 -0.0074261342238460129 0.0040147061507540653 0 -0.0075672999978413759 0.0044410376309490665 0 -0.0069941642817106936 0.0044859361070533014 0 -0.0074261342238460129 0.0040147061507540653 0 -0.0070332634766665809 0.0038738507032906981 0 -0.0074261342238460129 0.0040147061507540653 0 -0.0075672999978413759 0.0044410376309490665 0 -0.0080837055832049948 0.0037917684508463291 0 -0.0074560013246859225 0.0035021952848001544 0 -0.0074261342238460129 0.0040147061507540653 0 -0.0080837055832049948 0.0037917684508463291 0 -0.0074560013246859225 0.0035021952848001544 0 -0.0074261342238460129 0.0040147061507540653 0 -0.0070332634766665809 0.0038738507032906981 0 -0.0074560013246859225 0.0035021952848001544 0 -0.0068627863223292137 0.0034728227610214034 0 -0.0070332634766665809 0.0038738507032906981 0 -0.007865714344052914 0.0047667042531750765 0 -0.0079449150761682161 0.0039768645569024192 0 -0.0079843232420750733 0.0046205542096462776 0 -0.0075672999978413759 0.0044410376309490665 0 -0.0080837055832049948 0.0037917684508463291 0 -0.0077591547260140812 0.0049014246241970063 0 -0.0082608336603112262 0.0045621833884228156 0 -0.0077893055795574826 0.0041721581171972454 0 -0.0082608336603112262 0.0045621833884228156 0 -0.0077893055795574826 0.0041721581171972454 0 -0.0082546034118513578 0.0039720581580993146 0 -0.0082608336603112262 0.0045621833884228156 0 -0.0082546034118513578 0.0039720581580993146 0 -0.0086204240757101654 0.0040899798778360674 0 -0.0085707653868800429 0.0036486834525516635 0 -0.0082546034118513578 0.0039720581580993146 0 -0.0086204240757101654 0.0040899798778360674 0 -0.0089234510641992247 0.0037951475006005558 0 -0.0085707653868800429 0.0036486834525516635 0 -0.0086204240757101654 0.0040899798778360674 0 -0.0086204240757101654 0.0040899798778360674 0 -0.0086795659713653286 0.00452344660093625 0 -0.0088911933484941749 0.0041496059307904419 0 -0.0082608336603112262 0.0045621833884228156 0 -0.0086795659713653286 0.00452344660093625 0 -0.0085299541842222791 0.0050287382066281864 0 -0.0082608336603112262 0.0045621833884228156 0 -0.0086204240757101654 0.0040899798778360674 0 -0.0086795659713653286 0.00452344660093625 0 -0.0086795659713653286 0.00452344660093625 0 -0.0090845553535918583 0.0044101398892612042 0 -0.0088808844576109131 0.0048069696352584703 0 -0.0086795659713653286 0.00452344660093625 0 -0.0085299541842222791 0.0050287382066281864 0 -0.0088808844576109131 0.0048069696352584703 0 -0.0086795659713653286 0.00452344660093625 0 -0.0090845553535918583 0.0044101398892612042 0 -0.0088911933484941749 0.0041496059307904419 0 -0.0090845553535918583 0.0044101398892612042 0 -0.0088911933484941749 0.0041496059307904419 0 -0.0091577978154106961 0.0040024901800187656 0 -0.0089234510641992247 0.0037951475006005558 0 -0.0086204240757101654 0.0040899798778360674 0 -0.0088911933484941749 0.0041496059307904419 0 -0.0089234510641992247 0.0037951475006005558 0 -0.0088911933484941749 0.0041496059307904419 0 -0.0091577978154106961 0.0040024901800187656 0 -0.0090845553535918583 0.0044101398892612042 0 -0.0091577978154106961 0.0040024901800187656 0 -0.0095588706875140046 0.0041354962690988116 0 -0.0093505178695072171 0.0037158966619771274 0 -0.0091577978154106961 0.0040024901800187656 0 -0.0095588706875140046 0.0041354962690988116 0 -0.0080361323583309548 0.0035725625654940787 0 -0.008040989147844008 0.0044054106314495725 0 -0.0074285838201912932 0.0032998047584377995 0 -0.0072420061294262419 0.004067223884895727 0 -0.0077003461135366352 0.0037806617102214808 0 -0.0077003461135366352 0.0037806617102214808 0 -0.0080106924858159984 0.0036886956743018219 0 -0.0080443464458653541 0.0040008048188984085 0 -0.0072420061294262419 0.004067223884895727 0 -0.0077003461135366352 0.0037806617102214808 0 -0.0079166200683707701 0.0043074668907538251 0 -0.0077003461135366352 0.0037806617102214808 0 -0.0079166200683707701 0.0043074668907538251 0 -0.0080443464458653541 0.0040008048188984085 0 -0.0084065681219719426 0.0053408767084815066 0 -0.0085123649881098523 0.0055284494357836613 0 -0.0083870565657288912 0.0055499245463825212 0 -0.008040989147844008 0.0044054106314495725 0 -0.0081631743928738381 0.0052134852220155122 0 -0.0072420061294262419 0.004067223884895727 0 -0.0079166200683707701 0.0043074668907538251 0 -0.0078074183158533131 0.0048393331925588529 0 -0.0090845553535918583 0.0044101398892612042 0 -0.0093759968263381153 0.0047946624312919708 0 -0.0088808844576109131 0.0048069696352584703 0 -0.008040989147844008 0.0044054106314495725 0 -0.0089458690731763942 0.0052127318760048016 0 -0.0090845553535918583 0.0044101398892612042 0 -0.0095588706875140046 0.0041354962690988116 0 -0.0093759968263381153 0.0047946624312919708 0 -0.0089458690731763942 0.0052127318760048016 0 -0.0087273794583920018 0.0055858281981883721 0 -0.0093759968263381153 0.0047946624312919708 0 -0.0090904610930044316 0.005440873413145168 0 -0.0088240331290919665 0.005231753109530177 0 -0.0083870565657288912 0.0055499245463825212 0 -0.00848422762612739 0.0056503246476239206 0 -0.0083896558737720332 0.0057870244263179332 0 -0.0085123649881098523 0.0055284494357836613 0 -0.00848422762612739 0.0056503246476239206 0 -0.0085442946422834721 0.0055915249597420589 0 -0.0085123649881098523 0.0055284494357836613 0 -0.0083870565657288912 0.0055499245463825212 0 -0.00848422762612739 0.0056503246476239206 0 -0.0085044667526324776 0.0058537701178328931 0 -0.0085442946422834721 0.0055915249597420589 0 -0.0086103663746368055 0.0060786120631584287 0 -0.00848422762612739 0.0056503246476239206 0 -0.0085044667526324776 0.0058537701178328931 0 -0.0085442946422834721 0.0055915249597420589 0 -0.00848422762612739 0.0056503246476239206 0 -0.0085044667526324776 0.0058537701178328931 0 -0.0083896558737720332 0.0057870244263179332 0 -0.0085044667526324776 0.0058537701178328931 0 -0.0083896558737720332 0.0057870244263179332 0 -0.0085255156195952562 0.0060416184015984536 0 -0.0085284022999170313 0.0055140880203585103 0 -0.0085299541842222791 0.0050287382066281864 0 -0.0088240331290919665 0.005231753109530177 0 -0.0090904610930044316 0.005440873413145168 0 -0.0088240331290919665 0.005231753109530177 0 -0.0086504085080057087 0.0057101329454761459 0 -0.0085284022999170313 0.0055140880203585103 0 -0.0088240331290919665 0.005231753109530177 0 -0.0086504085080057087 0.0057101329454761459 0 -0.0085284022999170313 0.0055140880203585103 0 -0.0083276525303216248 0.0053475422765461916 0 -0.0085299541842222791 0.0050287382066281864 0 -0.0085284022999170313 0.0055140880203585103 0 -0.0083603941263167281 0.0055680267776537012 0 -0.00837003354116936 0.0057786608616487815 0 -0.0085284022999170313 0.0055140880203585103 0 -0.0083603941263167281 0.0055680267776537012 0 -0.0083276525303216248 0.0053475422765461916 0 -0.0082755657236174892 0.0055286354943950124 0 -0.0083603941263167281 0.0055680267776537012 0 -0.0083276525303216248 0.0053475422765461916 0 -0.0082195514112860194 0.0050657736735429011 0 -0.0083276525303216248 0.0053475422765461916 0 -0.0085299541842222791 0.0050287382066281864 0 -0.0093759968263381153 0.0047946624312919708 0 -0.0088808844576109131 0.0048069696352584703 0 -0.0088240331290919665 0.005231753109530177 0 -0.0085299541842222791 0.0050287382066281864 0 -0.0088808844576109131 0.0048069696352584703 0 -0.0088240331290919665 0.005231753109530177 0 -0.010201604309057845 0.0048640493377002441 0 -0.0098646327994251493 0.004637805499991942 0 -0.0097654784125677241 0.0051661122387813745 0 -0.0098646327994251493 0.004637805499991942 0 -0.0099364440912311086 0.0041666733327553503 0 -0.0095187918102246638 0.0043706609565060377 0 -0.010299737863323897 0.0043980917909030763 0 -0.010201604309057845 0.0048640493377002441 0 -0.0098646327994251493 0.004637805499991942 0 -0.010299737863323897 0.0043980917909030763 0 -0.0098646327994251493 0.004637805499991942 0 -0.0099364440912311086 0.0041666733327553503 0 -0.010299737863323897 0.0043980917909030763 0 -0.010278391526319574 0.003962090904322136 0 -0.0099364440912311086 0.0041666733327553503 0 -0.010278391526319574 0.003962090904322136 0 -0.01000570500794409 0.0037731764337601312 0 -0.0099364440912311086 0.0041666733327553503 0 -0.010243009595345104 0.0035821141953492589 0 -0.010278391526319574 0.003962090904322136 0 -0.01000570500794409 0.0037731764337601312 0 -0.01000570500794409 0.0037731764337601312 0 -0.0099364440912311086 0.0041666733327553503 0 -0.0096595133151612354 0.0038968732919203728 0 -0.0098476768909314949 0.0035467037665625404 0 -0.01000570500794409 0.0037731764337601312 0 -0.0096595133151612354 0.0038968732919203728 0 -0.0096595133151612354 0.0038968732919203728 0 -0.0092763361113618742 0.0040318016775051316 0 -0.0095187918102246638 0.0043706609565060377 0 -0.0099364440912311086 0.0041666733327553503 0 -0.0096595133151612354 0.0038968732919203728 0 -0.0095187918102246638 0.0043706609565060377 0 -0.00961212841163658 0.0035703529894122168 0 -0.0096595133151612354 0.0038968732919203728 0 -0.0093654411035983456 0.0037172156320363419 0 -0.0096595133151612354 0.0038968732919203728 0 -0.0093654411035983456 0.0037172156320363419 0 -0.0092763361113618742 0.0040318016775051316 0 -0.0093654411035983456 0.0037172156320363419 0 -0.0092763361113618742 0.0040318016775051316 0 -0.0091195625658290393 0.0037911282001835858 0 -0.0092763361113618742 0.0040318016775051316 0 -0.0095187918102246638 0.0043706609565060377 0 -0.0090106306492200687 0.0044465268965807412 0 -0.0095187918102246638 0.0043706609565060377 0 -0.0093757122457815631 0.004875386894000364 0 -0.0090106306492200687 0.0044465268965807412 0 -0.0098646327994251493 0.004637805499991942 0 -0.0095187918102246638 0.0043706609565060377 0 -0.0093757122457815631 0.004875386894000364 0 -0.0098646327994251493 0.004637805499991942 0 -0.0093757122457815631 0.004875386894000364 0 -0.0097654784125677241 0.0051661122387813745 0 -0.0090106306492200687 0.0044465268965807412 0 -0.0084559183088205626 0.0046746849737691549 0 -0.0089306977385015529 0.0050358391682189746 0 -0.0090106306492200687 0.0044465268965807412 0 -0.0085977682627811497 0.0041923955198381489 0 -0.0084559183088205626 0.0046746849737691549 0 -0.0093757122457815631 0.004875386894000364 0 -0.0090106306492200687 0.0044465268965807412 0 -0.0089306977385015529 0.0050358391682189746 0 -0.0092763361113618742 0.0040318016775051316 0 -0.0090106306492200687 0.0044465268965807412 0 -0.0089117485342270156 0.0039877902253606613 0 -0.0092763361113618742 0.0040318016775051316 0 -0.0089117485342270156 0.0039877902253606613 0 -0.0091195625658290393 0.0037911282001835858 0 -0.0088799902575923025 0.0036587558115053764 0 -0.0089117485342270156 0.0039877902253606613 0 -0.0091195625658290393 0.0037911282001835858 0 -0.0089117485342270156 0.0039877902253606613 0 -0.0086002004020937755 0.0037981348251950793 0 -0.0085977682627811497 0.0041923955198381489 0 -0.0088799902575923025 0.0036587558115053764 0 -0.0089117485342270156 0.0039877902253606613 0 -0.0086002004020937755 0.0037981348251950793 0 -0.0090106306492200687 0.0044465268965807412 0 -0.0089117485342270156 0.0039877902253606613 0 -0.0085977682627811497 0.0041923955198381489 0 -0.0085977682627811497 0.0041923955198381489 0 -0.008294273615872946 0.0039296564800833395 0 -0.0083007709596176916 0.0043010280457840165 0 -0.0086002004020937755 0.0037981348251950793 0 -0.0085977682627811497 0.0041923955198381489 0 -0.008294273615872946 0.0039296564800833395 0 -0.0082960599403976414 0.0035822360443199196 0 -0.0086002004020937755 0.0037981348251950793 0 -0.008294273615872946 0.0039296564800833395 0 -0.0082960599403976414 0.0035822360443199196 0 -0.008294273615872946 0.0039296564800833395 0 -0.0080106924858159984 0.0036886956743018219 0 -0.008294273615872946 0.0039296564800833395 0 -0.0080106924858159984 0.0036886956743018219 0 -0.0080443464458653541 0.0040008048188984085 0 -0.0079166200683707701 0.0043074668907538251 0 -0.0080443464458653541 0.0040008048188984085 0 -0.0083007709596176916 0.0043010280457840165 0 -0.008294273615872946 0.0039296564800833395 0 -0.0080443464458653541 0.0040008048188984085 0 -0.0083007709596176916 0.0043010280457840165 0 -0.0079166200683707701 0.0043074668907538251 0 -0.0083007709596176916 0.0043010280457840165 0 -0.0084559183088205626 0.0046746849737691549 0 -0.0079166200683707701 0.0043074668907538251 0 -0.0078074183158533131 0.0048393331925588529 0 -0.0084559183088205626 0.0046746849737691549 0 -0.0085977682627811497 0.0041923955198381489 0 -0.0083007709596176916 0.0043010280457840165 0 -0.0084559183088205626 0.0046746849737691549 0 -0.0084559183088205626 0.0046746849737691549 0 -0.0085442946422834721 0.0055915249597420589 0 -0.0089306977385015529 0.0050358391682189746 0 -0.0078074183158533131 0.0048393331925588529 0 -0.0084559183088205626 0.0046746849737691549 0 -0.0085442946422834721 0.0055915249597420589 0 -0.0081631743928738381 0.0052134852220155122 0 -0.0084881094732796713 0.0055464681097724096 0 -0.0085442946422834721 0.0055915249597420589 0 -0.0089498753187771066 0.0059694339773437872 0 -0.0086103663746368055 0.0060786120631584287 0 -0.0092242373669338303 0.0054892025651837664 0 -0.0094059178116839108 0.0059639678611803333 0 -0.0089498753187771066 0.0059694339773437872 0 -0.0085442946422834721 0.0055915249597420589 0 -0.0092242373669338303 0.0054892025651837664 0 -0.0089498753187771066 0.0059694339773437872 0 -0.0093757122457815631 0.004875386894000364 0 -0.0092242373669338303 0.0054892025651837664 0 -0.0089306977385015529 0.0050358391682189746 0 -0.0085442946422834721 0.0055915249597420589 0 -0.0092242373669338303 0.0054892025651837664 0 -0.0089306977385015529 0.0050358391682189746 0 -0.0093757122457815631 0.004875386894000364 0 -0.0092242373669338303 0.0054892025651837664 0 -0.0097654784125677241 0.0051661122387813745 0 -0.0092242373669338303 0.0054892025651837664 0 -0.0097774507143409267 0.005671338918155704 0 -0.0097654784125677241 0.0051661122387813745 0 -0.0092242373669338303 0.0054892025651837664 0 -0.0097774507143409267 0.005671338918155704 0 -0.0094059178116839108 0.0059639678611803333 0 -0.010228725565517268 0.0057558028693216667 0 -0.0097774507143409267 0.005671338918155704 0 -0.010189981676611325 0.0053038252398020184 0 -0.0097774507143409267 0.005671338918155704 0 -0.010189981676611325 0.0053038252398020184 0 -0.0097654784125677241 0.0051661122387813745 0 -0.010201604309057845 0.0048640493377002441 0 -0.010189981676611325 0.0053038252398020184 0 -0.0097654784125677241 0.0051661122387813745 0 -0.0096104771283313205 0.0067515994219651326 0 -0.0095347492230180523 0.0064765017205511404 0 -0.0094008136128109748 0.0067095076867284354 0 -0.0097774507143409267 0.005671338918155704 0 -0.0099622291431509264 0.0062313960376278463 0 -0.0094059178116839108 0.0059639678611803333 0 -0.010228725565517268 0.0057558028693216667 0 -0.0097774507143409267 0.005671338918155704 0 -0.0099622291431509264 0.0062313960376278463 0 -0.0099622291431509264 0.0062313960376278463 0 -0.0094059178116839108 0.0059639678611803333 0 -0.0092569520760376438 0.0064205717777742017 0 -0.0094157608716935303 0.0064229863991237023 0 -0.009415585347158523 0.006395814729175507 0 -0.0092569520760376438 0.0064205717777742017 0 -0.0091485696422359403 0.0066778912755340886 0 -0.0094008136128109748 0.0067095076867284354 0 -0.0095347492230180523 0.0064765017205511404 0 -0.0092569520760376438 0.0064205717777742017 0 -0.0094008136128109748 0.0067095076867284354 0 -0.0092569520760376438 0.0064205717777742017 0 -0.0088718939565182748 0.0063895454338896542 0 -0.0091485696422359403 0.0066778912755340886 0 -0.0092569520760376438 0.0064205717777742017 0 -0.0089498753187771066 0.0059694339773437872 0 -0.0088718939565182748 0.0063895454338896542 0 -0.0094059178116839108 0.0059639678611803333 0 -0.0092569520760376438 0.0064205717777742017 0 -0.0089498753187771066 0.0059694339773437872 0 -0.0089498753187771066 0.0059694339773437872 0 -0.0088718939565182748 0.0063895454338896542 0 -0.0086103663746368055 0.0060786120631584287 0 -0.0088718939565182748 0.0063895454338896542 0 -0.0086103663746368055 0.0060786120631584287 0 -0.008576912018279292 0.0063184822829997827 0 -0.0088718939565182748 0.0063895454338896542 0 -0.0087091150325487431 0.0065728996108328766 0 -0.008576912018279292 0.0063184822829997827 0 -0.0087091150325487431 0.0065728996108328766 0 -0.0089280760668843193 0.0068260121990168891 0 -0.0086461555934938226 0.0068177025543947455 0 -0.0088718939565182748 0.0063895454338896542 0 -0.0087091150325487431 0.0065728996108328766 0 -0.0089280760668843193 0.0068260121990168891 0 -0.0087650789743869573 0.0070783006946818199 0 -0.0089280760668843193 0.0068260121990168891 0 -0.0089954868817289143 0.0073083079786752762 0 -0.0087650789743869573 0.0070783006946818199 0 -0.0086461555934938226 0.0068177025543947455 0 -0.0085378329901736692 0.0070858515712640324 0 -0.0087650789743869573 0.0070783006946818199 0 -0.0089280760668843193 0.0068260121990168891 0 -0.0086461555934938226 0.0068177025543947455 0 -0.0087650789743869573 0.0070783006946818199 0 -0.0085378329901736692 0.0070858515712640324 0 -0.0087139016006756338 0.0073461068356535358 0 -0.0089280760668843193 0.0068260121990168891 0 -0.0092364967244058863 0.0070296341772960519 0 -0.0089954868817289143 0.0073083079786752762 0 -0.0091485696422359403 0.0066778912755340886 0 -0.0089280760668843193 0.0068260121990168891 0 -0.0092364967244058863 0.0070296341772960519 0 -0.0088718939565182748 0.0063895454338896542 0 -0.0091485696422359403 0.0066778912755340886 0 -0.0089280760668843193 0.0068260121990168891 0 -0.0091485696422359403 0.0066778912755340886 0 -0.0094008136128109748 0.0067095076867284354 0 -0.0092364967244058863 0.0070296341772960519 0 -0.0094008136128109748 0.0067095076867284354 0 -0.0092364967244058863 0.0070296341772960519 0 -0.0095613664058201778 0.0070018812032259445 0 -0.0092364967244058863 0.0070296341772960519 0 -0.0095613664058201778 0.0070018812032259445 0 -0.0094104548449204673 0.0072878504649788413 0 -0.0096286462268679578 0.0073476141047261771 0 -0.0095613664058201778 0.0070018812032259445 0 -0.0094104548449204673 0.0072878504649788413 0 -0.0096104771283313205 0.0067515994219651326 0 -0.0094008136128109748 0.0067095076867284354 0 -0.0095613664058201778 0.0070018812032259445 0 -0.0083542196785096733 0.0063061490525229916 0 -0.0084515291273606439 0.0059406311264720959 0 -0.0085255156195952562 0.0060416184015984536 0 -0.0083542196785096733 0.0063061490525229916 0 -0.0082591832974023803 0.006148940151234409 0 -0.0084515291273606439 0.0059406311264720959 0 -0.008874409284725257 0.0064483965517819347 0 -0.0092375799890169388 0.0058390288981575826 0 -0.010465367750668033 0.0067768659252049196 0 -0.0088205312610202639 0.0058304592613139432 0 -0.0087518360584001535 0.0065338170133028171 0 -0.0082591832974023803 0.006148940151234409 0 -0.0082687957968472763 0.0056970258853996569 0 -0.00837003354116936 0.0057786608616487815 0 -0.0087518360584001535 0.0065338170133028171 0 -0.0081438719753169214 0.0055546915523277968 0 -0.0082160559519945508 0.005719438849231033 0 -0.0084143472364191663 0.005963586402303522 0 -0.0082687957968472763 0.0056970258853996569 0 -0.0082591832974023803 0.006148940151234409 0 -0.00837003354116936 0.0057786608616487815 0 -0.0084515291273606439 0.0059406311264720959 0 -0.0083603941263167281 0.0055680267776537012 0 -0.0082687957968472763 0.0056970258853996569 0 -0.00837003354116936 0.0057786608616487815 0 -0.0082755657236174892 0.0055286354943950124 0 -0.0083603941263167281 0.0055680267776537012 0 -0.0082687957968472763 0.0056970258853996569 0 -0.0085284022999170313 0.0055140880203585103 0 -0.0084515291273606439 0.0059406311264720959 0 -0.0086504085080057087 0.0057101329454761459 0 -0.0085284022999170313 0.0055140880203585103 0 -0.00837003354116936 0.0057786608616487815 0 -0.0084515291273606439 0.0059406311264720959 0 -0.0084515291273606439 0.0059406311264720959 0 -0.0086504085080057087 0.0057101329454761459 0 -0.0085255156195952562 0.0060416184015984536 0 -0.0090904610930044316 0.005440873413145168 0 -0.0086504085080057087 0.0057101329454761459 0 -0.0085255156195952562 0.0060416184015984536 0 -0.0087273794583920018 0.0055858281981883721 0 -0.0085732541958674201 0.0059752956550585424 0 -0.0085255156195952562 0.0060416184015984536 0 -0.0086103663746368055 0.0060786120631584287 0 -0.008576912018279292 0.0063184822829997827 0 -0.0085044667526324776 0.0058537701178328931 0 -0.0085255156195952562 0.0060416184015984536 0 -0.0086103663746368055 0.0060786120631584287 0 -0.008576912018279292 0.0063184822829997827 0 -0.0084526384701709666 0.0063738016856540293 0 -0.0085220786879743188 0.0065606451899556861 0 -0.0085255156195952562 0.0060416184015984536 0 -0.008576912018279292 0.0063184822829997827 0 -0.0084526384701709666 0.0063738016856540293 0 -0.0083542196785096733 0.0063061490525229916 0 -0.0085255156195952562 0.0060416184015984536 0 -0.0084526384701709666 0.0063738016856540293 0 -0.0083542196785096733 0.0063061490525229916 0 -0.0084526384701709666 0.0063738016856540293 0 -0.0083662123162654371 0.0064701509458006696 0 -0.0084029510870080298 0.0065694205356789217 0 -0.0084387888213557499 0.0068229944026670843 0 -0.0082602161009337066 0.0066367033292734955 0 -0.0084526384701709666 0.0063738016856540293 0 -0.0083662123162654371 0.0064701509458006696 0 -0.0084029510870080298 0.0065694205356789217 0 -0.0084526384701709666 0.0063738016856540293 0 -0.0084029510870080298 0.0065694205356789217 0 -0.0085220786879743188 0.0065606451899556861 0 -0.0083662123162654371 0.0064701509458006696 0 -0.0084029510870080298 0.0065694205356789217 0 -0.0082602161009337066 0.0066367033292734955 0 -0.0087091150325487431 0.0065728996108328766 0 -0.008576912018279292 0.0063184822829997827 0 -0.0085220786879743188 0.0065606451899556861 0 -0.0085220786879743188 0.0065606451899556861 0 -0.0086461555934938226 0.0068177025543947455 0 -0.0084387888213557499 0.0068229944026670843 0 -0.0084029510870080298 0.0065694205356789217 0 -0.0085220786879743188 0.0065606451899556861 0 -0.0084387888213557499 0.0068229944026670843 0 -0.0087091150325487431 0.0065728996108328766 0 -0.0085220786879743188 0.0065606451899556861 0 -0.0086461555934938226 0.0068177025543947455 0 -0.0084387888213557499 0.0068229944026670843 0 -0.0085378329901736692 0.0070858515712640324 0 -0.0083161721776144788 0.0073232393523516136 0 -0.0086461555934938226 0.0068177025543947455 0 -0.0084387888213557499 0.0068229944026670843 0 -0.0085378329901736692 0.0070858515712640324 0 -0.0080670208751722795 0.0070992299630664906 0 -0.0080906171400674052 0.0074249650088693336 0 -0.0083161721776144788 0.0073232393523516136 0 -0.0080590710991760087 0.0068636104811069937 0 -0.0083797528913884551 0.0073216791367965595 0 -0.0084387888213557499 0.0068229944026670843 0 -0.0082602161009337066 0.0066367033292734955 0 -0.0083161721776144788 0.0073232393523516136 0 -0.011596049941995945 0.009212722524458249 0 -0.011711590105869597 0.0085914194600537012 0 -0.012501064258162877 0.010048226992138736 0 -0.008017123977489559 0.007121456737122475 0 -0.0080670208751722795 0.0070992299630664906 0 -0.0080906171400674052 0.0074249650088693336 0 -0.0099044990336851907 0.0079205719319365934 0 -0.010497715176672241 0.0088478391360881509 0 -0.011208707245944582 0.0093760320180465359 0 -0.011596049941995945 0.009212722524458249 0 -0.011643271475151472 0.0096980068603732712 0 -0.011208707245944582 0.0093760320180465359 0 -0.011596049941995945 0.009212722524458249 0 -0.011139309339260408 0.0089080802561732689 0 -0.011596049941995945 0.009212722524458249 0 -0.011269853462941097 0.0086016633461608403 0 -0.011139309339260408 0.0089080802561732689 0 -0.011596049941995945 0.009212722524458249 0 -0.011269853462941097 0.0086016633461608403 0 -0.011711590105869597 0.0085914194600537012 0 -0.0079717671072064497 0.0069483178878687272 0 -0.008017123977489559 0.007121456737122475 0 -0.0080670208751722795 0.0070992299630664906 0 -0.0083542196785096733 0.0063061490525229916 0 -0.0083662123162654371 0.0064701509458006696 0 -0.0082602161009337066 0.0066367033292734955 0 -0.010465367750668033 0.0067768659252049196 0 -0.011711590105869597 0.0085914194600537012 0 -0.011125485617065245 0.0082062137701376728 0 -0.0083542196785096733 0.0063061490525229916 0 -0.0082591832974023803 0.006148940151234409 0 -0.0082602161009337066 0.0066367033292734955 0 -0.0087518360584001535 0.0065338170133028171 0 -0.0099044990336851907 0.0079205719319365934 0 -0.0087518360584001535 0.0065338170133028171 0 -0.0080590710991760087 0.0068636104811069937 0 -0.011269853462941097 0.0086016633461608403 0 -0.011711590105869597 0.0085914194600537012 0 -0.011125485617065245 0.0082062137701376728 0 -0.0090926987026337027 0.0073214370711862627 0 -0.010465367750668033 0.0067768659252049196 0 -0.011125485617065245 0.0082062137701376728 0 -0.0095765012081030082 0.0074450314573597173 0 -0.011017076513075014 0.008161379966371566 0 -0.0099847858936009688 0.0075798439555517638 0 -0.011125485617065245 0.0082062137701376728 0 -0.010659627311409839 0.0084364340884225345 0 -0.011269853462941097 0.0086016633461608403 0 -0.011125485617065245 0.0082062137701376728 0 -0.010659627311409839 0.0084364340884225345 0 -0.010028478177364087 0.008208457754270003 0 -0.010659627311409839 0.0084364340884225345 0 -0.010418708725535925 0.0086929850393083433 0 -0.0099703230950333576 0.0087582900578842583 0 -0.010418708725535925 0.0086929850393083433 0 -0.010451970250340444 0.009035949879565016 0 -0.010659627311409839 0.0084364340884225345 0 -0.010418708725535925 0.0086929850393083433 0 -0.010768815549524998 0.00898411732493915 0 -0.010418708725535925 0.0086929850393083433 0 -0.010768815549524998 0.00898411732493915 0 -0.010451970250340444 0.009035949879565016 0 -0.010659627311409839 0.0084364340884225345 0 -0.011139309339260408 0.0089080802561732689 0 -0.010768815549524998 0.00898411732493915 0 -0.011269853462941097 0.0086016633461608403 0 -0.010659627311409839 0.0084364340884225345 0 -0.011139309339260408 0.0089080802561732689 0 -0.011208707245944582 0.0093760320180465359 0 -0.010768815549524998 0.00898411732493915 0 -0.010756640529698495 0.0094610899738434579 0 -0.011208707245944582 0.0093760320180465359 0 -0.011139309339260408 0.0089080802561732689 0 -0.010768815549524998 0.00898411732493915 0 -0.010451970250340444 0.009035949879565016 0 -0.010441053412744674 0.0095102539015549849 0 -0.010756640529698495 0.0094610899738434579 0 -0.010768815549524998 0.00898411732493915 0 -0.010451970250340444 0.009035949879565016 0 -0.010756640529698495 0.0094610899738434579 0 -0.010183722624402347 0.0093224569939776066 0 -0.010451970250340444 0.009035949879565016 0 -0.010441053412744674 0.0095102539015549849 0 -0.010441053412744674 0.0095102539015549849 0 -0.01051990142577949 0.0098606909471798641 0 -0.010756640529698495 0.0094610899738434579 0 -0.010441053412744674 0.0095102539015549849 0 -0.01051990142577949 0.0098606909471798641 0 -0.010127854594767786 0.0096417285990588013 0 -0.011208707245944582 0.0093760320180465359 0 -0.011200994048068983 0.0099259718834926441 0 -0.010756640529698495 0.0094610899738434579 0 -0.01051990142577949 0.0098606909471798641 0 -0.011200994048068983 0.0099259718834926441 0 -0.010756640529698495 0.0094610899738434579 0 -0.011200994048068983 0.0099259718834926441 0 -0.010696243993557715 0.010463434869301121 0 -0.01138703085060493 0.010568431353315467 0 -0.01051990142577949 0.0098606909471798641 0 -0.011200994048068983 0.0099259718834926441 0 -0.010696243993557715 0.010463434869301121 0 -0.01051990142577949 0.0098606909471798641 0 -0.010696243993557715 0.010463434869301121 0 -0.0099796551625971567 0.010173534713716414 0 -0.010696243993557715 0.010463434869301121 0 -0.010937683759370483 0.011194189521706425 0 -0.01138703085060493 0.010568431353315467 0 -0.010696243993557715 0.010463434869301121 0 -0.010937683759370483 0.011194189521706425 0 -0.010138187863832202 0.011114038127293736 0 -0.011654304813502837 0.011193236503060516 0 -0.011919251725464274 0.010601038321477151 0 -0.01235097023041814 0.011118979739968025 0 -0.010937683759370483 0.011194189521706425 0 -0.011654304813502837 0.011193236503060516 0 -0.01138703085060493 0.010568431353315467 0 -0.01138703085060493 0.010568431353315467 0 -0.011919251725464274 0.010601038321477151 0 -0.011728936671819562 0.010169112904285257 0 -0.011654304813502837 0.011193236503060516 0 -0.01138703085060493 0.010568431353315467 0 -0.011919251725464274 0.010601038321477151 0 -0.011919251725464274 0.010601038321477151 0 -0.011728936671819562 0.010169112904285257 0 -0.012501064258162877 0.010048226992138736 0 -0.011728936671819562 0.010169112904285257 0 -0.011643271475151472 0.0096980068603732712 0 -0.012501064258162877 0.010048226992138736 0 -0.011200994048068983 0.0099259718834926441 0 -0.01138703085060493 0.010568431353315467 0 -0.011728936671819562 0.010169112904285257 0 -0.011200994048068983 0.0099259718834926441 0 -0.011728936671819562 0.010169112904285257 0 -0.011643271475151472 0.0096980068603732712 0 -0.011208707245944582 0.0093760320180465359 0 -0.011200994048068983 0.0099259718834926441 0 -0.011643271475151472 0.0096980068603732712 0 -0.011596049941995945 0.009212722524458249 0 -0.011643271475151472 0.0096980068603732712 0 -0.012501064258162877 0.010048226992138736 0 -0.0080906171400674052 0.0074249650088693336 0 -0.0083161721776144788 0.0073232393523516136 0 -0.0082602314888406674 0.0076909739056739606 0 -0.0085378329901736692 0.0070858515712640324 0 -0.0083161721776144788 0.0073232393523516136 0 -0.0084830259919373395 0.007526531221625392 0 -0.0085378329901736692 0.0070858515712640324 0 -0.0084830259919373395 0.007526531221625392 0 -0.0087139016006756338 0.0073461068356535358 0 -0.0083161721776144788 0.0073232393523516136 0 -0.0084830259919373395 0.007526531221625392 0 -0.0082602314888406674 0.0076909739056739606 0 -0.0084830259919373395 0.007526531221625392 0 -0.0082602314888406674 0.0076909739056739606 0 -0.008342761644906712 0.0078028129833163087 0 -0.0084830259919373395 0.007526531221625392 0 -0.0084960245969428767 0.0078026585793932769 0 -0.008342761644906712 0.0078028129833163087 0 -0.0082602314888406674 0.0076909739056739606 0 -0.0082028399315911896 0.0080111195415004874 0 -0.0081554760620254785 0.0080668875217895352 0 -0.0082602314888406674 0.0076909739056739606 0 -0.008342761644906712 0.0078028129833163087 0 -0.0082028399315911896 0.0080111195415004874 0 -0.0084960245969428767 0.0078026585793932769 0 -0.0083440481039567874 0.0079490659636250929 0 -0.0084378623228498727 0.0080429812865547932 0 -0.008342761644906712 0.0078028129833163087 0 -0.0083440481039567874 0.0079490659636250929 0 -0.0082028399315911896 0.0080111195415004874 0 -0.0083440481039567874 0.0079490659636250929 0 -0.0084378623228498727 0.0080429812865547932 0 -0.0082814137833441097 0.0080855487853592548 0 -0.0083440481039567874 0.0079490659636250929 0 -0.0082814137833441097 0.0080855487853592548 0 -0.0082028399315911896 0.0080111195415004874 0 -0.0084960245969428767 0.0078026585793932769 0 -0.008342761644906712 0.0078028129833163087 0 -0.0083440481039567874 0.0079490659636250929 0 -0.0080906171400674052 0.0074249650088693336 0 -0.0082602314888406674 0.0076909739056739606 0 -0.0081554760620254785 0.0080668875217895352 0 -0.012501064258162877 0.010048226992138736 0 -0.01235097023041814 0.011118979739968025 0 -0.013253166331341481 0.011510650307119962 0 -0.011919251725464274 0.010601038321477151 0 -0.012501064258162877 0.010048226992138736 0 -0.01235097023041814 0.011118979739968025 0 -0.010497715176672241 0.0088478391360881509 0 -0.0093282200166004952 0.0094873601216307613 0 -0.012474089687933924 0.011767496207480107 0 -0.013253166331341481 0.011510650307119962 0 -0.012317021697739256 0.012589476545202781 0 -0.01235097023041814 0.011118979739968025 0 -0.012474089687933924 0.011767496207480107 0 -0.011976297073694847 0.0118438508926712 0 -0.0093282200166004952 0.0094873601216307613 0 -0.010050384603767637 0.011026868169909929 0 -0.0080543425883275004 0.0090499475664922481 0 -0.0079854214708305893 0.0095295424106672695 0 -0.0076095765129506141 0.0095406890374072819 0 -0.01235097023041814 0.011118979739968025 0 -0.012474089687933924 0.011767496207480107 0 -0.013253166331341481 0.011510650307119962 0 -0.012474089687933924 0.011767496207480107 0 -0.012317021697739256 0.012589476545202781 0 -0.011976297073694847 0.0118438508926712 0 -0.0080543425883275004 0.0090499475664922481 0 -0.0079854214708305893 0.0095295424106672695 0 -0.0083156032894536377 0.0095454694528868279 0 -0.0081052954936230957 0.0080908514099596492 0 -0.0083283452801103906 0.0083518218126447195 0 -0.0082061086826953327 0.0088493785329312492 0 -0.0093282200166004952 0.0094873601216307613 0 -0.0081131553130631435 0.0089931360790900076 0 -0.0084378623228498727 0.0080429812865547932 0 -0.0082814137833441097 0.0080855487853592548 0 -0.0083283452801103906 0.0083518218126447195 0 -0.0082814137833441097 0.0080855487853592548 0 -0.0081052954936230957 0.0080908514099596492 0 -0.0083283452801103906 0.0083518218126447195 0 -0.0082814137833441097 0.0080855487853592548 0 -0.0082028399315911896 0.0080111195415004874 0 -0.0081052954936230957 0.0080908514099596492 0 -0.0092621918454934664 0.0092914632857444834 0 -0.0093282200166004952 0.0094873601216307613 0 -0.0079854214708305893 0.0095295424106672695 0 -0.0083156032894536377 0.0095454694528868279 0 -0.00796187881555834 0.00998903560995653 0 -0.0079854214708305893 0.0095295424106672695 0 -0.0076095765129506141 0.0095406890374072819 0 -0.00796187881555834 0.00998903560995653 0 -0.012317021697739256 0.012589476545202781 0 -0.011446456586275954 0.012665581662529906 0 -0.011406801824324514 0.013593825266335489 0 -0.010050384603767637 0.011026868169909929 0 -0.010008646247150562 0.012650591373608258 0 -0.012317021697739256 0.012589476545202781 0 -0.011446456586275954 0.012665581662529906 0 -0.011976297073694847 0.0118438508926712 0 -0.011446456586275954 0.012665581662529906 0 -0.010492005174546168 0.012591814207723671 0 -0.01130977583873433 0.011898809970844087 0 -0.011446456586275954 0.012665581662529906 0 -0.010492005174546168 0.012591814207723671 0 -0.011406801824324514 0.013593825266335489 0 -0.011109427011386031 0.013160050922038051 0 -0.010008646247150562 0.012650591373608258 0 -0.010937683759370483 0.011194189521706425 0 -0.010492005174546168 0.012591814207723671 0 -0.010138187863832202 0.011114038127293736 0 -0.010937683759370483 0.011194189521706425 0 -0.010492005174546168 0.012591814207723671 0 -0.01130977583873433 0.011898809970844087 0 -0.010937683759370483 0.011194189521706425 0 -0.011654304813502837 0.011193236503060516 0 -0.01130977583873433 0.011898809970844087 0 -0.011654304813502837 0.011193236503060516 0 -0.011976297073694847 0.0118438508926712 0 -0.01130977583873433 0.011898809970844087 0 -0.011654304813502837 0.011193236503060516 0 -0.01235097023041814 0.011118979739968025 0 -0.011976297073694847 0.0118438508926712 0 -0.011446456586275954 0.012665581662529906 0 -0.011976297073694847 0.0118438508926712 0 -0.01130977583873433 0.011898809970844087 0 -0.009763647471613927 0.0076073999648964214 0 -0.0094003268053705138 0.0076333317175968588 0 -0.0091372813152945341 0.007958905899546875 0 -0.007656494054345154 0.0083046756242765099 0 -0.0069432200330271044 0.0094756002629468906 0 -0.0091372813152945341 0.007958905899546875 0 -0.0094003268053705138 0.0076333317175968588 0 -0.0092536269659071017 0.0080380951209333574 0 -0.0091372813152945341 0.007958905899546875 0 -0.0090813480537965102 0.0084645129508880944 0 -0.0088077989659426596 0.0080696491332483741 0 -0.0096286462268679578 0.0073476141047261771 0 -0.0094003268053705138 0.0076333317175968588 0 -0.0094104548449204673 0.0072878504649788413 0 -0.0094003268053705138 0.0076333317175968588 0 -0.0094104548449204673 0.0072878504649788413 0 -0.0092561680964576079 0.0075373658172038348 0 -0.0092364967244058863 0.0070296341772960519 0 -0.0094104548449204673 0.0072878504649788413 0 -0.0092561680964576079 0.0075373658172038348 0 -0.0094003268053705138 0.0076333317175968588 0 -0.0092561680964576079 0.0075373658172038348 0 -0.0092536269659071017 0.0080380951209333574 0 -0.0092561680964576079 0.0075373658172038348 0 -0.0092454076519806836 0.0079119618888541313 0 -0.0096651380652286855 0.0081166868635882509 0 -0.0092725317398156416 0.007595817718755617 0 -0.0094595433258208989 0.0081099642742805018 0 -0.0092454076519806836 0.0079119618888541313 0 -0.0091081678365398863 0.0080460413183589489 0 -0.0090449403349076134 0.0077084173139099115 0 -0.0092454076519806836 0.0079119618888541313 0 -0.0091081678365398863 0.0080460413183589489 0 -0.0093485869463115958 0.0082283099351680659 0 -0.0091081678365398863 0.0080460413183589489 0 -0.0090449403349076134 0.0077084173139099115 0 -0.0088729728645276906 0.0079098444948299835 0 -0.0090449403349076134 0.0077084173139099115 0 -0.0087714294658292197 0.0076307415445190331 0 -0.0088729728645276906 0.0079098444948299835 0 -0.0092561680964576079 0.0075373658172038348 0 -0.0092454076519806836 0.0079119618888541313 0 -0.0090449403349076134 0.0077084173139099115 0 -0.0092364967244058863 0.0070296341772960519 0 -0.0092561680964576079 0.0075373658172038348 0 -0.0089954868817289143 0.0073083079786752762 0 -0.0090449403349076134 0.0077084173139099115 0 -0.0089954868817289143 0.0073083079786752762 0 -0.0087714294658292197 0.0076307415445190331 0 -0.0092561680964576079 0.0075373658172038348 0 -0.0090449403349076134 0.0077084173139099115 0 -0.0089954868817289143 0.0073083079786752762 0 -0.0089954868817289143 0.0073083079786752762 0 -0.0087139016006756338 0.0073461068356535358 0 -0.0087714294658292197 0.0076307415445190331 0 -0.0087650789743869573 0.0070783006946818199 0 -0.0089954868817289143 0.0073083079786752762 0 -0.0087139016006756338 0.0073461068356535358 0 -0.0084830259919373395 0.007526531221625392 0 -0.0087139016006756338 0.0073461068356535358 0 -0.0087714294658292197 0.0076307415445190331 0 -0.0084830259919373395 0.007526531221625392 0 -0.0084960245969428767 0.0078026585793932769 0 -0.0087714294658292197 0.0076307415445190331 0 -0.0084960245969428767 0.0078026585793932769 0 -0.0087714294658292197 0.0076307415445190331 0 -0.0086737548183039564 0.0078818719035289621 0 -0.0087714294658292197 0.0076307415445190331 0 -0.0088729728645276906 0.0079098444948299835 0 -0.0086737548183039564 0.0078818719035289621 0 -0.0088729728645276906 0.0079098444948299835 0 -0.0086737548183039564 0.0078818719035289621 0 -0.0086549953460805015 0.0081241282423603657 0 -0.0084378623228498727 0.0080429812865547932 0 -0.0086737548183039564 0.0078818719035289621 0 -0.0086549953460805015 0.0081241282423603657 0 -0.0084960245969428767 0.0078026585793932769 0 -0.0084378623228498727 0.0080429812865547932 0 -0.0086737548183039564 0.0078818719035289621 0 -0.0083283452801103906 0.0083518218126447195 0 -0.0086549953460805015 0.0081241282423603657 0 -0.0086110183867193889 0.0084439979091038547 0 -0.0084378623228498727 0.0080429812865547932 0 -0.0083283452801103906 0.0083518218126447195 0 -0.0086549953460805015 0.0081241282423603657 0 -0.0088729728645276906 0.0079098444948299835 0 -0.0086549953460805015 0.0081241282423603657 0 -0.0088955306432878956 0.0082706676860037649 0 -0.0086549953460805015 0.0081241282423603657 0 -0.0088955306432878956 0.0082706676860037649 0 -0.0086110183867193889 0.0084439979091038547 0 -0.0088955306432878956 0.0082706676860037649 0 -0.0086110183867193889 0.0084439979091038547 0 -0.0089286224541612509 0.0087283722454593281 0 -0.0083283452801103906 0.0083518218126447195 0 -0.0082061086826953327 0.0088493785329312492 0 -0.0086110183867193889 0.0084439979091038547 0 -0.0081131553130631435 0.0089931360790900076 0 -0.008644939327118583 0.010011736258847836 0 -0.0082061086826953327 0.0088493785329312492 0 -0.0089286224541612509 0.0087283722454593281 0 -0.0086038336415427928 0.0099774806770833255 0 -0.0082061086826953327 0.0088493785329312492 0 -0.0086110183867193889 0.0084439979091038547 0 -0.0089286224541612509 0.0087283722454593281 0 -0.0089286224541612509 0.0087283722454593281 0 -0.0093358487851688994 0.0095941445852652085 0 -0.0086038336415427928 0.0099774806770833255 0 -0.0089286224541612509 0.0087283722454593281 0 -0.009402670702031218 0.0085191235532970418 0 -0.0095136386039001587 0.0088458708128091226 0 -0.0087803978291475324 0.0086735802085881816 0 -0.010259591343104042 0.0092679703241237508 0 -0.0089286224541612509 0.0087283722454593281 0 -0.010152293977484704 0.0093924438620992569 0 -0.0093358487851688994 0.0095941445852652085 0 -0.0089286224541612509 0.0087283722454593281 0 -0.0091444913760058335 0.008355287782701849 0 -0.009402670702031218 0.0085191235532970418 0 -0.0091444913760058335 0.008355287782701849 0 -0.0093485869463115958 0.0082283099351680659 0 -0.009402670702031218 0.0085191235532970418 0 -0.0088955306432878956 0.0082706676860037649 0 -0.0089286224541612509 0.0087283722454593281 0 -0.0091444913760058335 0.008355287782701849 0 -0.0091081678365398863 0.0080460413183589489 0 -0.0088955306432878956 0.0082706676860037649 0 -0.0091444913760058335 0.008355287782701849 0 -0.0091081678365398863 0.0080460413183589489 0 -0.0088729728645276906 0.0079098444948299835 0 -0.0088955306432878956 0.0082706676860037649 0 -0.0091081678365398863 0.0080460413183589489 0 -0.0091444913760058335 0.008355287782701849 0 -0.0093485869463115958 0.0082283099351680659 0 -0.0095710703492733907 0.0083630876158406215 0 -0.009402670702031218 0.0085191235532970418 0 -0.0098663324026698283 0.0086336706740772259 0 -0.0092454076519806836 0.0079119618888541313 0 -0.0093485869463115958 0.0082283099351680659 0 -0.0096651380652286855 0.0081166868635882509 0 -0.0093485869463115958 0.0082283099351680659 0 -0.0096651380652286855 0.0081166868635882509 0 -0.0095710703492733907 0.0083630876158406215 0 -0.0093485869463115958 0.0082283099351680659 0 -0.0095710703492733907 0.0083630876158406215 0 -0.009402670702031218 0.0085191235532970418 0 -0.009402670702031218 0.0085191235532970418 0 -0.0095136386039001587 0.0088458708128091226 0 -0.0098663324026698283 0.0086336706740772259 0 -0.010058194560486802 0.009068789905782847 0 -0.0095136386039001587 0.0088458708128091226 0 -0.0098663324026698283 0.0086336706740772259 0 -0.0076949724817676236 0.0052558654989173503 0 -0.0077029776616335211 0.0062883526252087681 0 -0.0084377111527682413 0.0068316045716338668 0 -0.0087521657207565561 0.0089376706793177999 0 -0.0090860968377959109 0.0074256589094080557 0 -0.0074171302359851447 0.0070662518774683254 0 -0.0077029776616335211 0.0062883526252087681 0 -0.0084377111527682413 0.0068316045716338668 0 -0.0096651380652286855 0.0081166868635882509 0 -0.0095710703492733907 0.0083630876158406215 0 -0.0098663324026698283 0.0086336706740772259 0 -0.0074171302359851447 0.0070662518774683254 0 -0.0084377111527682413 0.0068316045716338668 0 -0.0078468482494453273 0.0076986911548545377 0 -0.0092536269659071017 0.0080380951209333574 0 -0.0084377111527682413 0.0068316045716338668 0 -0.0091372813152945341 0.007958905899546875 0 -0.0084377111527682413 0.0068316045716338668 0 -0.0078468482494453273 0.0076986911548545377 0 -0.0091372813152945341 0.007958905899546875 0 -0.007656494054345154 0.0083046756242765099 0 -0.0078468482494453273 0.0076986911548545377 0 -0.0091372813152945341 0.007958905899546875 0 -0.0094595433258208989 0.0081099642742805018 0 -0.0090860968377959109 0.0074256589094080557 0 -0.011531178533568642 0.01045954570557356 0 -0.010987851284657452 0.010539417479583191 0 -0.010907795261457048 0.011712770323783454 0 -0.0075712097630187972 0.011054659671503425 0 -0.0082389471497224202 0.012537147176682436 0 -0.010987851284657452 0.010539417479583191 0 -0.010466398423547961 0.01067001237835882 0 -0.010907795261457048 0.011712770323783454 0 -0.010987851284657452 0.010539417479583191 0 -0.010806918113740903 0.010198212277313571 0 -0.010466398423547961 0.01067001237835882 0 -0.010987851284657452 0.010539417479583191 0 -0.011170431323961325 0.0098955836886954873 0 -0.010806918113740903 0.010198212277313571 0 -0.0087521657207565561 0.0089376706793177999 0 -0.010259591343104042 0.0092679703241237508 0 -0.010152293977484704 0.0093924438620992569 0 -0.011170431323961325 0.0098955836886954873 0 -0.0105143587708508 0.0099491846691036247 0 -0.011356581968562708 0.0099245821102392807 0 -0.010152293977484704 0.0093924438620992569 0 -0.011170431323961325 0.0098955836886954873 0 -0.011531178533568642 0.01045954570557356 0 -0.010987851284657452 0.010539417479583191 0 -0.011170431323961325 0.0098955836886954873 0 -0.010806918113740903 0.010198212277313571 0 -0.0105143587708508 0.0099491846691036247 0 -0.010466398423547961 0.01067001237835882 0 -0.011170431323961325 0.0098955836886954873 0 -0.010806918113740903 0.010198212277313571 0 -0.0105143587708508 0.0099491846691036247 0 -0.010152293977484704 0.0093924438620992569 0 -0.0099812185797207142 0.010082085970800212 0 -0.0093358487851688994 0.0095941445852652085 0 -0.0105143587708508 0.0099491846691036247 0 -0.0099812185797207142 0.010082085970800212 0 -0.010466398423547961 0.01067001237835882 0 -0.010152293977484704 0.0093924438620992569 0 -0.0105143587708508 0.0099491846691036247 0 -0.0099812185797207142 0.010082085970800212 0 -0.0099812185797207142 0.010082085970800212 0 -0.010466398423547961 0.01067001237835882 0 -0.009458326163327254 0.010854162413092071 0 -0.0095294154789989892 0.010875676185114985 0 -0.0078956379267826789 0.0108439073801734 0 -0.009458326163327254 0.010854162413092071 0 -0.0093358487851688994 0.0095941445852652085 0 -0.0086038336415427928 0.0099774806770833255 0 -0.0099812185797207142 0.010082085970800212 0 -0.009458326163327254 0.010854162413092071 0 -0.0093358487851688994 0.0095941445852652085 0 -0.009458326163327254 0.010854162413092071 0 -0.0086038336415427928 0.0099774806770833255 0 -0.0085018860976929424 0.0108319603744932 0 -0.0086038336415427928 0.0099774806770833255 0 -0.0085018860976929424 0.0108319603744932 0 -0.0080671414338712027 0.010483472694898122 0 -0.009458326163327254 0.010854162413092071 0 -0.0079518616325285549 0.011203400057119072 0 -0.0084042191616273115 0.011929221324466244 0 -0.0079518616325285549 0.011203400057119072 0 -0.0084042191616273115 0.011929221324466244 0 -0.0072323817120541383 0.012277099344351913 0 -0.0084042191616273115 0.011929221324466244 0 -0.0080549839749376496 0.012646550181214552 0 -0.0072323817120541383 0.012277099344351913 0 -0.0084872940185117905 0.013247513768438371 0 -0.0079725594907378763 0.015955488061413808 0 -0.0080549839749376496 0.012646550181214552 0 -0.0078862698012443031 0.013096182912199751 0 -0.0086208224756382113 0.013123626091609242 0 -0.0080549839749376496 0.012646550181214552 0 -0.0086208224756382113 0.013123626091609242 0 -0.0086570543174008825 0.012509498420667668 0 -0.0084042191616273115 0.011929221324466244 0 -0.0080549839749376496 0.012646550181214552 0 -0.0086570543174008825 0.012509498420667668 0 -0.0086570543174008825 0.012509498420667668 0 -0.0092488908751143031 0.01279472926001431 0 -0.0091814785177929525 0.012109897756777234 0 -0.0086208224756382113 0.013123626091609242 0 -0.0086570543174008825 0.012509498420667668 0 -0.0092488908751143031 0.01279472926001431 0 -0.0092488908751143031 0.01279472926001431 0 -0.0091814785177929525 0.012109897756777234 0 -0.010056462659064227 0.012045244978924882 0 -0.009458326163327254 0.010854162413092071 0 -0.0084042191616273115 0.011929221324466244 0 -0.0091814785177929525 0.012109897756777234 0 -0.009458326163327254 0.010854162413092071 0 -0.0091814785177929525 0.012109897756777234 0 -0.010056462659064227 0.012045244978924882 0 -0.0084042191616273115 0.011929221324466244 0 -0.0086570543174008825 0.012509498420667668 0 -0.0091814785177929525 0.012109897756777234 0 -0.010466398423547961 0.01067001237835882 0 -0.009458326163327254 0.010854162413092071 0 -0.010056462659064227 0.012045244978924882 0 -0.010466398423547961 0.01067001237835882 0 -0.010056462659064227 0.012045244978924882 0 -0.010907795261457048 0.011712770323783454 0 -0.010056462659064227 0.012045244978924882 0 -0.010193725049130216 0.013078891189483148 0 -0.010907795261457048 0.011712770323783454 0 -0.0092488908751143031 0.01279472926001431 0 -0.010056462659064227 0.012045244978924882 0 -0.010193725049130216 0.013078891189483148 0 -0.009500942166179591 0.013360290817470002 0 -0.0092488908751143031 0.01279472926001431 0 -0.010193725049130216 0.013078891189483148 0 -0.007039418665222028 0.0144215184369139 0 -0.0082389471497224202 0.012537147176682436 0 -0.0043758048314883518 0.015002775038281436 0 -0.0051633525044278879 0.014699109634456003 0 -0.0051840848710189751 0.013546024316147222 0 -0.007039418665222028 0.0144215184369139 0 -0.00087404143023555767 0.017101773414109487 0 -0.00087404143023555767 0.017101773414109487 0 -0.0031569157546717467 0.014075531681904219 0 0.0016430934294401991 0.018009863816459259 0 -0.00087404143023555767 0.017101773414109487 0 -0.00053583206311314934 0.015662673823485969 0 0.00023210094624780573 0.015964430460661264 0 -0.0002284626606929652 0.015095849366370364 0 -0.0051633525044278879 0.014699109634456003 0 -0.0057327886677094302 0.013647124848506404 0 -0.0051840848710189751 0.013546024316147222 0 -0.0063124366916539046 0.012578481496813244 0 -0.0057327886677094302 0.013647124848506404 0 -0.0051840848710189751 0.013546024316147222 0 -0.0092827646573241263 0.01375257695658272 0 -0.0095586257571288503 0.013695088668112929 0 -0.0093331908580693429 0.013418571388897755 0 -0.0092827646573241263 0.01375257695658272 0 -0.0095586257571288503 0.013695088668112929 0 -0.0092388364041162269 0.014085980010670827 0 -0.0092827646573241263 0.01375257695658272 0 -0.008997021115425656 0.013810014052512596 0 -0.0092388364041162269 0.014085980010670827 0 -0.0098199434989782956 0.014521614810966164 0 -0.010008646247150562 0.012650591373608258 0 -0.0092827646573241263 0.01375257695658272 0 -0.008997021115425656 0.013810014052512596 0 -0.0093331908580693429 0.013418571388897755 0 -0.010492005174546168 0.012591814207723671 0 -0.011603763923256395 0.013880088729402638 0 -0.010355345282125132 0.013783948320944782 0 -0.010505377345238563 0.015120931415523663 0 -0.011603763923256395 0.013880088729402638 0 -0.010355345282125132 0.013783948320944782 0 -0.0076095765129506141 0.0095406890374072819 0 -0.0071584614075378226 0.010061558214801468 0 -0.0075651252098295624 0.010018575961011326 0 -0.0082068684728133015 0.011732657050497183 0 -0.010008646247150562 0.012650591373608258 0 -0.0074724606967798137 0.010460599294050431 0 -0.0071584614075378226 0.010061558214801468 0 -0.0075651252098295624 0.010018575961011326 0 -0.0076095765129506141 0.0095406890374072819 0 -0.0075651252098295624 0.010018575961011326 0 -0.00796187881555834 0.00998903560995653 0 -0.0074724606967798137 0.010460599294050431 0 -0.0075651252098295624 0.010018575961011326 0 -0.00796187881555834 0.00998903560995653 0 -0.0086038336415427928 0.0099774806770833255 0 -0.00796187881555834 0.00998903560995653 0 -0.0080671414338712027 0.010483472694898122 0 -0.0083156032894536377 0.0095454694528868279 0 -0.0086038336415427928 0.0099774806770833255 0 -0.00796187881555834 0.00998903560995653 0 -0.0085018860976929424 0.0108319603744932 0 -0.0080671414338712027 0.010483472694898122 0 -0.0077942913984537336 0.010882953063836413 0 -0.0074724606967798137 0.010460599294050431 0 -0.0080671414338712027 0.010483472694898122 0 -0.0077942913984537336 0.010882953063836413 0 -0.0074724606967798137 0.010460599294050431 0 -0.00796187881555834 0.00998903560995653 0 -0.0080671414338712027 0.010483472694898122 0 -0.0082068684728133015 0.011732657050497183 0 -0.0090555088595394729 0.013269600239777336 0 -0.011168841757006168 0.016456973877166943 0 -0.011574993987505158 0.016974032481200708 0 -0.010929606749828022 0.017130908106751764 0 -0.0079518616325285549 0.011203400057119072 0 -0.0065830843456348995 0.011503379739931404 0 -0.0072323817120541383 0.012277099344351913 0 -0.0078956379267826789 0.0108439073801734 0 -0.0090555088595394729 0.013269600239777336 0 -0.0090555088595394729 0.013269600239777336 0 -0.0095356452753171152 0.014773070989624829 0 -0.011428971038240377 0.017549732078705877 0 -0.011946309545586448 0.017470697076599338 0 -0.011574993987505158 0.016974032481200708 0 -0.0080549839749376496 0.012646550181214552 0 -0.0079001235142352536 0.013087952514057446 0 -0.0072323817120541383 0.012277099344351913 0 -0.0079725594907378763 0.015955488061413808 0 -0.0095356452753171152 0.014773070989624829 0 -0.010952001408621055 0.017789412502036962 0 -0.011428971038240377 0.017549732078705877 0 -0.010929606749828022 0.017130908106751764 0 -0.011428971038240377 0.017549732078705877 0 -0.011574993987505158 0.016974032481200708 0 -0.010929606749828022 0.017130908106751764 0 -0.010929606749828022 0.017130908106751764 0 -0.010222024776909264 0.017478003557020443 0 -0.010082851757151 0.016623607371527713 0 -0.010952001408621055 0.017789412502036962 0 -0.010929606749828022 0.017130908106751764 0 -0.010222024776909264 0.017478003557020443 0 -0.0090555088595394729 0.013269600239777336 0 -0.0099208668077676795 0.015572037129417689 0 -0.011168841757006168 0.016456973877166943 0 -0.010929606749828022 0.017130908106751764 0 -0.010082851757151 0.016623607371527713 0 -0.0095586257571288503 0.013695088668112929 0 -0.0097832402910923936 0.013961102658062058 0 -0.0092388364041162269 0.014085980010670827 0 -0.010222024776909264 0.017478003557020443 0 -0.010082851757151 0.016623607371527713 0 -0.0093735375685767633 0.017248580611185525 0 -0.010082851757151 0.016623607371527713 0 -0.0093735375685767633 0.017248580611185525 0 -0.0089595722792190618 0.016764681912569347 0 -0.0093735375685767633 0.017248580611185525 0 -0.0086305418831336377 0.017056890395779945 0 -0.0089595722792190618 0.016764681912569347 0 -0.0086305418831336377 0.017056890395779945 0 -0.0090793525776230802 0.01655104081329668 0 -0.0082204206335290859 0.016598225480403128 0 -0.0087296218435486579 0.017618540264684384 0 -0.0093735375685767633 0.017248580611185525 0 -0.0086305418831336377 0.017056890395779945 0 -0.0087296218435486579 0.017618540264684384 0 -0.0086305418831336377 0.017056890395779945 0 -0.00817664495109649 0.01716887159293946 0 -0.0085133984620831393 0.017018039822391324 0 -0.008898541735421343 0.015774264597281918 0 -0.0086305418831336377 0.017056890395779945 0 -0.0082204206335290859 0.016598225480403128 0 -0.00817664495109649 0.01716887159293946 0 -0.0094368099663511597 0.016360037392630099 0 -0.009023446174891878 0.015400975310521193 0 -0.0082204206335290859 0.016598225480403128 0 -0.008898541735421343 0.015774264597281918 0 -0.0083996418526866255 0.016616720420191376 0 -0.0098199434989782956 0.014521614810966164 0 -0.008898541735421343 0.015774264597281918 0 -0.008997021115425656 0.013810014052512596 0 -0.0092388364041162269 0.014085980010670827 0 -0.0086544745885322287 0.014222181218099287 0 -0.0099208668077676795 0.015572037129417689 0 -0.008898541735421343 0.015774264597281918 0 -0.010505377345238563 0.015120931415523663 0 -0.0094368099663511597 0.016360037392630099 0 -0.009023446174891878 0.015400975310521193 0 -0.010505377345238563 0.015120931415523663 0 -0.009023446174891878 0.015400975310521193 0 -0.0095857318932473668 0.014321608532365571 0 -0.009023446174891878 0.015400975310521193 0 -0.0095857318932473668 0.014321608532365571 0 -0.0084447367907514136 0.014414411858852819 0 -0.009023446174891878 0.015400975310521193 0 -0.0084447367907514136 0.014414411858852819 0 -0.0079188846410639165 0.015537983254230054 0 -0.0095857318932473668 0.014321608532365571 0 -0.0084447367907514136 0.014414411858852819 0 -0.0092216862163339002 0.013204683063541819 0 -0.0084447367907514136 0.014414411858852819 0 -0.0092216862163339002 0.013204683063541819 0 -0.0079001410333415911 0.013406744303991878 0 -0.010505377345238563 0.015120931415523663 0 -0.0095857318932473668 0.014321608532365571 0 -0.010355345282125132 0.013783948320944782 0 -0.0095857318932473668 0.014321608532365571 0 -0.010355345282125132 0.013783948320944782 0 -0.0092216862163339002 0.013204683063541819 0 -0.0075252291570671783 0.014416580272803457 0 -0.0079001410333415911 0.013406744303991878 0 -0.0066948441856360041 0.01348289529502684 0 -0.0075252291570671783 0.014416580272803457 0 -0.0066477275859636335 0.014447563545447004 0 -0.0066948441856360041 0.01348289529502684 0 -0.0075252291570671783 0.014416580272803457 0 -0.0084447367907514136 0.014414411858852819 0 -0.0079001410333415911 0.013406744303991878 0 -0.0075252291570671783 0.014416580272803457 0 -0.0084447367907514136 0.014414411858852819 0 -0.0079188846410639165 0.015537983254230054 0 -0.0075252291570671783 0.014416580272803457 0 -0.0071187045615696701 0.015322049292256175 0 -0.0079188846410639165 0.015537983254230054 0 -0.0075252291570671783 0.014416580272803457 0 -0.0071187045615696701 0.015322049292256175 0 -0.0066477275859636335 0.014447563545447004 0 -0.0071187045615696701 0.015322049292256175 0 -0.0065170498401980132 0.015075308834764866 0 -0.0066477275859636335 0.014447563545447004 0 -0.0071187045615696701 0.015322049292256175 0 -0.0074454525034382667 0.01656242128604167 0 -0.0064260107070873108 0.015900873742326203 0 -0.0071187045615696701 0.015322049292256175 0 -0.0079188846410639165 0.015537983254230054 0 -0.0074454525034382667 0.01656242128604167 0 -0.009023446174891878 0.015400975310521193 0 -0.0079188846410639165 0.015537983254230054 0 -0.0082204206335290859 0.016598225480403128 0 -0.0079188846410639165 0.015537983254230054 0 -0.0082204206335290859 0.016598225480403128 0 -0.0074454525034382667 0.01656242128604167 0 -0.0078128439685802593 0.017651723983760883 0 -0.00817664495109649 0.01716887159293946 0 -0.0074454525034382667 0.01656242128604167 0 -0.0082204206335290859 0.016598225480403128 0 -0.00817664495109649 0.01716887159293946 0 -0.0074454525034382667 0.01656242128604167 0 -0.0064701908913691389 0.017371057497934196 0 -0.0074454525034382667 0.01656242128604167 0 -0.0064260107070873108 0.015900873742326203 0 -0.0064701908913691389 0.017371057497934196 0 -0.0078128439685802593 0.017651723983760883 0 -0.0074454525034382667 0.01656242128604167 0 -0.0064701908913691389 0.017371057497934196 0 -0.0054375333981124723 0.016000908726302523 0 -0.0064260107070873108 0.015900873742326203 0 -0.0072163682370473903 0.022385176341199263 0 -0.008498309281328234 0.01816727730024216 0 -0.012557582024990405 0.022909695842587032 0 -0.008498309281328234 0.01816727730024216 0 -0.017524262223669113 0.018513836319578189 0 -0.017960730856570913 0.015985451783817689 0 -0.017632026652703376 0.016267706925320348 0 -0.0084900381438810044 0.02668399791578524 0 -0.0070829921867817218 0.026593153322443715 0 -0.0074047144270603113 0.02513950187772401 0 -0.008498309281328234 0.01816727730024216 0 -0.011809072951862986 0.015116404199759374 0 -0.017960730856570913 0.015985451783817689 0 -0.017632026652703376 0.016267706925320348 0 -0.017513236610532737 0.016024594309249546 0 -0.0054375333981124723 0.016000908726302523 0 -0.0064260107070873108 0.015900873742326203 0 -0.0058916233840896962 0.014674920313004231 0 -0.0071187045615696701 0.015322049292256175 0 -0.0064260107070873108 0.015900873742326203 0 -0.0065170498401980132 0.015075308834764866 0 -0.017333408228010445 0.016476475537585574 0 -0.017520920248310756 0.016379447797867683 0 -0.017386118124353138 0.016250059558574583 0 -0.017333408228010445 0.016476475537585574 0 -0.017175342025980565 0.016349297418427965 0 -0.017386118124353138 0.016250059558574583 0 -0.017386118124353138 0.016250059558574583 0 -0.017523021645880398 0.016251249533520862 0 -0.017407661430538155 0.016059419264205791 0 -0.016510496346273707 0.017681904913698386 0 -0.01758927537998994 0.016293485876289669 0 -0.017520920248310756 0.016379447797867683 0 -0.017632026652703376 0.016267706925320348 0 -0.017523021645880398 0.016251249533520862 0 -0.015583626215090551 0.018755518027361171 0 -0.017524262223669113 0.018513836319578189 0 -0.017632026652703376 0.016267706925320348 0 -0.017520920248310756 0.016379447797867683 0 -0.017386118124353138 0.016250059558574583 0 -0.017523021645880398 0.016251249533520862 0 -0.017960730856570913 0.015985451783817689 0 -0.017513236610532737 0.016024594309249546 0 -0.017504225388356057 0.015775336711848144 0 -0.017632026652703376 0.016267706925320348 0 -0.017523021645880398 0.016251249533520862 0 -0.017531218127288917 0.016166788232881174 0 -0.017632026652703376 0.016267706925320348 0 -0.017531218127288917 0.016166788232881174 0 -0.017513236610532737 0.016024594309249546 0 -0.017513236610532737 0.016024594309249546 0 -0.017407661430538155 0.016059419264205791 0 -0.01739708079976009 0.015861301753339187 0 -0.017531218127288917 0.016166788232881174 0 -0.017513236610532737 0.016024594309249546 0 -0.017407661430538155 0.016059419264205791 0 -0.017523021645880398 0.016251249533520862 0 -0.017531218127288917 0.016166788232881174 0 -0.017407661430538155 0.016059419264205791 0 -0.017245887164213148 0.016035275103562376 0 -0.017407661430538155 0.016059419264205791 0 -0.017277390351662123 0.015791792623000008 0 -0.017245887164213148 0.016035275103562376 0 -0.017386118124353138 0.016250059558574583 0 -0.017407661430538155 0.016059419264205791 0 -0.017407661430538155 0.016059419264205791 0 -0.017277390351662123 0.015791792623000008 0 -0.01739708079976009 0.015861301753339187 0 -0.017277390351662123 0.015791792623000008 0 -0.01739708079976009 0.015861301753339187 0 -0.017353785163147534 0.015598196079672827 0 -0.011809072951862986 0.015116404199759374 0 -0.011081895949755028 0.014841352498095511 0 -0.01739708079976009 0.015861301753339187 0 -0.017504225388356057 0.015775336711848144 0 -0.017353785163147534 0.015598196079672827 0 -0.017513236610532737 0.016024594309249546 0 -0.01739708079976009 0.015861301753339187 0 -0.017504225388356057 0.015775336711848144 0 -0.0055101416320906399 0.014665830952352526 0 -0.0055483556370994535 0.014199108386897651 0 -0.0055017997248298887 0.014210759315677068 0 -0.0055483556370994535 0.014199108386897651 0 -0.0055017997248298887 0.014210759315677068 0 -0.0056002455475829514 0.014144125652720317 0 -0.017176784278391657 0.015616683279412989 0 -0.017220459207676009 0.015431508974905948 0 -0.017353785163147534 0.015598196079672827 0 -0.017176784278391657 0.015616683279412989 0 -0.017277390351662123 0.015791792623000008 0 -0.017353785163147534 0.015598196079672827 0 -0.01489044923564567 0.013754409435860799 0 -0.011081895949755028 0.014841352498095511 0 -0.0065170498401980132 0.015075308834764866 0 -0.0058916233840896962 0.014674920313004231 0 -0.0066477275859636335 0.014447563545447004 0 -0.0064260107070873108 0.015900873742326203 0 -0.0065170498401980132 0.015075308834764866 0 -0.0058916233840896962 0.014674920313004231 0 -0.005824139629749701 0.015102099263532929 0 -0.0055101416320906399 0.014665830952352526 0 -0.0058916233840896962 0.014674920313004231 0 -0.008498309281328234 0.01816727730024216 0 -0.005689626660427622 0.014000742988290328 0 -0.0055101416320906399 0.014665830952352526 0 -0.0058916233840896962 0.014674920313004231 0 -0.0058684607735845374 0.014186772621712382 0 -0.0055101416320906399 0.014665830952352526 0 -0.0055483556370994535 0.014199108386897651 0 -0.0058684607735845374 0.014186772621712382 0 -0.0058916233840896962 0.014674920313004231 0 -0.0058684607735845374 0.014186772621712382 0 -0.0062753029380732085 0.013969818328000046 0 -0.0055483556370994535 0.014199108386897651 0 -0.0058684607735845374 0.014186772621712382 0 -0.0059939910351403565 0.013545907382180936 0 -0.0058684607735845374 0.014186772621712382 0 -0.0062753029380732085 0.013969818328000046 0 -0.0059939910351403565 0.013545907382180936 0 -0.0058916233840896962 0.014674920313004231 0 -0.0062753029380732085 0.013969818328000046 0 -0.0066477275859636335 0.014447563545447004 0 -0.0062753029380732085 0.013969818328000046 0 -0.0066477275859636335 0.014447563545447004 0 -0.0066948441856360041 0.01348289529502684 0 -0.0059939910351403565 0.013545907382180936 0 -0.0064226254408968264 0.013070238207171103 0 -0.0066948441856360041 0.01348289529502684 0 -0.0062110070872468531 0.012739739370472337 0 -0.0066401926311862531 0.01339411729217195 0 -0.0062753029380732085 0.013969818328000046 0 -0.0059939910351403565 0.013545907382180936 0 -0.0066948441856360041 0.01348289529502684 0 -0.0055483556370994535 0.014199108386897651 0 -0.0059939910351403565 0.013545907382180936 0 -0.0053631566256707973 0.013497161204693069 0 -0.0059939910351403565 0.013545907382180936 0 -0.0056803954330715079 0.01311655671390774 0 -0.0053631566256707973 0.013497161204693069 0 -0.0059939910351403565 0.013545907382180936 0 -0.0060411130504920011 0.012952148751361839 0 -0.0056803954330715079 0.01311655671390774 0 -0.0060411130504920011 0.012952148751361839 0 -0.0056803954330715079 0.01311655671390774 0 -0.0058231995399961062 0.012643929564438786 0 -0.0060411130504920011 0.012952148751361839 0 -0.0061563878109657001 0.01250709810780453 0 -0.0058231995399961062 0.012643929564438786 0 -0.0060411130504920011 0.012952148751361839 0 -0.0064226254408968264 0.013070238207171103 0 -0.0061563878109657001 0.01250709810780453 0 -0.0063939241120114796 0.011523860531628983 0 -0.0060540523969234931 0.012290582305411579 0 -0.0055317137510482138 0.011217319776616903 0 -0.0059939910351403565 0.013545907382180936 0 -0.0060411130504920011 0.012952148751361839 0 -0.0064226254408968264 0.013070238207171103 0 -0.0062110070872468531 0.012739739370472337 0 -0.0092488859132559796 0.0099329083204441823 0 -0.0063939241120114796 0.011523860531628983 0 -0.0060540523969234931 0.012290582305411579 0 -0.0068756362146927602 0.011864054736634632 0 -0.0056291844059684218 0.014143228068493203 0 -0.0055017997248298887 0.014210759315677068 0 -0.0055855016030478231 0.014150215329780384 0 -0.01489044923564567 0.013754409435860799 0 -0.01430171283675526 0.011633884189440422 0 -0.0056291844059684218 0.014143228068493203 0 -0.0055855016030478231 0.014150215329780384 0 -0.0056239919546388212 0.014128108245873683 0 -0.0055017997248298887 0.014210759315677068 0 -0.0055855016030478231 0.014150215329780384 0 -0.0056002455475829514 0.014144125652720317 0 -0.0055315695856147798 0.014095839564096912 0 -0.0055412222983587112 0.013966500715082699 0 -0.0055855016030478231 0.014150215329780384 0 -0.0056002455475829514 0.014144125652720317 0 -0.00563518335428481 0.014099440544649903 0 -0.0055412222983587112 0.013966500715082699 0 -0.0085741768964351841 0.011940225409427798 0 -0.0056803954330715079 0.01311655671390774 0 -0.005252504177473338 0.012879267477588158 0 -0.0058231995399961062 0.012643929564438786 0 -0.0056803954330715079 0.01311655671390774 0 -0.0053631566256707973 0.013497161204693069 0 -0.005252504177473338 0.012879267477588158 0 -0.0085741768964351841 0.011940225409427798 0 -0.0091525189289135347 0.010818233664252124 0 -0.0055855016030478231 0.014150215329780384 0 -0.00563518335428481 0.014099440544649903 0 -0.0056239919546388212 0.014128108245873683 0 -0.014118238044634553 0.010820734597068032 0 -0.012749800793513875 0.011429288195813092 0 -0.013793874304806395 0.0091916707412604687 0 -0.0085741768964351841 0.011940225409427798 0 -0.01430171283675526 0.011633884189440422 0 -0.020771121913195589 0.0078543475565566231 0 -0.022078495453004585 0.007223377354068963 0 -0.021131880971947539 0.0066543027875681339 0 -0.020771121913195589 0.0078543475565566231 0 -0.021227499718896228 0.0090259791670354497 0 -0.022078495453004585 0.007223377354068963 0 -0.01430171283675526 0.011633884189440422 0 -0.016565552200445071 0.007899674410119243 0 -0.01165545086891439 0.0087319220598310078 0 -0.012256180496054609 0.0089764529874586003 0 -0.012587261304518592 0.0083714914490676286 0 -0.011814003065197146 0.0096619404669469056 0 -0.012256180496054609 0.0089764529874586003 0 -0.012546413750471424 0.0093547528104025047 0 -0.011814003065197146 0.0096619404669469056 0 -0.01165545086891439 0.0087319220598310078 0 -0.012256180496054609 0.0089764529874586003 0 -0.0085741768964351841 0.011940225409427798 0 -0.016565552200445071 0.007899674410119243 0 -0.01657108239212254 0.0060536802571250397 0 -0.016565552200445071 0.007899674410119243 0 -0.012205919670538979 0.0075577286323756949 0 -0.01165545086891439 0.0087319220598310078 0 -0.012587261304518592 0.0083714914490676286 0 -0.018033812924468606 0.0062610657020293987 0 -0.017463699020027607 0.006234580614494209 0 -0.017639985264740615 0.0071436220471352676 0 -0.021761909708731941 0.0055208134381151764 0 -0.022078495453004585 0.007223377354068963 0 -0.021131880971947539 0.0066543027875681339 0 -0.020154386544348677 0.005456151451469154 0 -0.016565552200445071 0.007899674410119243 0 -0.010500273452945295 0.0087123969473426495 0 -0.010853088439563565 0.0085293943510597447 0 -0.010332780327221739 0.0087549185298084267 0 -0.0092488859132559796 0.0099329083204441823 0 -0.0084150960706953441 0.0097473030225102512 0 -0.006451919929608676 0.011165928382048135 0 -0.0055317137510482138 0.011217319776616903 0 -0.0068985711057286429 0.010656611280926801 0 -0.010500273452945295 0.0087123969473426495 0 -0.010982904513763308 0.0084431734168908864 0 -0.010838537611148943 0.008855312373915878 0 -0.011166974893704147 0.0083954593472329187 0 -0.0092488859132559796 0.0099329083204441823 0 -0.0063939241120114796 0.011523860531628983 0 -0.006451919929608676 0.011165928382048135 0 -0.0055317137510482138 0.011217319776616903 0 -0.012256180496054609 0.0089764529874586003 0 -0.012967545395310493 0.0091817390266749569 0 -0.012587261304518592 0.0083714914490676286 0 -0.010982904513763308 0.0084431734168908864 0 -0.011317371558726308 0.0089832772363951062 0 -0.010838537611148943 0.008855312373915878 0 -0.012256180496054609 0.0089764529874586003 0 -0.012967545395310493 0.0091817390266749569 0 -0.012546413750471424 0.0093547528104025047 0 -0.0092488859132559796 0.0099329083204441823 0 -0.0091525189289135347 0.010818233664252124 0 -0.0092488859132559796 0.0099329083204441823 0 -0.011907781965761781 0.0087657222513682822 0 -0.011662375359872143 0.009518428014080248 0 -0.011317371558726308 0.0089832772363951062 0 -0.01113365481334007 0.0092370855640569217 0 -0.01657108239212254 0.0060536802571250397 0 -0.011907781965761781 0.0087657222513682822 0 -0.011317371558726308 0.0089832772363951062 0 -0.01113365481334007 0.0092370855640569217 0 -0.010838537611148943 0.008855312373915878 0 -0.01113365481334007 0.0092370855640569217 0 -0.010838537611148943 0.008855312373915878 0 -0.010650628022582882 0.0090790157109736473 0 -0.010702805556046269 0.0094949709741874444 0 -0.01113365481334007 0.0092370855640569217 0 -0.010650628022582882 0.0090790157109736473 0 -0.010838537611148943 0.008855312373915878 0 -0.010650628022582882 0.0090790157109736473 0 -0.010461996731395548 0.0089447665210331314 0 -0.010500273452945295 0.0087123969473426495 0 -0.010838537611148943 0.008855312373915878 0 -0.010461996731395548 0.0089447665210331314 0 -0.010650628022582882 0.0090790157109736473 0 -0.010415504906122875 0.0092327828459728613 0 -0.010461996731395548 0.0089447665210331314 0 -0.010663211854734929 0.0094335379538641653 0 -0.010650628022582882 0.0090790157109736473 0 -0.010415504906122875 0.0092327828459728613 0 -0.010199912406130043 0.0089817657889403602 0 -0.010332780327221739 0.0087549185298084267 0 -0.0098048943821560982 0.0090867565767465304 0 -0.010415504906122875 0.0092327828459728613 0 -0.010220838896785137 0.0091508943554751924 0 -0.010461996731395548 0.0089447665210331314 0 -0.010220838896785137 0.0091508943554751924 0 -0.010199912406130043 0.0089817657889403602 0 -0.010461996731395548 0.0089447665210331314 0 -0.010199912406130043 0.0089817657889403602 0 -0.010461996731395548 0.0089447665210331314 0 -0.010332780327221739 0.0087549185298084267 0 -0.010500273452945295 0.0087123969473426495 0 -0.010461996731395548 0.0089447665210331314 0 -0.010332780327221739 0.0087549185298084267 0 -0.0068985711057286429 0.010656611280926801 0 -0.0069816145700865393 0.011264045383855874 0 -0.0076253881252425042 0.010955556424937601 0 -0.0069816145700865393 0.011264045383855874 0 -0.0076253881252425042 0.010955556424937601 0 -0.0076034685905837975 0.011657313141698907 0 -0.0063939241120114796 0.011523860531628983 0 -0.006451919929608676 0.011165928382048135 0 -0.0069816145700865393 0.011264045383855874 0 -0.006451919929608676 0.011165928382048135 0 -0.0068985711057286429 0.010656611280926801 0 -0.0069816145700865393 0.011264045383855874 0 -0.0068985711057286429 0.010656611280926801 0 -0.0076253881252425042 0.010955556424937601 0 -0.0081878576171058037 0.010057423651266315 0 -0.008404070964050046 0.011232772324070607 0 -0.0076253881252425042 0.010955556424937601 0 -0.0081878576171058037 0.010057423651266315 0 -0.008404070964050046 0.011232772324070607 0 -0.0076253881252425042 0.010955556424937601 0 -0.0076034685905837975 0.011657313141698907 0 -0.0084150960706953441 0.0097473030225102512 0 -0.0090637137309438915 0.009541941215197268 0 -0.0098945666820458994 0.0093609862420496633 0 -0.010220838896785137 0.0091508943554751924 0 -0.0098048943821560982 0.0090867565767465304 0 -0.010220838896785137 0.0091508943554751924 0 -0.010199912406130043 0.0089817657889403602 0 -0.0098048943821560982 0.0090867565767465304 0 -0.0098945666820458994 0.0093609862420496633 0 -0.0098048943821560982 0.0090867565767465304 0 -0.0095373003839276712 0.0093220670151676691 0 -0.0081878576171058037 0.010057423651266315 0 -0.0093580227907327646 0.0099934695840307453 0 -0.0095373003839276712 0.0093220670151676691 0 -0.0090637137309438915 0.009541941215197268 0 -0.0094964853980722512 0.0093456230569833043 0 -0.0081878576171058037 0.010057423651266315 0 -0.0093580227907327646 0.0099934695840307453 0 -0.0092518230776620341 0.010713793228160741 0 -0.01051990142577949 0.0098606909471798641 0 -0.010127854594767786 0.0096417285990588013 0 -0.0099796551625971567 0.010173534713716414 0 -0.010127854594767786 0.0096417285990588013 0 -0.009799211579081181 0.009695748482809451 0 -0.0099796551625971567 0.010173534713716414 0 -0.010183722624402347 0.0093224569939776066 0 -0.010441053412744674 0.0095102539015549849 0 -0.010127854594767786 0.0096417285990588013 0 -0.0098434930112748942 0.0093241321158917083 0 -0.010183722624402347 0.0093224569939776066 0 -0.010127854594767786 0.0096417285990588013 0 -0.0098434930112748942 0.0093241321158917083 0 -0.010127854594767786 0.0096417285990588013 0 -0.009799211579081181 0.009695748482809451 0 -0.0093580227907327646 0.0099934695840307453 0 -0.009799211579081181 0.009695748482809451 0 -0.0095373003839276712 0.0093220670151676691 0 -0.0098434930112748942 0.0093241321158917083 0 -0.009799211579081181 0.009695748482809451 0 -0.0095373003839276712 0.0093220670151676691 0 -0.0093580227907327646 0.0099934695840307453 0 -0.009799211579081181 0.009695748482809451 0 -0.0099796551625971567 0.010173534713716414 0 -0.0093580227907327646 0.0099934695840307453 0 -0.0099796551625971567 0.010173534713716414 0 -0.0092518230776620341 0.010713793228160741 0 -0.010138187863832202 0.011114038127293736 0 -0.0092518230776620341 0.010713793228160741 0 -0.0092897521603740665 0.011844745569297585 0 -0.010696243993557715 0.010463434869301121 0 -0.0099796551625971567 0.010173534713716414 0 -0.010138187863832202 0.011114038127293736 0 -0.0099796551625971567 0.010173534713716414 0 -0.010138187863832202 0.011114038127293736 0 -0.0092518230776620341 0.010713793228160741 0 -0.008404070964050046 0.011232772324070607 0 -0.0081878576171058037 0.010057423651266315 0 -0.0092518230776620341 0.010713793228160741 0 -0.008404070964050046 0.011232772324070607 0 -0.0092518230776620341 0.010713793228160741 0 -0.0092897521603740665 0.011844745569297585 0 -0.008404070964050046 0.011232772324070607 0 -0.0092897521603740665 0.011844745569297585 0 -0.0082672093726527795 0.012289017286600432 0 -0.0092897521603740665 0.011844745569297585 0 -0.0092216862163339002 0.013204683063541819 0 -0.0082672093726527795 0.012289017286600432 0 -0.010492005174546168 0.012591814207723671 0 -0.010138187863832202 0.011114038127293736 0 -0.0092897521603740665 0.011844745569297585 0 -0.010492005174546168 0.012591814207723671 0 -0.010355345282125132 0.013783948320944782 0 -0.0092216862163339002 0.013204683063541819 0 -0.010492005174546168 0.012591814207723671 0 -0.0092897521603740665 0.011844745569297585 0 -0.0092216862163339002 0.013204683063541819 0 -0.0092216862163339002 0.013204683063541819 0 -0.0079001410333415911 0.013406744303991878 0 -0.0082672093726527795 0.012289017286600432 0 -0.0079001410333415911 0.013406744303991878 0 -0.0073255635489516482 0.012609711686765841 0 -0.0082672093726527795 0.012289017286600432 0 -0.0079001410333415911 0.013406744303991878 0 -0.0066948441856360041 0.01348289529502684 0 -0.0073255635489516482 0.012609711686765841 0 -0.0060540523969234931 0.012290582305411579 0 -0.0066948441856360041 0.01348289529502684 0 -0.0073255635489516482 0.012609711686765841 0 -0.0073255635489516482 0.012609711686765841 0 -0.0068756362146927602 0.011864054736634632 0 -0.0076034685905837975 0.011657313141698907 0 -0.0060540523969234931 0.012290582305411579 0 -0.0073255635489516482 0.012609711686765841 0 -0.0068756362146927602 0.011864054736634632 0 -0.0063939241120114796 0.011523860531628983 0 -0.0069816145700865393 0.011264045383855874 0 -0.0068756362146927602 0.011864054736634632 0 -0.0069816145700865393 0.011264045383855874 0 -0.0068756362146927602 0.011864054736634632 0 -0.0076034685905837975 0.011657313141698907 0 -0.0073255635489516482 0.012609711686765841 0 -0.0082672093726527795 0.012289017286600432 0 -0.0076034685905837975 0.011657313141698907 0 -0.008404070964050046 0.011232772324070607 0 -0.0082672093726527795 0.012289017286600432 0 -0.0076034685905837975 0.011657313141698907 0 
</DataArray>
</PointData>
<CellData Scalars="region_id,cross_section_updated," Vectors="" Tensors="stress,">
<DataArray type="Float64" Name="region_id" format="ascii">
5 5 5 6 6 5 5 5 5 5 5 5 5 5 5 5 5 5 5 5 5 5 5 5 5 5 5 5 5 5 5 5 5 5 5 5 5 5 6 5 5 5 5 5 5 5 6 5 5 5 5 5 5 6 5 5 5 5 5 5 5 6 5 5 6 5 5 5 5 5 5 5 6 5 6 5 5 6 5 5 5 5 5 5 5 5 6 5 5 5 5 5 5 5 6 5 5 5 5 5 5 5 6 5 5 6 5 5 5 6 5 5 5 5 5 5 6 5 5 5 5 5 5 5 5 5 5 5 5 5 5 5 5 6 5 5 5 5 5 5 5 5 5 5 5 5 5 5 5 5 5 5 6 5 5 6 5 5 5 5 5 6 5 5 5 5 6 5 5 5 5 5 5 5 5 5 5 5 5 5 6 5 6 5 5 5 5 5 5 6 5 5 5 5 5 6 5 5 5 5 5 5 5 5 5 5 5 5 5 5 5 5 5 5 5 5 5 5 5 5 5 5 6 5 5 5 5 5 5 5 5 5 5 6 5 5 5 5 5 5 6 5 5 5 6 5 5 5 5 5 5 5 5 6 6 5 5 5 5 5 5 6 5 5 5 5 5 5 5 5 5 5 5 5 5 5 5 5 5 5 5 5 5 5 5 5 5 5 5 6 5 6 5 5 5 5 6 5 5 5 5 5 5 5 6 5 5 5 5 6 5 5 5 5 6 5 5 5 6 5 5 5 5 5 5 5 5 5 5 5 5 5 5 5 5 6 5 5 5 5 5 5 5 5 5 6 5 5 5 5 5 5 6 5 5 5 5 5 5 5 5 5 5 6 5 5 5 5 5 5 5 5 5 5 5 5 5 5 5 5 5 5 5 5 5 5 6 5 6 5 5 5 5 5 6 5 5 5 5 5 5 6 5 5 5 5 5 5 5 5 6 5 5 5 5 5 6 5 6 6 5 5 5 5 5 5 5 6 5 5 5 5 5 5 5 5 5 5 5 5 5 5 5 5 5 5 5 5 6 5 5 5 5 5 5 5 5 5 5 5 5 5 5 5 5 5 5 5 5 5 5 5 5 5 6 5 5 5 5 5 6 5 5 5 5 5 5 5 6 5 5 5 5 5 5 5 5 5 5 5 5 6 5 5 5 5 5 5 5 5 5 5 5 5 5 5 5 5 5 5 5 5 5 5 5 5 5 5 5 5 5 6 5 5 5 6 5 5 5 6 6 5 5 5 5 5 5 6 5 5 5 5 6 5 5 5 5 5 5 6 5 5 5 5 5 5 5 6 5 5 5 5 5 5 5 5 5 5 5 5 6 5 6 5 5 5 6 6 5 6 5 5 5 5 6 5 5 5 5 5 5 5 5 6 6 5 5 5 5 6 5 5 5 5 5 5 5 5 5 5 5 6 5 5 5 6 5 5 5 5 5 5 5 5 5 5 5 5 5 5 5 5 5 5 5 5 5 5 6 5 5 5 5 5 6 5 6 5 5 5 6 5 6 5 6 5 5 6 6 5 5 5 5 5 5 5 5 6 5 5 5 5 5 6 6 5 5 5 5 5 5 5 5 5 5 5 5 5 5 5 5 5 6 5 6 5 5 6 5 6 5 5 5 6 6 6 5 5 5 5 5 5 6 5 6 5 5 5 5 5 5 5 5 5 5 6 5 5 5 5 5 5 6 5 5 5 6 5 5 5 5 5 5 5 5 5 5 5 5 6 5 5 5 5 5 5 5 5 5 5 5 5 5 5 5 5 5 5 6 5 5 5 6 5 5 5 5 5 5 5 5 5 5 5 5 5 5 5 5 5 5 5 5 6 5 5 5 5 5 5 6 5 6 5 5 5 5 5 5 5 6 6 5 5 5 5 5 5 5 5 5 5 5 5 5 5 5 5 5 5 5 5 5 5 5 5 5 5 5 5 5 5 5 5 6 5 5 6 5 5 5 5 5 5 5 5 5 5 5 5 5 5 5 6 5 5 5 6 5 5 5 5 5 5 5 5 5 5 6 5 5 5 5 5 5 5 5 5 5 5 5 5 5 5 5 5 5 5 5 5 5 6 5 5 5 5 5 5 5 5 5 5 5 5 5 5 5 5 5 5 5 5 5 5 5 5 5 5 5 5 5 5 5 5 5 5 5 5 5 5 5 5 5 5 5 5 5 5 5 5 5 5 5 5 5 5 5 5 5 5 5 5 6 5 5 5 5 6 5 5 5 5 5 5 5 5 5 5 5 5 5 5 5 5 5 6 5 5 6 5 5 5 5 5 5 5 5 5 5 5 5 5 5 6 5 5 5 5 5 5 6 5 5 5 5 6 5 6 5 5 5 5 5 5 5 5 5 5 5 5 6 5 6 6 5 5 5 5 6 5 5 5 5 5 6 5 6 5 5 5 5 6 6 5 5 5 5 6 5 5 5 5 5 5 5 5 5 5 5 6 5 6 5 5 5 5 5 5 5 6 6 5 5 5 5 5 5 5 5 5 5 6 5 5 5 5 5 5 5 5 5 6 5 6 5 5 5 5 5 5 5 5 6 5 5 6 5 5 5 5 5 5 5 5 5 6 5 5 5 5 5 5 5 5 5 5 5 5 5 5 5 5 5 5 5 5 5 5 5 5 5 5 5 5 5 5 5 5 5 5 5 5 5 5 6 6 5 5 5 5 5 5 5 5 5 6 5 5 5 5 5 5 5 6 5 6 5 5 5 5 5 5 5 6 5 5 5 5 5 5 6 5 5 5 6 5 5 5 5 6 5 5 5 6 5 5 6 5 6 5 5 5 5 5 5 5 6 5 5 5 5 5 5 5 5 5 5 5 6 5 5 5 5 5 5 6 5 5 5 5 6 5 5 6 5 6 5 5 5 5 6 5 6 5 6 5 5 5 6 5 5 5 5 5 6 5 5 6 5 5 5 5 5 5 6 5 5 6 5 5 6 6 6 5 5 5 6 5 5 5 5 5 6 5 5 5 5 5 6 5 5 5 5 5 5 5 5 5 5 5 5 5 5 5 5 5 5 5 5 5 5 5 5 5 5 5 5 5 5 5 5 5 5 5 5 5 5 5 6 5 5 5 5 5 5 5 6 5 5 6 6 5 5 5 5 5 5 5 5 5 5 5 5 5 5 5 5 5 5 6 5 5 5 5 5 5 6 5 5 5 5 5 5 5 6 5 5 5 5 5 5 5 5 6 5 5 6 5 6 5 6 6 5 5 5 5 6 6 5 6 5 6 5 5 5 5 6 5 6 5 5 5 5 6 5 5 5 5 5 5 5 5 5 6 5 5 6 6 5 5 6 5 5 5 6 5 6 5 5 5 6 5 6 5 5 5 5 5 5 5 5 5 5 5 5 5 5 5 5 5 5 5 5 5 5 5 5 5 5 5 5 5 5 5 5 5 5 5 5 5 5 5 5 5 5 5 5 5 5 5 5 5 5 5 5 5 5 5 5 5 5 5 5 5 5 5 5 5 5 6 5 5 5 5 5 5 5 5 5 5 5 5 5 5 5 5 5 5 5 5 5 5 5 5 5 5 5 5 5 5 5 5 5 5 5 5 5 5 5 5 5 5 5 5 5 5 5 5 5 5 5 5 5 5 5 5 5 5 5 5 5 5 5 5 5 5 5 5 5 5 5 5 5 5 5 5 5 5 5 5 5 5 5 5 5 5 6 5 5 5 5 6 5 5 5 5 5 5 6 5 5 5 5 5 5 6 5 5 5 5 6 5 5 5 6 5 5 5 5 5 6 5 6 5 6 5 5 5 5 5 5 5 5 5 5 5 5 5 5 5 6 5 5 5 5 6 5 5 5 5 5 5 5 5 5 5 5 5 5 5 5 5 5 5 5 5 5 5 5 6 5 5 5 5 5 5 5 5 5 5 6 5 6 5 5 6 5 6 6 5 6 5 5 5 5 5 6 6 5 6 5 5 5 5 6 5 5 5 5 5 5 6 5 5 5 5 5 5 5 5 5 5 5 5 5 5 6 5 5 6 5 5 5 6 5 6 5 5 5 5 5 6 5 5 5 5 6 5 5 5 5 5 6 5 5 5 5 5 5 5 5 6 5 5 5 5 6 5 5 5 5 6 5 5 5 5 5 5 5 5 6 5 5 6 5 5 5 5 5 6 5 5 6 5 5 5 5 5 5 5 5 5 5 5 5 5 5 5 6 5 5 5 6 6 5 5 5 5 5 5 5 6 5 5 5 5 6 5 6 5 5 6 5 5 6 6 5 6 5 5 6 5 5 6 5 5 5 5 5 5 5 5 6 6 6 5 5 5 6 5 5 6 5 5 5 5 5 6 5 5 6 5 6 6 5 5 6 5 5 5 5 5 6 5 5 5 6 5 5 6 5 6 6 6 6 5 5 5 5 5 6 5 6 5 6 6 5 5 5 6 5 5 5 5 5 5 5 6 5 5 5 5 5 6 5 6 6 5 5 5 6 6 5 5 5 5 5 5 5 5 5 5 5 5 5 5 5 5 5 5 5 6 5 6 6 6 5 5 5 5 5 6 5 5 5 5 5 5 5 5 5 5 6 5 5 5 5 5 5 5 6 5 6 5 5 5 5 5 5 5 5 6 5 6 5 5 5 5 5 5 5 5 6 5 5 5 5 5 5 5 5 5 5 5 5 5 5 6 5 5 5 5 5 5 5 6 5 5 6 5 5 5 5 5 5 5 5 5 5 5 5 5 5 5 5 5 5 5 5 5 5 5 5 5 6 5 5 5 5 5 5 5 5 5 5 6 5 6 5 5 5 5 5 5 5 5 5 5 5 5 5 5 5 5 5 5 6 5 5 5 5 5 6 5 5 5 5 5 5 5 5 5 5 5 5 5 6 5 6 5 5 6 6 5 6 5 5 6 5 6 5 5 6 5 5 5 5 5 5 6 6 5 6 5 5 6 5 5 5 6 5 5 6 5 5 5 5 5 5 5 5 6 5 5 5 6 5 5 5 5 5 5 5 5 5 5 5 5 6 5 6 5 5 5 5 5 6 5 5 5 5 5 5 5 5 5 5 5 5 5 5 5 5 5 5 5 5 6 5 5 5 5 5 5 5 5 6 5 5 5 5 5 5 5 5 5 6 5 5 5 5 5 5 5 5 5 6 5 6 5 5 6 5 5 6 5 6 6 5 6 5 5 5 5 5 5 6 6 5 5 5 5 5 5 5 5 5 5 5 5 5 5 6 5 5 5 5 5 5 5 5 5 5 5 6 5 5 6 5 5 5 5 5 6 5 5 6 5 5 5 5 5 5 5 5 5 5 5 6 5 5 5 5 5 6 5 5 6 5 5 5 5 6 5 5 5 5 5 5 5 5 5 5 5 5 6 5 5 5 5 5 5 5 5 5 5 6 5 5 5 5 5 5 5 5 5 5 6 5 5 6 5 5 5 5 5 5 5 5 5 5 5 5 5 5 5 5 5 6 5 6 5 5 5 6 5 6 5 5 5 5 5 5 5 5 5 5 5 6 5 5 6 5 5 6 5 5 5 5 5 5 5 6 5 6 5 5 5 5 5 5 5 5 5 5 5 5 5 5 5 5 5 5 5 6 6 5 5 5 5 5 5 6 6 5 5 5 5 5 5 5 5 5 5 6 5 5 6 6 5 5 6 5 5 6 5 5 6 5 6 5 6 5 5 5 5 5 6 5 5 5 5 5 5 5 5 6 5 5 5 5 5 5 5 5 5 5 5 5 5 5 6 5 5 5 5 6 5 5 5 5 5 5 5 5 5 5 6 5 5 5 5 5 6 5 6 5 6 6 5 5 5 6 5 5 5 6 5 5 5 5 6 5 5 5 5 5 5 6 5 5 6 5 5 5 5 5 5 5 5 5 5 5 5 6 5 5 5 6 5 5 5 5 5 5 5 5 5 6 5 5 6 5 6 5 6 5 5 5 5 5 5 5 6 5 6 5 5 5 5 5 5 6 5 5 5 6 5 5 5 5 5 5 5 5 5 5 5 5 5 5 5 5 5 5 5 5 5 5 6 5 5 5 5 5 5 6 5 5 5 5 5 6 5 6 5 5 5 5 5 5 5 5 5 6 5 5 5 5 5 6 5 5 5 5 5 5 5 5 5 5 5 5 5 5 5 5 6 5 5 5 5 6 5 5 5 5 5 5 5 5 5 6 5 5 5 5 5 5 5 5 5 5 6 5 5 5 5 5 5 5 5 5 5 5 5 5 5 5 5 5 5 5 6 5 5 6 5 5 6 5 6 5 5 5 5 5 6 5 5 5 5 5 5 5 5 5 5 5 5 5 5 5 5 6 5 5 5 5 5 5 6 5 5 5 5 5 5 6 5 5 5 5 6 5 5 5 5 5 5 6 5 5 5 5 6 5 5 5 5 5 5 5 5 5 5 5 5 5 5 5 5 5 5 6 5 5 5 5 5 5 5 5 5 5 5 5 6 6 6 5 5 5 5 5 6 5 5 5 5 5 5 6 5 5 5 6 6 5 5 5 5 5 6 5 5 5 5 6 5 5 5 5 5 5 5 6 5 5 6 5 6 5 5 5 5 5 5 5 6 5 5 5 5 5 6 5 5 5 5 5 6 6 5 5 5 5 5 5 5 5 6 5 5 5 5 5 5 5 5 5 5 5 5 5 5 5 5 5 5 5 5 5 6 5 5 5 5 5 5 5 5 5 6 5 5 5 5 5 5 5 5 5 5 5 5 5 5 5 6 5 5 5 5 5 5 5 5 5 5 5 5 5 5 5 5 5 5 5 5 5 5 5 5 5 5 5 5 5 5 5 5 5 5 6 6 5 5 5 5 5 5 5 5 5 5 6 6 5 5 5 5 6 5 5 5 5 6 5 5 5 5 5 5 6 5 5 5 5 5 5 5 6 6 5 5 5 5 6 6 5 5 5 5 5 5 5 5 6 5 5 5 5 5 5 5 5 6 5 5 5 6 5 5 5 5 6 5 5 5 5 5 6 5 5 5 5 5 5 5 5 5 5 5 5 6 5 6 5 5 5 6 5 5 6 5 5 5 6 5 6 5 5 5 5 5 5 5 5 5 5 5 5 5 5 5 5 5 5 5 5 5 6 5 5 5 5 5 6 5 5 5 5 5 5 5 5 5 6 5 5 5 5 5 5 5 5 5 5 6 5 5 5 5 6 5 5 5 5 5 5 5 5 5 5 5 5 5 5 5 5 5 5 5 6 5 5 6 5 5 6 5 6 5 5 6 5 5 6 5 5 5 5 5 5 6 5 5 5 5 5 5 5 5 5 5 6 5 5 5 5 6 5 5 5 5 5 5 5 6 5 5 5 5 5 5 6 5 5 5 5 5 5 5 5 6 5 5 5 6 5 5 5 5 5 5 6 5 5 5 5 5 5 5 5 5 5 5 6 5 5 5 5 5 5 6 5 5 5 6 5 5 5 5 6 5 6 5 6 5 5 5 5 5 5 5 5 5 5 5 5 5 5 6 5 5 5 6 5 5 5 5 5 5 5 5 5 5 5 5 5 5 5 5 5 5 5 5 5 6 5 5 5 5 5 5 5 5 5 5 5 5 6 5 5 5 6 5 5 5 5 5 6 5 6 5 5 5 6 5 5 5 5 5 5 6 5 6 5 5 5 6 6 5 5 5 5 5 5 5 5 5 5 6 6 6 5 5 5 5 6 6 6 5 5 6 6 5 5 6 5 5 5 5 5 5 6 5 5 5 5 5 5 6 5 5 5 5 5 5 6 5 5 6 5 5 5 5 5 5 5 5 5 5 6 5 5 5 5 5 5 5 5 5 5 5 5 5 6 5 5 5 5 5 5 5 6 5 5 5 6 5 5 5 5 6 5 5 5 5 5 5 5 5 6 5 6 5 5 5 6 5 6 5 5 5 5 5 5 5 5 6 5 5 5 6 6 5 5 5 5 5 6 6 5 5 5 5 5 5 5 5 6 6 5 5 5 5 5 5 5 6 5 5 5 5 5 5 5 5 6 5 5 6 5 5 5 6 5 5 5 5 6 5 5 5 5 5 5 5 5 5 5 5 6 5 5 5 5 5 5 6 5 6 5 5 6 5 5 5 5 5 5 5 6 5 5 5 5 5 5 5 6 5 6 5 6 5 5 5 6 5 5 5 5 6 6 5 5 5 6 5 5 5 6 5 5 5 6 5 5 5 5 5 5 5 5 5 5 5 5 5 5 5 5 5 5 5 5 5 5 5 5 5 5 5 5 5 5 5 6 5 5 5 5 5 5 5 5 5 5 5 5 5 5 5 5 5 5 5 5 5 5 5 5 5 5 5 5 5 6 5 5 5 5 6 6 5 5 5 5 5 5 6 5 5 5 5 5 5 5 5 5 6 5 5 5 5 5 5 5 5 5 5 5 5 5 6 5 5 5 5 5 5 5 5 5 5 5 5 5 5 5 5 5 5 6 5 5 5 6 6 5 5 6 5 5 5 6 5 5 5 6 6 5 5 5 5 6 5 5 6 6 5 5 6 5 5 5 5 5 5 5 5 5 5 5 5 5 6 5 6 5 5 5 5 5 6 5 6 5 5 5 5 5 5 5 5 5 5 5 5 5 5 5 5 5 5 5 5 6 5 5 5 5 5 5 5 5 5 5 5 5 5 5 5 5 5 5 5 5 5 5 5 5 5 5 5 6 5 5 5 5 6 5 5 5 5 5 6 5 5 5 5 5 5 5 5 6 5 5 5 5 5 5 5 5 6 5 5 5 5 6 5 5 5 5 6 5 5 5 5 5 5 6 5 5 5 6 5 5 5 5 5 6 6 5 6 5 5 6 5 5 5 5 5 5 6 5 5 5 5 5 6 5 5 5 5 5 5 5 5 5 5 5 5 5 5 5 5 5 5 5 5 5 5 6 6 5 5 5 6 5 5 5 5 5 5 6 6 5 5 5 5 5 5 5 5 5 5 5 5 5 5 5 5 5 5 5 5 5 5 5 5 5 6 5 5 5 5 5 5 5 5 5 5 5 5 5 5 5 6 5 5 5 6 5 5 5 5 5 5 5 5 5 5 6 5 5 5 5 6 5 6 5 5 6 5 5 5 5 5 5 5 5 5 5 5 5 5 5 5 6 5 5 5 5 5 5 5 5 5 5 5 5 5 5 5 5 5 5 6 5 5 5 5 5 5 6 5 5 5 5 5 5 5 5 5 5 5 5 5 5 5 5 5 5 5 5 5 5 5 6 5 5 5 5 5 5 5 5 5 6 5 5 5 5 5 6 5 5 5 6 5 5 5 5 5 5 5 5 6 5 6 5 5 5 5 5 5 5 5 6 5 6 6 6 5 5 6 5 5 6 5 5 5 5 6 6 5 5 5 5 6 6 5 6 5 5 6 5 6 5 5 5 5 5 5 5 6 6 5 6 5 5 6 5 5 6 5 5 5 5 5 5 5 5 5 6 5 5 5 6 5 5 5 5 5 5 6 5 5 5 5 6 5 5 5 5 5 5 5 5 6 5 5 5 5 5 5 5 5 5 5 5 5 5 5 5 5 5 5 5 5 5 5 5 5 5 5 5 5 5 5 6 5 5 5 5 5 5 5 5 5 5 5 5 5 5 5 5 5 5 5 5 6 5 5 6 5 5 6 5 6 5 6 5 6 6 6 5 5 5 5 5 5 6 5 6 5 5 5 5 5 6 5 6 5 6 5 5 6 5 6 6 5 6 5 5 5 6 6 6 5 5 5 6 6 5 5 6 5 6 5 5 5 5 6 5 6 5 5 5 5 5 5 5 5 5 5 5 5 5 5 5 5 5 5 5 5 5 5 6 5 5 5 5 5 5 5 5 5 5 6 5 5 5 5 5 6 5 5 5 6 5 6 5 5 6 5 5 6 6 6 5 5 5 5 5 5 5 5 5 5 5 5 5 5 5 5 5 5 5 6 6 5 5 5 5 6 5 5 6 5 5 5 5 5 6 5 5 5 5 5 5 5 6 5 5 6 5 5 5 5 5 5 5 5 5 5 5 5 5 5 5 6 5 5 5 5 5 5 5 5 6 5 5 5 5 5 5 5 5 5 6 5 5 5 5 5 5 5 5 5 5 5 5 5 5 5 5 6 5 5 5 5 5 5 6 5 5 5 6 6 5 5 5 5 6 5 5 6 5 5 5 6 5 5 5 5 5 5 5 5 5 5 5 5 5 5 5 6 5 5 5 5 5 5 5 5 5 5 5 5 5 5 5 5 5 5 5 5 5 5 5 5 5 5 6 5 5 5 6 5 6 5 5 5 5 6 5 5 5 5 5 5 5 5 5 5 5 5 5 5 5 5 5 5 5 6 5 5 5 5 6 5 5 5 5 5 5 5 6 5 5 5 5 5 5 5 5 6 5 5 5 5 5 5 5 5 5 5 5 5 5 5 6 5 5 5 5 5 6 6 5 5 6 5 5 5 6 5 6 5 5 6 5 6 5 5 5 6 6 5 6 6 6 5 5 5 5 5 5 6 5 5 5 5 5 5 5 5 5 5 5 5 5 5 6 5 5 5 6 5 5 5 5 5 5 5 5 6 5 5 6 5 6 5 5 5 5 5 5 5 6 5 6 5 5 5 5 5 5 5 5 5 5 5 5 5 5 5 5 5 5 5 5 5 5 5 5 5 5 5 5 5 5 5 5 5 5 5 5 5 5 5 5 5 5 5 6 6 5 5 5 5 5 6 5 5 5 5 5 5 6 5 6 5 5 6 5 5 5 6 5 6 5 5 5 5 5 5 5 5 5 5 5 5 5 5 5 5 5 5 5 5 5 5 5 5 5 5 5 5 5 5 5 6 6 5 6 5 5 5 5 5 6 5 5 6 6 6 5 5 5 6 5 6 6 5 5 5 5 5 6 5 6 5 6 5 5 6 5 6 6 5 6 5 5 6 5 5 6 6 5 5 6 5 5 5 6 5 5 5 5 5 5 5 5 5 5 5 5 5 5 6 5 5 5 5 6 5 5 5 6 5 5 6 5 5 5 5 5 5 5 5 5 5 6 5 5 5 6 5 5 5 6 5 5 5 5 6 5 6 5 5 6 5 5 5 5 5 6 5 5 5 5 5 5 5 5 5 5 5 5 6 5 5 5 5 5 5 5 5 5 5 5 5 5 6 6 5 5 6 5 5 6 6 5 6 6 5 5 5 5 5 5 5 5 5 6 5 5 5 6 5 6 6 5 5 6 5 5 5 6 5 5 5 6 5 5 5 5 5 5 5 5 5 6 5 5 5 5 5 5 5 6 5 5 5 5 6 6 6 5 6 5 5 5 6 5 5 5 5 5 6 5 5 5 6 5 6 5 5 5 5 5 5 6 5 6 5 5 5 5 5 5 5 6 5 6 5 6 5 5 5 5 5 5 5 6 5 5 6 5 5 5 5 5 5 5 5 6 5 5 6 5 5 5 5 5 6 5 5 5 6 5 5 5 5 5 5 5 5 5 5 5 5 5 5 6 5 5 6 5 5 5 5 6 5 5 5 6 5 6 5 5 5 5 5 5 5 5 5 5 5 5 5 5 5 5 5 5 6 5 5 5 5 5 5 5 5 5 5 5 5 5 6 5 5 5 5 5 5 5 5 5 5 5 5 5 5 5 5 5 5 5 6 5 6 5 5 6 5 6 5 5 5 6 6 5 5 6 5 5 5 5 6 5 5 5 6 5 5 6 5 5 5 5 6 5 5 5 5 5 5 5 5 5 5 5 5 5 5 5 5 5 5 5 5 5 5 5 5 5 5 6 5 5 5 5 5 6 5 5 6 5 5 5 5 5 5 5 6 6 5 5 5 6 5 5 5 6 5 5 6 5 5 5 5 6 6 6 5 5 5 5 6 6 5 6 5 6 6 6 6 5 6 5 5 5 5 5 6 5 5 5 6 5 5 5 5 5 5 5 5 5 5 5 6 5 5 5 5 6 5 6 5 5 5 5 6 5 5 5 5 5 6 5 5 5 6 5 5 6 5 5 5 5 6 5 5 6 5 5 6 5 5 5 5 5 5 5 5 5 5 5 5 5 5 5 5 6 5 5 5 5 5 5 5 5 5 5 5 5 6 6 6 5 5 5 5 5 6 6 5 5 5 5 5 5 6 6 6 5 5 5 5 6 5 5 5 5 6 5 6 5 5 5 5 6 5 5 5 5 5 5 5 5 5 5 5 5 5 5 5 5 5 5 5 5 5 5 5 5 5 6 5 5 5 6 5 5 6 5 6 5 5 5 5 6 6 5 6 5 6 5 5 5 5 6 5 6 5 5 5 6 5 5 5 5 5 5 5 5 5 5 5 5 6 5 5 6 5 5 5 6 5 6 5 5 5 5 5 6 5 5 5 5 5 5 5 5 5 5 5 5 5 5 5 5 6 5 5 5 5 6 5 5 5 5 5 5 5 5 5 5 5 5 5 5 5 5 5 5 6 5 5 5 5 5 6 5 5 6 5 5 6 5 5 5 5 6 5 6 5 5 5 5 5 5 5 5 5 5 5 5 5 6 5 5 5 5 5 6 5 5 5 5 5 5 5 5 5 5 5 5 5 6 5 5 5 6 5 6 5 5 5 6 5 5 5 5 5 5 5 5 5 5 5 5 5 6 5 5 5 5 5 5 5 5 5 5 5 5 5 5 5 5 5 6 6 5 5 6 5 5 5 5 6 5 5 5 6 6 5 5 6 5 5 5 5 5 5 5 5 5 5 5 5 6 5 6 5 5 6 6 6 5 5 6 5 5 5 5 5 6 5 6 5 6 5 6 5 5 5 5 5 6 5 6 5 5 5 5 6 5 5 6 6 6 5 5 6 5 5 5 5 5 6 5 5 5 5 5 5 5 5 5 5 5 6 6 5 6 5 5 5 6 5 5 5 6 6 5 5 6 5 6 5 5 5 6 5 5 5 5 5 6 6 5 6 5 5 5 5 5 5 5 5 5 5 5 5 6 5 5 5 6 5 5 5 5 5 5 5 5 5 5 6 5 5 5 5 5 5 5 5 5 5 6 5 5 5 5 5 5 5 5 6 5 6 5 5 5 5 6 6 5 5 6 5 5 6 5 6 5 5 5 5 5 6 5 5 5 5 5 5 5 5 6 5 5 5 5 6 5 6 6 5 5 5 5 5 5 6 5 6 5 5 5 5 6 5 6 5 6 5 5 5 6 5 5 5 5 5 6 6 6 5 6 5 5 5 5 5 6 5 5 5 5 5 5 5 5 5 5 5 5 5 5 5 5 5 5 5 5 5 6 5 5 5 5 5 5 5 6 5 5 6 5 5 5 5 5 5 5 5 5 6 5 5 5 5 5 5 6 5 5 5 6 5 5 5 5 5 5 5 5 6 5 5 5 6 5 5 5 5 5 5 6 5 6 5 5 6 5 5 5 6 5 5 5 5 5 6 5 6 5 6 6 5 5 5 6 5 5 6 6 5 6 5 6 5 5 5 6 5 5 5 5 5 5 6 5 5 5 5 5 6 6 5 5 5 5 5 5 5 6 5 6 5 6 5 5 5 6 5 5 5 5 5 5 6 5 6 5 5 5 6 5 5 5 5 5 5 5 5 5 5 5 6 5 5 5 5 5 5 5 5 5 5 5 5 5 6 5 5 6 5 5 5 5 5 5 5 5 5 5 5 5 5 5 6 5 5 5 5 6 5 5 5 5 5 5 5 5 5 5 5 6 5 5 5 5 5 5 5 5 6 6 5 5 5 5 5 5 6 5 5 6 5 5 5 5 5 5 5 5 5 5 5 5 5 5 5 5 5 5 5 5 5 5 6 5 6 5 5 5 5 5 5 5 5 5 5 5 5 6 5 5 5 5 5 5 5 5 5 5 5 5 5 5 5 5 5 5 5 5 6 5 5 5 6 5 5 5 5 5 6 5 5 5 5 6 5 5 5 6 5 5 5 6 5 6 5 6 6 5 5 5 5 5 5 5 6 6 5 6 6 6 5 6 6 6 5 5 5 5 5 5 5 5 5 5 5 5 5 5 6 5 5 5 6 5 5 5 5 6 5 5 6 6 5 6 5 5 5 5 6 6 6 5 5 5 5 5 5 5 5 6 5 5 5 5 5 5 6 5 5 5 5 5 6 5 6 5 6 5 5 5 5 5 6 5 5 6 5 5 5 5 6 5 5 6 5 5 5 5 5 5 5 6 5 6 5 6 5 6 5 5 6 5 5 5 5 5 6 6 5 5 5 5 5 6 5 5 6 5 5 5 5 5 6 5 5 5 5 5 5 5 5 6 5 5 5 5 5 6 5 5 5 5 5 5 6 5 5 5 5 5 6 5 5 5 5 5 5 5 5 5 5 5 5 5 5 5 5 6 5 5 6 5 5 6 5 6 5 5 5 5 5 5 5 5 6 5 5 5 6 6 5 6 5 6 5 6 5 5 5 6 5 5 5 5 6 6 5 5 5 5 6 5 5 5 5 5 5 6 5 6 6 5 5 5 6 5 5 5 5 5 6 6 5 6 6 5 6 5 5 6 5 6 5 5 5 6 5 5 5 5 5 5 5 5 5 5 5 5 5 6 5 6 6 5 5 6 5 5 5 6 5 5 5 5 5 6 6 5 6 5 5 5 6 5 5 5 6 5 5 5 6 5 5 6 5 5 6 5 5 5 5 5 5 5 5 5 6 5 5 5 5 5 5 5 5 5 6 5 5 5 6 6 5 5 5 5 5 5 5 5 5 5 6 5 5 6 6 6 5 5 5 5 5 5 5 5 5 5 5 5 5 5 6 5 5 5 5 6 5 6 5 6 5 5 5 5 5 5 5 5 5 5 5 5 5 5 5 5 5 5 5 5 5 5 5 5 5 5 5 5 5 5 5 5 6 5 5 5 5 5 5 5 5 5 5 5 6 5 5 5 5 5 5 5 5 5 5 5 6 5 5 5 5 6 5 5 5 6 5 5 5 6 5 6 5 6 6 5 5 5 5 5 5 5 5 5 5 5 5 5 5 6 5 5 5 5 5 5 5 5 6 6 5 5 5 5 5 5 6 5 5 5 5 5 5 6 6 5 5 6 6 5 5 5 5 5 6 5 5 5 5 5 6 5 6 5 5 5 5 5 6 5 6 5 6 5 5 5 5 5 5 6 6 6 5 6 5 6 5 5 5 5 6 5 5 5 5 5 5 6 5 5 5 5 5 5 5 5 5 5 5 5 5 6 5 5 5 5 5 6 5 5 5 5 5 5 6 5 5 6 6 5 5 5 5 5 5 5 5 5 5 6 5 5 5 5 5 5 5 5 5 5 5 5 5 6 5 5 5 5 5 5 5 6 5 5 5 5 6 6 6 5 6 5 5 5 6 5 5 6 5 5 5 5 5 5 5 5 6 5 5 6 5 5 5 5 6 5 5 5 5 5 5 5 6 5 6 5 6 5 5 5 6 6 5 5 5 6 5 6 5 5 5 6 5 5 5 6 5 5 5 5 5 6 5 5 5 5 5 5 6 6 5 5 6 5 5 5 5 6 6 5 5 6 5 6 5 5 6 6 5 5 5 5 5 6 5 5 5 5 5 5 6 5 6 5 5 5 5 5 5 5 5 5 5 5 5 5 5 5 6 5 6 5 5 5 5 5 5 6 5 6 5 6 5 5 5 6 6 5 5 5 5 5 5 5 5 5 5 6 5 5 5 5 5 5 5 5 5 5 5 5 5 5 5 5 5 5 5 5 5 5 5 5 5 5 5 5 5 5 5 5 5 5 5 5 5 5 5 5 5 5 5 5 5 5 5 5 5 5 5 5 5 5 5 5 5 5 5 5 5 5 5 5 5 5 5 6 6 5 5 5 5 5 5 5 5 6 5 5 6 5 5 6 5 5 5 5 5 5 6 5 5 6 5 5 5 5 5 5 5 5 5 5 6 5 5 5 5 5 5 5 5 6 5 5 5 5 5 5 5 5 5 5 5 5 6 5 5 5 5 5 5 5 5 5 6 5 5 5 6 5 5 5 5 5 5 5 5 6 5 5 5 5 5 5 5 5 5 5 5 5 5 5 5 5 5 5 5 5 5 5 6 5 5 5 5 5 5 5 5 5 5 5 5 6 6 5 6 5 5 5 5 5 5 5 5 6 5 5 5 5 5 5 5 5 5 5 5 5 5 5 5 5 5 5 5 6 5 5 5 5 5 5 6 5 5 5 5 5 5 5 5 6 5 5 5 5 5 5 5 5 5 5 5 5 6 5 6 5 5 5 6 5 5 5 5 5 5 5 6 5 5 5 5 5 5 5 5 5 5 5 6 5 5 5 5 5 6 5 5 6 5 5 5 5 5 5 5 5 6 5 5 5 5 5 5 5 5 5 6 5 6 5 5 5 5 5 5 5 5 5 5 5 5 5 5 5 5 6 6 5 5 5 5 5 5 6 5 6 5 5 5 5 5 5 5 5 5 6 5 5 5 5 5 5 5 5 6 5 5 5 5 6 6 5 5 5 5 5 5 5 5 5 5 5 5 5 5 5 5 5 5 5 5 5 5 6 5 5 5 6 5 5 5 5 5 5 5 5 6 5 5 5 5 6 5 5 5 6 5 5 5 5 5 5 6 5 5 5 5 5 5 5 5 5 5 5 5 5 5 6 5 5 5 5 5 5 5 5 6 5 5 5 6 5 5 5 5 6 5 5 5 5 5 5 5 5 5 5 5 6 6 5 6 5 5 6 5 5 5 5 5 5 5 5 5 5 5 5 5 5 5 5 5 5 5 5 5 5 5 6 5 5 5 5 5 5 5 5 5 5 5 5 5 5 5 5 5 5 5 5 5 5 5 5 5 5 5 5 5 5 5 5 5 5 5 5 5 5 5 5 5 5 5 5 5 5 5 5 5 5 5 6 5 5 5 5 5 5 5 5 5 6 5 5 5 5 5 5 5 5 5 6 5 5 5 5 5 5 5 5 5 5 5 6 6 5 5 5 5 5 6 5 6 5 5 6 5 5 6 5 5 5 5 5 5 5 5 5 5 6 5 5 5 5 5 5 5 5 5 5 5 5 5 5 5 5 5 5 5 5 5 5 5 5 5 5 5 6 6 5 6 6 5 5 5 5 5 5 5 5 5 5 5 5 5 5 5 5 5 6 5 6 5 6 5 5 5 5 5 5 5 6 6 5 6 5 5 5 5 5 5 5 5 6 5 5 5 5 5 5 5 5 5 5 6 5 5 5 5 5 5 5 5 5 5 5 5 5 6 5 5 5 5 5 5 5 6 5 5 6 5 5 5 5 5 5 5 6 5 6 5 5 6 5 5 5 5 6 5 5 5 5 5 5 5 5 5 5 5 5 5 5 6 5 6 6 5 5 6 5 5 5 5 6 5 5 5 5 5 5 5 5 6 5 6 5 5 5 5 5 5 5 5 5 6 5 5 6 5 5 6 5 5 5 5 5 5 6 6 5 5 6 5 6 5 5 5 5 5 5 5 5 5 5 5 5 6 5 5 5 5 6 5 5 5 5 5 5 5 5 5 5 5 5 5 5 5 5 5 5 5 5 6 5 5 5 6 5 5 5 5 6 5 5 6 5 5 6 6 5 5 5 5 5 5 5 5 5 5 5 5 5 5 5 5 5 6 5 5 5 5 5 5 5 5 5 6 5 6 5 5 6 6 5 5 5 5 5 5 5 6 5 5 5 6 5 5 5 6 5 6 6 5 5 5 5 5 5 5 5 5 5 5 5 5 5 5 6 5 5 5 5 5 5 6 5 5 6 5 5 5 6 5 5 5 5 5 5 5 5 5 5 5 5 5 5 5 5 5 5 5 5 5 5 5 5 5 5 5 5 5 5 5 6 5 5 5 5 5 5 6 5 5 5 5 5 5 5 5 5 5 5 5 6 5 6 5 5 5 5 5 5 5 5 5 5 5 5 5 5 5 6 5 5 5 5 5 5 5 5 5 5 5 5 5 5 5 5 5 5 5 5 5 5 5 6 5 5 5 5 5 5 5 5 5 5 5 5 5 5 5 5 5 5 5 5 5 5 5 5 5 5 5 5 5 5 5 5 6 5 5 5 5 5 5 5 6 5 5 5 5 6 5 5 5 5 5 6 5 5 5 5 5 5 5 5 5 6 5 6 5 5 5 5 5 5 5 5 5 5 5 5 5 6 5 5 6 5 6 5 6 5 5 5 5 5 5 5 5 5 5 5 5 5 5 5 5 5 5 5 5 5 5 5 5 5 5 5 5 5 5 5 6 5 5 5 5 5 5 5 5 5 5 5 5 5 5 5 5 5 5 5 5 5 6 5 5 5 5 5 5 6 5 5 6 5 5 5 5 6 5 5 5 5 5 6 5 5 5 5 5 5 5 5 5 5 5 5 5 5 5 5 5 5 5 6 5 5 6 5 5 5 5 5 5 5 5 6 5 5 5 6 5 5 5 5 5 5 6 6 6 5 5 5 5 5 5 5 5 5 5 5 5 6 5 5 5 5 5 5 5 5 5 5 5 5 5 5 5 5 5 5 5 5 5 5 5 5 5 5 5 5 5 5 6 5 5 5 5 5 5 5 5 5 5 5 6 5 5 5 6 6 5 5 5 5 5 6 6 6 5 5 6 5 5 6 5 5 5 5 5 5 5 5 5 5 5 5 6 5 5 5 5 5 5 5 5 5 5 5 5 5 5 5 5 6 5 5 5 5 5 5 6 5 5 5 5 5 5 6 6 5 6 6 5 5 5 5 5 5 5 5 5 5 6 5 6 6 6 5 5 5 5 5 5 5 5 5 6 5 5 5 5 5 5 5 5 6 5 5 5 5 5 6 5 5 5 5 5 5 5 5 5 5 5 5 5 5 5 5 5 5 5 5 5 5 5 5 5 6 5 5 5 5 5 5 5 5 5 5 5 5 5 5 6 5 5 5 6 5 6 6 5 5 6 5 5 5 5 5 5 5 5 5 5 5 5 5 5 5 5 5 6 5 5 5 5 5 6 5 5 5 6 5 6 5 5 5 5 5 5 6 6 5 5 5 6 6 5 5 5 6 6 5 5 5 5 5 6 6 5 6 5 5 5 5 5 5 5 5 5 6 5 5 5 5 5 5 5 5 5 5 5 5 6 6 5 5 5 5 5 5 6 5 5 5 5 6 5 5 5 5 5 6 5 5 5 5 5 5 5 5 5 5 6 5 5 6 5 5 6 5 5 5 5 5 5 5 6 5 5 5 6 5 5 5 5 5 5 5 5 5 5 5 5 5 5 6 6 5 5 5 5 6 5 5 5 5 5 5 5 5 5 5 6 5 5 6 5 5 6 6 5 5 5 5 5 6 6 5 6 5 5 5 5 5 5 6 5 5 5 6 6 5 5 6 5 5 5 6 5 5 5 6 5 6 5 5 6 6 5 5 6 6 5 5 5 5 5 5 5 5 6 5 6 5 6 5 6 5 5 5 5 5 5 5 5 5 5 5 5 5 5 6 5 5 5 5 6 5 5 5 6 5 5 5 6 5 5 5 5 5 6 5 5 5 5 6 5 5 5 5 5 6 5 5 5 5 6 5 5 5 5 5 6 5 5 5 5 5 5 5 5 5 5 5 6 5 5 5 6 5 5 5 5 5 5 5 5 5 6 5 5 5 5 6 5 5 6 5 5 5 5 5 5 5 5 5 5 5 5 5 5 5 5 5 5 5 5 6 5 5 5 5 5 6 5 5 5 5 5 5 5 5 5 5 5 5 5 5 6 5 5 5 5 5 5 6 5 5 5 5 5 5 5 6 6 5 5 5 5 6 5 6 5 5 5 5 5 5 5 6 5 5 5 5 6 5 5 5 5 5 5 5 5 5 5 5 5 6 5 5 5 5 5 5 5 5 5 5 5 5 5 5 5 5 5 5 5 5 5 5 5 5 5 5 5 5 5 5 5 5 5 5 5 5 5 5 5 5 5 5 5 5 5 5 5 5 5 5 5 5 5 5 5 5 5 5 5 5 5 5 5 5 5 5 5 5 5 5 5 5 6 5 6 5 5 5 5 6 5 5 6 5 5 6 5 5 5 5 6 5 5 5 5 5 5 5 5 5 5 5 5 5 5 5 5 5 5 5 5 5 5 6 5 5 5 6 5 5 5 5 6 5 5 5 5 5 5 6 5 5 5 5 5 5 5 5 5 5 5 5 5 5 5 5 5 5 5 5 5 5 5 5 5 5 5 5 5 5 5 5 5 5 5 6 5 5 6 5 5 5 6 5 5 5 5 5 5 6 5 5 5 5 5 5 5 6 5 5 5 5 5 5 5 5 5 5 6 5 5 5 5 6 6 5 5 5 5 5 5 6 5 6 5 6 5 5 5 5 5 5 5 5 6 6 5 5 5 5 5 5 5 5 5 5 5 5 5 5 5 5 5 5 5 5 5 5 5 5 5 5 5 5 5 5 5 5 5 5 5 5 5 5 5 5 5 5 5 5 5 5 5 5 5 5 5 5 5 5 5 5 5 6 5 5 5 5 5 5 5 5 6 5 5 6 5 6 5 6 5 5 5 5 5 5 5 6 5 5 5 5 5 6 5 5 5 5 6 5 5 5 5 5 5 5 5 5 5 6 5 5 5 5 5 5 5 5 5 5 5 5 6 5 5 6 5 6 5 5 5 5 6 5 5 5 5 6 5 5 6 5 5 5 6 6 5 5 5 5 5 5 5 5 6 5 5 5 5 5 5 6 5 6 6 5 5 6 6 5 6 5 5 6 5 5 5 5 6 5 5 5 5 5 6 5 5 5 5 5 5 5 5 5 5 5 5 5 5 5 6 6 5 6 5 5 6 5 5 5 5 6 5 5 5 5 5 5 5 6 5 5 5 5 5 5 6 5 5 5 5 6 5 6 5 5 5 5 5 5 5 6 6 5 5 5 5 5 5 5 5 5 5 5 6 5 5 5 5 5 5 6 5 6 5 5 5 5 6 6 5 5 5 5 6 5 6 5 5 5 5 5 5 6 6 5 6 6 5 5 5 5 5 5 5 6 5 5 5 5 5 5 5 5 5 5 6 5 5 5 5 5 5 5 5 5 6 5 5 5 5 5 5 5 5 5 5 5 5 5 5 5 6 5 5 5 5 5 5 5 5 6 5 5 6 6 5 5 5 5 5 5 5 6 5 5 5 5 6 5 5 5 5 5 5 6 6 5 5 5 5 5 5 5 5 6 5 5 5 5 6 5 5 5 6 5 5 5 6 5 6 6 5 5 5 6 5 5 5 6 5 6 6 6 5 5 5 6 6 6 5 5 6 6 5 6 5 5 5 5 6 5 5 6 5 5 5 6 5 5 6 6 5 5 5 5 5 5 5 5 5 5 5 5 5 5 6 5 6 5 5 5 5 5 5 6 5 6 6 5 5 6 5 5 6 5 6 5 6 5 5 5 6 5 6 5 6 5 6 5 5 5 6 5 5 5 5 5 5 6 5 6 5 5 6 5 5 5 5 5 5 5 6 5 6 5 5 5 5 5 5 5 5 5 5 5 6 5 5 5 5 5 5 5 5 5 5 5 5 5 5 6 5 5 5 5 5 5 5 5 5 5 5 5 5 5 5 5 5 5 5 5 5 5 5 5 5 5 5 5 5 5 5 5 5 5 5 5 5 5 5 5 5 5 5 5 5 5 5 5 5 5 5 5 5 5 5 5 5 5 6 5 5 6 6 5 5 5 5 5 5 5 5 5 5 5 5 6 5 5 5 5 5 6 6 5 5 5 6 6 5 5 5 5 5 5 6 5 5 5 5 5 5 5 5 6 5 5 5 5 5 5 5 5 5 5 5 5 6 5 5 6 5 5 5 6 5 5 5 5 5 5 5 5 5 5 6 5 5 5 6 5 6 5 5 5 5 5 5 5 5 5 5 5 5 5 5 5 5 5 6 5 5 5 5 5 5 5 5 5 5 5 5 5 5 5 5 6 5 5 5 5 5 6 5 5 5 5 5 5 6 5 5 6 5 5 5 5 5 5 5 5 5 5 5 5 5 5 5 5 5 5 5 5 5 5 5 5 5 5 5 5 5 5 5 5 5 5 5 5 5 6 5 5 6 5 5 5 5 6 5 5 5 5 5 5 5 5 5 5 5 6 5 5 5 5 5 5 5 5 5 5 5 5 5 5 5 5 5 5 5 5 5 5 5 5 6 5 5 5 5 5 6 5 5 5 5 5 5 5 5 5 5 5 5 6 5 5 5 5 5 5 6 5 5 5 5 5 5 5 5 6 5 6 5 5 5 5 5 5 5 5 5 5 5 5 5 5 5 5 5 5 5 6 5 5 5 5 5 5 6 6 5 5 5 5 5 5 5 5 5 5 5 5 5 5 5 5 5 5 5 5 6 5 6 5 5 5 5 6 5 5 5 5 5 5 5 5 5 5 5 6 5 5 5 6 5 5 5 5 5 5 5 5 5 5 5 5 6 5 5 5 5 5 5 5 6 5 5 5 5 6 5 5 5 5 5 6 5 5 5 6 5 5 5 5 5 5 5 5 5 5 5 5 5 5 5 5 5 5 5 5 5 5 5 6 5 5 5 6 5 5 5 5 6 5 5 5 6 5 5 5 5 5 5 5 5 5 6 5 5 5 5 5 6 5 6 5 5 5 5 5 5 5 5 5 5 5 5 5 5 5 6 5 5 5 6 5 5 5 6 5 5 5 5 5 5 5 5 5 5 5 6 5 5 5 5 5 5 5 5 5 5 5 5 5 5 5 5 5 5 5 5 5 5 5 5 5 5 5 5 5 5 5 6 5 5 5 5 5 5 5 5 5 5 5 5 5 5 5 5 5 5 5 5 5 5 5 5 5 5 5 5 5 5 5 5 5 5 5 5 5 5 5 5 5 5 5 5 5 5 5 5 5 5 5 5 5 6 5 6 5 5 6 5 5 5 6 5 5 5 6 5 6 5 5 5 5 5 5 5 6 5 5 6 5 5 5 6 5 6 5 5 5 6 5 5 5 6 5 5 5 6 5 6 5 5 6 5 6 5 5 5 5 6 5 6 5 5 5 5 6 5 5 5 5 5 5 5 5 5 5 5 6 5 5 5 5 5 5 5 5 5 5 5 5 5 5 5 5 5 5 5 5 5 5 5 6 5 5 6 5 6 5 6 5 5 5 5 6 5 6 5 5 5 5 5 6 5 5 5 5 5 5 5 5 5 5 5 6 5 5 5 6 5 6 6 5 5 6 6 5 5 6 5 5 5 6 5 5 6 6 5 5 5 5 5 5 5 5 5 5 5 5 5 5 5 5 5 5 5 5 5 5 5 5 6 5 5 5 5 5 5 5 6 5 5 5 5 5 5 5 5 5 5 5 5 5 5 5 5 6 5 5 5 6 5 5 5 5 5 5 5 6 5 5 5 5 5 5 5 5 5 5 6 5 5 5 5 5 5 5 5 5 5 6 5 5 5 5 5 5 5 5 5 5 5 5 5 5 5 5 5 6 5 5 5 5 5 6 5 5 6 5 6 5 5 5 5 5 5 5 5 5 5 5 5 5 5 5 5 5 5 5 5 5 5 5 5 5 5 5 5 5 5 5 5 5 5 5 5 5 5 5 5 5 5 5 5 5 5 5 5 5 5 5 5 5 5 5 5 5 6 5 5 5 5 5 5 5 5 5 5 5 5 5 5 5 6 5 5 5 5 5 5 5 5 5 5 5 5 5 5 5 5 5 5 5 5 5 5 5 5 5 6 5 6 5 5 5 5 5 5 5 5 6 5 5 5 5 5 5 5 5 5 5 5 5 5 5 5 5 5 6 5 5 5 6 5 5 5 5 5 5 5 5 6 6 5 5 6 5 5 5 5 5 5 5 5 5 5 5 5 5 5 5 5 5 5 5 5 5 5 5 5 5 5 5 5 5 5 5 5 5 5 5 5 5 5 5 5 5 5 5 5 5 5 5 5 6 5 5 6 5 5 5 5 5 6 5 5 5 6 5 5 5 6 5 5 5 6 5 5 5 5 5 5 5 5 5 6 5 5 5 5 5 6 5 5 5 5 5 5 5 5 5 5 5 5 5 5 5 5 5 5 5 5 5 5 5 6 5 5 5 5 6 5 5 5 5 5 5 5 5 5 5 5 5 5 5 6 5 5 5 5 5 5 6 5 6 5 5 5 6 5 5 5 5 5 5 5 5 5 6 5 5 5 5 5 5 5 6 5 5 5 5 5 5 5 5 5 5 5 5 5 5 6 5 6 6 6 5 5 5 5 5 5 6 5 5 5 5 6 5 5 5 5 5 5 5 5 6 5 5 6 6 5 5 6 5 5 5 5 6 5 5 5 5 5 5 5 5 6 5 5 6 6 5 6 5 5 5 5 5 5 5 5 5 5 5 5 5 5 5 5 5 5 5 5 5 5 5 5 6 6 5 5 6 5 5 5 5 5 5 6 5 5 5 5 5 5 5 5 5 5 5 5 5 6 5 5 5 5 5 5 6 5 5 5 6 5 5 5 5 5 5 5 5 6 5 5 5 5 5 5 5 5 5 6 5 5 6 5 5 6 5 6 5 5 6 5 5 6 5 5 6 5 5 5 6 6 5 5 5 6 5 6 5 5 6 5 5 5 5 6 6 5 6 5 5 5 5 5 5 5 5 5 5 5 5 5 5 5 5 5 5 5 6 5 5 5 5 6 5 5 5 5 5 5 5 5 5 5 5 5 5 5 5 5 5 5 5 5 5 5 5 5 5 5 5 5 5 5 
</DataArray>
<DataArray type="Float64" Name="stress" NumberOfComponents="9" format="ascii">
-1143.2337481422583 2272.3411265312388 0 2272.3411265312388 -168.0649998066292 0 0 0 0 -179.8814609331348 1866.4171725596789 0 1866.4171725596789 0.11837383757665521 0 0 0 0 0.48703235727953142 1703.867089264264 0 1703.867089264264 -1788.5860982033992 0 0 0 0 2.7055556993980758 5.3095994471272263 0 5.3095994471272263 -0.019167347068730578 0 0 0 0 2.2309536478458938 6.1979513641778681 0 6.1979513641778681 -1.4019208470315618 0 0 0 0 -1031.7703693779649 1005.5547465667651 0 1005.5547465667651 -1547.9175236487936 0 0 0 0 104.83869789762684 514.40646822935742 0 514.40646822935742 -1678.9695525214902 0 0 0 0 -1161.7552949966739 1733.6817601680054 0 1733.6817601680054 -1809.8011682557189 0 0 0 0 -8.0447129397798562 2666.3481379788427 0 2666.3481379788427 -2090.7845121741739 0 0 0 0 512.46696302198688 728.96189861151652 0 728.96189861151652 -1173.3146783045268 0 0 0 0 546.67848868480723 1436.5150369057828 0 1436.5150369057828 -1029.1307104263324 0 0 0 0 202.97508024661511 1529.5438149633628 0 1529.5438149633628 -1761.1742606558628 0 0 0 0 451.85026967819795 1208.2421484593433 0 1208.2421484593433 -1527.4909439179173 0 0 0 0 195.70932187837025 1705.3068851430071 0 1705.3068851430071 -249.05901451952377 0 0 0 0 625.0748720449119 2054.7978797199539 0 2054.7978797199539 -1000.6558634840803 0 0 0 0 464.12238811751013 1423.0715514187468 0 1423.0715514187468 -1841.5283659001707 0 0 0 0 101.19340237386496 1518.5298363550355 0 1518.5298363550355 -608.21329842520208 0 0 0 0 127.59827822052466 1359.5468109561771 0 1359.5468109561771 -365.36391837769042 0 0 0 0 -141.83369219888482 1312.1895389936853 0 1312.1895389936853 -1.0541163257876178 0 0 0 0 -389.26464731417036 1132.3230964656668 0 1132.3230964656668 -131.72238178191765 0 0 0 0 61.551952577507109 983.92943204621952 0 983.92943204621952 -366.75881858405046 0 0 0 0 199.65034595942416 949.01146784047523 0 949.01146784047523 -368.86448970763763 0 0 0 0 502.79767317626829 1353.2578879484645 0 1353.2578879484645 -621.8141320835789 0 0 0 0 206.71057977449527 1187.9714048013848 0 1187.9714048013848 -486.77310580932681 0 0 0 0 307.08999985750415 1164.0263503308888 0 1164.0263503308888 -569.0661704493541 0 0 0 0 222.4573023524681 902.28966698922159 0 902.28966698922159 -315.47683316650364 0 0 0 0 481.45537693158258 1028.1293338216565 0 1028.1293338216565 -631.31988692529194 0 0 0 0 619.52865761159137 842.32032704219262 0 842.32032704219262 -420.58475155702035 0 0 0 0 608.77443729426977 1089.5973904925336 0 1089.5973904925336 -596.82493105379399 0 0 0 0 405.14700646604797 849.08843592853373 0 849.08843592853373 -309.30239743329003 0 0 0 0 473.25570258242078 1032.7268267960753 0 1032.7268267960753 -126.35597374035569 0 0 0 0 607.6578824766766 917.68867104268429 0 917.68867104268429 -287.52434262930183 0 0 0 0 586.7163666922861 1032.8843747624633 0 1032.8843747624633 -508.67685786721995 0 0 0 0 805.46052897437767 382.39119994219072 0 382.39119994219072 29.818679289950524 0 0 0 0 1108.1362208386272 802.73202612726891 0 802.73202612726891 -769.96914136053238 0 0 0 0 463.53429112600861 655.76601936548832 0 655.76601936548832 -3132.9006705572888 0 0 0 0 290.17859023035271 1178.9094400881586 0 1178.9094400881586 987.15747403963906 0 0 0 0 619.83122359462141 1146.3697154819602 0 1146.3697154819602 -271.76863401446462 0 0 0 0 -0.47238244937943819 9.0414310823221342 0 9.0414310823221342 -6.2997821793796902 0 0 0 0 100.12266289984109 -236.78536886972142 0 -236.78536886972142 -3157.5283172160571 0 0 0 0 -180.083568108299 802.03031315894941 0 802.03031315894941 -109.88860709013534 0 0 0 0 232.81753463582572 746.08926340927428 0 746.08926340927428 -196.3038835144398 0 0 0 0 207.9070594405639 590.17999996424987 0 590.17999996424987 34.073950396836153 0 0 0 0 -28.491830759186996 821.68895243288716 0 821.68895243288716 -114.45595311987927 0 0 0 0 239.81467900238931 593.9122136482838 0 593.9122136482838 32.71834982897235 0 0 0 0 230.22858278890499 497.30682871809313 0 497.30682871809313 97.106357868542545 0 0 0 0 -3.5438670114131412 6.5326229427130613 0 6.5326229427130613 0.10623113529738415 0 0 0 0 241.75418263662868 487.87482372904924 0 487.87482372904924 -125.46961224459665 0 0 0 0 33.491518754570279 504.13585773983141 0 504.13585773983141 14.745047837059246 0 0 0 0 10.980288376398676 357.09556433514535 0 357.09556433514535 421.94436113802658 0 0 0 0 209.61537246175067 -167.94921669255928 0 -167.94921669255928 -2242.6344093092339 0 0 0 0 174.59527215048729 -341.96814422627358 0 -341.96814422627358 131.38242048113898 0 0 0 0 -241.72475029169436 11.794109799579019 0 11.794109799579019 -857.52802501725091 0 0 0 0 6.9810919359932484 3.1648977189814786 0 3.1648977189814786 0.97099049593322206 0 0 0 0 785.63905386272381 307.05291344681973 0 307.05291344681973 -65.974486931954743 0 0 0 0 -25.684224004653515 1413.2237359862193 0 1413.2237359862193 -998.38781270434265 0 0 0 0 -156.53814488275384 291.41081819764076 0 291.41081819764076 -65.142393190494658 0 0 0 0 350.2759074408732 -155.82422377520561 0 -155.82422377520561 -774.95770706819167 0 0 0 0 136.63977094055736 256.84088350234379 0 256.84088350234379 -183.93080040412315 0 0 0 0 -412.16169210977387 -296.39819612245628 0 -296.39819612245628 -91.617112427549728 0 0 0 0 -27.244772112258943 311.78416676385677 0 311.78416676385677 -115.75621664909886 0 0 0 0 26.374265174578341 8.9628317783955254 0 8.9628317783955254 4.0164444913210104 0 0 0 0 -203.8423228081374 824.31561184427846 0 824.31561184427846 -2202.1161570519071 0 0 0 0 178.34645403788454 -311.61980769429374 0 -311.61980769429374 -188.60177333754837 0 0 0 0 -4.0701433171640815 -2.4655267324334034 0 -2.4655267324334034 -1.2893318316919249 0 0 0 0 260.89917276949564 134.81173019319976 0 134.81173019319976 -1137.594481468499 0 0 0 0 268.94441645876213 256.57370546057791 0 256.57370546057791 -1599.3561266264005 0 0 0 0 -302.82653984559875 649.49223377250746 0 649.49223377250746 -820.5415074761695 0 0 0 0 -169.08797777217114 101.25450157751766 0 101.25450157751766 -151.87717447250907 0 0 0 0 -86.11527953640325 160.27197997154872 0 160.27197997154872 -571.84465268085478 0 0 0 0 331.54545767245872 89.644706491846591 0 89.644706491846591 -987.71473555894772 0 0 0 0 167.84606513662948 -78.457284351879935 0 -78.457284351879935 -258.33061537428875 0 0 0 0 -0.71803772182022385 -1.3014208121479953 0 -1.3014208121479953 -19.35035280053944 0 0 0 0 -50.799561928448384 -118.4977705173369 0 -118.4977705173369 -271.18564574417178 0 0 0 0 43.272552218050663 27.75680536107896 0 27.75680536107896 -6.3428642797639014 0 0 0 0 290.20266685262322 647.35623720206786 0 647.35623720206786 -406.15389979729662 0 0 0 0 40.286164698816719 -67.499498963625228 0 -67.499498963625228 -394.75207032134131 0 0 0 0 -1.794620122578209 19.381419096135758 0 19.381419096135758 -38.380499298243109 0 0 0 0 64.879601844993886 92.41629894493235 0 92.41629894493235 -465.68258435531061 0 0 0 0 51.802494137635222 26.514609955571359 0 26.514609955571359 -25.697029087154078 0 0 0 0 95.857621493312763 16.429890956642339 0 16.429890956642339 -68.991930498450529 0 0 0 0 33.440117896621814 50.782147331352462 0 50.782147331352462 -52.106510684359819 0 0 0 0 91.487434928887524 52.682911310170311 0 52.682911310170311 -61.927645022718934 0 0 0 0 126.03324160580814 91.695106188555656 0 91.695106188555656 -18.739584094804741 0 0 0 0 35.81480568627012 60.665838066895958 0 60.665838066895958 5.4890454676569789 0 0 0 0 -0.10062790556548862 44.141701929343981 0 44.141701929343981 -0.95346233306190697 0 0 0 0 -3.4967980591169123 4.8866408897207876 0 4.8866408897207876 -14.533443566742193 0 0 0 0 -170.01014270594169 -397.20172393049143 0 -397.20172393049143 -842.64450113889325 0 0 0 0 9.5856747153302422 -87.288567015690205 0 -87.288567015690205 -916.11681334552122 0 0 0 0 -69.274027188002947 -53.215274069800216 0 -53.215274069800216 -393.27831626778789 0 0 0 0 522.12544567342229 -68.641154102526343 0 -68.641154102526343 -1364.5115899482771 0 0 0 0 434.66483227720164 -381.47324506221776 0 -381.47324506221776 -1741.9459561922631 0 0 0 0 0.88966366699605715 1900.4741157504468 0 1900.4741157504468 -2617.7432588844295 0 0 0 0 -253.77286052486124 -1360.6371370843794 0 -1360.6371370843794 -2124.3968187596038 0 0 0 0 -1.7693405231127599 9.3150530184248339 0 9.3150530184248339 -8.0069980755592809 0 0 0 0 -421.44705566961056 868.66781858778268 0 868.66781858778268 608.50390621420229 0 0 0 0 87.530871048817062 881.4597738018565 0 881.4597738018565 -4626.5728881059586 0 0 0 0 189.67061798340001 883.77415499245762 0 883.77415499245762 -909.78853487436572 0 0 0 0 358.30068766312615 476.6682683988256 0 476.6682683988256 -1183.5757737983695 0 0 0 0 360.33099080018292 282.30118629203935 0 282.30118629203935 -140.45059900711567 0 0 0 0 -13.559653376883944 -409.0890929276502 0 -409.0890929276502 -2847.5254030909491 0 0 0 0 -80.939696201079641 -61.526341960878199 0 -61.526341960878199 -1324.6061764113547 0 0 0 0 -3.4418292251014293 16.60852439840329 0 16.60852439840329 -11.062910514264786 0 0 0 0 249.16246550666983 106.90730528533459 0 106.90730528533459 -1238.8526677576046 0 0 0 0 198.11080517248774 60.928518990673183 0 60.928518990673183 -43.52582011546474 0 0 0 0 -14.031638931586734 25.380698181499508 0 25.380698181499508 -26.304805755273776 0 0 0 0 265.59388198754823 134.95468930123388 0 134.95468930123388 1.7664955690472652 0 0 0 0 221.03652324171708 73.495196479725564 0 73.495196479725564 2.8616328308467018 0 0 0 0 274.44012171104987 126.88345090458461 0 126.88345090458461 22.530561131155991 0 0 0 0 -10.253496375026863 15.871740085684369 0 15.871740085684369 -14.427926697443894 0 0 0 0 190.63578989172584 142.95758657690203 0 142.95758657690203 19.544658563114353 0 0 0 0 242.51007417200208 128.88708659468182 0 128.88708659468182 0.045800398424034938 0 0 0 0 244.22132005045012 93.900762807821366 0 93.900762807821366 16.509174401333439 0 0 0 0 305.15785922676514 121.36991949750518 0 121.36991949750518 0.024959699258033652 0 0 0 0 -3898.3039395364167 75.272405073181289 0 75.272405073181289 77.976909223929397 0 0 0 0 -1618.385018550729 396.07737707372144 0 396.07737707372144 37.820573165765381 0 0 0 0 -5.7207085588434907 4.7050556537504633 0 4.7050556537504633 -4.7183599047399127 0 0 0 0 -1163.5461637662593 217.70232650374965 0 217.70232650374965 3.4277248490898273 0 0 0 0 -2461.348530482087 66.273396483719807 0 66.273396483719807 44.955948259928846 0 0 0 0 -1517.4984646824851 373.13555335652927 0 373.13555335652927 83.707150490205095 0 0 0 0 -1694.066559256702 32.399196393900638 0 32.399196393900638 17.645470126066357 0 0 0 0 -1677.381608294847 946.99907267535309 0 946.99907267535309 -0.22087146263220347 0 0 0 0 -1000.6146575414969 811.55725403335964 0 811.55725403335964 -18.046146922840762 0 0 0 0 -983.09752192502674 763.30415900342086 0 763.30415900342086 113.09229408214014 0 0 0 0 -1821.2365940486561 697.47823048784994 0 697.47823048784994 6.7535537435960578 0 0 0 0 -786.87057457683659 1015.2065537604012 0 1015.2065537604012 -269.60311566560267 0 0 0 0 -560.00532373082387 800.71963407887233 0 800.71963407887233 -209.95248796702663 0 0 0 0 -577.03989009426732 1006.76374301135 0 1006.76374301135 -156.03364194301957 0 0 0 0 -623.33751142638357 830.24835998887283 0 830.24835998887283 21.321124838003016 0 0 0 0 -181.5005138114866 809.43566050606296 0 809.43566050606296 -105.99684838607209 0 0 0 0 -631.38759321228144 726.1580149091252 0 726.1580149091252 101.83534998208052 0 0 0 0 -215.5094051896267 611.04343044932466 0 611.04343044932466 115.53050377505133 0 0 0 0 -421.41756120622449 689.42596295553085 0 689.42596295553085 170.80838788512119 0 0 0 0 -3.9923823877647351 3.9439868921163566 0 3.9439868921163566 -0.0037310405242418909 0 0 0 0 -633.41619242360321 444.45969782833708 0 444.45969782833708 1178.9080462575221 0 0 0 0 -1022.2585469139231 993.97737533506006 0 993.97737533506006 404.25855933691491 0 0 0 0 -739.89509058049589 867.34630309956992 0 867.34630309956992 -349.72556775643898 0 0 0 0 -600.12382040231387 592.56283236976924 0 592.56283236976924 315.77209541539196 0 0 0 0 -940.83522930643085 739.55749486205605 0 739.55749486205605 204.57322748900788 0 0 0 0 -723.65588603271317 750.45860806078781 0 750.45860806078781 203.40154256880487 0 0 0 0 -677.20372680417336 529.83230383577381 0 529.83230383577381 146.52253522814135 0 0 0 0 -301.27753918243252 310.64444127539173 0 310.64444127539173 -160.0913087653098 0 0 0 0 -676.15766776265082 673.30979214613399 0 673.30979214613399 -129.98927629993523 0 0 0 0 -835.00089152259716 530.21862945393423 0 530.21862945393423 211.70612197890296 0 0 0 0 -910.08244954754264 781.24675928859688 0 781.24675928859688 238.72892943806801 0 0 0 0 -1038.0164360960262 599.43720720637793 0 599.43720720637793 189.24942275003559 0 0 0 0 -1115.0302831964163 -19.256314185833617 0 -19.256314185833617 -43.244859256919881 0 0 0 0 -648.16746327199417 25.973103423297289 0 25.973103423297289 284.59854502716917 0 0 0 0 -816.40711525821825 244.72912473835459 0 244.72912473835459 121.38137749167436 0 0 0 0 -801.22568411069369 600.40639279917741 0 600.40639279917741 303.2234853861446 0 0 0 0 -496.03268862607365 365.5026743868948 0 365.5026743868948 290.6489480688615 0 0 0 0 -344.61957007179444 247.06716141474317 0 247.06716141474317 146.2747666152427 0 0 0 0 -6.5550341395377814 2.28609399740904 0 2.28609399740904 6.7267191961276467 0 0 0 0 -312.55303652398288 361.710346715583 0 361.710346715583 108.93821139451757 0 0 0 0 -803.76518587008468 1142.9598747022719 0 1142.9598747022719 -776.21588926878758 0 0 0 0 -3.5707425256565557 1.1036822497771652 0 1.1036822497771652 2.5203271419046871 0 0 0 0 -563.39437328904751 652.11395010170963 0 652.11395010170963 -539.82454022299862 0 0 0 0 -878.75963934289757 296.82259037055337 0 296.82259037055337 772.28391813551934 0 0 0 0 -214.45965114251612 -434.49014230797252 0 -434.49014230797252 869.6482247731692 0 0 0 0 -691.428060124279 206.16667571928701 0 206.16667571928701 32.730506802028685 0 0 0 0 -865.7885815694317 551.8588634232035 0 551.8588634232035 -78.183022738223372 0 0 0 0 -19.059712190491297 39.921966994373719 0 39.921966994373719 -54.495212281743534 0 0 0 0 125.53727152535976 165.30177332849598 0 165.30177332849598 -32.418867945903912 0 0 0 0 -139.55665729063185 227.67096513185243 0 227.67096513185243 -116.84715870610671 0 0 0 0 268.63448019069256 165.72518678809138 0 165.72518678809138 -64.629129623070185 0 0 0 0 96.061462653280614 84.160769039306615 0 84.160769039306615 18.156357395171653 0 0 0 0 -17.249337657750196 33.993639940641465 0 33.993639940641465 -39.72842099256502 0 0 0 0 -1095.3055642932013 -17.024948661997769 0 -17.024948661997769 227.18454743861002 0 0 0 0 101.37165513953732 123.17871078493044 0 123.17871078493044 16.296938351832068 0 0 0 0 -43.627201087627327 24.44248365182284 0 24.44248365182284 47.316089156629459 0 0 0 0 -14.413073234216426 71.394281607332232 0 71.394281607332232 14.884076134527277 0 0 0 0 -65.34329926900682 97.193426344572799 0 97.193426344572799 57.825462542721652 0 0 0 0 -9.4793363347853301 50.977408804596053 0 50.977408804596053 91.676374233684328 0 0 0 0 50.939563768515654 75.341229189805745 0 75.341229189805745 44.728880121620023 0 0 0 0 15.899513198775821 -6.2873229200995411 0 -6.2873229200995411 76.257326083257794 0 0 0 0 19.013983731929329 17.064358893876488 0 17.064358893876488 -24.377309073781362 0 0 0 0 -30.069384399990668 23.76573491201998 0 23.76573491201998 -19.672541217478283 0 0 0 0 -59.481566043446946 64.1552850293956 0 64.1552850293956 -42.740766516879376 0 0 0 0 -19.914645552433285 -0.14645322365413449 0 -0.14645322365413449 -50.189430768179591 0 0 0 0 -95.727453959545528 21.416316032264149 0 21.416316032264149 -50.506144222908915 0 0 0 0 1.3561755425719184 11.513490746022498 0 11.513490746022498 -12.077675045910736 0 0 0 0 12.335808486488531 10.253887690247211 0 10.253887690247211 -105.59399762219982 0 0 0 0 -18.105695511122626 46.030301638092531 0 46.030301638092531 -64.254317789274296 0 0 0 0 131.34612581615147 -6.0531645782539272 0 -6.0531645782539272 -73.205100451370527 0 0 0 0 38.669956869079215 572.82743271760228 0 572.82743271760228 -956.56103689159499 0 0 0 0 -51.716220970665745 -163.79523267901095 0 -163.79523267901095 -198.55799757865771 0 0 0 0 43.705446170672076 -24.783862040269014 0 -24.783862040269014 -68.453865415031032 0 0 0 0 90.044924512709258 -41.82333770137484 0 -41.82333770137484 -183.92757880093268 0 0 0 0 48.927215079189409 -1.3155190735033102 0 -1.3155190735033102 -66.833756488980725 0 0 0 0 -1.8992852879816837 0.59890908252123154 0 0.59890908252123154 0.83094950692892233 0 0 0 0 -2014.1896333305049 1089.5455893069593 0 1089.5455893069593 -1103.0399293025112 0 0 0 0 -262.19309369458642 170.18297674284258 0 170.18297674284258 -12.416576578992135 0 0 0 0 -263.47678256897052 834.0187653173416 0 834.0187653173416 -1092.6232162654196 0 0 0 0 -827.78837652737275 935.93743510253989 0 935.93743510253989 -704.16694618541806 0 0 0 0 -1138.535085421132 367.53763283050284 0 367.53763283050284 -96.028719359455863 0 0 0 0 -7.4456162315896677 1.6424527236507629 0 1.6424527236507629 -0.020021304033349452 0 0 0 0 995.78490236628568 1253.0665941250772 0 1253.0665941250772 -2394.9704874021263 0 0 0 0 -95.153180732217152 -63.617782032990362 0 -63.617782032990362 81.943869897360855 0 0 0 0 -118.37746572795731 1288.5809144277664 0 1288.5809144277664 -2395.6422670597676 0 0 0 0 -1143.1841746879945 1253.9868979826279 0 1253.9868979826279 -989.44580528391816 0 0 0 0 -341.69231079516612 157.34545212154626 0 157.34545212154626 -116.27442126900132 0 0 0 0 274.16782848218281 294.15596660251322 0 294.15596660251322 -571.74583046635962 0 0 0 0 68.840217025288439 -134.45308639145878 0 -134.45308639145878 286.26357428720803 0 0 0 0 -44.599688637186773 18.694913608575007 0 18.694913608575007 519.84827098161622 0 0 0 0 147.14781596607645 -67.930776913886803 0 -67.930776913886803 -74.668515739205759 0 0 0 0 67.752463494573021 -39.866954483572044 0 -39.866954483572044 -62.401191989400104 0 0 0 0 27.569642172602471 22.132796664373018 0 22.132796664373018 61.02985773596447 0 0 0 0 16.484308832586976 5.8870329891942674 0 5.8870329891942674 113.2347500018368 0 0 0 0 30.64454937147093 98.801235958730103 0 98.801235958730103 271.02094614658563 0 0 0 0 43.995960612475756 94.796427493041847 0 94.796427493041847 185.45250751002459 0 0 0 0 -18.163564448841498 -41.287025246019766 0 -41.287025246019766 125.73616790550295 0 0 0 0 147.59520155300561 178.78422896053235 0 178.78422896053235 181.60129185928963 0 0 0 0 158.3959935010862 173.60794744128361 0 173.60794744128361 156.71481987129664 0 0 0 0 105.00483085392625 113.73948474637291 0 113.73948474637291 146.22841236750901 0 0 0 0 96.310289837303571 130.83224713236268 0 130.83224713236268 149.53228490991751 0 0 0 0 226.84760254509456 213.52873399414239 0 213.52873399414239 153.37411010473443 0 0 0 0 159.4973889351968 140.06724553770619 0 140.06724553770619 89.120255789421208 0 0 0 0 54.018475100587239 55.784007435897365 0 55.784007435897365 115.61935410482693 0 0 0 0 165.98822685043342 196.77790563127382 0 196.77790563127382 196.79324134756462 0 0 0 0 183.23421941953711 151.99130692037579 0 151.99130692037579 102.9533412012388 0 0 0 0 497.02198900436633 469.27357776332065 0 469.27357776332065 -136.95037331763888 0 0 0 0 -256.27324284483984 -135.84080396507034 0 -135.84080396507034 -113.17932586022653 0 0 0 0 -16.178058731902055 20.096309755974875 0 20.096309755974875 -21.136860200569402 0 0 0 0 196.3870420238236 384.87727849717339 0 384.87727849717339 456.37459771554222 0 0 0 0 -182.60527472008835 94.539044419987476 0 94.539044419987476 -128.69999481363629 0 0 0 0 59.906878739784588 41.447325478889979 0 41.447325478889979 -150.32035157889914 0 0 0 0 -310.87601949675445 640.56138283125983 0 640.56138283125983 -103.80736722903384 0 0 0 0 -330.75131807042635 638.17459643495386 0 638.17459643495386 -94.262301013997785 0 0 0 0 -517.41113727177435 668.55031519704789 0 668.55031519704789 -99.161459181999817 0 0 0 0 -407.01188350989287 662.36482993172103 0 662.36482993172103 -117.47934541796712 0 0 0 0 -261.10148532480525 790.67504420308978 0 790.67504420308978 -170.62200333592773 0 0 0 0 -698.24804086098447 835.4090263618491 0 835.4090263618491 -221.12181489844806 0 0 0 0 -413.68626357447283 622.49523400265389 0 622.49523400265389 -328.26717584006838 0 0 0 0 -5.7575943426229941 7.4352625239339716 0 7.4352625239339716 -9.1238259040930814 0 0 0 0 -881.19771007519739 27.069620956768631 0 27.069620956768631 -49.462131733023853 0 0 0 0 -1499.5959094840509 1204.2811014716208 0 1204.2811014716208 -527.55148467254912 0 0 0 0 -2027.8126105297997 169.84994481551985 0 169.84994481551985 5.9020012172513816 0 0 0 0 731.31938066408838 666.62566342357786 0 666.62566342357786 -634.74694645493582 0 0 0 0 -1934.3899827245186 208.0366899320943 0 208.0366899320943 -323.20508652181888 0 0 0 0 -441.69255854271614 1266.8661370009759 0 1266.8661370009759 -933.68250545709452 0 0 0 0 -19.61352848282533 1.3718243384179232 0 1.3718243384179232 3.3212087576644791 0 0 0 0 -286.59789355410612 883.06957950784999 0 883.06957950784999 -1101.8105038942667 0 0 0 0 -26.750323065438351 68.544586274683752 0 68.544586274683752 6.2871086396771716 0 0 0 0 -321.39506983477622 404.16220196864742 0 404.16220196864742 -410.18955486836057 0 0 0 0 -9.45164780718099 7.530870044987239 0 7.530870044987239 6.0488292771341605 0 0 0 0 -447.32239543234755 535.42295421066956 0 535.42295421066956 -182.35217169971293 0 0 0 0 -430.69759929634165 489.1617106991398 0 489.1617106991398 -405.94815260275209 0 0 0 0 -489.94137445449735 751.54907041131901 0 751.54907041131901 -746.31371272011893 0 0 0 0 -491.1639219114586 664.86047076123214 0 664.86047076123214 -418.817048523837 0 0 0 0 -289.69192485726671 418.45375887965201 0 418.45375887965201 -688.19443870901159 0 0 0 0 -328.79209207558961 495.02372207231383 0 495.02372207231383 -818.06317023902375 0 0 0 0 -22.040197178806011 168.46279713624654 0 168.46279713624654 -378.74619354267634 0 0 0 0 -515.9383222029137 731.8289965975564 0 731.8289965975564 -1040.4123196573455 0 0 0 0 -0.38801274238451811 5.0031642939133008 0 5.0031642939133008 -2.1069581359884637 0 0 0 0 -25.948834957913988 2.9861294925921413 0 2.9861294925921413 4.1520976201430102 0 0 0 0 209.25779814351699 1138.4145696356136 0 1138.4145696356136 -1552.5408264134458 0 0 0 0 122.73422764980933 119.90722870577883 0 119.90722870577883 20.21787882146964 0 0 0 0 -531.52658711304321 699.54131042885456 0 699.54131042885456 -1107.1185798231018 0 0 0 0 -706.05009797473031 757.62578919450607 0 757.62578919450607 -356.25690181953951 0 0 0 0 -979.68050076887812 1187.4054355165426 0 1187.4054355165426 -1006.6621637448116 0 0 0 0 -887.30629842852795 1115.1597006021548 0 1115.1597006021548 -1324.7366893594155 0 0 0 0 -8.8514302143419172 1.6526972826906672 0 1.6526972826906672 -0.29907268977642332 0 0 0 0 -922.50946636724984 1585.7910604633253 0 1585.7910604633253 -2308.3370115848447 0 0 0 0 -563.42547004880907 184.42161998519805 0 184.42161998519805 1028.9925408200652 0 0 0 0 -1259.4384631117355 914.49640075125353 0 914.49640075125353 288.89535170687304 0 0 0 0 68.672970948027796 359.88604504844989 0 359.88604504844989 162.39432396265329 0 0 0 0 -81.90821239289653 325.07353181542567 0 325.07353181542567 163.61764257328105 0 0 0 0 -177.59036302769891 651.74695497503308 0 651.74695497503308 -342.54684991983231 0 0 0 0 -13.411556388666213 687.51898292659098 0 687.51898292659098 -234.9418739534085 0 0 0 0 -325.89581620207173 621.29006287308584 0 621.29006287308584 -241.59128902705561 0 0 0 0 -457.24526999297814 541.51985756443082 0 541.51985756443082 -91.022575579314434 0 0 0 0 -273.25114427022345 559.64082640509878 0 559.64082640509878 -284.56232873949193 0 0 0 0 -391.04013553119148 667.32804007754748 0 667.32804007754748 -210.97156381759851 0 0 0 0 -370.78663852027967 703.59656175042073 0 703.59656175042073 -496.48102354696312 0 0 0 0 -210.35911482215306 525.99330812529297 0 525.99330812529297 -502.19962601592852 0 0 0 0 -343.51916389731196 587.17478501735786 0 587.17478501735786 -366.5971379195762 0 0 0 0 -272.97080920465669 531.75578886386393 0 531.75578886386393 -348.70839660313504 0 0 0 0 -40.648641767198569 255.43760211634071 0 255.43760211634071 -402.92642996527775 0 0 0 0 -252.93221377882583 456.0027736375614 0 456.0027736375614 -516.8949193490771 0 0 0 0 7.0439274222735548 63.449082529295993 0 63.449082529295993 -423.47929223406118 0 0 0 0 -172.56369223237198 134.3205659505893 0 134.3205659505893 -38.201105258573079 0 0 0 0 143.32412464615481 -46.168184486639802 0 -46.168184486639802 -65.718279288144004 0 0 0 0 -63.442862689276808 -200.86387106678012 0 -200.86387106678012 315.90014840217555 0 0 0 0 -72.65246593253687 55.657099898166052 0 55.657099898166052 108.41696371542275 0 0 0 0 -230.70436012353457 218.13490341340002 0 218.13490341340002 -142.06433322980592 0 0 0 0 16.194241683719156 -56.872823447583869 0 -56.872823447583869 -63.310203554858163 0 0 0 0 10.453215277884738 83.23443066802065 0 83.23443066802065 3.3827155749945632 0 0 0 0 -72.054488254067564 40.313523188462113 0 40.313523188462113 9.1104834056168329 0 0 0 0 40.219226603039715 -8.2968646025910857 0 -8.2968646025910857 -4.8715531902125804 0 0 0 0 -4.2011560304358113 3.745248895442991 0 3.745248895442991 13.461438143113782 0 0 0 0 68.341589205898345 42.643064534352561 0 42.643064534352561 -4.3554797550896183 0 0 0 0 -4.9807196746332068 4.7799145353569656 0 4.7799145353569656 4.5794360814770982 0 0 0 0 590.38069527705375 475.75267485609402 0 475.75267485609402 192.97720562662289 0 0 0 0 112.28794122871477 88.90286406922678 0 88.90286406922678 267.36941841970111 0 0 0 0 82.880388412144384 167.08598523785622 0 167.08598523785622 128.29199077464727 0 0 0 0 -50.92828567516699 7.5374812979152921 0 7.5374812979152921 -37.230380515400611 0 0 0 0 -2.934589911558831 3.3404269237446016 0 3.3404269237446016 1.4546601785552298 0 0 0 0 -675.7130373492837 301.10043896072966 0 301.10043896072966 -15.665176281601134 0 0 0 0 842.78447813854291 552.21776416859393 0 552.21776416859393 -130.84879311888653 0 0 0 0 242.01703197965253 2.1150623659414123 0 2.1150623659414123 130.08402502626996 0 0 0 0 -103.80349779306562 46.032275605670293 0 46.032275605670293 -12.825923982745735 0 0 0 0 220.77368268078135 67.3795677520975 0 67.3795677520975 -60.56212280492764 0 0 0 0 -229.94776933205139 13.463496868462244 0 13.463496868462244 22.110049171744322 0 0 0 0 -25.191316700267635 -49.941481036294135 0 -49.941481036294135 -191.34453174387454 0 0 0 0 -15.710627089358056 26.271690438504638 0 26.271690438504638 -34.04133750483345 0 0 0 0 433.83933289631386 101.04632787418814 0 101.04632787418814 -2.8390713931730716 0 0 0 0 -279.57110530934006 -213.10182724683182 0 -213.10182724683182 -50.294341438901029 0 0 0 0 429.61586101248395 259.76069557198934 0 259.76069557198934 35.044559635396581 0 0 0 0 -173.3135245015219 -38.77131231803105 0 -38.77131231803105 274.8292418239871 0 0 0 0 -5.8093650243798152 3.2368808132819638 0 3.2368808132819638 1.1000785646202758 0 0 0 0 198.62092008205946 247.95324665591761 0 247.95324665591761 202.21754226777193 0 0 0 0 183.45414836399868 113.65528173653001 0 113.65528173653001 81.160826739738695 0 0 0 0 195.2851975436206 171.16647342235956 0 171.16647342235956 92.648059642888256 0 0 0 0 474.90828733850503 208.38838386254793 0 208.38838386254793 -44.637679034029134 0 0 0 0 -26.162308449780014 38.388712385702917 0 38.388712385702917 -43.925559874249387 0 0 0 0 -52.029751082183793 -62.044282504190051 0 -62.044282504190051 -209.37580780673306 0 0 0 0 248.21584511452238 -32.520560949284118 0 -32.520560949284118 65.183062426513061 0 0 0 0 197.02811537933303 168.43662806323846 0 168.43662806323846 170.64680053002667 0 0 0 0 13.210179440770673 -4.83717441432605 0 -4.83717441432605 -7.0617327721001573 0 0 0 0 981.25343119297759 390.99778764175426 0 390.99778764175426 -126.45686324959388 0 0 0 0 471.55723101367767 -294.84158110310091 0 -294.84158110310091 -331.47337436649832 0 0 0 0 -269.00386659777723 110.53225357494375 0 110.53225357494375 -42.3453717415141 0 0 0 0 66.495047769509256 221.64711411761527 0 221.64711411761527 30.328412108839984 0 0 0 0 -99.162943095616356 -8.0551038379689999 0 -8.0551038379689999 119.26202227706381 0 0 0 0 51.046825445228023 -59.458537780148617 0 -59.458537780148617 -48.715277444869571 0 0 0 0 296.93286114136572 349.15229905142041 0 349.15229905142041 236.66488463213682 0 0 0 0 247.54717981615249 86.517748220505382 0 86.517748220505382 90.369197277279454 0 0 0 0 51.76607585423335 97.113839351790375 0 97.113839351790375 147.76601205789484 0 0 0 0 419.56905719682982 358.68891579386764 0 358.68891579386764 185.21770912468128 0 0 0 0 220.09484807989793 260.89374862768454 0 260.89374862768454 173.57837490050588 0 0 0 0 671.39238668157486 79.401483476402063 0 79.401483476402063 200.12213133274054 0 0 0 0 108.50293970870553 143.905219408618 0 143.905219408618 558.17754139192402 0 0 0 0 518.99523495967151 586.11668688629288 0 586.11668688629288 219.44804600412317 0 0 0 0 833.3986276074429 -68.931247432328746 0 -68.931247432328746 48.793564244173467 0 0 0 0 434.15706078673975 426.5552088542172 0 426.5552088542172 485.69746527037933 0 0 0 0 1.1813269683824785 0.33841044422371169 0 0.33841044422371169 1.9600618051062781 0 0 0 0 -150.24186992673276 86.55033935539177 0 86.55033935539177 -28.697838807522203 0 0 0 0 15.671818681061268 368.31014662381494 0 368.31014662381494 21.793345822305128 0 0 0 0 103.42802803826635 19.842090587182611 0 19.842090587182611 219.85522271888476 0 0 0 0 -106.70669787519728 208.29155248071038 0 208.29155248071038 69.751656252643443 0 0 0 0 -357.96173097203427 -113.56567184789128 0 -113.56567184789128 61.107588494996889 0 0 0 0 -92.078806354038534 35.016694575147994 0 35.016694575147994 -219.3797626355954 0 0 0 0 -162.31678087676119 108.79925077284133 0 108.79925077284133 85.998298590318882 0 0 0 0 104.44163171351101 -5.5879630442086636 0 -5.5879630442086636 64.139111962897005 0 0 0 0 32.256264540596021 -74.16155286026833 0 -74.16155286026833 -14.503163943125401 0 0 0 0 -4.5981311469340653 2.6636046188279892 0 2.6636046188279892 -1.3374955031866023 0 0 0 0 -30.081023788501625 342.15273538589099 0 342.15273538589099 447.28302125834853 0 0 0 0 33.215109712211415 355.63082644160022 0 355.63082644160022 221.49683702034963 0 0 0 0 221.3928744779405 729.95559469633736 0 729.95559469633736 -82.306704133399762 0 0 0 0 11.22107310222782 127.34582657902502 0 127.34582657902502 412.12936240888666 0 0 0 0 49.043520843777515 137.94562559711267 0 137.94562559711267 64.551152560103219 0 0 0 0 -219.39202847053821 49.37855944711373 0 49.37855944711373 83.963529179702164 0 0 0 0 -22.408594531908847 39.601024906612693 0 39.601024906612693 -53.39544131687137 0 0 0 0 -65.362729877037054 25.235777848400176 0 25.235777848400176 170.1722180336692 0 0 0 0 -15.686196817146993 142.18616658786232 0 142.18616658786232 167.82872853091976 0 0 0 0 -3.618216112445225 11.487890810007229 0 11.487890810007229 -40.081037184985689 0 0 0 0 -24.484197410012712 174.12440755884018 0 174.12440755884018 182.31686173985509 0 0 0 0 3.9664033502376697 191.97758094766868 0 191.97758094766868 -44.34662689542165 0 0 0 0 136.36294028487464 96.209428919813945 0 96.209428919813945 20.489396363147534 0 0 0 0 32.437762051282334 151.36600233893114 0 151.36600233893114 64.388756834741798 0 0 0 0 -30.106943864957429 40.876465864232159 0 40.876465864232159 -13.987834216619376 0 0 0 0 91.424933002941543 51.302696224913234 0 51.302696224913234 277.38230695859238 0 0 0 0 198.11638577378471 255.90214643441141 0 255.90214643441141 259.51174165803241 0 0 0 0 -10.065151960441312 9.757861812209498 0 9.757861812209498 -5.1886167114209769 0 0 0 0 88.518645579448275 266.45072653903844 0 266.45072653903844 330.46715932330699 0 0 0 0 -9.6950894796973444 51.072159637416917 0 51.072159637416917 -60.639424197273911 0 0 0 0 111.42931337701157 68.507790772724547 0 68.507790772724547 210.26712887011672 0 0 0 0 -0.94705569512734655 89.616882039586926 0 89.616882039586926 -89.062020262135775 0 0 0 0 -62.935515832024976 193.96856707313418 0 193.96856707313418 -79.427180690021487 0 0 0 0 -1.1438797836017329 134.69741016987609 0 134.69741016987609 -218.53819390862191 0 0 0 0 -8.0204061994299991 -19.674082174460636 0 -19.674082174460636 -161.21505109861027 0 0 0 0 -25.617307422769954 396.28285645190044 0 396.28285645190044 -455.04080187133513 0 0 0 0 49.598400614049751 24.599096149984689 0 24.599096149984689 -610.13984034897294 0 0 0 0 -556.24611817891127 317.47799367550761 0 317.47799367550761 -3.2763625141524244 0 0 0 0 -200.70603697113984 145.72005043164972 0 145.72005043164972 70.741572006416391 0 0 0 0 140.84647426567972 60.768539963697549 0 60.768539963697549 -35.317540518502938 0 0 0 0 -47.606048380999709 173.19968001281813 0 173.19968001281813 -250.29818063205312 0 0 0 0 -70.106411475728237 171.4413769433595 0 171.4413769433595 41.792411478920258 0 0 0 0 37.979005245331791 56.575851933717786 0 56.575851933717786 5.858713823123253 0 0 0 0 91.739155133684108 136.37620604028052 0 136.37620604028052 103.31175844135578 0 0 0 0 198.02721123372157 101.35769513811556 0 101.35769513811556 47.579444920876995 0 0 0 0 47.880414017410658 61.873363095241075 0 61.873363095241075 83.110537587053841 0 0 0 0 -21.017166404613818 81.42327755898441 0 81.42327755898441 49.433709499222459 0 0 0 0 19.808213764350512 107.63327449603094 0 107.63327449603094 56.970204812278098 0 0 0 0 -48.437682346636393 145.31259865718039 0 145.31259865718039 -64.808859709533863 0 0 0 0 -51.424140796487336 124.01406053316896 0 124.01406053316896 -40.599334818325588 0 0 0 0 -31.540917313960279 38.166837816657257 0 38.166837816657257 -41.753148453433823 0 0 0 0 727.65621553102392 884.74852709108745 0 884.74852709108745 272.04124855751024 0 0 0 0 -22.985818978563813 30.355882445638457 0 30.355882445638457 -31.871787968864368 0 0 0 0 1006.3221391418738 775.56067227047242 0 775.56067227047242 423.67247545474311 0 0 0 0 671.04295970970998 489.12257965106983 0 489.12257965106983 327.83896471057642 0 0 0 0 725.56839390571986 489.84278658036237 0 489.84278658036237 173.15303591741394 0 0 0 0 735.14751035844529 304.01670084735451 0 304.01670084735451 -632.53801727217024 0 0 0 0 0.91206240175196218 362.15519636283176 0 362.15519636283176 622.68886017738259 0 0 0 0 -2.9029073998750619 5.6883342595026036 0 5.6883342595026036 -6.3235050095779854 0 0 0 0 715.93030683783581 1439.7704151303078 0 1439.7704151303078 -441.12148727674048 0 0 0 0 503.80755560103171 790.91404985092913 0 790.91404985092913 446.22971635004797 0 0 0 0 437.87988076618058 1036.6639738062531 0 1036.6639738062531 584.60618036593223 0 0 0 0 1.1115850558198872 1364.0854453742468 0 1364.0854453742468 940.77581337776064 0 0 0 0 84.130628925981 1514.5153140006259 0 1514.5153140006259 1381.1535394676976 0 0 0 0 1239.7271906067326 73.696168607537402 0 73.696168607537402 2281.5951959109807 0 0 0 0 4.3728813901233252 9.5603503202542868 0 9.5603503202542868 -0.26141438569113973 0 0 0 0 28.89268000049924 36.639392365577805 0 36.639392365577805 -29.31594828296511 0 0 0 0 0.77869160966431195 140.40616790968042 0 140.40616790968042 119.70971349164029 0 0 0 0 1398.7362918671133 1644.5014934371866 0 1644.5014934371866 1570.7441359441509 0 0 0 0 80.863129634031793 252.95328522991622 0 252.95328522991622 266.83324471833475 0 0 0 0 245.68563881922455 142.80564883112675 0 142.80564883112675 -48.164975352075999 0 0 0 0 38.516863020990058 247.30028314789888 0 247.30028314789888 616.67618469862646 0 0 0 0 -22.438586835822207 276.19940338762535 0 276.19940338762535 1766.8448794929982 0 0 0 0 2.3645012273045722 68.222843467920939 0 68.222843467920939 19.011160333320731 0 0 0 0 -4.2366087490278233 4.260067306145487 0 4.260067306145487 -3.4888088860464137 0 0 0 0 138.19917977754085 29.174008570280421 0 29.174008570280421 -97.33239680902625 0 0 0 0 -24.640531119483057 21.750608580099652 0 21.750608580099652 -59.285600208584583 0 0 0 0 33.442726106266491 1.6083886174310464 0 1.6083886174310464 -59.866345188987907 0 0 0 0 -91.788902182073798 94.866247908837977 0 94.866247908837977 -59.474539892951725 0 0 0 0 -33.238855919713387 76.862125988198386 0 76.862125988198386 -62.28604444838129 0 0 0 0 -6.6895301465580701 41.14048271402865 0 41.14048271402865 -30.238328784123823 0 0 0 0 35.647125664967461 137.30263293636381 0 137.30263293636381 408.39248090459296 0 0 0 0 -27.793406418355318 51.441659234598056 0 51.441659234598056 -46.232645959562319 0 0 0 0 2.6722452515275847 -0.20818799287209799 0 -0.20818799287209799 -0.5028888398579987 0 0 0 0 547.21129060717794 -43.179371346177504 0 -43.179371346177504 -402.58681303016289 0 0 0 0 159.51633632832818 236.75756608595839 0 236.75756608595839 254.31509494447528 0 0 0 0 169.86661162853125 179.36337019153507 0 179.36337019153507 -18.818071251123911 0 0 0 0 193.51474068247626 125.38022237749192 0 125.38022237749192 -108.91557872617705 0 0 0 0 211.20443650662492 194.42591746580729 0 194.42591746580729 -13.675888139121525 0 0 0 0 67.040071644193176 32.706876212624593 0 32.706876212624593 50.05577667565376 0 0 0 0 68.391859820010723 51.818464250460238 0 51.818464250460238 237.41332796838105 0 0 0 0 3.0728767466191584 3.8127114839892613 0 3.8127114839892613 -0.47557390372517938 0 0 0 0 -64.703503989934688 60.35263588289672 0 60.35263588289672 118.53716979256205 0 0 0 0 -117.3865761922134 40.750056236247474 0 40.750056236247474 114.67494770663325 0 0 0 0 -26.672676347148808 71.041279549441242 0 71.041279549441242 -126.33822095337382 0 0 0 0 -51.284599443926709 -27.917338360341091 0 -27.917338360341091 21.937706770491786 0 0 0 0 -289.96592333871376 509.44594845623942 0 509.44594845623942 -568.93860297604624 0 0 0 0 -25.272686695781886 576.07621348171233 0 576.07621348171233 -1099.007187433861 0 0 0 0 -282.94678422552533 18.898893639630842 0 18.898893639630842 104.56185832209553 0 0 0 0 -1365.4743404765904 1190.5055206939833 0 1190.5055206939833 -922.47979986345854 0 0 0 0 -406.53196584996476 419.66304722206405 0 419.66304722206405 -612.24970551962906 0 0 0 0 -853.04705160303274 1199.0080641594359 0 1199.0080641594359 -671.84455672271451 0 0 0 0 -753.85544665136922 967.81743863136217 0 967.81743863136217 -316.6467376860237 0 0 0 0 -727.43386587499117 707.88289443402391 0 707.88289443402391 -190.89576569271594 0 0 0 0 -786.61480320485134 933.40174535385086 0 933.40174535385086 -335.0229169604554 0 0 0 0 -114.97797231890581 34.486586776201875 0 34.486586776201875 15.14408952681697 0 0 0 0 -287.99850958449679 493.68519976263633 0 493.68519976263633 -389.98811158804165 0 0 0 0 -748.04867474052048 585.96932942506021 0 585.96932942506021 41.089791332116874 0 0 0 0 -1338.2799360526915 927.94139875348264 0 927.94139875348264 -137.11308895909315 0 0 0 0 -724.26451752908542 -73.54020206068526 0 -73.54020206068526 214.59541636271751 0 0 0 0 48.189968661521561 406.96626329921128 0 406.96626329921128 -86.885769916669233 0 0 0 0 -2521.3886172323982 592.07920481867041 0 592.07920481867041 57.066290191452936 0 0 0 0 -10.050894074633277 12.330306622219041 0 12.330306622219041 -12.954850579786608 0 0 0 0 -1758.4949081879004 1799.0415247543879 0 1799.0415247543879 -1073.1215754310178 0 0 0 0 1383.1487795074936 790.34504591160476 0 790.34504591160476 -1311.347832600004 0 0 0 0 14.060973691324762 1955.197038820068 0 1955.197038820068 -1419.1746695100519 0 0 0 0 -813.8653535882404 1024.5579478941509 0 1024.5579478941509 -480.17617083292862 0 0 0 0 -814.53045348812157 1023.0507060886375 0 1023.0507060886375 -440.57967240719154 0 0 0 0 -326.20162081590388 797.00037831492955 0 797.00037831492955 -2035.9622918365021 0 0 0 0 -472.35261402667675 730.37883025741758 0 730.37883025741758 -951.80568764454802 0 0 0 0 -387.92848063651763 800.41546001216375 0 800.41546001216375 -865.02279817520321 0 0 0 0 -189.64939744690491 418.14535398340377 0 418.14535398340377 -665.63278417743641 0 0 0 0 -159.81964207276178 49.543102795294544 0 49.543102795294544 -860.16438472980553 0 0 0 0 -612.13210585480192 539.44551694209076 0 539.44551694209076 -728.9646083949774 0 0 0 0 -244.5273270974576 271.58011333300965 0 271.58011333300965 -212.22119373481837 0 0 0 0 -216.75093810818362 267.26557249311008 0 267.26557249311008 -323.34283866707119 0 0 0 0 -264.80638818073203 -122.80915280769113 0 -122.80915280769113 -142.39366150983733 0 0 0 0 -1059.5562184428709 1439.1507464479146 0 1439.1507464479146 -1434.6054938979942 0 0 0 0 -864.54927210211463 196.39561441936894 0 196.39561441936894 -1143.5792009615652 0 0 0 0 -39.262409871022101 -59.68310317364012 0 -59.68310317364012 -298.0848477407053 0 0 0 0 42.163139324969961 152.05679427857831 0 152.05679427857831 -702.58448029003193 0 0 0 0 -334.66632941977878 596.92687065096834 0 596.92687065096834 -305.76522675977685 0 0 0 0 219.28529836215603 451.94953796692062 0 451.94953796692062 -924.23553795962289 0 0 0 0 242.59508849783742 564.69003770771087 0 564.69003770771087 -2746.8593300767816 0 0 0 0 -124.85498496845685 417.36117200207809 0 417.36117200207809 -3641.6782352672672 0 0 0 0 -510.89884493171485 537.74007585340587 0 537.74007585340587 -1842.0776851901028 0 0 0 0 -224.37600182028837 1354.5691450052173 0 1354.5691450052173 21.556109904297045 0 0 0 0 1193.1633877483036 731.34208190124627 0 731.34208190124627 -3653.1108185091216 0 0 0 0 -1.5200300535552174 7.1100259990312438 0 7.1100259990312438 -13.479305078486959 0 0 0 0 568.7951340255313 1682.4053506789314 0 1682.4053506789314 -2288.7539589915905 0 0 0 0 741.45627666098153 237.28634276581943 0 237.28634276581943 -71.695108151798195 0 0 0 0 170.58161143795951 505.63205450438363 0 505.63205450438363 432.68585804966278 0 0 0 0 397.04182601824868 269.44349940212123 0 269.44349940212123 505.41114824860415 0 0 0 0 870.42841163098637 426.45164012687383 0 426.45164012687383 171.07776121788629 0 0 0 0 -5.7442561968049688 13.296550071461056 0 13.296550071461056 -18.526261679380028 0 0 0 0 713.20049931888207 1308.1103554049496 0 1308.1103554049496 469.52899959223578 0 0 0 0 -160.37487209949177 512.73050966804658 0 512.73050966804658 802.51835019671125 0 0 0 0 -0.63520887477352517 654.64169535804103 0 654.64169535804103 142.16987225352568 0 0 0 0 -521.8115363170582 415.22396733212736 0 415.22396733212736 -1730.9607115644485 0 0 0 0 190.08559631321987 -3.4476250870175136 0 -3.4476250870175136 -1653.950119738045 0 0 0 0 338.14544001425384 1331.2658517865093 0 1331.2658517865093 -4433.126216164801 0 0 0 0 775.46257532457821 -475.80772749763491 0 -475.80772749763491 -1573.7813817285423 0 0 0 0 -12.452353692990897 11.860660466645705 0 11.860660466645705 -7.1956119422049944 0 0 0 0 1134.1597239822368 234.204874004472 0 234.204874004472 -5973.1270376983884 0 0 0 0 -97.809848230070202 1159.1215982402318 0 1159.1215982402318 1189.8639856065474 0 0 0 0 0.63721007027197629 200.41737749804088 0 200.41737749804088 -3520.6793828599184 0 0 0 0 -122.37043799545791 1480.0891263545236 0 1480.0891263545236 -1700.6053509924641 0 0 0 0 -0.71646495274762856 128.4992805008078 0 128.4992805008078 -334.69588523191123 0 0 0 0 -41.672952122258721 232.46006027655676 0 232.46006027655676 215.47102642052778 0 0 0 0 -49.864347501745215 104.67921409768314 0 104.67921409768314 621.50257317397518 0 0 0 0 278.29891788127134 68.756194802543178 0 68.756194802543178 308.66714025386318 0 0 0 0 24.130963090668956 166.91469545429027 0 166.91469545429027 32.059160143009649 0 0 0 0 21.482137252416578 33.721657309572038 0 33.721657309572038 307.62800673863239 0 0 0 0 7.3776885867482633 33.963673119284067 0 33.963673119284067 -76.214403695816145 0 0 0 0 77.316822385750129 214.93680760903044 0 214.93680760903044 232.96739425030319 0 0 0 0 -36.121126992568009 30.439846384360209 0 30.439846384360209 -11.730728979637369 0 0 0 0 -3.6968178204551805 248.81718274988816 0 248.81718274988816 589.38266645903059 0 0 0 0 60.879756662674481 401.145341627991 0 401.145341627991 695.95571330378698 0 0 0 0 326.49664596130606 368.36751794707016 0 368.36751794707016 422.91316414959147 0 0 0 0 4.7893532482266892 124.72082455499913 0 124.72082455499913 61.269959567280239 0 0 0 0 155.64686989282563 258.43554795088448 0 258.43554795088448 113.40406768787943 0 0 0 0 124.47493369779841 128.95633884179915 0 128.95633884179915 273.84828374918834 0 0 0 0 50.363321393268052 284.58742395727631 0 284.58742395727631 66.106964000373409 0 0 0 0 116.05530393690424 130.01327024314014 0 130.01327024314014 -139.07568563077803 0 0 0 0 63.371762130496791 175.70492509810356 0 175.70492509810356 -180.46834494546783 0 0 0 0 103.3019460629439 232.25269036587997 0 232.25269036587997 -266.64220946717614 0 0 0 0 -17.872495044881362 237.28168409025466 0 237.28168409025466 -71.907746923374361 0 0 0 0 87.031227655221301 238.01350144940443 0 238.01350144940443 -756.81636492358666 0 0 0 0 0.90172088281542528 -156.83578014927116 0 -156.83578014927116 -1009.1719207099995 0 0 0 0 -79.246906497297459 91.345598607153079 0 91.345598607153079 -305.205759051928 0 0 0 0 55.051144649332855 65.146375368317877 0 65.146375368317877 -544.61768058424786 0 0 0 0 102.39318892228766 141.72706730868231 0 141.72706730868231 -449.44610150050721 0 0 0 0 14.463144236855442 24.180920402657648 0 24.180920402657648 -467.31253703333823 0 0 0 0 80.562527466274332 90.589430133437418 0 90.589430133437418 -454.16121429688792 0 0 0 0 43.402669636969222 90.517685815533696 0 90.517685815533696 -366.53508408668131 0 0 0 0 79.591738112918392 225.58438707669302 0 225.58438707669302 -277.88223959760217 0 0 0 0 0.086951403041894082 106.73627420081903 0 106.73627420081903 -195.53412075335109 0 0 0 0 44.94620259475596 12.410479704057252 0 12.410479704057252 -215.23081592703966 0 0 0 0 -127.18123437450413 188.61401291875154 0 188.61401291875154 -330.09203890043864 0 0 0 0 -19.730500790181395 12.737201298417858 0 12.737201298417858 -342.72635567277393 0 0 0 0 0.13584666309642365 94.379629166991378 0 94.379629166991378 -422.41374291750617 0 0 0 0 263.08884939417476 73.825502850710109 0 73.825502850710109 -89.004897389198959 0 0 0 0 59.440734790041461 146.18965673427556 0 146.18965673427556 -113.64818578738232 0 0 0 0 -97.783759551632102 300.72925103213493 0 300.72925103213493 -79.687512261538359 0 0 0 0 -9.1967828569249832 138.32733994630689 0 138.32733994630689 203.77838012950087 0 0 0 0 -2.6237089956790101 -0.058410925435728345 0 -0.058410925435728345 -0.41162839756846381 0 0 0 0 52.146880215062993 28.338905209402583 0 28.338905209402583 32.128836133582809 0 0 0 0 -17.391719150124118 -70.334847475052811 0 -70.334847475052811 -643.66411607287228 0 0 0 0 69.361209164228057 -36.831744832030381 0 -36.831744832030381 -653.55977459710994 0 0 0 0 -6.380313382232373 3.4696877396570009 0 3.4696877396570009 0.38311414512747177 0 0 0 0 23.785582317330409 61.330196352610074 0 61.330196352610074 79.811411849044816 0 0 0 0 -47.893701030669035 -40.979439841128624 0 -40.979439841128624 -435.2108219803049 0 0 0 0 45.227941620600177 15.400116771033936 0 15.400116771033936 -612.22848056125804 0 0 0 0 -3.9875373250366124 0.74562244362657282 0 0.74562244362657282 5.3864886624581345 0 0 0 0 29.490702571719254 26.474584705038012 0 26.474584705038012 10.783142621676738 0 0 0 0 -4.7345106489592581 85.057501034129928 0 85.057501034129928 -5.9031876592816843 0 0 0 0 -23.704131521415547 63.09050336690234 0 63.09050336690234 29.816989271811508 0 0 0 0 5.1160102603171254 27.753604379927765 0 27.753604379927765 42.40809481436736 0 0 0 0 80.079019375707503 47.307394039763722 0 47.307394039763722 16.681070679194818 0 0 0 0 28.425686706759734 12.481794444920524 0 12.481794444920524 -6.7463974755664822 0 0 0 0 -11.94738537001831 78.022735830933016 0 78.022735830933016 -37.098212891629373 0 0 0 0 22.720270746502081 14.604388835389599 0 14.604388835389599 9.9131642949097696 0 0 0 0 41.317151274397474 203.00275676750357 0 203.00275676750357 -90.609041803605578 0 0 0 0 3.5514586760800739 57.224203546649733 0 57.224203546649733 -117.55778561400439 0 0 0 0 116.08614278595633 128.66309246510173 0 128.66309246510173 -72.765759899441036 0 0 0 0 -30.51374550518085 114.30687131655031 0 114.30687131655031 -12.087620490718109 0 0 0 0 8.4575678411239608 5.3976354155932995 0 5.3976354155932995 3.4858192459240911 0 0 0 0 605.51139352417522 29.337069045343014 0 29.337069045343014 -93.09784809879784 0 0 0 0 -80.775003885464685 321.73168670053838 0 321.73168670053838 710.63224127591457 0 0 0 0 -0.82393175394099671 652.28584440357099 0 652.28584440357099 697.77941715276393 0 0 0 0 648.24721656194743 497.93153720324699 0 497.93153720324699 113.31815075095074 0 0 0 0 0.41946674773227105 222.37504003026399 0 222.37504003026399 59.441991970033996 0 0 0 0 8.2695400140401034 25.035565343170219 0 25.035565343170219 10.10217359969829 0 0 0 0 -9.5844525021802838 10.273911759603664 0 10.273911759603664 -12.678211805844398 0 0 0 0 154.80351111351047 7.4083645984865143 0 7.4083645984865143 -49.948561182853155 0 0 0 0 148.58543255839095 147.55160100327038 0 147.55160100327038 50.545613160244102 0 0 0 0 143.83616009498655 -1.878937701585528 0 -1.878937701585528 -67.400064380009098 0 0 0 0 103.43987240125716 49.494302465711371 0 49.494302465711371 -79.711171452982853 0 0 0 0 9.7782521668850677 96.543913407389482 0 96.543913407389482 -85.399554423762311 0 0 0 0 96.256378269114066 37.699337583275337 0 37.699337583275337 -63.461256837115798 0 0 0 0 -4.6043181066779653 52.649957199815617 0 52.649957199815617 123.9794760977893 0 0 0 0 -3.6638390120913868 3.7101713296693077 0 3.7101713296693077 -4.1682022572178354 0 0 0 0 -232.21062065234582 343.54233204010961 0 343.54233204010961 68.043725288674068 0 0 0 0 -105.74909170084356 309.13173732297082 0 309.13173732297082 -181.1478444416498 0 0 0 0 -132.51312895413139 193.83481547209885 0 193.83481547209885 -31.593378106686941 0 0 0 0 -41.346825437969528 -129.03776769867 0 -129.03776769867 -250.85121423589885 0 0 0 0 95.655801413027802 -5.4930576853057573 0 -5.4930576853057573 -259.80107492635261 0 0 0 0 65.957515349218738 65.945222742991973 0 65.945222742991973 -94.05306867568288 0 0 0 0 87.563698769365146 15.048131045099581 0 15.048131045099581 -168.05533072547769 0 0 0 0 34.482777059565706 58.416942171189476 0 58.416942171189476 -123.87983461116073 0 0 0 0 20.918498070532223 14.452442709753996 0 14.452442709753996 -115.47684519230506 0 0 0 0 40.004696437339589 4.1784934273482577 0 4.1784934273482577 -121.23753847606895 0 0 0 0 70.362396687094588 10.716346198194515 0 10.716346198194515 -2.3896051334404547 0 0 0 0 261.65018074339605 64.542365133813291 0 64.542365133813291 -63.170305776806345 0 0 0 0 -6.280585593545112 22.166610929592224 0 22.166610929592224 -16.091843016079991 0 0 0 0 15.945339806843549 35.038395280051191 0 35.038395280051191 4.5613089534272149 0 0 0 0 8.5571953826788842 5.4233866385052174 0 5.4233866385052174 1.4780998619644379 0 0 0 0 81.792284191447834 21.866060085518257 0 21.866060085518257 -102.54457505508981 0 0 0 0 74.892663668129671 94.743790860041884 0 94.743790860041884 -23.876852437359048 0 0 0 0 12.560990664918791 17.585773675151358 0 17.585773675151358 4.4638013610856433 0 0 0 0 25.55231236265692 15.938778229032124 0 15.938778229032124 -5.3197953228278365 0 0 0 0 -5.1257615299102213 15.737769249365741 0 15.737769249365741 3.9526521801083447 0 0 0 0 15.808947855970473 54.214739459564043 0 54.214739459564043 -4.4813995678232459 0 0 0 0 18.659878483457248 11.25613233657487 0 11.25613233657487 -3.0737064208437737 0 0 0 0 53.547189994293149 60.965330860733957 0 60.965330860733957 -257.22641940337417 0 0 0 0 53.829437290332862 92.274189414994908 0 92.274189414994908 -298.42737827006204 0 0 0 0 62.329857005155645 67.360591795626533 0 67.360591795626533 -253.770972939692 0 0 0 0 43.584624902171527 3.7429561314045259 0 3.7429561314045259 -386.179196291072 0 0 0 0 41.668960337497907 17.536734722204656 0 17.536734722204656 4.3271254861102619 0 0 0 0 170.41420802424545 138.8122069050296 0 138.8122069050296 8.3387809045780159 0 0 0 0 25.623653202361311 71.52604853781304 0 71.52604853781304 -90.543240625906037 0 0 0 0 30.93177759408718 64.440353131183656 0 64.440353131183656 -218.71108007388102 0 0 0 0 67.183354715874884 132.28220208949642 0 132.28220208949642 -185.98654717880709 0 0 0 0 -16.753863211662974 174.75177625141077 0 174.75177625141077 -100.91744805352891 0 0 0 0 -13.805541469584568 7.5981482074639644 0 7.5981482074639644 -56.359232387985685 0 0 0 0 -12.647551834728802 -8.1248820307337155 0 -8.1248820307337155 -24.444295173441787 0 0 0 0 0.52695563979796134 -11.661525913536025 0 -11.661525913536025 -66.2679129992448 0 0 0 0 0.70187795156778066 -0.72760823362739657 0 -0.72760823362739657 0.35211222525641617 0 0 0 0 0.90044645787617128 -2.3953533116890178 0 -2.3953533116890178 1.214304576570381 0 0 0 0 89.22325749429001 -71.529185431001679 0 -71.529185431001679 -142.3545370527936 0 0 0 0 -126.0872593097447 272.99256588021672 0 272.99256588021672 297.59403179089895 0 0 0 0 13.256306837822194 90.760277813302309 0 90.760277813302309 189.71863534257136 0 0 0 0 1.5260551778628724 61.649485474223184 0 61.649485474223184 -38.642682748479274 0 0 0 0 0.45658449899113407 -1.0377356363079926 0 -1.0377356363079926 0.38830384198651302 0 0 0 0 17.276052730056108 -7.6783155503799208 0 -7.6783155503799208 -48.510493991980184 0 0 0 0 155.00176085907151 -61.20176322174666 0 -61.20176322174666 -75.191141673905804 0 0 0 0 151.59633899897744 55.31175326473749 0 55.31175326473749 -122.61126231815069 0 0 0 0 56.026770651764309 53.074956153660423 0 53.074956153660423 9.2625620353937848 0 0 0 0 360.72060809767572 -220.84378991978883 0 -220.84378991978883 48.62390332864652 0 0 0 0 -3.2187808238959406 9.0905900723464583 0 9.0905900723464583 5.075296487299056 0 0 0 0 40.766716743710276 39.910188324319279 0 39.910188324319279 -10.359433291516325 0 0 0 0 -0.80097976616525557 -23.358444942743517 0 -23.358444942743517 -42.519850179218338 0 0 0 0 14.973554990909179 18.8710820499291 0 18.8710820499291 -29.406472755648792 0 0 0 0 25.469796705772751 -9.3721067067708645 0 -9.3721067067708645 -24.405949499168969 0 0 0 0 -61.397050085390219 6.1677264058125729 0 6.1677264058125729 4.0081146768425242 0 0 0 0 37.347621306390039 20.117644522214974 0 20.117644522214974 4.0143838324240093 0 0 0 0 -244.85200881806668 95.203030631608272 0 95.203030631608272 6.12934804764609 0 0 0 0 -3.172073659945454 168.21791932389624 0 168.21791932389624 -105.46399221500906 0 0 0 0 -48.201829379569972 195.78035305370213 0 195.78035305370213 -60.609728309784259 0 0 0 0 6.6278709208443161 8.5931094566891346 0 8.5931094566891346 -1.6674362164317813 0 0 0 0 -258.58138943761514 304.95122898140585 0 304.95122898140585 -116.40439945743128 0 0 0 0 51.701463560995762 66.984943516028125 0 66.984943516028125 -110.71257304094252 0 0 0 0 36.971227374138834 4.2327405234245816 0 4.2327405234245816 -282.76779328509656 0 0 0 0 122.51911236479646 202.13562520514097 0 202.13562520514097 -270.49924805580667 0 0 0 0 89.528580549369508 153.74208897964309 0 153.74208897964309 -276.39096136551962 0 0 0 0 91.187204553512856 161.9179376043121 0 161.9179376043121 -319.43666946896701 0 0 0 0 106.59136625277461 166.59041077423899 0 166.59041077423899 -278.39485513201726 0 0 0 0 136.95551255908504 198.11415501273223 0 198.11415501273223 -241.39314988539081 0 0 0 0 49.483592494652839 174.35897394631684 0 174.35897394631684 -230.83075992111117 0 0 0 0 87.173640792345395 188.62175086852585 0 188.62175086852585 -229.43226732417679 0 0 0 0 48.890064803166752 182.51058814117641 0 182.51058814117641 -137.24617745995783 0 0 0 0 119.46579245710745 280.36283002881828 0 280.36283002881828 -240.94959565467434 0 0 0 0 -50.678613143711118 262.02388348895693 0 262.02388348895693 -177.25448856542062 0 0 0 0 251.56084754703625 144.84234969956378 0 144.84234969956378 -402.58202909348893 0 0 0 0 133.40949096124677 17.256908911349456 0 17.256908911349456 73.93398582912414 0 0 0 0 -47.256288962751569 388.10069499506608 0 388.10069499506608 -304.15986875521048 0 0 0 0 122.88642230231198 141.53383086155736 0 141.53383086155736 -177.41662339409595 0 0 0 0 104.15298756730044 191.49056151422337 0 191.49056151422337 -204.00685972498468 0 0 0 0 131.401945073565 210.30082089627103 0 210.30082089627103 -197.00893652350351 0 0 0 0 24.522082219540607 201.8456556138226 0 201.8456556138226 246.50564244335692 0 0 0 0 -0.63700086307653692 134.49950376291963 0 134.49950376291963 193.46484281720586 0 0 0 0 -24.531626037205569 159.22637394394405 0 159.22637394394405 294.36585027356705 0 0 0 0 -54.746776814121461 37.637846427895155 0 37.637846427895155 -12.586402325674189 0 0 0 0 -26.876354051215458 221.43243596719367 0 221.43243596719367 361.44155948204207 0 0 0 0 -12.086061596717627 201.69062533876286 0 201.69062533876286 152.4757560944854 0 0 0 0 18.813477639472694 202.54665989664318 0 202.54665989664318 -195.76625783694544 0 0 0 0 -25.068010570448905 184.56397524035228 0 184.56397524035228 -84.499226256273687 0 0 0 0 -415.21508988112328 45.96340654422329 0 45.96340654422329 563.30021046777983 0 0 0 0 -2.0891675530788802 11.380360659481397 0 11.380360659481397 -12.511030342948494 0 0 0 0 -367.20147277526848 132.80322532046193 0 132.80322532046193 506.07205310481368 0 0 0 0 -64.135604020351963 39.05981778035995 0 39.05981778035995 -11.077682302245357 0 0 0 0 -218.30526453568018 -104.47977688666288 0 -104.47977688666288 235.4129324073001 0 0 0 0 86.608410420223663 85.905121729701932 0 85.905121729701932 -24.886075788454036 0 0 0 0 -35.936104069580324 153.39097690500057 0 153.39097690500057 -100.46305348722672 0 0 0 0 -8.3570011800262023 9.9205549659413634 0 9.9205549659413634 -12.536772920724275 0 0 0 0 -141.82816043177081 -84.401921650855002 0 -84.401921650855002 337.55514537399722 0 0 0 0 -51.640473290295574 37.516666695358019 0 37.516666695358019 -11.768058779065385 0 0 0 0 3.1644504534051521 62.121243121046064 0 62.121243121046064 -105.23236575288684 0 0 0 0 -41.830365158612892 39.644368572494926 0 39.644368572494926 -8.2299561360598084 0 0 0 0 -6.0804067806457169 120.9499035779736 0 120.9499035779736 -40.372754177261413 0 0 0 0 -107.8098009735113 120.8001977027925 0 120.8001977027925 115.04553768913684 0 0 0 0 22.351599733300048 13.391932923896064 0 13.391932923896064 -8.7776022443370749 0 0 0 0 0.22088473610736514 -2.0054180375606876 0 -2.0054180375606876 0.91082636910940096 0 0 0 0 -11.139126607391518 221.96529026436474 0 221.96529026436474 -321.02057853274164 0 0 0 0 -67.492956542282627 -64.022486700035643 0 -64.022486700035643 -90.555535687577503 0 0 0 0 -184.40474815088965 198.73554316685477 0 198.73554316685477 -27.028157063599792 0 0 0 0 -38.592985982249957 -98.410793566195935 0 -98.410793566195935 62.934265135742862 0 0 0 0 50.498657686941442 53.595596956980444 0 53.595596956980444 33.186018428299576 0 0 0 0 -133.6699183814635 -57.258255584776634 0 -57.258255584776634 -3.6505069296299553 0 0 0 0 44.289857179479441 52.522804929911217 0 52.522804929911217 -43.934084650470595 0 0 0 0 18.259668402999523 167.80052749638708 0 167.80052749638708 -78.994802051936858 0 0 0 0 14.064710081375182 12.722937625578851 0 12.722937625578851 12.529769509405014 0 0 0 0 12.989885655260878 29.822364908104646 0 29.822364908104646 -117.19172882603016 0 0 0 0 36.510152188984648 -37.031267910327642 0 -37.031267910327642 41.247765627478657 0 0 0 0 -38.264699465464219 118.51704438471734 0 118.51704438471734 58.469367009431153 0 0 0 0 52.790834959530912 38.420534164188211 0 38.420534164188211 11.047093394430703 0 0 0 0 -37.611364767406485 42.301040025307884 0 42.301040025307884 -42.255703382691536 0 0 0 0 -32.964581009595406 12.692251402341647 0 12.692251402341647 0.013528053424685993 0 0 0 0 14.853515297761049 27.089216265195418 0 27.089216265195418 6.4913576073998769 0 0 0 0 -7.9652545536737307 21.358534599177801 0 21.358534599177801 -51.201295931627101 0 0 0 0 -36.589820237131789 54.355178890236857 0 54.355178890236857 -51.847009434073698 0 0 0 0 -15.047473213722697 28.861354351036425 0 28.861354351036425 -101.58707304274139 0 0 0 0 -76.001029541963362 110.29487808038175 0 110.29487808038175 -89.458248301864842 0 0 0 0 -57.717822901620821 121.49081838565507 0 121.49081838565507 -103.92867765107803 0 0 0 0 -70.005874132286408 102.06484306626589 0 102.06484306626589 -79.438022517872014 0 0 0 0 -100.47143122403941 136.49050067743519 0 136.49050067743519 -23.424337177970301 0 0 0 0 -111.11974996783829 173.77458479302368 0 173.77458479302368 -109.96390334256148 0 0 0 0 -71.246844752240577 53.286744583863765 0 53.286744583863765 -17.697775552012899 0 0 0 0 -63.451467120525194 30.411727156955749 0 30.411727156955749 16.030993972104625 0 0 0 0 -76.497105121627101 75.202537152516015 0 75.202537152516015 -32.205077550979695 0 0 0 0 0.78884933903464116 37.535132961882482 0 37.535132961882482 -27.949369788206241 0 0 0 0 29.483742686148616 19.829265949136243 0 19.829265949136243 -27.323494708678481 0 0 0 0 -18.189220027808915 23.409909151454485 0 23.409909151454485 -19.833730619082417 0 0 0 0 40.474473434413085 30.686266503376828 0 30.686266503376828 -9.0176858104532585 0 0 0 0 -1.0203319028041733 39.415503866141989 0 39.415503866141989 -5.8674835114579764 0 0 0 0 28.149314630180015 50.294128657687907 0 50.294128657687907 -3.7601614530794905 0 0 0 0 -2.4389133067832915 12.017228376839455 0 12.017228376839455 -3.8132528874273675 0 0 0 0 63.635607505013468 61.887677445853114 0 61.887677445853114 -6.7550629054035198 0 0 0 0 36.669296846206691 15.660999087280402 0 15.660999087280402 1.2355235034745249 0 0 0 0 -9.1848759506392526 20.264476396401733 0 20.264476396401733 -30.355873350745242 0 0 0 0 11.611130599776516 35.524218745020335 0 35.524218745020335 -38.670072915374476 0 0 0 0 -32.758466322821477 25.751801577008365 0 25.751801577008365 -8.3687016018519458 0 0 0 0 -20.047728797013406 52.366468180578522 0 52.366468180578522 21.739881872883416 0 0 0 0 -11.003968548839069 6.8866737985188564 0 6.8866737985188564 8.4879899060448309 0 0 0 0 457.43299839133397 404.8502684199193 0 404.8502684199193 255.60490020953148 0 0 0 0 1068.4565731020411 998.03358955204385 0 998.03358955204385 356.08396564141731 0 0 0 0 -4.2791286167484941 46.637917961663334 0 46.637917961663334 -1.8402413938238169 0 0 0 0 -28.153403456771244 32.780951531231963 0 32.780951531231963 -14.208571551249918 0 0 0 0 -24.245215460066362 39.62349668294447 0 39.62349668294447 -34.834917015727555 0 0 0 0 -8.9962151157904913 7.5489165086829004 0 7.5489165086829004 11.661229572228052 0 0 0 0 -12.922889388177282 -54.936897183979909 0 -54.936897183979909 -306.10802954954852 0 0 0 0 -5.4984660821646685 19.452001261704027 0 19.452001261704027 -93.333312462229514 0 0 0 0 -33.21808745614544 190.8484201899555 0 190.8484201899555 -206.9326973996358 0 0 0 0 13.288037263337173 98.164524564344902 0 98.164524564344902 -96.047626373561798 0 0 0 0 -190.74309642742446 135.12302777866716 0 135.12302777866716 -63.029060518587357 0 0 0 0 -163.13723156666674 26.803829946955375 0 26.803829946955375 128.78707886284974 0 0 0 0 1.4519950669312038 6.5631085170023198 0 6.5631085170023198 -14.807245409807713 0 0 0 0 6.248264000605559 48.737743186393345 0 48.737743186393345 -316.03448022235534 0 0 0 0 -28.399580605806406 47.571287299212507 0 47.571287299212507 -58.818428041894492 0 0 0 0 4.32065981629421 108.44070927573193 0 108.44070927573193 -163.16232334140659 0 0 0 0 -145.64242654776899 -41.14344935814006 0 -41.14344935814006 -23.335521929602692 0 0 0 0 145.45255061367061 210.69542609308701 0 210.69542609308701 277.99331177810382 0 0 0 0 120.36587162441356 314.00977666603558 0 314.00977666603558 408.87323380615999 0 0 0 0 -32.527423906125478 335.47285517035198 0 335.47285517035198 410.57890543619942 0 0 0 0 128.42096802734886 317.59446813257819 0 317.59446813257819 293.70733322078013 0 0 0 0 149.73691675488953 187.63754511500883 0 187.63754511500883 378.53621136428046 0 0 0 0 91.382091778723407 157.04938983721877 0 157.04938983721877 412.02158228588087 0 0 0 0 -56.865461816225434 111.08792830294988 0 111.08792830294988 -199.67911214042397 0 0 0 0 234.56436508515617 344.41684469002212 0 344.41684469002212 -881.25847334082937 0 0 0 0 -3.7936703783129815 -3.9227600120751234 0 -3.9227600120751234 2.8075897135474008 0 0 0 0 161.5539117991284 513.39357395998741 0 513.39357395998741 670.03545313184804 0 0 0 0 -67.285379128428758 92.531756868225784 0 92.531756868225784 -30.366484979567758 0 0 0 0 344.36999980499968 450.51714869133866 0 450.51714869133866 -303.83145638192946 0 0 0 0 -110.22391121902911 220.9617086310609 0 220.9617086310609 232.55575958582631 0 0 0 0 370.67484819324454 433.1264322581992 0 433.1264322581992 -372.66929032096232 0 0 0 0 100.7062014330877 386.65653627021675 0 386.65653627021675 129.68883177888347 0 0 0 0 -2.0200504770176053 6.3708092125497444 0 6.3708092125497444 4.7497688753009299 0 0 0 0 -3.1171773392125033 -20.503433238929574 0 -20.503433238929574 -260.70141022495227 0 0 0 0 289.85287579041324 166.12048695210069 0 166.12048695210069 -50.509468565302086 0 0 0 0 52.664322204131167 188.56039004196646 0 188.56039004196646 -340.07426829210817 0 0 0 0 -21.241688194062988 4.3836676199036582 0 4.3836676199036582 -1.2218835879253938 0 0 0 0 116.48174872984237 87.350589618770755 0 87.350589618770755 204.1472372003791 0 0 0 0 -72.738752930141345 124.52073697483138 0 124.52073697483138 317.21133544063923 0 0 0 0 -35.864155492014106 140.43125751892057 0 140.43125751892057 -207.80224850845116 0 0 0 0 -15.575288206986443 52.397706637626925 0 52.397706637626925 -279.37874786549219 0 0 0 0 9.5292781767057022 247.0948267001404 0 247.0948267001404 -202.01126248371429 0 0 0 0 -76.986652458429489 219.92316889578842 0 219.92316889578842 -50.835069597167603 0 0 0 0 -76.10313249801402 211.19504331739154 0 211.19504331739154 -73.430295625614235 0 0 0 0 -37.511043999693356 186.83657618760299 0 186.83657618760299 -99.01784629503527 0 0 0 0 69.101643514586613 260.41724241632619 0 260.41724241632619 -319.43642547637501 0 0 0 0 -23.752095344087138 -1.8142899905346894 0 -1.8142899905346894 -492.22670531651966 0 0 0 0 -56.325093635110534 120.03395127161093 0 120.03395127161093 -224.91486290233433 0 0 0 0 18.987825274911302 245.62303399244411 0 245.62303399244411 560.48329736938467 0 0 0 0 -7.4153970980654549 0.19102307768095628 0 0.19102307768095628 0.13149335442303212 0 0 0 0 149.14836701452441 158.04009810051866 0 158.04009810051866 -939.15560440157788 0 0 0 0 -46.710740776657985 571.99134031525432 0 571.99134031525432 481.79320075630676 0 0 0 0 -242.06766754644923 357.00651906046733 0 357.00651906046733 -318.63638073606853 0 0 0 0 -160.43658407559997 -239.09024578137996 0 -239.09024578137996 -480.87207999835664 0 0 0 0 -28.010040148019471 68.585258874424653 0 68.585258874424653 -134.54999833594047 0 0 0 0 244.44478352095757 101.28960866067064 0 101.28960866067064 -151.96372248439366 0 0 0 0 73.97379787475802 221.27944484775799 0 221.27944484775799 -356.27106954850842 0 0 0 0 234.74199066479923 58.901335690032283 0 58.901335690032283 -101.16721893559225 0 0 0 0 454.78939086321043 -187.98307363738968 0 -187.98307363738968 -61.206822954542986 0 0 0 0 249.47613631358013 74.141432588448481 0 74.141432588448481 -163.23408754247794 0 0 0 0 -55.036356951124617 45.124601412118864 0 45.124601412118864 158.68830231395987 0 0 0 0 204.08084346278338 257.37854846631308 0 257.37854846631308 145.78155383156263 0 0 0 0 150.33829230030824 -85.420164543744249 0 -85.420164543744249 -347.79974597707042 0 0 0 0 240.9367889041896 182.7372464127111 0 182.7372464127111 -178.38108084068517 0 0 0 0 354.22628014314978 92.137679507963185 0 92.137679507963185 -314.85723596269963 0 0 0 0 369.66933729228913 531.82023967960413 0 531.82023967960413 -361.2080822971875 0 0 0 0 324.24035077200097 626.77358277591702 0 626.77358277591702 791.04234344893484 0 0 0 0 405.46054862460005 300.62639412130375 0 300.62639412130375 -58.738745889459096 0 0 0 0 3.0145590173111287 3.391437108483359 0 3.391437108483359 3.4723966330214182 0 0 0 0 -77.443681321274198 142.70781034425727 0 142.70781034425727 -41.46298328681587 0 0 0 0 -123.63049287546892 119.64613316540454 0 119.64613316540454 287.71383407473331 0 0 0 0 10.416688513672852 34.197356044377557 0 34.197356044377557 -31.212720270665159 0 0 0 0 7.7546160357665173 9.0910322523118907 0 9.0910322523118907 12.669532343362405 0 0 0 0 159.62374662769435 19.121872921141403 0 19.121872921141403 8.1536501837654214 0 0 0 0 153.70289608459279 58.825264744556989 0 58.825264744556989 109.16278528358271 0 0 0 0 243.53440597505687 130.02550761680141 0 130.02550761680141 -13.428799687775609 0 0 0 0 918.64106818424625 -28.851552186344634 0 -28.851552186344634 29.397039316299924 0 0 0 0 31.668981126145809 124.3447477794216 0 124.3447477794216 643.5470506312231 0 0 0 0 -43.208280783888767 113.21678900990082 0 113.21678900990082 130.28196637532983 0 0 0 0 64.808858321222942 -4.0267967877061892 0 -4.0267967877061892 -30.972898576474108 0 0 0 0 89.257928895356599 37.408794373397541 0 37.408794373397541 30.397702857058903 0 0 0 0 188.06506893163896 222.92873247625721 0 222.92873247625721 -96.186846026303101 0 0 0 0 -0.23913372449169401 280.0257617167008 0 280.0257617167008 69.302674566719361 0 0 0 0 -39.296139411504555 204.70641326275836 0 204.70641326275836 -75.728180569691176 0 0 0 0 -95.086937559106445 254.09850126544734 0 254.09850126544734 -42.899651761625137 0 0 0 0 -44.643614392326072 141.66301980235494 0 141.66301980235494 -115.01650140033598 0 0 0 0 -65.300855583271186 102.60711600719333 0 102.60711600719333 -68.652350668962754 0 0 0 0 15.757440365452567 -1.8621865016477841 0 -1.8621865016477841 -2.9696955888066441 0 0 0 0 17.466683460472268 -2.9808111791844567 0 -2.9808111791844567 -256.05247200238227 0 0 0 0 -21.065596463478869 -41.115878780214189 0 -41.115878780214189 -136.38302724421737 0 0 0 0 48.550552469976537 -38.220364262843759 0 -38.220364262843759 -138.25280671879955 0 0 0 0 44.468136626979685 -58.75912144981362 0 -58.75912144981362 -194.7606417965726 0 0 0 0 14.181489829497878 16.303362598760941 0 16.303362598760941 -9.747120292684599 0 0 0 0 17.316333925913995 15.293557181846044 0 15.293557181846044 3.1274174368981789 0 0 0 0 117.40880726432079 -29.115445255089071 0 -29.115445255089071 -190.5581781198598 0 0 0 0 64.035593317239545 -103.74659919034093 0 -103.74659919034093 -168.90489864601295 0 0 0 0 66.103442313542473 -136.41613616329823 0 -136.41613616329823 120.10056958365021 0 0 0 0 805.68033624808595 -3.5888782070815068 0 -3.5888782070815068 -171.87523390785282 0 0 0 0 -79.527063461620855 199.26960667666845 0 199.26960667666845 -215.52389515171672 0 0 0 0 236.98830362466106 -304.71846433822247 0 -304.71846433822247 -364.52532622352737 0 0 0 0 62.791128873822714 27.0421136543203 0 27.0421136543203 1.8812702859429531 0 0 0 0 -2.0988813278672751 180.38750015908226 0 180.38750015908226 -505.795603865472 0 0 0 0 16.626724426931077 8.7139685985546294 0 8.7139685985546294 -11.268036912948517 0 0 0 0 39.254032469121739 -71.802956795178034 0 -71.802956795178034 -331.34064317864977 0 0 0 0 341.68200611720385 71.756758942541637 0 71.756758942541637 -473.52229233576873 0 0 0 0 59.082487741827208 38.982983004305424 0 38.982983004305424 -0.65328776897786156 0 0 0 0 41.790715503877436 207.15741643547699 0 207.15741643547699 -104.89516775661832 0 0 0 0 186.88638754894782 441.02005382051357 0 441.02005382051357 156.95711023212789 0 0 0 0 10.979751414095517 16.966006135673524 0 16.966006135673524 -11.756729099627591 0 0 0 0 -217.73485807259567 8.6109890493462444 0 8.6109890493462444 -25.945742129755672 0 0 0 0 -9.2117230827316519 4.5131361876542542 0 4.5131361876542542 -2.3329075389077474 0 0 0 0 -1.0908393668571819 -0.072893343936701882 0 -0.072893343936701882 -0.67976976355661733 0 0 0 0 107.13594270856265 24.579161939713231 0 24.579161939713231 -26.405835100231343 0 0 0 0 -143.33364700732636 -280.83332200666337 0 -280.83332200666337 -209.72884552834148 0 0 0 0 223.18814180663321 -329.94995234705857 0 -329.94995234705857 -602.67617668162711 0 0 0 0 358.48964571970282 114.88584866935707 0 114.88584866935707 -1644.4210184963013 0 0 0 0 -162.63550358900102 1.868772671368788 0 1.868772671368788 -293.10220744981052 0 0 0 0 10.755739501451899 -10.791269822315371 0 -10.791269822315371 -172.8151558886675 0 0 0 0 -47.705496473936364 89.143401925339276 0 89.143401925339276 -240.89937182428548 0 0 0 0 -8.3038799156347523 0.42221698745925096 0 0.42221698745925096 -0.94204814074691967 0 0 0 0 54.371501299196098 70.977269400240402 0 70.977269400240402 -160.70001176417281 0 0 0 0 -1.0463542308425531 -17.498618921801608 0 -17.498618921801608 -14.303855582274991 0 0 0 0 47.592117626805702 12.09040147201631 0 12.09040147201631 34.474806026395527 0 0 0 0 -8.1412997230945621 50.282794096397993 0 50.282794096397993 93.848560260066733 0 0 0 0 60.322132818459067 127.61733187334539 0 127.61733187334539 38.207552253705217 0 0 0 0 -12.757080758279699 59.54516989347303 0 59.54516989347303 -8.7631783573378925 0 0 0 0 -16.325059006383526 70.25970517139649 0 70.25970517139649 57.254303145156882 0 0 0 0 -150.19000136584509 71.849320536628511 0 71.849320536628511 18.335201497506205 0 0 0 0 -124.21741568294237 85.644532247968527 0 85.644532247968527 -0.10145620627736207 0 0 0 0 -296.38454325655766 87.157787522577564 0 87.157787522577564 56.545477366955311 0 0 0 0 -103.35389924240008 22.691701981137157 0 22.691701981137157 20.629488480779401 0 0 0 0 -33.631986626191065 58.058662755895057 0 58.058662755895057 18.850472289235768 0 0 0 0 -163.0392822198628 203.17341666932225 0 203.17341666932225 -49.289187571149569 0 0 0 0 -174.02884204505244 164.11316050648384 0 164.11316050648384 -32.840376165415364 0 0 0 0 -159.2707226282655 176.16623677655843 0 176.16623677655843 -23.29270807444118 0 0 0 0 -286.70554298993375 280.24165234379325 0 280.24165234379325 -107.3766268455729 0 0 0 0 -178.39374828001019 170.97053810282159 0 170.97053810282159 -170.39027078873551 0 0 0 0 -283.49963187031244 435.37598757537853 0 435.37598757537853 -835.2945121500743 0 0 0 0 -104.33939706104138 207.20681357806097 0 207.20681357806097 -348.77972748512548 0 0 0 0 8.9003360391361639 -64.409937761833135 0 -64.409937761833135 47.476849303071504 0 0 0 0 -224.45190207144174 -15.586936844811078 0 -15.586936844811078 69.584103943387163 0 0 0 0 -600.71909128851257 225.72049622779741 0 225.72049622779741 93.457488670008388 0 0 0 0 -223.09503557235712 69.670147023138696 0 69.670147023138696 43.84167807277845 0 0 0 0 -291.91967216719058 -22.999130297186639 0 -22.999130297186639 191.98509569077942 0 0 0 0 -3.4597202528250932 1.0974727531435633 0 1.0974727531435633 -1.1482110967573078 0 0 0 0 -250.94358718712465 509.98229840823478 0 509.98229840823478 -1053.5859233276169 0 0 0 0 -265.30615405761637 442.28879824611067 0 442.28879824611067 -1159.2673927561846 0 0 0 0 -1.7783624557930295 0.30616168798473353 0 0.30616168798473353 0.53801541711300871 0 0 0 0 252.72001775764511 406.28870960003405 0 406.28870960003405 -850.66800522030098 0 0 0 0 336.64212100561417 191.039941391311 0 191.039941391311 -593.87765197496628 0 0 0 0 -279.00363300231402 989.34982986998511 0 989.34982986998511 -1533.8244661783101 0 0 0 0 73.532333431852749 93.417903561239655 0 93.417903561239655 -641.70656761305145 0 0 0 0 -100.90632344213373 171.78952588142783 0 171.78952588142783 -657.25442417229351 0 0 0 0 -362.90699129161658 824.24452237048536 0 824.24452237048536 -1107.7059718348028 0 0 0 0 -346.80483703035861 525.34913508636964 0 525.34913508636964 -1016.7038224477728 0 0 0 0 -580.67423518194846 4.8873021973131472 0 4.8873021973131472 -427.51279857895861 0 0 0 0 -77.996121786622098 -37.60013187027289 0 -37.60013187027289 -522.6446091435937 0 0 0 0 -284.73212224349845 178.31153560100938 0 178.31153560100938 -297.59595642318163 0 0 0 0 110.13020802332903 -104.63355122774374 0 -104.63355122774374 -141.66268681686779 0 0 0 0 -19.315458923010738 -89.229239357708138 0 -89.229239357708138 -339.8203959601459 0 0 0 0 -166.40255600669479 -18.176560708345278 0 -18.176560708345278 -147.50875098564575 0 0 0 0 11.833184014612925 10.901828546684555 0 10.901828546684555 -10.420531875562801 0 0 0 0 -92.564828475784452 -69.693457592699815 0 -69.693457592699815 61.028679966633717 0 0 0 0 11.786579094439588 12.056541977673959 0 12.056541977673959 0.75066108007242516 0 0 0 0 -4.316885122549138 -113.00265682201461 0 -113.00265682201461 -140.02587582759861 0 0 0 0 -3.7307878858191543 72.32467802069732 0 72.32467802069732 107.26611586917898 0 0 0 0 5.9584110344585497 22.064597951888572 0 22.064597951888572 6.9590245321351176 0 0 0 0 7.6418880272264289 12.880553010254388 0 12.880553010254388 0.96687324327297564 0 0 0 0 -40.726333621656522 123.75995619295099 0 123.75995619295099 51.221080966875888 0 0 0 0 -204.54643365187803 209.97947884799578 0 209.97947884799578 224.91431212806856 0 0 0 0 -177.21685077791335 315.46309766407649 0 315.46309766407649 43.01487106262357 0 0 0 0 -183.38169203180587 290.03101988769777 0 290.03101988769777 160.67517214274267 0 0 0 0 -67.254457624512725 233.18741577837136 0 233.18741577837136 -23.046135289370795 0 0 0 0 -150.98093667402281 192.62065127470123 0 192.62065127470123 153.0880809755472 0 0 0 0 -154.04063686873997 273.72651298568235 0 273.72651298568235 -20.911235299019609 0 0 0 0 -155.32415924128145 338.5726019366266 0 338.5726019366266 -33.998013781258123 0 0 0 0 -177.64653181337053 366.04712499889865 0 366.04712499889865 -66.037166733789491 0 0 0 0 -147.47473448325763 174.03157859440307 0 174.03157859440307 -113.81577459209075 0 0 0 0 6.7854578748103478 2.824161660046471 0 2.824161660046471 -14.982894609518318 0 0 0 0 -163.88704056083225 395.64633752014379 0 395.64633752014379 -226.25992766411218 0 0 0 0 -199.67670060176169 290.00255339453724 0 290.00255339453724 -79.863442310132086 0 0 0 0 -142.83253877121024 337.44129592744503 0 337.44129592744503 -148.04732142452849 0 0 0 0 -220.93887208227534 305.78888791231293 0 305.78888791231293 -160.74741177458782 0 0 0 0 -345.58427099522669 78.300183727449621 0 78.300183727449621 -119.01252276328159 0 0 0 0 -309.86130499618594 217.24168691111845 0 217.24168691111845 -181.5622373725455 0 0 0 0 -104.09967426414369 240.99294235827256 0 240.99294235827256 -180.00331230292795 0 0 0 0 -307.8291866578511 240.98932216827234 0 240.98932216827234 -243.40277798078023 0 0 0 0 -600.58143587652012 289.72727181893424 0 289.72727181893424 -263.77837678723154 0 0 0 0 -606.21258130556089 288.54688629494558 0 288.54688629494558 -210.71453411193215 0 0 0 0 -494.25605949165765 216.95947145031823 0 216.95947145031823 -298.5892558078267 0 0 0 0 -340.14354483236093 201.27725860541977 0 201.27725860541977 -249.59659417427611 0 0 0 0 -211.38349854832632 331.06622478195277 0 331.06622478195277 -242.23621494542749 0 0 0 0 -391.61986780822917 339.23931029095911 0 339.23931029095911 -241.71469383180374 0 0 0 0 -196.54608236363856 337.25783414380567 0 337.25783414380567 -364.11529378582054 0 0 0 0 101.96827425574884 73.516868437225639 0 73.516868437225639 28.702940455084899 0 0 0 0 -1044.2884982351679 -21.097675380282453 0 -21.097675380282453 -78.841030322266761 0 0 0 0 -589.26393931615166 21.981962657358963 0 21.981962657358963 -77.368488716019783 0 0 0 0 -1059.7158312905813 312.41998530982528 0 312.41998530982528 -207.9905141536583 0 0 0 0 -1201.9772116278182 183.56302388133918 0 183.56302388133918 -19.893229355628137 0 0 0 0 310.14305082982992 -134.92542579920769 0 -134.92542579920769 -86.732249334534572 0 0 0 0 -963.84936359460698 857.71119896616437 0 857.71119896616437 -501.47211602173047 0 0 0 0 1.2909963910279174 0.81472437075120752 0 0.81472437075120752 -5.2546985485492002 0 0 0 0 -815.10688555019442 753.98136987727048 0 753.98136987727048 -566.36656708468217 0 0 0 0 -412.40761310938979 516.09527049187454 0 516.09527049187454 -645.40976358289481 0 0 0 0 -688.76233212997613 574.5078431480797 0 574.5078431480797 -469.89885395369492 0 0 0 0 -685.25072065630229 592.43405602035637 0 592.43405602035637 -410.5851933475642 0 0 0 0 -752.90090369200334 617.78000299443374 0 617.78000299443374 -419.38043433520943 0 0 0 0 -739.10740421072114 454.6999416940962 0 454.6999416940962 -358.45070783887058 0 0 0 0 -546.66802967502736 509.72776602757222 0 509.72776602757222 -440.5961156252597 0 0 0 0 -1216.7937116596731 508.41011866993358 0 508.41011866993358 -120.37473889446119 0 0 0 0 -663.49878553950111 412.54382097504276 0 412.54382097504276 -327.39642254789942 0 0 0 0 -889.0588414092781 497.52765967113373 0 497.52765967113373 -337.42638208728749 0 0 0 0 -910.41376180993393 690.09006709873211 0 690.09006709873211 -292.31293266423745 0 0 0 0 -877.20242668455467 657.15159069708898 0 657.15159069708898 -393.07842110836646 0 0 0 0 -1024.5770382947521 311.32081542682135 0 311.32081542682135 -216.13249461533269 0 0 0 0 -683.19313021202106 383.35170624054081 0 383.35170624054081 -295.68394108879147 0 0 0 0 -416.55699801913579 404.95392076433927 0 404.95392076433927 -443.87450124648603 0 0 0 0 -333.30159027921036 370.03770529603207 0 370.03770529603207 -356.42988028984109 0 0 0 0 -345.87554420350352 282.25205616510357 0 282.25205616510357 -373.75715066656085 0 0 0 0 -183.75355584415956 352.36538140576522 0 352.36538140576522 -457.91238299808174 0 0 0 0 -541.91303587378934 435.54123044013977 0 435.54123044013977 -436.7906494045601 0 0 0 0 -330.64964245865121 324.49329391810898 0 324.49329391810898 -489.12072506368713 0 0 0 0 -244.52864762686659 345.38975831233256 0 345.38975831233256 -592.36729812511476 0 0 0 0 -236.33414057793561 199.60442205451545 0 199.60442205451545 -446.64992117698421 0 0 0 0 -184.32320547683048 196.68308342985347 0 196.68308342985347 -393.42839255876606 0 0 0 0 -142.56905726679906 48.687040141082889 0 48.687040141082889 -256.55770144313283 0 0 0 0 -126.46951353650002 120.35976544674941 0 120.35976544674941 -550.14600396336755 0 0 0 0 47.484792702205596 52.159582356620376 0 52.159582356620376 -1037.4579490080505 0 0 0 0 -753.79690114629921 923.82703193037014 0 923.82703193037014 -712.52602221764391 0 0 0 0 -576.32017748215003 1025.3205025414936 0 1025.3205025414936 -1048.407964407641 0 0 0 0 -230.50762290746206 442.1176117129653 0 442.1176117129653 -898.58210511302605 0 0 0 0 -96.126597079724888 544.23949171430286 0 544.23949171430286 -961.18077599164099 0 0 0 0 -141.95456462644506 819.45847030568257 0 819.45847030568257 -1324.2149749110977 0 0 0 0 -568.11294135267963 834.17962514810642 0 834.17962514810642 -1010.3014861961128 0 0 0 0 -435.28301323321648 980.37349063214788 0 980.37349063214788 -1025.5754089299298 0 0 0 0 -417.86618875071872 608.21067427191156 0 608.21067427191156 -713.21275100788625 0 0 0 0 -481.95097459515091 525.34234934257984 0 525.34234934257984 -632.20627734401933 0 0 0 0 -151.26034874658217 370.48497259559554 0 370.48497259559554 -833.86737781781994 0 0 0 0 8.4974015509214951 97.535536304560082 0 97.535536304560082 -118.88353098415973 0 0 0 0 -3.9836612505314406 168.93386885666041 0 168.93386885666041 -272.52206521463631 0 0 0 0 -58.412823363851203 130.93185114063635 0 130.93185114063635 -290.45255143936083 0 0 0 0 -84.886193284852197 219.95915008578231 0 219.95915008578231 -445.05131314014579 0 0 0 0 -79.068133637454594 304.0432340334246 0 304.0432340334246 -307.22271781122981 0 0 0 0 -127.29524347133702 259.96373534731902 0 259.96373534731902 -327.29489879673929 0 0 0 0 -53.869875699325348 241.37735867101219 0 241.37735867101219 -112.20832992098076 0 0 0 0 -48.487441252873396 282.14755150860219 0 282.14755150860219 -299.88356760435272 0 0 0 0 23.598471938736111 157.57062057080611 0 157.57062057080611 -243.0489556487446 0 0 0 0 -96.256049078976503 347.59056323755431 0 347.59056323755431 -137.18551911753821 0 0 0 0 -112.57500703958794 364.557412800561 0 364.557412800561 -342.7992294956739 0 0 0 0 -205.75903743799427 332.78776756252955 0 332.78776756252955 -253.09756149942405 0 0 0 0 -108.40238117642002 326.60094657296213 0 326.60094657296213 -189.69162583145226 0 0 0 0 -96.494372714572819 363.05780515356673 0 363.05780515356673 -202.31278188997749 0 0 0 0 -121.19085649168119 338.84653412962507 0 338.84653412962507 -173.72744898729434 0 0 0 0 -142.385239387615 356.86195908251284 0 356.86195908251284 -106.44142105631181 0 0 0 0 -92.538906561137992 337.80431033029527 0 337.80431033029527 -161.80662280441175 0 0 0 0 -88.019535457278835 316.74991620523724 0 316.74991620523724 -136.90444924966505 0 0 0 0 -70.245115516445367 365.33224260828865 0 365.33224260828865 -145.25271526923189 0 0 0 0 -354.53594009416702 -234.33258723219842 0 -234.33258723219842 50.781043974897329 0 0 0 0 177.64050112845143 177.75129407671102 0 177.75129407671102 -674.00037207540299 0 0 0 0 232.05523390164308 54.609803425892096 0 54.609803425892096 -396.49478382893449 0 0 0 0 -19.151369173450803 -200.75643154572208 0 -200.75643154572208 -1.0779145104170311 0 0 0 0 10.722657108464773 18.705742985183861 0 18.705742985183861 -101.73417065520334 0 0 0 0 2.2794724187966011 3.1609028374521984 0 3.1609028374521984 4.8284805933387673 0 0 0 0 -63.826386196087697 -38.710629455013986 0 -38.710629455013986 -76.818210297672522 0 0 0 0 -19.345387984794797 12.497353476588614 0 12.497353476588614 -42.312441304451568 0 0 0 0 -20.737424783481401 24.223119317898636 0 24.223119317898636 18.71295349347929 0 0 0 0 -50.35652232747816 4.6081390504295996 0 4.6081390504295996 20.640953848556819 0 0 0 0 3.3344454878090062 7.4696838782183335 0 7.4696838782183335 6.7348999516517196 0 0 0 0 8.3590740860963706 -3.8914131641877248 0 -3.8914131641877248 19.32142003413901 0 0 0 0 164.56742144074815 -67.004269492354069 0 -67.004269492354069 -133.94149405387907 0 0 0 0 -16.585682261138572 19.201781980716987 0 19.201781980716987 25.671844615171722 0 0 0 0 -18.147685866686516 20.720115546671877 0 20.720115546671877 24.198528473265469 0 0 0 0 -25.881643972534221 -10.841970152288923 0 -10.841970152288923 28.977446625869106 0 0 0 0 -8.253043858188903 19.92511580025166 0 19.92511580025166 24.245481839374406 0 0 0 0 -1.0970610868171207 15.548125490837265 0 15.548125490837265 17.253909871087671 0 0 0 0 -5.7853639619715977 32.242312997128465 0 32.242312997128465 21.380468897565152 0 0 0 0 16.727414526831126 28.585819711983277 0 28.585819711983277 10.846033828049258 0 0 0 0 12.160254712049209 21.420610340881467 0 21.420610340881467 1.2447454859138816 0 0 0 0 -13.064632473571692 32.807827787899441 0 32.807827787899441 21.367816260612017 0 0 0 0 -1.0250872929755133 32.355243876381792 0 32.355243876381792 18.687929579718912 0 0 0 0 24.348482657645945 10.638710731003812 0 10.638710731003812 -16.068314604595798 0 0 0 0 5.4881134336465038 -1.3730780113864967 0 -1.3730780113864967 -22.90710824172038 0 0 0 0 64.066939088836079 52.108997579634888 0 52.108997579634888 -3.5067176493730585 0 0 0 0 -79.434156672206882 185.7486156843579 0 185.7486156843579 58.062391774543357 0 0 0 0 36.1228670245182 8.5435697461257405 0 8.5435697461257405 -62.40553531045407 0 0 0 0 1.0791337733417379 -0.76942229900473258 0 -0.76942229900473258 0.33302913006893675 0 0 0 0 215.1908938245615 48.129265518264219 0 48.129265518264219 -115.90231957328069 0 0 0 0 59.316329485489405 102.70539114806525 0 102.70539114806525 -96.553242944901285 0 0 0 0 -0.53301423761206479 0.48467882965420017 0 0.48467882965420017 -0.41697153273704401 0 0 0 0 74.970283887974801 143.59483295696191 0 143.59483295696191 5.1834607110722573 0 0 0 0 -2.8159280114196008 -75.534355314803179 0 -75.534355314803179 -23.541120785535895 0 0 0 0 -33.90703321962792 43.568776441507453 0 43.568776441507453 20.86414748617608 0 0 0 0 0.79071259428746998 47.457306661151961 0 47.457306661151961 74.614429722092609 0 0 0 0 88.295955506793689 -42.135856867109396 0 -42.135856867109396 49.250178423656507 0 0 0 0 95.360370171809336 70.291593230456783 0 70.291593230456783 -69.659878687062246 0 0 0 0 -11.218047633985407 37.047181520369122 0 37.047181520369122 -13.755429224875115 0 0 0 0 -3.0011873046460096 -0.29619892724258534 0 -0.29619892724258534 -30.885806655005581 0 0 0 0 13.659861889266722 -9.700406981772062 0 -9.700406981772062 -197.81043186253373 0 0 0 0 -82.570423335346277 52.692535738142396 0 52.692535738142396 -62.407259547033391 0 0 0 0 6.5954522287702275 37.075083114197582 0 37.075083114197582 -71.128146615577862 0 0 0 0 3.6166441579698585 -37.620657248895441 0 -37.620657248895441 -113.63711787031934 0 0 0 0 -40.412856207040022 -39.949657529483375 0 -39.949657529483375 -88.818588519105106 0 0 0 0 -72.65684199797397 -106.36501857980784 0 -106.36501857980784 -154.16356805309988 0 0 0 0 -0.56478884750069369 1.3649553289741192 0 1.3649553289741192 0.64053831879803624 0 0 0 0 27.529597242079944 87.058056037612573 0 87.058056037612573 52.413893189084774 0 0 0 0 23.886833890486741 30.364159742039192 0 30.364159742039192 -70.608787805397071 0 0 0 0 22.456995354619721 20.38103918950992 0 20.38103918950992 -26.920190804692538 0 0 0 0 82.994293655792717 1.5156453781037271 0 1.5156453781037271 -51.019206972658139 0 0 0 0 26.192333963350393 -12.141986679178444 0 -12.141986679178444 13.907810468974276 0 0 0 0 -2.3737064815213671 6.491013567236223 0 6.491013567236223 18.280656422696666 0 0 0 0 -0.35645443379155495 5.2468105198389523 0 5.2468105198389523 -2.7390369565757808 0 0 0 0 -3.2383078129714704 -55.059110797021276 0 -55.059110797021276 -115.26502199646711 0 0 0 0 -19.284155919235673 42.476361265617356 0 42.476361265617356 -28.37052609967941 0 0 0 0 -27.896321875581634 -55.407548983315792 0 -55.407548983315792 -70.623265006612201 0 0 0 0 22.285519377255696 125.99684004078563 0 125.99684004078563 282.56625206639183 0 0 0 0 -3.6529908556755259 1.9019314429603469 0 1.9019314429603469 6.4769820042591917 0 0 0 0 33.515763263196277 56.69430467739312 0 56.69430467739312 327.52154338810215 0 0 0 0 -1.2937274122977556 0.62820449791788846 0 0.62820449791788846 0.78775943235307189 0 0 0 0 134.68085537942534 105.73013725426381 0 105.73013725426381 116.66209131129654 0 0 0 0 -6.4044476896015112 261.58642569647145 0 261.58642569647145 511.74075307797102 0 0 0 0 39.520256322914065 189.69274704148074 0 189.69274704148074 176.96375816038199 0 0 0 0 20.254786850371602 -5.4882639652450962 0 -5.4882639652450962 -128.21316220283188 0 0 0 0 -4.7256849632394733 -66.231768174482568 0 -66.231768174482568 -42.777723631577828 0 0 0 0 -18.005239795893431 45.418440232986541 0 45.418440232986541 -101.1776764221986 0 0 0 0 17.04639596641573 -14.982527055122773 0 -14.982527055122773 -154.85484193656157 0 0 0 0 34.783713752113727 49.838804582714772 0 49.838804582714772 37.75524155275707 0 0 0 0 86.272171322147187 58.965495029397061 0 58.965495029397061 -6.466078840647242 0 0 0 0 65.523591068937094 40.525704428841891 0 40.525704428841891 -16.772032753462554 0 0 0 0 33.292423796584671 23.015935865784968 0 23.015935865784968 1.2806620032770297 0 0 0 0 50.79818655251438 40.044771090375434 0 40.044771090375434 3.9717272998714179 0 0 0 0 4.0845827575076044 5.9578095546408214 0 5.9578095546408214 -3.9506273584964404 0 0 0 0 15.193614899922977 27.82673443263684 0 27.82673443263684 9.4249418390204482 0 0 0 0 8.2154166438466234 6.3588787575501584 0 6.3588787575501584 -4.8508512009867388 0 0 0 0 18.198430552322122 16.337841677875062 0 16.337841677875062 3.7035645343514005 0 0 0 0 10.559530949831242 15.789170491123514 0 15.789170491123514 -6.6011803868495917 0 0 0 0 18.945156355981453 2.8348070916194956 0 2.8348070916194956 -10.321654828749161 0 0 0 0 -0.83945916379161645 8.8503247542284953 0 8.8503247542284953 -9.8128754299277716 0 0 0 0 12.953348271585128 10.450265106238476 0 10.450265106238476 -13.474638902474908 0 0 0 0 5.743952173430074 2.6718652291661358 0 2.6718652291661358 -5.1003669226707551 0 0 0 0 9.7446791179099819 21.461822337740159 0 21.461822337740159 -1.8956174773757084 0 0 0 0 12.745796684510424 11.871440694114426 0 11.871440694114426 -23.46534546498151 0 0 0 0 27.733254730457702 14.378159984721606 0 14.378159984721606 -32.223333941612509 0 0 0 0 4.0973062419070629 3.2927911409042281 0 3.2927911409042281 -22.561244463337061 0 0 0 0 10.860968970795511 -11.203309256035936 0 -11.203309256035936 -48.91147582154008 0 0 0 0 1.5765734830486053 -0.018231112590584075 0 -0.018231112590584075 -6.5286044041542368 0 0 0 0 74.042104760013899 66.504596191640076 0 66.504596191640076 2.6841895650504739 0 0 0 0 -6.509403384444397 6.0469965835976041 0 6.0469965835976041 -2.8299304346277285 0 0 0 0 111.77263765368843 -39.935649617422314 0 -39.935649617422314 -125.63759495945669 0 0 0 0 -28.65749143013818 -41.018117989802704 0 -41.018117989802704 -67.603044645969931 0 0 0 0 107.21918558375182 -19.91911353904834 0 -19.91911353904834 -51.64842318045703 0 0 0 0 73.33242506084207 35.591460450474187 0 35.591460450474187 -142.52550671188146 0 0 0 0 -1.0698855846258652 4.3134067633972109 0 4.3134067633972109 -2.8711924785677212 0 0 0 0 -5.7513225884451344 17.276300246355639 0 17.276300246355639 -31.016705460728701 0 0 0 0 -54.481183490453986 62.542157044832493 0 62.542157044832493 3.4899998013570439 0 0 0 0 -6.5627705771767069 19.866509599822166 0 19.866509599822166 -34.798295971424523 0 0 0 0 -21.079183439345798 33.037687740463298 0 33.037687740463298 -31.968337074509691 0 0 0 0 -3.8504690017362009 21.917759729771205 0 21.917759729771205 -36.295554320167867 0 0 0 0 2.4334773879892424 2.7096839703894631 0 2.7096839703894631 -18.732528535988756 0 0 0 0 7.6576229351012444 11.028398577012922 0 11.028398577012922 -38.186469474116166 0 0 0 0 8.3389736959870788 27.806197312733275 0 27.806197312733275 -45.151607540061377 0 0 0 0 2.4524455999562633 20.016477932993439 0 20.016477932993439 -53.628938601974369 0 0 0 0 -9.8824078257821384 33.718882976343593 0 33.718882976343593 -46.548545751968049 0 0 0 0 -19.960537812075927 43.657136157955392 0 43.657136157955392 -42.756083643215788 0 0 0 0 10.28327067870714 18.884760037885371 0 18.884760037885371 -135.19618201905723 0 0 0 0 -16.861195479831622 43.212315873805807 0 43.212315873805807 15.404088723333189 0 0 0 0 -17.216831054151498 38.618484743799115 0 38.618484743799115 25.080290042324123 0 0 0 0 -13.254429849066582 40.958243571853245 0 40.958243571853245 -35.450022369368526 0 0 0 0 -15.244768380156529 47.182966514917098 0 47.182966514917098 -40.344927075842861 0 0 0 0 -4.5869535245692532 22.668990000081749 0 22.668990000081749 18.648014338443318 0 0 0 0 -12.244886666275193 33.848117087711394 0 33.848117087711394 -25.82462579433361 0 0 0 0 -24.998356676835101 76.956376781135077 0 76.956376781135077 -12.874359674113293 0 0 0 0 -25.322092905838957 22.621630598358365 0 22.621630598358365 -4.5044121087744635 0 0 0 0 -44.614563194467337 74.453756133781098 0 74.453756133781098 -10.660052488015936 0 0 0 0 -49.05475812026998 -11.694923345245115 0 -11.694923345245115 -53.944095274069241 0 0 0 0 -28.657975061913021 49.049867050563989 0 49.049867050563989 -8.6765918294368021 0 0 0 0 -96.223379241811926 36.117751769799725 0 36.117751769799725 -5.4903318856886472 0 0 0 0 -43.192587968696898 10.585243974399646 0 10.585243974399646 16.908905734300788 0 0 0 0 29.389532112531015 24.378084643863986 0 24.378084643863986 -74.005505045239261 0 0 0 0 -38.486592873290647 45.292070220541973 0 45.292070220541973 47.886580351934754 0 0 0 0 -10.043443636288657 12.134410251102098 0 12.134410251102098 -11.265579221617816 0 0 0 0 -17.896959019877301 25.546909000886899 0 25.546909000886899 -24.114483669028985 0 0 0 0 -5.7117724635900231 35.996475413342523 0 35.996475413342523 25.056458495248989 0 0 0 0 -9.9706846586632309 8.0796609909884864 0 8.0796609909884864 36.926597012763523 0 0 0 0 -10.228764093028985 -3.5966554828547714 0 -3.5966554828547714 18.548185875895797 0 0 0 0 -12.123371607340232 -16.308932631881817 0 -16.308932631881817 2.1696445896541263 0 0 0 0 -42.013029201305471 27.1601702369951 0 27.1601702369951 -14.571558701545655 0 0 0 0 -24.853635929364827 24.950427366459735 0 24.950427366459735 -30.013502084575521 0 0 0 0 -39.97512629533594 8.7787616550776875 0 8.7787616550776875 14.435064251893891 0 0 0 0 237.51441928637723 346.76299767673481 0 346.76299767673481 -56.274105594530738 0 0 0 0 559.9941362698446 562.49505961417344 0 562.49505961417344 415.08445283136462 0 0 0 0 -26.022736489027011 51.064573013364452 0 51.064573013364452 -136.4757271598537 0 0 0 0 -1.4414701789218753 1.2215246739293093 0 1.2215246739293093 2.2711054034601297 0 0 0 0 502.57788603201334 721.7551347968647 0 721.7551347968647 407.17378687360542 0 0 0 0 645.5420157057215 537.3424554960144 0 537.3424554960144 738.60286223152434 0 0 0 0 -35.570955955292447 52.739198713687983 0 52.739198713687983 1399.6680245418015 0 0 0 0 298.49761393404333 163.06650345620619 0 163.06650345620619 442.84277447915701 0 0 0 0 40.05161155397218 -126.91788071472865 0 -126.91788071472865 890.84559402404648 0 0 0 0 87.985079270976712 -59.299947499627024 0 -59.299947499627024 479.63569157850725 0 0 0 0 134.13049455799046 194.37591616679219 0 194.37591616679219 286.27085288008038 0 0 0 0 234.64391830886598 436.93469803452444 0 436.93469803452444 664.96235576147137 0 0 0 0 -112.76719077122107 181.60428318080994 0 181.60428318080994 663.07878442378114 0 0 0 0 6.1454836214457202 3.6950386786359886 0 3.6950386786359886 3.3056793625784042 0 0 0 0 -48.888810295131407 18.592055703849837 0 18.592055703849837 387.73830471913607 0 0 0 0 15.881232014209786 14.281881465778795 0 14.281881465778795 5.6707221797771457 0 0 0 0 -16.007383184070932 -26.632395485113648 0 -26.632395485113648 398.5224933330901 0 0 0 0 47.850174909275665 24.262059530630495 0 24.262059530630495 327.54980666270967 0 0 0 0 -29.852034869298222 212.05207167544631 0 212.05207167544631 251.99943508901924 0 0 0 0 -99.613849740926526 245.86287839224588 0 245.86287839224588 427.23821490648879 0 0 0 0 -70.39370097774372 321.47539966869954 0 321.47539966869954 5.9585045095448095 0 0 0 0 27.082894013368787 -9.8120820057990841 0 -9.8120820057990841 121.41640318669852 0 0 0 0 -79.94340953725623 -70.638187337708587 0 -70.638187337708587 323.14120097833484 0 0 0 0 24.047822805659962 96.878282881797645 0 96.878282881797645 403.71631549516678 0 0 0 0 1.837966553731178 3.4085234472040185 0 3.4085234472040185 7.4737087753088289 0 0 0 0 153.85516207817273 342.32111746886039 0 342.32111746886039 330.0320211813123 0 0 0 0 74.528572584225913 4.0151511533649682 0 4.0151511533649682 -270.00581924894141 0 0 0 0 0.49798957025234358 0.82987691439355871 0 0.82987691439355871 -0.0552346406643629 0 0 0 0 -55.790440764467348 230.64282221461872 0 230.64282221461872 613.0268416485178 0 0 0 0 312.07793606429186 383.50845465222301 0 383.50845465222301 595.00309644870299 0 0 0 0 136.90074544790696 544.68683874695057 0 544.68683874695057 880.10962188883059 0 0 0 0 215.21671678893836 400.74360029697527 0 400.74360029697527 379.6559917446757 0 0 0 0 77.831845557724591 304.2460250972581 0 304.2460250972581 505.58925402662044 0 0 0 0 112.4938964090652 184.06614858473301 0 184.06614858473301 219.95373687576466 0 0 0 0 241.94242222353932 315.76943494443276 0 315.76943494443276 280.96495543896344 0 0 0 0 0.3864573822793318 -1.2987059929128009 0 -1.2987059929128009 9.2596750098750817 0 0 0 0 0.56279839527996955 3.534546386936654 0 3.534546386936654 6.6339016854399233 0 0 0 0 -2.7667023451680137 1.5667050618185669 0 1.5667050618185669 4.3659566108742851 0 0 0 0 268.64330174508359 351.77539635071707 0 351.77539635071707 305.58671320218855 0 0 0 0 359.133815419249 327.0177680364668 0 327.0177680364668 307.38787259169032 0 0 0 0 143.08159056883596 300.0858937890298 0 300.0858937890298 321.0859857019932 0 0 0 0 202.70027818395829 419.45211538945796 0 419.45211538945796 413.99741414565506 0 0 0 0 157.41039443218324 270.70476783621052 0 270.70476783621052 427.58263588443424 0 0 0 0 117.94391682331297 303.3383242807854 0 303.3383242807854 416.9361477102284 0 0 0 0 96.894476867419144 206.71906141846353 0 206.71906141846353 257.78079518257073 0 0 0 0 568.35341904774396 508.50463559540913 0 508.50463559540913 388.78598555571807 0 0 0 0 245.54562540019106 395.99867083087929 0 395.99867083087929 543.96644438782459 0 0 0 0 359.85632164975686 600.69311990578444 0 600.69311990578444 999.73244698508643 0 0 0 0 264.71216407025349 385.08676273583387 0 385.08676273583387 514.5328706835744 0 0 0 0 482.01519215254666 -84.065822454810132 0 -84.065822454810132 859.2676128132025 0 0 0 0 168.57525374770194 61.561635257749458 0 61.561635257749458 626.68945995582908 0 0 0 0 347.75381743459729 179.62718016236613 0 179.62718016236613 373.58133432038994 0 0 0 0 68.827305453851295 128.65168368092327 0 128.65168368092327 229.87524894436683 0 0 0 0 57.290328997391043 102.88514569580002 0 102.88514569580002 427.12081570997435 0 0 0 0 152.52970900689252 160.92416939636132 0 160.92416939636132 308.28889507879649 0 0 0 0 64.201704602310201 20.26369238629286 0 20.26369238629286 357.79416982491693 0 0 0 0 -40.845747930172365 46.006271031948927 0 46.006271031948927 271.72811850933613 0 0 0 0 -19.99574522660987 54.695961483469546 0 54.695961483469546 83.990925207603141 0 0 0 0 -96.788565063412534 9.0263647344454512 0 9.0263647344454512 176.96046016122455 0 0 0 0 -128.12131734951981 -7.438838369662335 0 -7.438838369662335 155.34493678921808 0 0 0 0 -99.346877727570245 40.027742554506403 0 40.027742554506403 72.281182208578684 0 0 0 0 -81.722895981196416 15.907934818561444 0 15.907934818561444 153.89092277985037 0 0 0 0 -88.450562633108348 85.016237873021964 0 85.016237873021964 224.34330405511264 0 0 0 0 -22.740164736489533 155.21766636723441 0 155.21766636723441 349.95787537919205 0 0 0 0 1.9967225872969721 99.386496363949846 0 99.386496363949846 174.15951993386625 0 0 0 0 32.49060861277394 300.96958372527479 0 300.96958372527479 361.99926902483821 0 0 0 0 81.623095788498176 277.43879043242987 0 277.43879043242987 155.31871958080956 0 0 0 0 -49.432117218981148 99.684350872514187 0 99.684350872514187 232.38354173603875 0 0 0 0 74.435265616375546 95.165271914315781 0 95.165271914315781 85.284602240446475 0 0 0 0 69.735371405171463 206.60941570782325 0 206.60941570782325 -140.02479437663169 0 0 0 0 -39.411343461310025 50.070380860988735 0 50.070380860988735 72.916740833465155 0 0 0 0 -21.260702884042985 96.045578354573081 0 96.045578354573081 135.18624922889649 0 0 0 0 -50.87085629109788 -18.689604853977471 0 -18.689604853977471 32.871929952863866 0 0 0 0 -102.60138120447664 65.674032796474876 0 65.674032796474876 12.958371198099485 0 0 0 0 -89.504835141502554 0.39685461590488558 0 0.39685461590488558 23.66410987195195 0 0 0 0 -38.107387371273944 65.800932351550728 0 65.800932351550728 -37.39637311345723 0 0 0 0 -2.7114628067646862 2.0896488206012123 0 2.0896488206012123 0.30874787456734865 0 0 0 0 -2.7055810716763915 1.7295287657726277 0 1.7295287657726277 -0.86268639090779331 0 0 0 0 -144.65618426213041 -17.318380091293875 0 -17.318380091293875 133.74075817559424 0 0 0 0 -107.96501229942078 -28.760605189328999 0 -28.760605189328999 117.02687221837732 0 0 0 0 -66.765247999050189 0.59309280773231876 0 0.59309280773231876 79.594654071844616 0 0 0 0 -89.800157779944129 36.669261722618103 0 36.669261722618103 174.9936939343861 0 0 0 0 -113.78439720254391 24.807979997878647 0 24.807979997878647 165.8505310321234 0 0 0 0 17.009198778170685 17.580432531936026 0 17.580432531936026 -27.293016361410992 0 0 0 0 22.469745037480607 -23.255287242945997 0 -23.255287242945997 13.311122849023377 0 0 0 0 17.507509816074162 -9.043353110741009 0 -9.043353110741009 5.4942927562005934 0 0 0 0 8.9017094579467084 -13.436094834381947 0 -13.436094834381947 49.9107708896845 0 0 0 0 -3.3486458530152845 4.9328986712387035 0 4.9328986712387035 -6.8851071461149722 0 0 0 0 193.15732274973561 -20.945624551493665 0 -20.945624551493665 -108.025142628607 0 0 0 0 13.108486415643711 -1.6133003615886992 0 -1.6133003615886992 -3.425094420559617 0 0 0 0 -1.1379512247913226 19.660879588915122 0 19.660879588915122 25.288566550973883 0 0 0 0 18.652328769327141 39.739603083928159 0 39.739603083928159 -23.556208486920241 0 0 0 0 -112.20628714215127 -10.20119681424876 0 -10.20119681424876 108.70330394020675 0 0 0 0 104.38558752523386 35.477191183817922 0 35.477191183817922 -26.645576466467901 0 0 0 0 102.181834434763 190.6905516505941 0 190.6905516505941 -44.279421596020256 0 0 0 0 -6.7461325704122714 4.6560441247361197 0 4.6560441247361197 -3.2374330117749182 0 0 0 0 -182.32828005591 -85.970047636228628 0 -85.970047636228628 57.495289223892541 0 0 0 0 -1.6130015640515154 1.0900075170860077 0 1.0900075170860077 0.98716291462186945 0 0 0 0 -52.90110431498033 75.033352224529153 0 75.033352224529153 86.077166732851765 0 0 0 0 14.961077618791023 31.529532683969592 0 31.529532683969592 15.355820807693817 0 0 0 0 54.252244483723189 -46.20856706136783 0 -46.20856706136783 -83.658468342204287 0 0 0 0 -204.65204678114969 47.79576247580917 0 47.79576247580917 99.491709235895541 0 0 0 0 -12.372091913523036 19.374528496383391 0 19.374528496383391 -26.404606298621729 0 0 0 0 -21.714910060240072 62.678990442800568 0 62.678990442800568 71.507357728755778 0 0 0 0 68.318674853842822 111.09996634435242 0 111.09996634435242 27.37656773591516 0 0 0 0 -4.8739879116031091 8.8548811381298833 0 8.8548811381298833 -5.3061454502772172 0 0 0 0 -37.485058952901454 113.48233897706905 0 113.48233897706905 -54.450909169683655 0 0 0 0 36.567320009344257 39.075534260107815 0 39.075534260107815 -18.585390876982274 0 0 0 0 29.831038824868301 38.961204902608642 0 38.961204902608642 41.262681001820965 0 0 0 0 14.410348194331164 12.441427927717086 0 12.441427927717086 -50.20355105198621 0 0 0 0 4.5494594794581644 0.79437745342875132 0 0.79437745342875132 -4.4967665764665981 0 0 0 0 27.421355718368432 25.205804314538 0 25.205804314538 13.387869634163508 0 0 0 0 3.3874920121033085 2.6024251916490471 0 2.6024251916490471 -2.3100074556011414 0 0 0 0 299.81145434231439 520.53353950910241 0 520.53353950910241 780.13528989067709 0 0 0 0 2.6782953443616861 7.7020928808974531 0 7.7020928808974531 -28.609465124327471 0 0 0 0 399.00393380879541 368.15997257074559 0 368.15997257074559 771.89785967441242 0 0 0 0 1.8470802179963357 13.996773054649921 0 13.996773054649921 -21.918386637511475 0 0 0 0 47.016659405831888 160.40816054092988 0 160.40816054092988 1.6414529043959192 0 0 0 0 7.4435311292181723 113.23221410901351 0 113.23221410901351 70.928296285228043 0 0 0 0 28.104711287873215 10.561819415879654 0 10.561819415879654 6.682448173440207 0 0 0 0 48.961318621921237 43.273644429946216 0 43.273644429946216 20.339426320897928 0 0 0 0 -14.427799945740219 9.1537640345135429 0 9.1537640345135429 16.442205937814208 0 0 0 0 12.236769792041741 23.531017003981106 0 23.531017003981106 37.516285482014609 0 0 0 0 42.819365373827168 22.270089813767299 0 22.270089813767299 6.871757672583044 0 0 0 0 0.39981630162219517 36.418033442317892 0 36.418033442317892 -12.542773724135259 0 0 0 0 -15.073785724655863 13.865709871193417 0 13.865709871193417 -11.180310709271936 0 0 0 0 -35.621518147934694 78.689586516305098 0 78.689586516305098 113.83256140674303 0 0 0 0 108.14467301713739 196.96515016644048 0 196.96515016644048 154.24935272072969 0 0 0 0 -5.7054058616249108 8.6269930750144397 0 8.6269930750144397 -4.8930167788155075 0 0 0 0 2.4695717827344197 174.84667126005434 0 174.84667126005434 149.62466302561006 0 0 0 0 -16.015419103674674 16.346994392304495 0 16.346994392304495 -15.460125413703121 0 0 0 0 54.092685969015292 -7.4395453411214021 0 -7.4395453411214021 -10.164486942048143 0 0 0 0 -117.27127928458503 210.93340713284829 0 210.93340713284829 158.65742477549975 0 0 0 0 -63.571581474570849 130.65935428591297 0 130.65935428591297 187.27819313847658 0 0 0 0 -205.65186378293583 63.876055351023354 0 63.876055351023354 221.83177234026206 0 0 0 0 -125.86829795973608 -19.997000452935708 0 -19.997000452935708 307.81350818721273 0 0 0 0 -57.304763110965723 -4.8813281794468821 0 -4.8813281794468821 237.64163231517733 0 0 0 0 -90.47250700857694 61.752853296468032 0 61.752853296468032 118.04222662076495 0 0 0 0 -0.15069252881681905 0.45537530707102292 0 0.45537530707102292 5.4455669214680622 0 0 0 0 228.65670338058408 -258.34753951547219 0 -258.34753951547219 228.23714275405877 0 0 0 0 29.813818747665209 181.10586106937035 0 181.10586106937035 666.76097039689171 0 0 0 0 -134.79514263552119 -34.769392975597242 0 -34.769392975597242 365.16830097928892 0 0 0 0 -77.369550915376749 -211.48790868634876 0 -211.48790868634876 743.46587118204673 0 0 0 0 -7.8944326654163888 -50.026994249853601 0 -50.026994249853601 117.37999256409694 0 0 0 0 120.26115757909429 -206.31040729316567 0 -206.31040729316567 217.64068713126579 0 0 0 0 61.839164084431104 -31.956425669264192 0 -31.956425669264192 -9.6711927759387208 0 0 0 0 0.042360362778708804 -14.388290636231659 0 -14.388290636231659 -23.955681863284553 0 0 0 0 -7.3792261984053766 46.100734918229364 0 46.100734918229364 22.176780273868303 0 0 0 0 -93.224772128203767 51.702600600822279 0 51.702600600822279 5.7472614389716909 0 0 0 0 -65.672064263111679 3.6364137231632867 0 3.6364137231632867 47.622830983984841 0 0 0 0 -0.55125408656432739 0.19461478110962105 0 0.19461478110962105 13.902212135905291 0 0 0 0 -9.0741021004942013 4.7423229762773644 0 4.7423229762773644 4.4262108584625821 0 0 0 0 -10.413593913210207 4.7138323848298569 0 4.7138323848298569 39.85027370360649 0 0 0 0 52.077003971775412 -28.798556385698475 0 -28.798556385698475 29.784324363724863 0 0 0 0 -5.2539408986867784 14.767631442758699 0 14.767631442758699 10.082591323243832 0 0 0 0 -2.1096322145822342 8.3203687090160656 0 8.3203687090160656 -8.1486541220938307 0 0 0 0 -10.124238939140923 6.8894199391263555 0 6.8894199391263555 5.4179218729100285 0 0 0 0 1.6031951477621931 -5.3116412670227078 0 -5.3116412670227078 18.566110859346612 0 0 0 0 -209.74125134127098 -43.544913007766354 0 -43.544913007766354 38.886291948299913 0 0 0 0 -13.43360867589945 44.34278949629379 0 44.34278949629379 121.92738778771832 0 0 0 0 -29.448765722248936 -18.018240108049781 0 -18.018240108049781 72.03613862836005 0 0 0 0 -8.3865628314761125 -5.3062367539389115 0 -5.3062367539389115 71.014692882148438 0 0 0 0 -5.8627555589393126 7.4467296139027859 0 7.4467296139027859 -3.3006432840785251 0 0 0 0 -2.6221609299027477 17.379163280025978 0 17.379163280025978 0.79071737220579053 0 0 0 0 132.48416328519306 -23.546146219466664 0 -23.546146219466664 -31.671249871664259 0 0 0 0 1.7041653702805206 3.6334947108473692 0 3.6334947108473692 -3.9714067444079877 0 0 0 0 -9.0040396949916612 60.329617675080044 0 60.329617675080044 85.656327396324286 0 0 0 0 -1.5362419177328661 16.115350046442018 0 16.115350046442018 -21.173292490053374 0 0 0 0 -10.419250208535232 167.90784179800175 0 167.90784179800175 98.670828955357138 0 0 0 0 -107.72253142188856 106.91633237390397 0 106.91633237390397 138.6983650561815 0 0 0 0 -196.49649130892794 305.08881579793615 0 305.08881579793615 296.04858108432381 0 0 0 0 373.05605552642373 156.57458147018042 0 156.57458147018042 42.573759786766459 0 0 0 0 1.1244379618458709 2.3774696033778469 0 2.3774696033778469 -6.0532336966211364 0 0 0 0 23.724357598592178 36.12353019438433 0 36.12353019438433 29.050142031372161 0 0 0 0 -8.4155892779034502 8.6106887892910464 0 8.6106887892910464 1.7368491802950956 0 0 0 0 -2.3305509932542918 12.096610978766876 0 12.096610978766876 -2.7197402892884384 0 0 0 0 9.5889878583332688 22.926251852068884 0 22.926251852068884 -13.775216885794432 0 0 0 0 91.609559192740562 213.52303398525351 0 213.52303398525351 448.8127223277188 0 0 0 0 99.733429449099276 243.14294004553653 0 243.14294004553653 156.47481448204417 0 0 0 0 34.60613340587588 32.389379111169546 0 32.389379111169546 23.895945556682818 0 0 0 0 -4.481519525227327 7.1723688860410704 0 7.1723688860410704 0.71080089564495808 0 0 0 0 142.96320316278434 149.25529368322896 0 149.25529368322896 157.8302450998936 0 0 0 0 -423.17337139391748 -199.50127359123508 0 -199.50127359123508 -87.978252043278189 0 0 0 0 -288.80278650029504 -367.89226303880605 0 -367.89226303880605 39.338350648979031 0 0 0 0 502.20616442245955 553.17318354989857 0 553.17318354989857 390.8992029922083 0 0 0 0 -338.17119023337727 18.110576698967634 0 18.110576698967634 188.7260890421876 0 0 0 0 2.0096741015968007 2.7587992828265016 0 2.7587992828265016 3.0417456264268452 0 0 0 0 74.426920001889812 -127.09078707634399 0 -127.09078707634399 -295.19104322438579 0 0 0 0 -413.23952554853167 -152.35890169095364 0 -152.35890169095364 -41.930938743855222 0 0 0 0 1.5463035152317275 2.2778853738562219 0 2.2778853738562219 0.67657814021925233 0 0 0 0 -1136.3520924319164 -411.5013862169435 0 -411.5013862169435 -131.61574591835961 0 0 0 0 -201.20371534475998 124.2630147396394 0 124.2630147396394 456.39167691577313 0 0 0 0 -230.17695648114022 276.60081337287193 0 276.60081337287193 -55.430401350720786 0 0 0 0 -607.26034804462688 201.99430375116572 0 201.99430375116572 4.5116104179032845 0 0 0 0 201.58866047355696 -321.03191306296867 0 -321.03191306296867 -1.6034370339075394 0 0 0 0 382.34379399826867 142.4301711233893 0 142.4301711233893 14.456128069024999 0 0 0 0 -1.1140769096342638 6.7657257978315997 0 6.7657257978315997 -6.3436024553786527 0 0 0 0 11.547599040844943 21.840415194223169 0 21.840415194223169 -32.646967641288143 0 0 0 0 -8.312427812423266 18.343516535940807 0 18.343516535940807 -32.334328180439115 0 0 0 0 -1.1798483415793157 4.1860488143504035 0 4.1860488143504035 -4.9359933687498181 0 0 0 0 1.482076720581972 8.2948674830313394 0 8.2948674830313394 -22.163537181970241 0 0 0 0 -1.0788660253692797 2.4107616892499664 0 2.4107616892499664 -26.543268375913613 0 0 0 0 29.186167494890732 -88.577827148812005 0 -88.577827148812005 -25.109046595469749 0 0 0 0 37.181030088888235 -119.43589192250755 0 -119.43589192250755 -18.463874025067849 0 0 0 0 6.1975079947629297 10.591193392840303 0 10.591193392840303 -1.7445221658319818 0 0 0 0 -1.6354123368946603 9.167187396423742 0 9.167187396423742 -18.777623775604297 0 0 0 0 9.7574869647141895 32.787866740706704 0 32.787866740706704 -2.1861921219631313 0 0 0 0 13.715452579534031 64.02182773358345 0 64.02182773358345 17.504671158501878 0 0 0 0 -6.4889036205619561 12.446229717464362 0 12.446229717464362 -8.0879514533698469 0 0 0 0 -0.041994424638687633 24.46326388457328 0 24.46326388457328 -7.8986712660207559 0 0 0 0 10.183438513537112 14.80830067993702 0 14.80830067993702 -11.83771068556598 0 0 0 0 -0.91053148818173213 16.377032581533058 0 16.377032581533058 13.387340295248578 0 0 0 0 0.047152897823252715 25.067151100490264 0 25.067151100490264 14.408753694496227 0 0 0 0 147.98805970481044 -407.48488825555705 0 -407.48488825555705 -296.93131260994778 0 0 0 0 -3.8991551967958173 3.2665153062550871 0 3.2665153062550871 -4.4736173079219554 0 0 0 0 214.68670973897679 417.16497864803296 0 417.16497864803296 -118.52120254897454 0 0 0 0 176.87992261191539 162.01305941660394 0 162.01305941660394 -139.01617273197553 0 0 0 0 -93.599680691564572 159.84327242959171 0 159.84327242959171 -886.44121283376444 0 0 0 0 -127.57338083011564 70.921150020945788 0 70.921150020945788 -143.78623930785398 0 0 0 0 -331.57455238635885 -131.15360777692695 0 -131.15360777692695 407.94830798065959 0 0 0 0 -1.4346332607693455 1.7615649068653241 0 1.7615649068653241 -1.6686237141020754 0 0 0 0 404.16615283040301 698.25256001163143 0 698.25256001163143 302.99800969614444 0 0 0 0 908.35271029021533 364.65702987451368 0 364.65702987451368 -144.56123131548884 0 0 0 0 797.30514454093736 -359.13754997645719 0 -359.13754997645719 -520.22776627928033 0 0 0 0 123.11858019951615 255.9221847543613 0 255.9221847543613 251.72959186753724 0 0 0 0 174.51281241362449 417.68338411928562 0 417.68338411928562 475.97091750503387 0 0 0 0 112.34413230168866 362.00400810719475 0 362.00400810719475 141.91557753041093 0 0 0 0 -17.395796408716706 239.0627319376872 0 239.0627319376872 167.70987490096377 0 0 0 0 117.0490946922655 374.07878583196543 0 374.07878583196543 57.827605704562302 0 0 0 0 53.304679945351381 260.21980647425789 0 260.21980647425789 212.2835418113209 0 0 0 0 128.91818771249382 327.69053697426716 0 327.69053697426716 200.5535296545313 0 0 0 0 202.56627640796069 277.44605087440596 0 277.44605087440596 117.15382413687257 0 0 0 0 85.541405512423808 115.05896604484644 0 115.05896604484644 -51.885219003248494 0 0 0 0 228.02601833943481 148.47332760775043 0 148.47332760775043 -137.63079358261894 0 0 0 0 150.63023413376868 176.65216188641989 0 176.65216188641989 93.126936835233209 0 0 0 0 303.96533588138118 345.79231505687858 0 345.79231505687858 159.43066349458786 0 0 0 0 204.26110497285845 289.06644625117588 0 289.06644625117588 277.72359032522581 0 0 0 0 167.22944509236549 225.95680501458264 0 225.95680501458264 5.3384272879029595 0 0 0 0 138.95508863945724 324.56025541907366 0 324.56025541907366 227.80880944728415 0 0 0 0 251.58314136054469 272.35420687383612 0 272.35420687383612 -17.948142464767443 0 0 0 0 183.72462574900055 101.46752861021469 0 101.46752861021469 -349.34355034748296 0 0 0 0 139.24634243661421 167.29043285144326 0 167.29043285144326 17.252262445408633 0 0 0 0 -71.385392065301858 -255.81577487677055 0 -255.81577487677055 -815.49968521485425 0 0 0 0 -18.207144535088446 -9.8926884019283534 0 -9.8926884019283534 -207.34494491076839 0 0 0 0 -144.93508089707757 364.0206152705432 0 364.0206152705432 -456.53948815222702 0 0 0 0 -145.47897683935298 521.56657095009541 0 521.56657095009541 -407.92048060404341 0 0 0 0 -489.72630464348185 121.8593457353054 0 121.8593457353054 34.068660387434647 0 0 0 0 33.801856741527445 46.337653227155897 0 46.337653227155897 33.49085260861672 0 0 0 0 42.153319918405032 323.45690531206128 0 323.45690531206128 -67.82199242891329 0 0 0 0 -32.793186921131564 122.84881904854956 0 122.84881904854956 -24.999885932182224 0 0 0 0 140.70085441008268 279.40352531873214 0 279.40352531873214 2.749880857741573 0 0 0 0 67.8208067405576 353.7615465597446 0 353.7615465597446 276.42357401916524 0 0 0 0 217.14274689205922 308.45356576523227 0 308.45356576523227 286.03515538428474 0 0 0 0 205.61891822847974 446.90575939133305 0 446.90575939133305 434.11211141820604 0 0 0 0 -106.28980541040801 -52.464102879039274 0 -52.464102879039274 75.531426342229679 0 0 0 0 88.755227716712398 1.8225822149070154 0 1.8225822149070154 13.741316545447262 0 0 0 0 -65.484182356885867 111.82112144880739 0 111.82112144880739 138.7255777375467 0 0 0 0 229.30969619371172 328.89965738864703 0 328.89965738864703 263.97373818805863 0 0 0 0 360.14674307088717 269.25348104182194 0 269.25348104182194 222.73648736673385 0 0 0 0 -49.809649405315213 100.24242925424301 0 100.24242925424301 377.67308054163004 0 0 0 0 1.2276093108123263 1.6522201202241291 0 1.6522201202241291 1.791589011326792 0 0 0 0 261.12347138737823 482.43302059853295 0 482.43302059853295 638.56254071986405 0 0 0 0 266.50909642099577 468.35460722465814 0 468.35460722465814 705.94527722398925 0 0 0 0 -69.696998888019152 284.60293626113798 0 284.60293626113798 677.42156967258779 0 0 0 0 156.47675005557539 487.16942887762525 0 487.16942887762525 795.15999120209381 0 0 0 0 127.18435561701335 415.38457111785192 0 415.38457111785192 631.69470677092977 0 0 0 0 194.59404078879743 346.43661999070537 0 346.43661999070537 818.94206993022453 0 0 0 0 245.12434874042083 426.59427976183088 0 426.59427976183088 626.9755589828892 0 0 0 0 6.7149951015607598 3.2093632890252408 0 3.2093632890252408 -4.2241910888475864 0 0 0 0 174.52876409191231 307.37034033486452 0 307.37034033486452 698.15630057877206 0 0 0 0 313.75048292357678 398.27626438023708 0 398.27626438023708 480.49251113144419 0 0 0 0 12.567902378047648 4.5513390374570406 0 4.5513390374570406 -4.4704408725338531 0 0 0 0 -11.239541467532362 6.0824248263107421 0 6.0824248263107421 15.278029858489717 0 0 0 0 36.878896460315445 29.836284129777596 0 29.836284129777596 20.978971087528407 0 0 0 0 243.58031975242193 453.24309096372963 0 453.24309096372963 545.95191808005984 0 0 0 0 -152.26374721624597 37.462659194077787 0 37.462659194077787 116.85146004134367 0 0 0 0 179.96840463866829 -12.289979780141948 0 -12.289979780141948 20.598935164845898 0 0 0 0 259.26667000069574 435.05396529983045 0 435.05396529983045 407.43242136724439 0 0 0 0 262.80438909013174 374.41314496827545 0 374.41314496827545 542.14443248032831 0 0 0 0 374.83303410247754 328.91598479227287 0 328.91598479227287 418.88381080386898 0 0 0 0 200.2704012835602 373.949937772466 0 373.949937772466 412.45738915295806 0 0 0 0 316.28306901588803 411.31460968375177 0 411.31460968375177 302.9244856192081 0 0 0 0 233.66015542853711 325.04346641443681 0 325.04346641443681 218.84955308593999 0 0 0 0 203.33163699625584 439.01604037295874 0 439.01604037295874 377.25828964125685 0 0 0 0 169.69201786948543 279.88988735968087 0 279.88988735968087 326.67819413428151 0 0 0 0 183.45074701478734 382.43878982858587 0 382.43878982858587 481.20510665358961 0 0 0 0 1.4470561303351133 26.128354975576258 0 26.128354975576258 1.2421450120195914 0 0 0 0 68.723045122236726 42.785455890278627 0 42.785455890278627 -10.374743548409242 0 0 0 0 -60.749794826464495 39.841875739242596 0 39.841875739242596 8.308647218523447 0 0 0 0 -82.770343682102975 17.638873570325529 0 17.638873570325529 -6.5417847799511719 0 0 0 0 3.217242992730462 -10.558529579899783 0 -10.558529579899783 46.518936263661516 0 0 0 0 -0.011598567375723956 5.2541043215794403 0 5.2541043215794403 7.9865379630405338 0 0 0 0 97.325333892997151 43.276886908094752 0 43.276886908094752 -14.907574533405068 0 0 0 0 -158.01586834421869 31.543100939346914 0 31.543100939346914 21.506777773255635 0 0 0 0 -136.24638244882226 9.5391779894869728 0 9.5391779894869728 11.724047951508965 0 0 0 0 -139.96140453852786 45.904709387604157 0 45.904709387604157 3.0370533222476297 0 0 0 0 -134.95407999947201 35.115848745934159 0 35.115848745934159 11.237055812139261 0 0 0 0 -2.6110629509512364 26.264216168767348 0 26.264216168767348 3.7544527110235322 0 0 0 0 11.937317320789056 19.658652568622891 0 19.658652568622891 7.0641010083907014 0 0 0 0 -12.032949696200376 38.015912857807962 0 38.015912857807962 -0.16696799397819007 0 0 0 0 14.309077215541038 28.203794848809594 0 28.203794848809594 -1.7795139836890712 0 0 0 0 12.212465892429464 33.371431777552857 0 33.371431777552857 5.3195867630257681 0 0 0 0 20.229317687478215 30.230014006486044 0 30.230014006486044 0.3486426684989965 0 0 0 0 1.5989540611517441 27.82179291875218 0 27.82179291875218 9.2744776280001133 0 0 0 0 13.267680650085822 35.826625552687801 0 35.826625552687801 2.5926730024211793 0 0 0 0 16.905922020916478 39.841006402615676 0 39.841006402615676 -45.914715230945149 0 0 0 0 12.627904187147948 22.710563556348724 0 22.710563556348724 17.179658035215386 0 0 0 0 15.585797274987726 22.894766021737951 0 22.894766021737951 -11.300078045620467 0 0 0 0 19.851785191215185 48.602127550093201 0 48.602127550093201 -26.947052729014104 0 0 0 0 -6.2875671504043567 51.387307157539908 0 51.387307157539908 -14.156658762369261 0 0 0 0 23.002102020873281 31.872068777653112 0 31.872068777653112 -15.149594876844276 0 0 0 0 23.140020073289634 57.48451275602747 0 57.48451275602747 -14.619515799793589 0 0 0 0 -6.9430093901173677 52.857934197634677 0 52.857934197634677 -17.223665100817016 0 0 0 0 -4.1480503505445085 58.888837001559295 0 58.888837001559295 -6.5904400005813386 0 0 0 0 -12.272756966718589 60.924753647523175 0 60.924753647523175 -6.8619547151470215 0 0 0 0 0.73703777250223368 22.624431318486138 0 22.624431318486138 14.910698846391504 0 0 0 0 -23.992457395954261 39.047062891605947 0 39.047062891605947 4.1882591934663651 0 0 0 0 -56.074333445794764 48.701927398502448 0 48.701927398502448 24.643712396597039 0 0 0 0 5.5392198579795782 9.3610869862047181 0 9.3610869862047181 11.654371780698458 0 0 0 0 -21.818166312848916 33.816588907302503 0 33.816588907302503 2.2381706185042276 0 0 0 0 7.4978514405857375 19.890294806770164 0 19.890294806770164 6.5629975423946831 0 0 0 0 -56.992344364167366 48.829871997485725 0 48.829871997485725 27.480812340426382 0 0 0 0 0.54705858745479929 36.080750255932415 0 36.080750255932415 21.153303570401981 0 0 0 0 23.511126064370291 41.579853931061656 0 41.579853931061656 -14.97281255764193 0 0 0 0 1.8654552111183875 47.476147263315738 0 47.476147263315738 26.056474888371667 0 0 0 0 -43.387698082377028 48.528431737453502 0 48.528431737453502 10.828081270254188 0 0 0 0 31.104458870009694 2.0719199125451269 0 2.0719199125451269 -30.358067035358545 0 0 0 0 16.683091882050576 137.93323676043974 0 137.93323676043974 64.240885089355288 0 0 0 0 5.9576331708420653 8.9610483203898141 0 8.9610483203898141 -0.28770255899422637 0 0 0 0 15.87872727458695 30.037713144206045 0 30.037713144206045 -4.1489116297808977 0 0 0 0 -38.55459773943403 43.809286247494128 0 43.809286247494128 -5.7513789393706247 0 0 0 0 -16.269469417445947 47.550569165278404 0 47.550569165278404 24.110833458349514 0 0 0 0 -46.396135355975275 53.073717503904845 0 53.073717503904845 -12.827603179417565 0 0 0 0 -13.613498452840901 26.69892135628595 0 26.69892135628595 28.021859536984412 0 0 0 0 -36.365228181119164 61.047689980936411 0 61.047689980936411 27.746160904127237 0 0 0 0 -36.249943286751659 59.843403041252941 0 59.843403041252941 19.564871359682911 0 0 0 0 -2.9790899551662733 62.734065419341277 0 62.734065419341277 -25.9712740983814 0 0 0 0 -26.388328048211406 76.695347423011299 0 76.695347423011299 -29.24489831934261 0 0 0 0 -4.2466800114964087 33.148322653865392 0 33.148322653865392 6.7550354093333169 0 0 0 0 -14.024870534696674 38.83929424748203 0 38.83929424748203 9.5374304881734133 0 0 0 0 -23.299809672350943 41.940401050234328 0 41.940401050234328 -22.18165799719451 0 0 0 0 -8.1615184063812194 45.287749910050479 0 45.287749910050479 -2.6713799744684366 0 0 0 0 -20.512380832384224 58.960787873452318 0 58.960787873452318 -54.126823901693569 0 0 0 0 29.684134451359569 5.2982905156663946 0 5.2982905156663946 27.479829229231427 0 0 0 0 7.6358913171643508 88.408850191878173 0 88.408850191878173 2.294603667813135 0 0 0 0 1.892351373208669 4.2613876405694766 0 4.2613876405694766 -5.9950089828907176 0 0 0 0 -25.836718666705565 77.654481505329954 0 77.654481505329954 44.957837004875728 0 0 0 0 15.956963473923679 63.301485166411112 0 63.301485166411112 16.988246240955505 0 0 0 0 31.840377442204044 95.599371744006817 0 95.599371744006817 55.570765933025314 0 0 0 0 15.265268145878508 67.436299993605417 0 67.436299993605417 85.781453792822276 0 0 0 0 12.002812984901539 80.215348394011698 0 80.215348394011698 36.229440115470425 0 0 0 0 -49.163776221204898 70.713622234232162 0 70.713622234232162 42.30570952022299 0 0 0 0 -27.540712159488066 69.138013835954951 0 69.138013835954951 26.82512198385939 0 0 0 0 -45.923093584780872 58.872689386920342 0 58.872689386920342 30.444012081330584 0 0 0 0 15.112568130141881 52.455288521796319 0 52.455288521796319 2.402957914986473 0 0 0 0 -10.2600340166655 26.682182055874023 0 26.682182055874023 -12.717815299753198 0 0 0 0 10.988363048442352 69.498986324819725 0 69.498986324819725 2.9615653252476477 0 0 0 0 -0.59887281473311305 67.0448167484642 0 67.0448167484642 6.682612455511844 0 0 0 0 9.2596951324498171 32.927814002280286 0 32.927814002280286 -14.547756998915746 0 0 0 0 -9.971433244076584 36.223279094016128 0 36.223279094016128 -8.3786103031509356 0 0 0 0 -1.8973593571499805 51.361443677278658 0 51.361443677278658 0.72487992977676186 0 0 0 0 -7.7570380490201387 54.593940963757632 0 54.593940963757632 5.9731086008177954 0 0 0 0 -18.314253452226964 28.220805522163666 0 28.220805522163666 -14.585286587700132 0 0 0 0 -61.224159445948317 100.77607892060337 0 100.77607892060337 -21.096832187153268 0 0 0 0 -100.89577073632972 14.767023982365799 0 14.767023982365799 9.4293056951762537 0 0 0 0 65.094502043227294 92.301077356015071 0 92.301077356015071 20.112804125742969 0 0 0 0 -8.178821306086455 10.608823209337743 0 10.608823209337743 -6.5806762480476628 0 0 0 0 22.226633296697401 67.252441108809535 0 67.252441108809535 11.464856446445083 0 0 0 0 -31.237265342348969 45.823279521597598 0 45.823279521597598 3.0458369778538561 0 0 0 0 42.412475393289469 61.149977367639849 0 61.149977367639849 -13.671794540741757 0 0 0 0 46.323806618757772 78.266403805208938 0 78.266403805208938 -9.8924747670926081 0 0 0 0 -253.61912761364874 -165.18888749409427 0 -165.18888749409427 56.358758756927614 0 0 0 0 -27.551422804606652 43.304156544455225 0 43.304156544455225 -6.6489076409333299 0 0 0 0 153.1158713789564 154.19348618051689 0 154.19348618051689 -55.468111573035458 0 0 0 0 -3.3202352972831193 3.852732366298369 0 3.852732366298369 -1.6853950630273018 0 0 0 0 162.7155570699324 50.671248862696359 0 50.671248862696359 -15.939243310635788 0 0 0 0 76.909154577864683 21.814501992241276 0 21.814501992241276 70.246311070326556 0 0 0 0 74.60617502163268 112.64469387856323 0 112.64469387856323 -45.5566478029059 0 0 0 0 33.851127814967185 132.69200488348048 0 132.69200488348048 -47.583575911993194 0 0 0 0 46.36922353783666 114.37926534774056 0 114.37926534774056 -25.778687690241895 0 0 0 0 -9.8893099602864822 115.68750590552145 0 115.68750590552145 -24.494873688131293 0 0 0 0 -28.994779756772914 258.81970645138301 0 258.81970645138301 -115.19883826798696 0 0 0 0 46.082167268097692 162.17735159956146 0 162.17735159956146 -26.133040161826045 0 0 0 0 -203.07098394332706 486.98929424801025 0 486.98929424801025 3.5719023962033134 0 0 0 0 59.770901829222566 -91.144880734044818 0 -91.144880734044818 5.2902307322374327 0 0 0 0 -591.84495284185687 -258.5984701858265 0 -258.5984701858265 39.801352882902393 0 0 0 0 -46.660494302515872 70.263488646285509 0 70.263488646285509 14.110023050497603 0 0 0 0 -60.558866427418252 47.45457343731573 0 47.45457343731573 19.314567714865916 0 0 0 0 -63.661001002670673 54.586135307867949 0 54.586135307867949 3.9793795682093105 0 0 0 0 -84.160822780359013 50.233730837535404 0 50.233730837535404 21.788152594895791 0 0 0 0 -57.783934501152544 50.052253720725503 0 50.052253720725503 15.712880265997455 0 0 0 0 -67.760849868614969 53.536069773642623 0 53.536069773642623 34.543682405711479 0 0 0 0 -37.023145499812017 52.399854079130535 0 52.399854079130535 32.386833543985631 0 0 0 0 -55.230786643522151 66.408047924903258 0 66.408047924903258 23.598672500991995 0 0 0 0 -6.8386750097270124 51.708179603615292 0 51.708179603615292 50.33607297051654 0 0 0 0 -29.10247393721238 74.018925306590802 0 74.018925306590802 28.820790932220916 0 0 0 0 23.696112571677077 77.808832315757996 0 77.808832315757996 17.145091447788218 0 0 0 0 15.062682898140338 83.703132127463505 0 83.703132127463505 -13.94704374029584 0 0 0 0 78.99665657375408 42.100054572865567 0 42.100054572865567 12.03372740324528 0 0 0 0 -29.084509386972059 52.03747199518682 0 52.03747199518682 31.878564884684479 0 0 0 0 18.339229299628641 59.277748567236927 0 59.277748567236927 0.51305241862610274 0 0 0 0 -26.962919882399547 58.113923711065794 0 58.113923711065794 1.8019555540590773 0 0 0 0 -30.058087650037123 75.805531988562834 0 75.805531988562834 -5.0443789457749517 0 0 0 0 3.4089706577651668 84.988898243904032 0 84.988898243904032 -13.455528902973754 0 0 0 0 4.4455681546023698 83.539707539035589 0 83.539707539035589 -12.370853162268304 0 0 0 0 -4.4282855649653357 108.29362021417774 0 108.29362021417774 -16.476176331369061 0 0 0 0 -20.644931118411478 85.091943485966567 0 85.091943485966567 -14.593250807924051 0 0 0 0 -39.732435818109479 67.078633127408352 0 67.078633127408352 -7.4921888439184841 0 0 0 0 -35.70281587295176 86.50547142204141 0 86.50547142204141 -9.5921130589101722 0 0 0 0 -67.394679883630715 50.81462803539592 0 50.81462803539592 0.86815356528813936 0 0 0 0 -84.821033510525012 71.370624985653649 0 71.370624985653649 -3.8222234711047349 0 0 0 0 -68.027330011464073 66.70752276988776 0 66.70752276988776 2.2095648694730698 0 0 0 0 -102.77196490142524 46.235451767629002 0 46.235451767629002 11.763792334941058 0 0 0 0 -98.529868763893319 37.330686448991401 0 37.330686448991401 8.1485599939428539 0 0 0 0 -117.28745988009905 36.946827526226571 0 36.946827526226571 -2.2688112541609371 0 0 0 0 -117.76308498781873 54.822126701915749 0 54.822126701915749 4.7063445433295783 0 0 0 0 -116.49857176160003 51.104104287070186 0 51.104104287070186 -4.970525484251084 0 0 0 0 -133.46178897324717 63.225546848343583 0 63.225546848343583 -3.5545724151070317 0 0 0 0 -151.75410774687043 40.258520164251877 0 40.258520164251877 -13.851184524470227 0 0 0 0 -99.4851863113945 65.852574372268464 0 65.852574372268464 -10.756703388710321 0 0 0 0 -90.791215951299819 80.590686784814125 0 80.590686784814125 -5.1172748544886417 0 0 0 0 -82.536321596773632 61.514968080983635 0 61.514968080983635 -6.9827508704838692 0 0 0 0 -59.057441673707217 72.774383400902934 0 72.774383400902934 -12.739834045773023 0 0 0 0 -60.112499177063 89.125463098296223 0 89.125463098296223 -7.8057461915173008 0 0 0 0 -33.921588973724283 100.10262425197584 0 100.10262425197584 -10.297184768937768 0 0 0 0 -32.280889546476828 100.56551436060886 0 100.56551436060886 -18.301172786121242 0 0 0 0 -59.855004213764914 86.981323631601299 0 86.981323631601299 -7.8895972139390551 0 0 0 0 -69.363632679327566 94.024731098325447 0 94.024731098325447 -4.082175468258356 0 0 0 0 -109.3937737818851 78.937063603052593 0 78.937063603052593 3.9936397029759974 0 0 0 0 -50.79373234220111 83.106674310557992 0 83.106674310557992 6.7062813965840178 0 0 0 0 -42.95558130430436 110.02133583784325 0 110.02133583784325 10.622068304015556 0 0 0 0 -71.290344654895307 97.923640498538134 0 97.923640498538134 18.162034327215224 0 0 0 0 -61.875617286350462 79.975230916305009 0 79.975230916305009 1.1474979506683667 0 0 0 0 -80.900944393510144 78.176320509222933 0 78.176320509222933 -6.5198572885892645 0 0 0 0 -127.52849670982687 75.448051759380178 0 75.448051759380178 15.12996151319021 0 0 0 0 -131.80950740657136 60.637918954948873 0 60.637918954948873 -7.596107146837312 0 0 0 0 -169.43905617217388 65.682336717072758 0 65.682336717072758 4.0655468276308966 0 0 0 0 -125.65501448987197 74.947965982705682 0 74.947965982705682 -0.96010381706037151 0 0 0 0 -110.77085079951939 64.790263722047712 0 64.790263722047712 -11.264252127867621 0 0 0 0 23.97496766154427 50.608131262813401 0 50.608131262813401 21.81501198200931 0 0 0 0 228.98156516431118 69.268550536745011 0 69.268550536745011 -28.046084603210147 0 0 0 0 -28.090296071985193 43.138406071722756 0 43.138406071722756 -8.6845017216825884 0 0 0 0 -27.461499153811019 77.089171146397348 0 77.089171146397348 -2.1993749868452142 0 0 0 0 -29.782896289289056 84.380203172741858 0 84.380203172741858 40.431626594092165 0 0 0 0 -5.6845483812794555 161.63580558743615 0 161.63580558743615 -22.305005063273484 0 0 0 0 -146.78143241566431 131.79677216631467 0 131.79677216631467 37.160256256743196 0 0 0 0 -9.0697869215432547 120.07941866417502 0 120.07941866417502 -17.788205351032957 0 0 0 0 -22.629569446275127 116.10383265284736 0 116.10383265284736 -4.7092170044538761 0 0 0 0 -25.242770639364608 110.38817936902615 0 110.38817936902615 -8.7757308983755138 0 0 0 0 -60.117939429132093 87.824843070146926 0 87.824843070146926 26.549114842792733 0 0 0 0 -18.958075348069542 101.27794001482289 0 101.27794001482289 8.2080843840558373 0 0 0 0 37.097597706218949 94.681607442389577 0 94.681607442389577 9.7054138592793606 0 0 0 0 -18.294762462622884 81.977307489353493 0 81.977307489353493 22.348189644279046 0 0 0 0 33.988454883219674 94.65527015094267 0 94.65527015094267 10.615346712013888 0 0 0 0 112.26991414387521 56.576780936713021 0 56.576780936713021 0.69933558149841701 0 0 0 0 33.535462071908114 82.346561951559124 0 82.346561951559124 18.397027346960385 0 0 0 0 118.07609733617574 75.103681815089658 0 75.103681815089658 26.286209742032952 0 0 0 0 119.33975207194453 89.23492838040147 0 89.23492838040147 11.417904653499136 0 0 0 0 140.19647264141531 83.140241051187331 0 83.140241051187331 11.519263346985099 0 0 0 0 113.49312315812131 70.608377744444624 0 70.608377744444624 18.69872894240325 0 0 0 0 94.161419325086172 90.103850438919835 0 90.103850438919835 20.874712994002039 0 0 0 0 29.09121378378768 95.861123540926201 0 95.861123540926201 27.527560484712012 0 0 0 0 85.360027703314699 79.260762849978619 0 79.260762849978619 11.984714577887644 0 0 0 0 75.513777065483737 84.314782050940266 0 84.314782050940266 29.631536962493556 0 0 0 0 32.761079350035288 84.354995751826209 0 84.354995751826209 33.316186003721668 0 0 0 0 76.445452660181218 91.015094412218673 0 91.015094412218673 14.686965354499989 0 0 0 0 -11.35358754893241 77.636239776140428 0 77.636239776140428 25.212637975947473 0 0 0 0 15.500134322377562 75.546855070580932 0 75.546855070580932 16.5143870716538 0 0 0 0 -22.622128464969137 100.78716537250602 0 100.78716537250602 30.194200415788146 0 0 0 0 -30.05089744434008 82.451013294790755 0 82.451013294790755 10.493698906811915 0 0 0 0 -46.36654993108823 95.951683720148594 0 95.951683720148594 37.275728150427312 0 0 0 0 -29.434208148995822 82.060394911424737 0 82.060394911424737 25.785006975394936 0 0 0 0 -69.711760557089292 95.049584160038648 0 95.049584160038648 42.543431598467578 0 0 0 0 -42.970268611956271 90.58963629165919 0 90.58963629165919 27.51047663989084 0 0 0 0 -81.556910636369139 98.006252541064896 0 98.006252541064896 37.6933776630176 0 0 0 0 -42.098941476579057 98.816329632722045 0 98.816329632722045 35.34151543454027 0 0 0 0 15.615918089570187 90.18014763381143 0 90.18014763381143 25.984340064740536 0 0 0 0 21.141618776011455 85.679103840060634 0 85.679103840060634 26.47827390818702 0 0 0 0 31.744265100642224 110.24159425914968 0 110.24159425914968 31.517524331131426 0 0 0 0 25.752176094654715 103.15450788696626 0 103.15450788696626 20.771933008283668 0 0 0 0 -21.002742568831309 96.719736119099252 0 96.719736119099252 38.105180754148023 0 0 0 0 53.138040562625974 85.08049322651641 0 85.08049322651641 32.616315528937776 0 0 0 0 92.927763014489756 81.736015787930683 0 81.736015787930683 29.630862142141268 0 0 0 0 86.114110968403111 101.96946761384606 0 101.96946761384606 18.520822924732784 0 0 0 0 100.22835500481597 92.600014701843975 0 92.600014701843975 8.5040248671793961 0 0 0 0 152.42441359635995 89.572207538913062 0 89.572207538913062 10.364379061775253 0 0 0 0 100.74458597785269 98.446260656804952 0 98.446260656804952 38.436021724985039 0 0 0 0 155.94264457238751 100.23530287302356 0 100.23530287302356 24.687244225839095 0 0 0 0 115.49100856567384 100.14636513839832 0 100.14636513839832 20.514317389455755 0 0 0 0 166.27919591530008 81.535155391157332 0 81.535155391157332 8.2586948210082483 0 0 0 0 -146.89488510055162 65.319565636320021 0 65.319565636320021 24.626683264286839 0 0 0 0 -192.4053690086148 47.258140000818457 0 47.258140000818457 24.165932832200269 0 0 0 0 -191.70681920730203 41.503953922256642 0 41.503953922256642 7.7900856890373689 0 0 0 0 -180.69055113968898 62.427230176267813 0 62.427230176267813 9.6812085315923468 0 0 0 0 -149.46885385415953 51.68952488456307 0 51.68952488456307 -1.5272142950962007 0 0 0 0 -99.166751993099751 82.104930273007085 0 82.104930273007085 24.500381333129553 0 0 0 0 -104.6799161896779 65.59994093901696 0 65.59994093901696 2.2461221719740934 0 0 0 0 -55.484065340151574 78.435145604742047 0 78.435145604742047 22.9259954503068 0 0 0 0 -82.353926878200582 71.989527218417152 0 71.989527218417152 12.033855370886158 0 0 0 0 -75.656915253770421 89.820215692909187 0 89.820215692909187 34.02045352872301 0 0 0 0 -120.84224219043972 76.478573555724324 0 76.478573555724324 35.523737457653624 0 0 0 0 -126.45294854354142 58.818347760379766 0 58.818347760379766 14.842112750557135 0 0 0 0 -143.93764666900097 72.089387155661825 0 72.089387155661825 43.997647091795443 0 0 0 0 -103.14993216514267 68.6942161612169 0 68.6942161612169 26.33383352038436 0 0 0 0 -99.145858807976765 85.856044024818402 0 85.856044024818402 40.747565736523029 0 0 0 0 -73.042027571020299 78.537192002650045 0 78.537192002650045 30.555156865226309 0 0 0 0 -117.71194808831751 88.600917278351289 0 88.600917278351289 43.768447600614309 0 0 0 0 -88.903465924435295 82.872931281672209 0 82.872931281672209 36.110469839950383 0 0 0 0 -122.89434453552622 67.973063800853879 0 67.973063800853879 37.094046433896438 0 0 0 0 -168.19081739551621 75.430627737334362 0 75.430627737334362 47.968404631415979 0 0 0 0 -180.66290183417004 54.60319328723017 0 54.60319328723017 48.24064145862576 0 0 0 0 -171.77101510248031 51.769196889994419 0 51.769196889994419 44.471003147102238 0 0 0 0 -148.6102973009929 53.655498082881877 0 53.655498082881877 31.619925617975241 0 0 0 0 -163.0177444039 58.006734106609656 0 58.006734106609656 37.665723782018176 0 0 0 0 -165.83708977188962 46.3539534950487 0 46.3539534950487 17.947201312130346 0 0 0 0 -194.90109271264555 50.200911041675454 0 50.200911041675454 26.949385706324392 0 0 0 0 -197.66869413956738 41.930432747858504 0 41.930432747858504 40.533773073397242 0 0 0 0 -183.57939215315764 42.913849937092436 0 42.913849937092436 39.035294183337101 0 0 0 0 -193.35014814342867 45.180067595658329 0 45.180067595658329 42.841896482726952 0 0 0 0 -194.04510321400448 40.003691336138218 0 40.003691336138218 48.948712317753234 0 0 0 0 -166.05624438621453 35.368458688693863 0 35.368458688693863 36.214609143302368 0 0 0 0 -130.01202051592554 87.311878770120529 0 87.311878770120529 21.154506549088183 0 0 0 0 -56.804832284047734 36.852210970660963 0 36.852210970660963 262.88072520198239 0 0 0 0 83.781210230110446 288.26630546968408 0 288.26630546968408 -303.32396015722043 0 0 0 0 -194.13408891896688 98.083505692677136 0 98.083505692677136 24.227677839140597 0 0 0 0 -255.07592626068799 104.37598589227309 0 104.37598589227309 32.636657596973237 0 0 0 0 -199.17473391778185 41.744195933859373 0 41.744195933859373 40.95205118101876 0 0 0 0 -32.340107790347247 13.280178634108779 0 13.280178634108779 -5.9010909589032963 0 0 0 0 -3.8398486838241492 3.0472202894924756 0 3.0472202894924756 -1.6276700175222203 0 0 0 0 152.39190000676899 103.70026839481216 0 103.70026839481216 40.734259188317708 0 0 0 0 15.449651435934356 67.866155049581721 0 67.866155049581721 37.496170395212175 0 0 0 0 187.31626848089218 77.934710616322263 0 77.934710616322263 -8.9300608705507329 0 0 0 0 -35.218213985164766 -23.022493591230841 0 -23.022493591230841 11.634519561492198 0 0 0 0 -11.647008650642853 15.556674665237409 0 15.556674665237409 -0.20147384170256188 0 0 0 0 -37.800042830358507 60.457497484536589 0 60.457497484536589 36.180905682223965 0 0 0 0 47.717424858020763 22.799153301133799 0 22.799153301133799 -25.255279848401187 0 0 0 0 48.694700582876976 43.288737391558243 0 43.288737391558243 -2.7472441235440783 0 0 0 0 193.46534135322145 -22.213716805664717 0 -22.213716805664717 -18.360578302519571 0 0 0 0 -339.3863701643204 56.209752212697822 0 56.209752212697822 53.404833912113645 0 0 0 0 -198.03952505583948 19.42692178605671 0 19.42692178605671 -26.912821315657311 0 0 0 0 0.22118439163022519 2.9976269186901305 0 2.9976269186901305 1.2260360893979581 0 0 0 0 259.690638897795 49.937858015353868 0 49.937858015353868 -95.247281434228171 0 0 0 0 -246.40959685268899 39.142239352638171 0 39.142239352638171 32.493293861931306 0 0 0 0 -277.38932794557331 13.183137430272836 0 13.183137430272836 8.7267379854001774 0 0 0 0 -168.90745137756915 50.388632231036325 0 50.388632231036325 -28.427756662338652 0 0 0 0 -194.99842817377066 64.951854087824813 0 64.951854087824813 -5.5087570622790736 0 0 0 0 -238.09743724737837 38.05503828282977 0 38.05503828282977 15.188083331639064 0 0 0 0 0.42216339821797977 4.9632152878758546 0 4.9632152878758546 4.3080974209702898 0 0 0 0 23.078037864779617 -35.378665170544764 0 -35.378665170544764 52.978178232242954 0 0 0 0 124.10152911840305 35.652930215305275 0 35.652930215305275 -25.252033869378863 0 0 0 0 -2.7038625187033176 32.669855034414184 0 32.669855034414184 5.131533649112157 0 0 0 0 -10.516712311682568 4.9113721093373215 0 4.9113721093373215 36.891086320381874 0 0 0 0 11.777513897715068 19.42725585620656 0 19.42725585620656 7.0495914726635434 0 0 0 0 -165.60977880671271 17.91667362725957 0 17.91667362725957 -14.542611761631633 0 0 0 0 -129.19019702595324 44.948630576444202 0 44.948630576444202 -6.6776267747586644 0 0 0 0 35.58086456962701 38.897616624258603 0 38.897616624258603 0.24394984754860616 0 0 0 0 -4.9797123698722956 8.3251323928069567 0 8.3251323928069567 -19.737834676594968 0 0 0 0 19.973827063280623 26.807346609730757 0 26.807346609730757 2.6779831661908986 0 0 0 0 12.701795250428404 23.019452279646089 0 23.019452279646089 2.5733066313573545 0 0 0 0 80.245708325914165 88.898596968488619 0 88.898596968488619 43.772187995491549 0 0 0 0 44.14815556814392 21.822372994003217 0 21.822372994003217 19.570038381918494 0 0 0 0 53.249280376459865 88.048196735280726 0 88.048196735280726 119.17952403500203 0 0 0 0 7.8496177270536904 20.352324552621656 0 20.352324552621656 5.4869796713067185 0 0 0 0 61.600529363013266 64.979252281567824 0 64.979252281567824 44.943495596126013 0 0 0 0 0.6055548630854517 6.2436893271555078 0 6.2436893271555078 -10.995423711966369 0 0 0 0 108.772379074333 122.74643909854058 0 122.74643909854058 70.187387240812768 0 0 0 0 -0.37131215678085994 1.6915958559429214 0 1.6915958559429214 -1.0151987820152684 0 0 0 0 105.31884880902362 103.78099023303366 0 103.78099023303366 68.542400580001413 0 0 0 0 121.43874038255308 105.08876623523611 0 105.08876623523611 40.698137406609021 0 0 0 0 118.40566679427138 120.22172407394828 0 120.22172407394828 54.938167245785735 0 0 0 0 112.36415021912399 124.16046108408409 0 124.16046108408409 57.496411252144753 0 0 0 0 112.24575333581015 118.50463248184133 0 118.50463248184133 69.836106047879639 0 0 0 0 117.2900608801574 127.43041632621225 0 127.43041632621225 41.64531566781443 0 0 0 0 142.85711556652677 125.93416436447296 0 125.93416436447296 36.321710125890604 0 0 0 0 73.142521820464026 143.3958257283839 0 143.3958257283839 76.230739933499535 0 0 0 0 99.996457891254977 153.41532794042041 0 153.41532794042041 73.331699631666197 0 0 0 0 128.3980242903308 268.4394730083759 0 268.4394730083759 134.20036696414445 0 0 0 0 214.81638438819573 216.55421986095803 0 216.55421986095803 -9.535884760947738 0 0 0 0 60.686470571042719 164.00915584935649 0 164.00915584935649 239.17746103591617 0 0 0 0 70.412088817189215 66.419208939668351 0 66.419208939668351 176.12922637174461 0 0 0 0 -50.767933246068424 119.7053751700264 0 119.7053751700264 246.74277100531458 0 0 0 0 69.11957807874569 121.80786024868758 0 121.80786024868758 189.51272916903736 0 0 0 0 0.79244207269122668 2.1368420891766462 0 2.1368420891766462 1.2312486137518377 0 0 0 0 -257.89600952600449 100.11901042565796 0 100.11901042565796 245.71985390265854 0 0 0 0 -90.421323797287187 -23.789312222332683 0 -23.789312222332683 65.988291515162018 0 0 0 0 82.567375789029029 150.84102421697344 0 150.84102421697344 240.48012602525341 0 0 0 0 330.06904017047054 24.498327134298961 0 24.498327134298961 20.918531430774237 0 0 0 0 4.6302640080130359 3.1274260909296494 0 3.1274260909296494 -0.95788892379594159 0 0 0 0 218.32197492817886 154.89416736099764 0 154.89416736099764 -17.562026369612795 0 0 0 0 201.56824853160833 -28.212540128138244 0 -28.212540128138244 153.88860432794763 0 0 0 0 5.311263062452781 13.552845101444291 0 13.552845101444291 303.37371845100893 0 0 0 0 70.407511466110918 52.783817435053663 0 52.783817435053663 54.461843692710318 0 0 0 0 58.930676914969808 105.19761054556147 0 105.19761054556147 44.969632018410721 0 0 0 0 44.884062588220331 158.67260148941841 0 158.67260148941841 31.014659113342077 0 0 0 0 59.9523015984214 81.157700270475516 0 81.157700270475516 1.7297768132953024 0 0 0 0 80.233821295201778 95.840065247779421 0 95.840065247779421 3.2723412463865316 0 0 0 0 65.092972292504328 81.184892665897792 0 81.184892665897792 59.472839113558621 0 0 0 0 56.9980251259949 33.2484115703528 0 33.2484115703528 -5.0283786223917559 0 0 0 0 106.60048448292582 69.441990493867706 0 69.441990493867706 62.130421549521998 0 0 0 0 -180.4742972724398 266.71326711625193 0 266.71326711625193 158.51232812463786 0 0 0 0 -90.669212371052708 61.421822107512071 0 61.421822107512071 263.04042082404567 0 0 0 0 93.828295830076968 107.66875964262636 0 107.66875964262636 -14.862336946679534 0 0 0 0 30.924265942638158 120.60154998013195 0 120.60154998013195 67.88447624451419 0 0 0 0 -1.1979662485682638 176.99254896945968 0 176.99254896945968 -31.045179991336795 0 0 0 0 -80.020471429721511 85.525559897252833 0 85.525559897252833 175.59433325093551 0 0 0 0 -46.637811284876079 104.67560106692804 0 104.67560106692804 64.618402743802221 0 0 0 0 -18.880197965030675 76.891803053179729 0 76.891803053179729 64.201747567047278 0 0 0 0 5.6301767747172562 72.328113322554827 0 72.328113322554827 49.260794814821566 0 0 0 0 -67.999661317831851 -35.797988372352393 0 -35.797988372352393 386.46553157209382 0 0 0 0 -107.7480384727387 109.21797641938338 0 109.21797641938338 -108.46347332072855 0 0 0 0 -269.0338994859485 34.636107749438452 0 34.636107749438452 309.24200113098777 0 0 0 0 -5.2747011589754571 61.290096317430176 0 61.290096317430176 44.670087761147343 0 0 0 0 51.165764497840428 251.59806819972619 0 251.59806819972619 155.4351992262782 0 0 0 0 -78.142551855624333 38.37032116593241 0 38.37032116593241 -37.416077382007643 0 0 0 0 -88.420237401802297 64.491245910156067 0 64.491245910156067 14.399828968271322 0 0 0 0 -51.993778379659489 161.71751408088949 0 161.71751408088949 52.969274310718902 0 0 0 0 39.493092077933397 134.31501076787572 0 134.31501076787572 44.450074219142152 0 0 0 0 -69.244665179154254 117.31938519421783 0 117.31938519421783 50.65954395576955 0 0 0 0 -25.396468943528816 161.6020262607351 0 161.6020262607351 -39.637740884030791 0 0 0 0 -18.228300542534271 195.60861323220979 0 195.60861323220979 11.874963466395457 0 0 0 0 -42.284942062644404 99.74943064520312 0 99.74943064520312 -81.990143668477685 0 0 0 0 -5.0485249505672982 131.03641635298641 0 131.03641635298641 50.050268250424324 0 0 0 0 54.561795477600569 72.649315353237014 0 72.649315353237014 48.216980957213778 0 0 0 0 -31.153172321326565 80.120743665858754 0 80.120743665858754 39.111359442407775 0 0 0 0 -20.104378922055531 43.058621373218962 0 43.058621373218962 43.669562004173173 0 0 0 0 -15.341872449527727 45.379043547815854 0 45.379043547815854 7.4382415729323839 0 0 0 0 -26.718609078176087 74.712695334626574 0 74.712695334626574 68.054003350550374 0 0 0 0 -13.75656431314046 51.656184442253576 0 51.656184442253576 58.386365109279623 0 0 0 0 -34.728363535041353 56.872153273916524 0 56.872153273916524 61.475201790903157 0 0 0 0 -30.161985888914074 35.956204435614097 0 35.956204435614097 6.0854911134143386 0 0 0 0 -16.446188007879272 43.157987091901539 0 43.157987091901539 19.676824012867606 0 0 0 0 -18.158697007502724 63.304979758359309 0 63.304979758359309 64.926699602525332 0 0 0 0 -33.570334633646553 20.196183611615808 0 20.196183611615808 8.3699500820315045 0 0 0 0 -46.467289616484777 10.064915012455231 0 10.064915012455231 84.296302925180498 0 0 0 0 -31.43450082061463 91.092003964316973 0 91.092003964316973 -30.037434112389747 0 0 0 0 -28.043089698367112 74.58341657384517 0 74.58341657384517 -9.2235711912180705 0 0 0 0 -24.017165662895422 52.688633522990131 0 52.688633522990131 -15.373084839491639 0 0 0 0 -9.4089413874826278 -1.3017081043167309 0 -1.3017081043167309 54.25480322123326 0 0 0 0 -19.899560610736074 28.704012788721386 0 28.704012788721386 8.9506158150178479 0 0 0 0 -24.745288877271406 33.429249763581751 0 33.429249763581751 -0.52685541615911546 0 0 0 0 -47.827919151488459 12.414622785784104 0 12.414622785784104 211.05107078264678 0 0 0 0 1.9659173659569262 3.5055007720715921 0 3.5055007720715921 -1.1538944725109506 0 0 0 0 23.604266061625822 71.788909008285373 0 71.788909008285373 -68.995240206081689 0 0 0 0 -15.269724524918274 143.64792608056177 0 143.64792608056177 6.477413649099617 0 0 0 0 33.586925221899037 112.39310569793952 0 112.39310569793952 -23.103404616904299 0 0 0 0 53.010239080686006 202.20132082865348 0 202.20132082865348 -55.088117248327762 0 0 0 0 9.4424225930822629 15.799140340448432 0 15.799140340448432 2.9242621826918196 0 0 0 0 -110.3819671027959 119.70821661572154 0 119.70821661572154 21.430037645683115 0 0 0 0 138.43106024675308 166.09349300422184 0 166.09349300422184 65.186989931135031 0 0 0 0 -31.888003561762162 229.27037463053421 0 229.27037463053421 45.041203660017345 0 0 0 0 61.463445964458515 104.19622914867432 0 104.19622914867432 -36.696548616661858 0 0 0 0 -147.78683379258473 269.91391003584749 0 269.91391003584749 -162.74898779997238 0 0 0 0 69.089119000138453 -17.033780035050768 0 -17.033780035050768 -291.26243362439345 0 0 0 0 2.5577561730918603 -1.7616462545395706 0 -1.7616462545395706 -5.9780989739751931 0 0 0 0 -200.13108050482515 33.779287946577824 0 33.779287946577824 15.441633112033742 0 0 0 0 -9.8143584691424621 14.557109078341455 0 14.557109078341455 6.2061373003525659 0 0 0 0 67.838412472294294 53.86522866334235 0 53.86522866334235 -30.166492797685351 0 0 0 0 55.486913764834753 42.077733337695463 0 42.077733337695463 -29.251511613092703 0 0 0 0 81.47268411665209 38.732869995759756 0 38.732869995759756 -50.483410490269307 0 0 0 0 102.5179729084266 69.337312960238705 0 69.337312960238705 -112.46613485816033 0 0 0 0 98.403174114093417 89.517789310610169 0 89.517789310610169 -57.980251801252962 0 0 0 0 75.411116422023042 60.336122779782272 0 60.336122779782272 -22.336454019226949 0 0 0 0 90.984742542248568 52.28910178746446 0 52.28910178746446 -26.997821660423142 0 0 0 0 68.368175649455225 51.122556768755203 0 51.122556768755203 -19.378348551621457 0 0 0 0 81.803743762218801 48.067722675773439 0 48.067722675773439 -17.695652221857017 0 0 0 0 90.223222180786252 49.529221824453089 0 49.529221824453089 -32.978347726884749 0 0 0 0 99.00242931381149 108.95894632132575 0 108.95894632132575 16.065434612337413 0 0 0 0 48.746670222608373 102.20135602078517 0 102.20135602078517 121.64088525674697 0 0 0 0 25.126472027752612 54.011474847858786 0 54.011474847858786 35.930205575700157 0 0 0 0 -204.39818129928244 -395.40930556479179 0 -395.40930556479179 153.717182516104 0 0 0 0 714.38317999957508 106.2132386004705 0 106.2132386004705 -576.02572877108469 0 0 0 0 -2.4175405538454484 16.98102147220299 0 16.98102147220299 15.944734982441545 0 0 0 0 15.149414101746515 36.548821323962329 0 36.548821323962329 5.9638956227681774 0 0 0 0 25.686200078256661 41.728834540338539 0 41.728834540338539 16.149298794694005 0 0 0 0 17.996776206178765 40.992658994287922 0 40.992658994287922 -29.40911715447146 0 0 0 0 19.646281206242591 29.486488170119358 0 29.486488170119358 14.782085945108818 0 0 0 0 29.754937152885759 58.804469094873639 0 58.804469094873639 -9.8595970573560408 0 0 0 0 -2.8552805349472266 22.821817198482403 0 22.821817198482403 -16.437357937917689 0 0 0 0 52.911062905107428 84.042380527046589 0 84.042380527046589 -62.579401658022107 0 0 0 0 17.821536059262144 60.891317084490765 0 60.891317084490765 -15.736078770643871 0 0 0 0 53.958976309632817 127.39419925399898 0 127.39419925399898 -55.615224919934917 0 0 0 0 69.247120180891216 78.798021876097664 0 78.798021876097664 -52.098612915080594 0 0 0 0 -104.24871366991283 39.002721034794376 0 39.002721034794376 426.07463029731662 0 0 0 0 40.980991936511529 59.232818620958149 0 59.232818620958149 42.0238014660235 0 0 0 0 8.9431880368501879 1.3174009366548489 0 1.3174009366548489 -387.74507006635395 0 0 0 0 78.089775126209133 163.16963795571428 0 163.16963795571428 -55.214053185013825 0 0 0 0 -118.45408774576572 403.39553894018172 0 403.39553894018172 -23.140093259544301 0 0 0 0 120.09473064894701 175.13031468167173 0 175.13031468167173 -539.42027452240291 0 0 0 0 -5.1595638518217797 6.3888983921856273 0 6.3888983921856273 -11.377707400470456 0 0 0 0 -573.32248259853804 -45.499556051177933 0 -45.499556051177933 440.720160187906 0 0 0 0 112.69958391530236 -0.33266946533694863 0 -0.33266946533694863 -473.49420330568819 0 0 0 0 -925.39668290774716 692.28786962144841 0 692.28786962144841 766.33181243583385 0 0 0 0 -630.29085307652713 393.68661479795264 0 393.68661479795264 -234.90155689357198 0 0 0 0 288.3962817650463 -167.54660953953135 0 -167.54660953953135 1209.774186510178 0 0 0 0 -2.2080202539440563 1.8059738942554304 0 1.8059738942554304 2.0051712001264121 0 0 0 0 -305.62427956904867 211.02591343622043 0 211.02591343622043 1139.5391275666043 0 0 0 0 67.414860447403044 -24.137361228868031 0 -24.137361228868031 -47.917368302194518 0 0 0 0 -57.582805850577643 187.97871368496908 0 187.97871368496908 -404.70089669533263 0 0 0 0 -12.209618540673546 164.30280999584375 0 164.30280999584375 35.448028364098263 0 0 0 0 146.27521438314216 188.79371730406638 0 188.79371730406638 -19.819867489026365 0 0 0 0 -155.0284641307444 639.92653718950532 0 639.92653718950532 -697.27706350007793 0 0 0 0 -598.90905052523431 356.78437297770688 0 356.78437297770688 203.88446251059941 0 0 0 0 -650.03221898869015 842.04494028732188 0 842.04494028732188 -1536.0046437899 0 0 0 0 0.62403015863348799 0.80512063967994862 0 0.80512063967994862 0.19053489003213997 0 0 0 0 23.96852333338029 33.18435537676487 0 33.18435537676487 -140.75305791298888 0 0 0 0 -636.99119162899296 336.20710468485049 0 336.20710468485049 221.108516749111 0 0 0 0 -420.06822223328345 486.78772568069689 0 486.78772568069689 -200.92604915746779 0 0 0 0 26.448287517239805 9.3226444695847022 0 9.3226444695847022 -2.0886460520782748 0 0 0 0 10.584958243420687 8.8702686017849075 0 8.8702686017849075 1.1963283672943135 0 0 0 0 -505.86582707286652 351.78057261607046 0 351.78057261607046 -48.880438810658234 0 0 0 0 24.683841814534389 19.290901824038883 0 19.290901824038883 -2.5274734104714298 0 0 0 0 252.03237299252032 633.20619647602882 0 633.20619647602882 517.26102334196185 0 0 0 0 22.874109373740794 18.013051404232101 0 18.013051404232101 -0.83235317074650084 0 0 0 0 -5.3529325626755764 8.7936604725511032 0 8.7936604725511032 -1.6373030058973796 0 0 0 0 24.14809842091563 18.060522301364472 0 18.060522301364472 -5.2144159420495271 0 0 0 0 -6.4905380029013031 987.1259156330234 0 987.1259156330234 121.27177710075193 0 0 0 0 -236.46610877837156 1173.0404955012182 0 1173.0404955012182 20.641166581968719 0 0 0 0 17.437100197450491 22.408844187501018 0 22.408844187501018 -14.73859931883635 0 0 0 0 17.936260109454452 24.113795113931701 0 24.113795113931701 -11.428890754923486 0 0 0 0 21.902556616070797 16.523231852570461 0 16.523231852570461 -3.0552407338182093 0 0 0 0 26.721705052179459 14.311964209269718 0 14.311964209269718 -9.6140083641316778 0 0 0 0 21.745955646496441 20.626263416728762 0 20.626263416728762 -17.319767708269865 0 0 0 0 8.5524480107934124 5.830908961915739 0 5.830908961915739 2.0801735884416033 0 0 0 0 -121.27840680236659 105.89346113159809 0 105.89346113159809 -209.01997139318701 0 0 0 0 -328.03536381416234 332.916511329689 0 332.916511329689 -231.04049392291563 0 0 0 0 2.2625707214197703 3.4474809340015611 0 3.4474809340015611 12.634074860548608 0 0 0 0 -37.328408623136056 46.298557795664237 0 46.298557795664237 -129.83201730368455 0 0 0 0 -270.04644206772991 79.517115101318041 0 79.517115101318041 -47.652235187095357 0 0 0 0 -245.8496038719386 304.3612790163188 0 304.3612790163188 -311.0658335558619 0 0 0 0 258.33148030656048 87.582368056087034 0 87.582368056087034 4.1222821494520758 0 0 0 0 -117.76355015271838 112.68307911341253 0 112.68307911341253 -126.67004352070762 0 0 0 0 1.6531607805687827 3.3077952655452378 0 3.3077952655452378 2.5175709965658655 0 0 0 0 94.079157275999933 116.25431255652529 0 116.25431255652529 64.778670474712271 0 0 0 0 134.63186036885872 139.3253157379138 0 139.3253157379138 53.068849172217597 0 0 0 0 -9.2392223452056612 25.260304062812104 0 25.260304062812104 -27.22706697821711 0 0 0 0 111.13746916185119 102.60143935617089 0 102.60143935617089 6.5059091114162584 0 0 0 0 12.142586146197573 34.649949123342594 0 34.649949123342594 19.362554828541761 0 0 0 0 125.00901103115029 39.417579414563079 0 39.417579414563079 -7.0312316322488186 0 0 0 0 2.387415051307471 47.576441578034064 0 47.576441578034064 29.128634227683506 0 0 0 0 7.9841553950682282 59.054459668346681 0 59.054459668346681 -56.669292048296484 0 0 0 0 3.0281446989101823 82.809012964262365 0 82.809012964262365 -26.796210282147513 0 0 0 0 -57.276572055056022 49.34931321204931 0 49.34931321204931 16.490594475224498 0 0 0 0 51.077969415284315 91.617386506082767 0 91.617386506082767 31.048519270596444 0 0 0 0 62.795396821289614 64.499953920185362 0 64.499953920185362 -25.601721987688506 0 0 0 0 54.620994061799138 76.131665843400697 0 76.131665843400697 -49.219309070074814 0 0 0 0 35.212801610086899 38.548938708998321 0 38.548938708998321 -78.919853876257548 0 0 0 0 6.737872634701489 32.081294104380504 0 32.081294104380504 -42.795220493535908 0 0 0 0 1.9629692514645285 48.80283971528479 0 48.80283971528479 -77.966777696430654 0 0 0 0 -28.128188618160493 101.19208372801586 0 101.19208372801586 -104.02200966569217 0 0 0 0 -38.355123900844774 -6.8401958896974975 0 -6.8401958896974975 -154.72508860193921 0 0 0 0 -18.651530019930306 17.14258204636031 0 17.14258204636031 27.882776892912318 0 0 0 0 -33.327228921923961 25.331253135722363 0 25.331253135722363 47.192500201534131 0 0 0 0 -39.503366095377714 -9.4498648763146775 0 -9.4498648763146775 -54.931001934079177 0 0 0 0 -97.220001855665032 145.00468440985787 0 145.00468440985787 18.553013782875496 0 0 0 0 -40.003176307977697 56.317384842499727 0 56.317384842499727 -21.142275171829056 0 0 0 0 -32.54251636093727 64.411032524610846 0 64.411032524610846 -39.347496790716292 0 0 0 0 130.45072529283425 56.38581886634347 0 56.38581886634347 -77.054667265783792 0 0 0 0 -137.37282928868444 85.177650656517471 0 85.177650656517471 173.34464396371914 0 0 0 0 102.97760691794974 243.0953110835253 0 243.0953110835253 -7.6669649184696027 0 0 0 0 -301.92083654271846 152.0288866360097 0 152.0288866360097 -53.369368732328439 0 0 0 0 28.796878337532689 45.023198273936941 0 45.023198273936941 -34.853974159952486 0 0 0 0 -74.106361507092515 74.466517831389865 0 74.466517831389865 -18.493926606635796 0 0 0 0 -22.521223317002296 33.603180347990019 0 33.603180347990019 26.490557449036714 0 0 0 0 -7.0540750577748668 23.133897488858466 0 23.133897488858466 13.608075716622366 0 0 0 0 -194.43327351813969 64.5119687404258 0 64.5119687404258 40.646416078183393 0 0 0 0 -12.498748554949998 117.64863294919451 0 117.64863294919451 46.844539445275586 0 0 0 0 27.017434832966501 158.60073023457812 0 158.60073023457812 -81.530486528128677 0 0 0 0 93.391062890852481 37.219459519851171 0 37.219459519851171 -38.741669587144315 0 0 0 0 82.585251061395127 29.921113938077504 0 29.921113938077504 -0.19883744226735711 0 0 0 0 106.66570259122818 44.546471350902721 0 44.546471350902721 -34.862987158143369 0 0 0 0 31.412273947199395 32.598094453110498 0 32.598094453110498 1.3943549976618641 0 0 0 0 52.310794783683377 49.782929847960077 0 49.782929847960077 -10.782347648926589 0 0 0 0 41.550402915603627 61.2980543133026 0 61.2980543133026 -22.116975589262438 0 0 0 0 24.610860804343957 11.681062048587961 0 11.681062048587961 -9.5174209879301372 0 0 0 0 41.484755862664315 38.840716577651619 0 38.840716577651619 1.3476412282518595 0 0 0 0 14.295804738430888 64.984663430601358 0 64.984663430601358 -0.82991906758252298 0 0 0 0 24.974429557204111 38.192876031971934 0 38.192876031971934 5.4267764607011486 0 0 0 0 4.3239665343451321 30.171709159027706 0 30.171709159027706 -10.615341461816257 0 0 0 0 17.053882126148892 51.686877030089818 0 51.686877030089818 6.5952105143660447 0 0 0 0 3.801509279023179 8.1727931576372228 0 8.1727931576372228 -3.0210646251775373 0 0 0 0 38.285954725659394 38.356378316642804 0 38.356378316642804 -19.989903714328648 0 0 0 0 -9.2077094894393667 26.322477197083117 0 26.322477197083117 38.7312659033214 0 0 0 0 11.23114410604768 31.08068126409535 0 31.08068126409535 -5.3137490360688124 0 0 0 0 109.42186570278864 148.62666033754067 0 148.62666033754067 48.170388810627628 0 0 0 0 22.465990923650679 57.847205114376266 0 57.847205114376266 2.3924249518788656 0 0 0 0 -36.102885039769689 25.770986867709645 0 25.770986867709645 -0.71206940990570899 0 0 0 0 84.759446933905565 95.870234010362765 0 95.870234010362765 -29.404269761766045 0 0 0 0 77.923229573378194 82.247531487410015 0 82.247531487410015 37.685398936738238 0 0 0 0 55.29211860759824 64.535354967170861 0 64.535354967170861 -24.441165033800644 0 0 0 0 86.034757014313072 88.671849559295879 0 88.671849559295879 -30.866014083156188 0 0 0 0 63.157516390856472 65.842213003634242 0 65.842213003634242 -31.788303668623257 0 0 0 0 66.352032622206025 92.233812777882122 0 92.233812777882122 -1.0127641495018906 0 0 0 0 97.470395692815146 106.99996644142175 0 106.99996644142175 -8.9811121879647544 0 0 0 0 26.372176172706531 69.60984278320575 0 69.60984278320575 3.393970435794472 0 0 0 0 -19.323522248180467 38.582571741455496 0 38.582571741455496 -16.616538576344169 0 0 0 0 2.5760919730015388 52.140731391569062 0 52.140731391569062 6.4540918730971839 0 0 0 0 16.832006927352126 10.305186043344108 0 10.305186043344108 -13.225415634420969 0 0 0 0 102.05697413501548 47.056469319285497 0 47.056469319285497 -34.553970843648131 0 0 0 0 -51.212975181020738 46.549440521974248 0 46.549440521974248 6.0938746597530553 0 0 0 0 216.13480822848942 139.08700883685015 0 139.08700883685015 -12.007072043390508 0 0 0 0 -9.2184237311567756 40.467839101997299 0 40.467839101997299 -31.586689192506242 0 0 0 0 182.17172377287352 -106.83366890588877 0 -106.83366890588877 -245.93365356214781 0 0 0 0 -346.03556744422531 21.018388170374237 0 21.018388170374237 18.213577870852532 0 0 0 0 -1.6049892285495986 1.8284430492888504 0 1.8284430492888504 -4.186010888173513 0 0 0 0 -119.17312689748724 79.392022777655257 0 79.392022777655257 34.038694693233992 0 0 0 0 -60.968674469768303 32.044838584690297 0 32.044838584690297 9.0196006647684044 0 0 0 0 37.932381075725061 304.47689603721483 0 304.47689603721483 179.3987191209817 0 0 0 0 84.930441091928515 -107.9496207673601 0 -107.9496207673601 116.06819877986709 0 0 0 0 248.2651976955251 125.88623107735197 0 125.88623107735197 6.7425421277803252 0 0 0 0 -27.968170744452962 35.507851436972558 0 35.507851436972558 -16.78968552883309 0 0 0 0 10.867006918386323 56.795177415435319 0 56.795177415435319 -18.658990416224697 0 0 0 0 42.606144992500049 52.051137279374416 0 52.051137279374416 30.245075260867452 0 0 0 0 -4.0900518876968874 24.374322511994194 0 24.374322511994194 20.190601424050413 0 0 0 0 -118.78555959946243 34.52408276895585 0 34.52408276895585 -5.4373986844148021 0 0 0 0 -17.84536563507686 45.741976228625859 0 45.741976228625859 12.92299712812661 0 0 0 0 1.5873820226121893 36.676770224127068 0 36.676770224127068 -10.039141908237688 0 0 0 0 8.5855034031555988 33.348525851877639 0 33.348525851877639 7.6625466133700684 0 0 0 0 -12.586312596904463 39.453638239378051 0 39.453638239378051 1.9154948036593851 0 0 0 0 -40.613691753667752 76.29402548409962 0 76.29402548409962 -7.6766477188087947 0 0 0 0 -123.8350810102711 268.82947640699149 0 268.82947640699149 -263.07073945560842 0 0 0 0 -262.54167675838107 -226.69194485179105 0 -226.69194485179105 85.847300586669007 0 0 0 0 -559.2990671289881 398.75860083553107 0 398.75860083553107 218.91667041626351 0 0 0 0 14.264637006970588 83.083919251814223 0 83.083919251814223 9.9088558569710585 0 0 0 0 18.431965650539496 47.583358697513177 0 47.583358697513177 2.0170628764872163 0 0 0 0 10.20699480925029 38.292994430092293 0 38.292994430092293 -22.99377673564203 0 0 0 0 14.206802499167679 51.729586003850272 0 51.729586003850272 -11.091974961987944 0 0 0 0 46.385459318858921 92.795785664344294 0 92.795785664344294 9.7602558660219074 0 0 0 0 36.920945196907269 65.928992131288396 0 65.928992131288396 -6.3859097787299106 0 0 0 0 0.58655030554086807 47.441661960762104 0 47.441661960762104 -21.649690977128301 0 0 0 0 21.545080295705702 57.85858301789267 0 57.85858301789267 -7.2632891153843957 0 0 0 0 -79.686037817824399 33.371696195565164 0 33.371696195565164 4.3490748909607646 0 0 0 0 -1.9785988186440022 48.753692618310552 0 48.753692618310552 -0.8551938089341462 0 0 0 0 34.129564983421005 35.455075973732164 0 35.455075973732164 -4.245480689300166 0 0 0 0 -4.2585594271024334 31.462312255995656 0 31.462312255995656 -13.539185559758437 0 0 0 0 33.819739073104081 30.142952115762753 0 30.142952115762753 -23.266329888029475 0 0 0 0 27.781438137861947 32.677063985429264 0 32.677063985429264 -32.296549749422439 0 0 0 0 8.595056530281262 47.84427028787826 0 47.84427028787826 -2.8245177398231647 0 0 0 0 49.777553267980693 44.9256577795677 0 44.9256577795677 -20.126923272619024 0 0 0 0 61.825920725706965 80.978074333261247 0 80.978074333261247 -12.943719027643965 0 0 0 0 64.984171139059981 70.770632753446989 0 70.770632753446989 -18.570133760746103 0 0 0 0 16.787882015125433 76.612069122204957 0 76.612069122204957 -6.8993471756839426 0 0 0 0 23.055248348842724 50.340282819160166 0 50.340282819160166 -43.69668552956864 0 0 0 0 19.225016815598984 51.482274839276094 0 51.482274839276094 -5.4801027063017926 0 0 0 0 101.90240902465302 43.341852841425862 0 43.341852841425862 -15.49599181778467 0 0 0 0 57.58156391115098 26.232138077540796 0 26.232138077540796 -39.772872453236317 0 0 0 0 53.339662477894308 67.419619819567743 0 67.419619819567743 -25.910942369362601 0 0 0 0 6.1361210097796075 14.363945771238136 0 14.363945771238136 7.9705815671312905 0 0 0 0 18.913584913225364 29.686571700797693 0 29.686571700797693 -26.38116329141728 0 0 0 0 31.404552087220509 50.423945733904475 0 50.423945733904475 -27.644056713594182 0 0 0 0 0.19612815257642069 51.927352818624058 0 51.927352818624058 -26.623047757297172 0 0 0 0 -63.579276512842625 -16.292088563262951 0 -16.292088563262951 -76.378410515608266 0 0 0 0 2.4861814423776565 5.7939016912459351 0 5.7939016912459351 -2.6084281742752182 0 0 0 0 32.593428778083762 108.81700075788831 0 108.81700075788831 91.507728013559245 0 0 0 0 30.416667326615425 10.680692036199616 0 10.680692036199616 -76.887016659246001 0 0 0 0 53.377887210586778 28.896610737761875 0 28.896610737761875 -72.656154424315901 0 0 0 0 19.705451268020624 1.8485950108861289 0 1.8485950108861289 -50.740040666307323 0 0 0 0 58.161749788985617 112.51938819440329 0 112.51938819440329 28.63980069635727 0 0 0 0 5.9667403844141518 64.546661408494401 0 64.546661408494401 17.99478636049389 0 0 0 0 9.867180448722138 38.803603967312938 0 38.803603967312938 3.5389812487264862 0 0 0 0 -28.646652206329051 32.754113780645369 0 32.754113780645369 -22.590995365354644 0 0 0 0 35.421194589647712 56.658154739519887 0 56.658154739519887 -10.423614284736686 0 0 0 0 51.61695665345178 101.47320792945538 0 101.47320792945538 40.454035632210434 0 0 0 0 82.430774380714865 74.393879826151533 0 74.393879826151533 60.390782533970196 0 0 0 0 41.358669608051059 15.337609186368354 0 15.337609186368354 -64.166123993272777 0 0 0 0 18.985474810977394 62.630090246293548 0 62.630090246293548 81.15547937786323 0 0 0 0 -4.4175082023597128 24.586159967268756 0 24.586159967268756 -13.516195379420282 0 0 0 0 34.167186259797745 59.677488974786684 0 59.677488974786684 7.7804091267789772 0 0 0 0 -36.526763937839981 41.888411991741222 0 41.888411991741222 22.935034492107036 0 0 0 0 -26.270117712003149 46.082000013836591 0 46.082000013836591 21.712908263997463 0 0 0 0 -14.653475408933446 84.753222940289561 0 84.753222940289561 35.392242941430595 0 0 0 0 78.58532928117711 55.37907864636145 0 55.37907864636145 16.87335871536925 0 0 0 0 14.920742125426841 75.39165295528619 0 75.39165295528619 20.348933704801311 0 0 0 0 -7.8941440640252267 2.3153274862896751 0 2.3153274862896751 -0.6085603609583643 0 0 0 0 27.491333446522788 37.828698067394228 0 37.828698067394228 -22.535641782761559 0 0 0 0 64.123716246562253 75.658373007237969 0 75.658373007237969 -10.120892709142936 0 0 0 0 52.235674845200265 37.679220944977715 0 37.679220944977715 -70.692192952818004 0 0 0 0 39.051256334587379 111.53797116094211 0 111.53797116094211 59.517807885931688 0 0 0 0 45.512821998570871 114.29187731378261 0 114.29187731378261 16.895392919916429 0 0 0 0 53.37339546700241 111.70746135908485 0 111.70746135908485 -5.8896242248010822 0 0 0 0 -4.9504052488046 101.81525599169254 0 101.81525599169254 12.72555942073086 0 0 0 0 39.020258385935449 61.571516061001603 0 61.571516061001603 -66.891836289054481 0 0 0 0 9.2957936886523385 45.073192650190322 0 45.073192650190322 -68.247362318121304 0 0 0 0 25.686572353646625 140.91879156806681 0 140.91879156806681 48.147383224291843 0 0 0 0 37.580716140626464 176.8549799008033 0 176.8549799008033 32.33378708701639 0 0 0 0 32.056372474053205 117.81065613883766 0 117.81065613883766 -25.729029167181579 0 0 0 0 80.605840157048078 181.30814741714858 0 181.30814741714858 -14.372737162491831 0 0 0 0 104.44880171320983 175.86151892352063 0 175.86151892352063 -100.31053527642507 0 0 0 0 48.239479405223392 58.397946081371629 0 58.397946081371629 -163.89525493686233 0 0 0 0 57.210171344282571 140.27809258725028 0 140.27809258725028 -35.933784970780835 0 0 0 0 15.399382656163652 41.935766894370317 0 41.935766894370317 -71.651784743386088 0 0 0 0 78.794906960058142 117.05456783322734 0 117.05456783322734 -61.013971582913655 0 0 0 0 -12.938640856584243 42.086631861337082 0 42.086631861337082 9.0893631676444784 0 0 0 0 5.6046041596127907 35.771809730598761 0 35.771809730598761 -75.069244865917426 0 0 0 0 -15.865799496878196 23.537032376154031 0 23.537032376154031 -8.8575790501310081 0 0 0 0 -40.562484762747772 67.556276277580764 0 67.556276277580764 -61.294796633104852 0 0 0 0 3.3132324044047294 14.608030651268933 0 14.608030651268933 -15.708920015248054 0 0 0 0 -3.153823788029797 36.351331021003176 0 36.351331021003176 -11.227260803184009 0 0 0 0 -28.501799095508659 25.674991068140351 0 25.674991068140351 8.2340756065897551 0 0 0 0 51.855789410845318 230.96697121163015 0 230.96697121163015 -170.12962424552825 0 0 0 0 -52.808669554044172 232.85991265938355 0 232.85991265938355 -117.74590603202523 0 0 0 0 -247.22583879337139 648.11273119216321 0 648.11273119216321 -432.35039647307713 0 0 0 0 -86.725471559593643 110.797596002918 0 110.797596002918 -318.31178835549508 0 0 0 0 -17.448394631278916 323.71761359428365 0 323.71761359428365 -512.90062962113734 0 0 0 0 1.7067380135922576 2.8610616902823409 0 2.8610616902823409 2.6624507757165219 0 0 0 0 33.194927008817103 124.93514086977848 0 124.93514086977848 253.3577914373891 0 0 0 0 -71.693575711731683 -193.00909603332548 0 -193.00909603332548 792.19117423061562 0 0 0 0 -19.880810938730065 58.187550575239584 0 58.187550575239584 550.59198490841663 0 0 0 0 -180.35712073770264 233.99657754600776 0 233.99657754600776 868.81568039570993 0 0 0 0 -62.735370087255433 211.83875843079295 0 211.83875843079295 651.41416574982577 0 0 0 0 57.30745560710784 635.04036669404013 0 635.04036669404013 363.41823355961242 0 0 0 0 16.661280669723055 129.15015020046849 0 129.15015020046849 156.75881970007322 0 0 0 0 -37.144945574480516 317.28248132125736 0 317.28248132125736 232.00641443130735 0 0 0 0 -89.183239792618224 127.66988039789976 0 127.66988039789976 240.77065032575047 0 0 0 0 -70.182802293917121 23.366070010024487 0 23.366070010024487 148.90851548401406 0 0 0 0 -4.8563134563731438 27.034358146713188 0 27.034358146713188 -16.67764581864057 0 0 0 0 520.12793384841643 279.67054691942758 0 279.67054691942758 275.37232590449275 0 0 0 0 -206.18144597053742 334.01312648044313 0 334.01312648044313 255.11308583704522 0 0 0 0 -60.805289596704824 78.604534685844555 0 78.604534685844555 441.09781170845963 0 0 0 0 -79.266754706433858 215.53703448942542 0 215.53703448942542 214.14967271975911 0 0 0 0 -95.035530000153813 382.34403592142917 0 382.34403592142917 35.481764665441005 0 0 0 0 -110.85183521528597 164.86107886239188 0 164.86107886239188 335.24561606705538 0 0 0 0 -22.501735025303788 150.34023929424802 0 150.34023929424802 124.26274180540349 0 0 0 0 11.05342786293923 34.73907018171289 0 34.73907018171289 -28.116615280754985 0 0 0 0 37.075026042334684 212.14787960922331 0 212.14787960922331 51.785317883433891 0 0 0 0 -31.967026915133474 34.367244283588576 0 34.367244283588576 -6.0849831183318486 0 0 0 0 18.158677094725135 74.350300443351443 0 74.350300443351443 31.519241231264459 0 0 0 0 27.384424210591533 24.494068609248643 0 24.494068609248643 -93.499419352401674 0 0 0 0 71.532844030394699 27.221045803235029 0 27.221045803235029 -220.22126054466935 0 0 0 0 -29.397252924507484 72.715580032847356 0 72.715580032847356 78.289412397600245 0 0 0 0 51.538802269438747 82.114112115938042 0 82.114112115938042 -123.06674195204687 0 0 0 0 151.9719283254426 150.64071717429806 0 150.64071717429806 31.893763616011711 0 0 0 0 63.982929463360051 -23.597394021169748 0 -23.597394021169748 -237.61544945072092 0 0 0 0 108.74415299633984 121.27549320371327 0 121.27549320371327 -5.4101445694177528 0 0 0 0 -26.896166863985819 28.496491450705193 0 28.496491450705193 -22.654527614934807 0 0 0 0 27.580368664501293 128.79287808066874 0 128.79287808066874 230.66921212095986 0 0 0 0 -0.67090676389209136 -0.4213443415396938 0 -0.4213443415396938 0.37150436365334372 0 0 0 0 57.87302494151686 172.71003210245067 0 172.71003210245067 68.95119199968758 0 0 0 0 148.47265639417128 76.064059122436447 0 76.064059122436447 -87.271029538460425 0 0 0 0 174.37831510859723 63.450252541373629 0 63.450252541373629 -83.086337048131099 0 0 0 0 109.73419703033142 137.3207191425754 0 137.3207191425754 -19.91549863354885 0 0 0 0 109.06044343902613 11.709748656809097 0 11.709748656809097 -51.55369043158862 0 0 0 0 -28.765164904980338 24.510039249391411 0 24.510039249391411 2.5537814186536707 0 0 0 0 23.330108805810596 114.81569161224616 0 114.81569161224616 -42.833276780555025 0 0 0 0 576.75710324999818 168.68270598159143 0 168.68270598159143 550.33123051412076 0 0 0 0 1.3642328309639922 -0.66156421964740275 0 -0.66156421964740275 0.67099567164341067 0 0 0 0 93.934889095916333 -78.366930319623862 0 -78.366930319623862 -202.93096239810257 0 0 0 0 147.33362644813315 310.23572286820854 0 310.23572286820854 555.00091009296011 0 0 0 0 100.19195587681816 92.155103794509159 0 92.155103794509159 158.4575572002359 0 0 0 0 -29.625067179284088 6.1119262753854855 0 6.1119262753854855 108.92629436151401 0 0 0 0 -93.411829238146311 94.81819058945257 0 94.81819058945257 134.48109961050795 0 0 0 0 -7.323972419850179 273.59674915950382 0 273.59674915950382 -57.852043494509417 0 0 0 0 190.52710222834139 158.98473626148188 0 158.98473626148188 -164.85656617671884 0 0 0 0 -327.87075397250373 208.68972148431567 0 208.68972148431567 -158.3171875422795 0 0 0 0 -86.886482484289445 137.73446766591223 0 137.73446766591223 -168.80121526756557 0 0 0 0 -113.43173985772773 42.194740885890496 0 42.194740885890496 128.07304387348995 0 0 0 0 -132.83650173251226 182.65296193889662 0 182.65296193889662 24.363435527644469 0 0 0 0 -29.237973962855904 79.795640938056749 0 79.795640938056749 2.4825058455735416 0 0 0 0 -36.58310302177415 98.773332837139606 0 98.773332837139606 -64.524820205706533 0 0 0 0 -204.67177192226518 215.16937911746936 0 215.16937911746936 -63.627450358639237 0 0 0 0 -1.3733458081224512 2.2777996853266131 0 2.2777996853266131 -1.5271891027299489 0 0 0 0 216.59502104459898 211.69539325593723 0 211.69539325593723 -215.75902219907766 0 0 0 0 -645.81807095001932 92.38147979747373 0 92.38147979747373 -2.9655572585907066 0 0 0 0 -183.54984105364201 359.44746172365558 0 359.44746172365558 -258.78732879460586 0 0 0 0 -35.903916011000547 258.00556232575036 0 258.00556232575036 -302.71214695624076 0 0 0 0 -231.94950566933039 449.41340479221981 0 449.41340479221981 -380.18440140046914 0 0 0 0 -3.9183131681093073 1.13020474095174 0 1.13020474095174 45.655737472654437 0 0 0 0 -106.81834698785315 148.46067006074009 0 148.46067006074009 -122.52678252953774 0 0 0 0 7.8701617742756582 13.585216938183223 0 13.585216938183223 13.945668923673409 0 0 0 0 -105.91226047593045 147.32838427091338 0 147.32838427091338 -139.13672339121695 0 0 0 0 -312.12421279639602 390.329592782502 0 390.329592782502 -234.2281956855968 0 0 0 0 4.6838115452117108 10.418546140286466 0 10.418546140286466 11.123917472396286 0 0 0 0 16.567011446881224 -14.202432710080757 0 -14.202432710080757 76.186856083659222 0 0 0 0 11.847581994018583 -9.6839141579130228 0 -9.6839141579130228 67.744377601993619 0 0 0 0 8.3715916908695363 -13.216419337266416 0 -13.216419337266416 76.07048490759189 0 0 0 0 -357.87797272725857 107.47613740746601 0 107.47613740746601 -268.94693919582642 0 0 0 0 -9.4660105803013721 18.487694405674119 0 18.487694405674119 39.708181568203145 0 0 0 0 -23.23399355593574 31.092449518120702 0 31.092449518120702 53.040432498848531 0 0 0 0 -47.816510446271423 48.413412960115238 0 48.413412960115238 50.969039803399937 0 0 0 0 -47.824886077891279 52.420273591502337 0 52.420273591502337 67.269125951846945 0 0 0 0 -37.653298811237619 48.207346623334161 0 48.207346623334161 36.110194771172246 0 0 0 0 -27.011519050477546 25.790609693514853 0 25.790609693514853 82.048551152009168 0 0 0 0 -19.456740799854742 35.974808008075343 0 35.974808008075343 65.701083053987531 0 0 0 0 -19.765163182713877 30.768030476065178 0 30.768030476065178 114.56006195725786 0 0 0 0 -8.6745075072030886 14.811679350452323 0 14.811679350452323 59.917530861661362 0 0 0 0 0.25115353220098768 -5.6958899146193289 0 -5.6958899146193289 100.8824052016862 0 0 0 0 -11.988993654267688 12.788339635335433 0 12.788339635335433 89.938418713936699 0 0 0 0 -13.390948771506373 46.4655754975538 0 46.4655754975538 93.348884820108651 0 0 0 0 -25.337644074941636 63.004506282988586 0 63.004506282988586 115.45440966555179 0 0 0 0 -34.657209412656812 47.594787339992763 0 47.594787339992763 86.981836968981952 0 0 0 0 -36.536870622669994 57.678534290445896 0 57.678534290445896 53.132416356762405 0 0 0 0 -36.893765119893942 72.159907676657895 0 72.159907676657895 73.493646842835005 0 0 0 0 -26.600182778835006 71.114396793207561 0 71.114396793207561 63.623041244361957 0 0 0 0 -58.299308256333461 71.27111533923744 0 71.27111533923744 56.558974903862691 0 0 0 0 -37.604199511428305 77.176507143070921 0 77.176507143070921 38.204338211056893 0 0 0 0 -42.213500889141869 53.118162803591986 0 53.118162803591986 51.106518804794177 0 0 0 0 8.0753509632850182 12.935994988009043 0 12.935994988009043 190.11280973400517 0 0 0 0 2.9922422706689815 7.688683644926229 0 7.688683644926229 8.0379689533200036 0 0 0 0 18.977231533084705 -48.465138030333037 0 -48.465138030333037 204.16120739124744 0 0 0 0 31.672487436509982 -38.158276008962275 0 -38.158276008962275 110.88779482700193 0 0 0 0 -7.0390319416965212 -8.2580076597387233 0 -8.2580076597387233 160.32172307126166 0 0 0 0 -36.996133531149098 116.06994466285687 0 116.06994466285687 193.72826755610015 0 0 0 0 3.1137301559610933 9.9976477243908448 0 9.9976477243908448 191.64119933529582 0 0 0 0 -18.408325071093714 42.486629041981359 0 42.486629041981359 142.7204996339733 0 0 0 0 91.41247854240828 -148.4698975686224 0 -148.4698975686224 435.97674619710597 0 0 0 0 -98.549202819176571 55.526027244020952 0 55.526027244020952 216.96159085202817 0 0 0 0 -3.3588854060926678 148.18892597523336 0 148.18892597523336 87.353791139452369 0 0 0 0 1.501120018579968 94.178093972361239 0 94.178093972361239 50.063313284939795 0 0 0 0 -30.112623911512173 64.331122837861074 0 64.331122837861074 -40.672563879516318 0 0 0 0 -119.50949969596149 316.78322462356937 0 316.78322462356937 -137.6575560725978 0 0 0 0 3.0360860205018696 2.3065996892312484 0 2.3065996892312484 0.84551661804033529 0 0 0 0 -258.77634752815356 375.04526309745233 0 375.04526309745233 -107.87399852382987 0 0 0 0 440.12804482192405 -25.427464903705186 0 -25.427464903705186 -60.338495918324043 0 0 0 0 337.82329196092905 159.73119786681491 0 159.73119786681491 -88.424362687423127 0 0 0 0 -241.59934421836806 597.41639854602545 0 597.41639854602545 243.13718658513972 0 0 0 0 -10.975174008728573 93.871963922807481 0 93.871963922807481 102.47694447999675 0 0 0 0 -17.165864517972295 122.15139675642058 0 122.15139675642058 89.462471112710773 0 0 0 0 -14.339475471391779 101.6324262131966 0 101.6324262131966 85.376009077619528 0 0 0 0 -19.851048066848307 93.619850092058186 0 93.619850092058186 74.002235402091173 0 0 0 0 -50.268324011743971 102.44698330169194 0 102.44698330169194 38.407227848510956 0 0 0 0 -59.213053267165378 77.212215890176594 0 77.212215890176594 49.305005431699101 0 0 0 0 -22.190675920162903 101.11322498708614 0 101.11322498708614 51.878017134855327 0 0 0 0 -36.554413838952314 86.946431785861932 0 86.946431785861932 53.315341163382982 0 0 0 0 -15.688824093966105 94.530542558262823 0 94.530542558262823 69.588674437596637 0 0 0 0 -63.238217293484922 113.59026536445162 0 113.59026536445162 106.24961526042171 0 0 0 0 -44.638429507751425 116.05999626760604 0 116.05999626760604 56.765126190234696 0 0 0 0 -52.044803511357713 95.046153606652297 0 95.046153606652297 54.693577849480789 0 0 0 0 -3.9276887313571933 120.41711729256349 0 120.41711729256349 65.187111220238876 0 0 0 0 -8.935112458142612 120.32888866766007 0 120.32888866766007 80.012886015647382 0 0 0 0 -32.154255428878983 63.254727487464059 0 63.254727487464059 -40.664269545454424 0 0 0 0 -45.312061635485861 -31.209169492072078 0 -31.209169492072078 -80.922650918346335 0 0 0 0 -61.484941780308873 73.043409537711341 0 73.043409537711341 -31.064471043733647 0 0 0 0 25.67420366971055 108.88765140289979 0 108.88765140289979 -51.120888528221712 0 0 0 0 -40.587272580742138 65.437820066768836 0 65.437820066768836 -62.844659747785045 0 0 0 0 -43.276504233914238 33.007675248532905 0 33.007675248532905 -85.148322066281253 0 0 0 0 -35.065574826759601 68.713089182748888 0 68.713089182748888 -33.413358595887395 0 0 0 0 -36.480382650152023 54.773484637738875 0 54.773484637738875 -44.886976756410149 0 0 0 0 30.806689890076541 123.8365125960633 0 123.8365125960633 3.1482963506277883 0 0 0 0 -18.125753632870328 79.648961297141796 0 79.648961297141796 44.630771473679488 0 0 0 0 24.948120679698604 17.226239806872172 0 17.226239806872172 -98.321944771501876 0 0 0 0 4.8864495033558342 105.00311241277086 0 105.00311241277086 -31.001828582181147 0 0 0 0 2.218105493553594 67.8059479802032 0 67.8059479802032 -14.537446240035933 0 0 0 0 61.914335436660622 66.442798584585034 0 66.442798584585034 -15.692373813308222 0 0 0 0 35.626081857610188 42.11432558924389 0 42.11432558924389 -11.163934660175073 0 0 0 0 71.348657839564112 -2.9487749982545211 0 -2.9487749982545211 -6.7159149449480537 0 0 0 0 47.964569190806287 39.877789868567561 0 39.877789868567561 -16.2337193052972 0 0 0 0 148.86516298030801 -14.246483969071051 0 -14.246483969071051 -0.26960676605813205 0 0 0 0 -97.895808425190666 156.91993896180247 0 156.91993896180247 48.611445198948786 0 0 0 0 9.3320771474172943 130.25239640087966 0 130.25239640087966 -0.40450113092447282 0 0 0 0 -38.195490325685242 39.850535474327828 0 39.850535474327828 -22.417896485484974 0 0 0 0 -95.147252575451944 8.4623788596927625 0 8.4623788596927625 44.052106161219854 0 0 0 0 2.6764471307053701 8.4591539579998276 0 8.4591539579998276 4.5175053076214056 0 0 0 0 89.359854854106345 77.621447555256964 0 77.621447555256964 -72.098619585674896 0 0 0 0 15.457751914355413 46.396340448007322 0 46.396340448007322 15.091271738661817 0 0 0 0 -15.999878278899214 25.387486326538664 0 25.387486326538664 9.8576197299477712 0 0 0 0 -9.680927240564861 40.511269571671832 0 40.511269571671832 -1.1400300100659564 0 0 0 0 6.3270081726232092 53.772075661421241 0 53.772075661421241 -0.94103541188815143 0 0 0 0 23.238418601729222 40.913795048080075 0 40.913795048080075 -7.8918421369091547 0 0 0 0 38.995992909076449 54.160980100976303 0 54.160980100976303 42.92218864653114 0 0 0 0 -98.456362390312279 77.518997560357093 0 77.518997560357093 0.010468254957231693 0 0 0 0 -1.7652762279619481 13.028878309090709 0 13.028878309090709 8.5841092433038995 0 0 0 0 -37.328025993607298 51.566302235434705 0 51.566302235434705 8.9380873607151443 0 0 0 0 -14.024988673074468 31.298292696010392 0 31.298292696010392 5.5651330440657887 0 0 0 0 3.1284509145825723 73.121004792536041 0 73.121004792536041 -32.100614166527521 0 0 0 0 -4.92704038921147 56.218815037855165 0 56.218815037855165 -9.5611733225941862 0 0 0 0 -24.596205348771779 32.588652391721737 0 32.588652391721737 -16.155957605127497 0 0 0 0 3.4652681483530614 56.538561305424082 0 56.538561305424082 -38.010664543908206 0 0 0 0 -17.260440695161378 90.734826255844382 0 90.734826255844382 -31.848861295198731 0 0 0 0 -107.61221073164415 38.724174775263236 0 38.724174775263236 -40.845156287796271 0 0 0 0 -5.136991536419373 54.462915134370633 0 54.462915134370633 -22.159174386607901 0 0 0 0 -15.282578404290689 32.842412732230514 0 32.842412732230514 -19.041841138991003 0 0 0 0 -26.613542245264398 51.828607393515995 0 51.828607393515995 6.0712332160110236 0 0 0 0 9.2331465566545461 30.606214200111722 0 30.606214200111722 -22.785677331510172 0 0 0 0 -9.7709688362878442 2.8226406695293296 0 2.8226406695293296 4.6447922279016325 0 0 0 0 24.867245775287302 49.289305756887188 0 49.289305756887188 20.646666756190825 0 0 0 0 -25.68430558959993 35.593566791180905 0 35.593566791180905 -3.3882271684975365 0 0 0 0 -99.842882630277018 44.185641915042652 0 44.185641915042652 22.719507558664191 0 0 0 0 54.418073980690679 63.866084539873555 0 63.866084539873555 -26.664584431549883 0 0 0 0 2.4518202671307705 3.4174550660778991 0 3.4174550660778991 -1.7575280147953407 0 0 0 0 6.8991302903850737 57.289042638381943 0 57.289042638381943 62.202391416576575 0 0 0 0 0.6267971895467781 61.514925771880371 0 61.514925771880371 64.277098895268864 0 0 0 0 65.475444534932379 88.78878105656122 0 88.78878105656122 25.13820117450814 0 0 0 0 -24.12635692413977 30.815756795832826 0 30.815756795832826 -10.416525956201042 0 0 0 0 4.439994275538993 92.926318561749213 0 92.926318561749213 56.458102034148396 0 0 0 0 -65.520689457549452 100.93750178265327 0 100.93750178265327 64.608005158544984 0 0 0 0 -6.3082940703026225 41.54433767594697 0 41.54433767594697 57.086641136948487 0 0 0 0 -5.7958323490547627 59.063802526052314 0 59.063802526052314 12.741837303467037 0 0 0 0 1.3625853653429658 101.97580114081939 0 101.97580114081939 29.850134571026956 0 0 0 0 -70.085538066821755 127.23016596415982 0 127.23016596415982 81.584587677687523 0 0 0 0 -218.75121227055206 85.070208371325862 0 85.070208371325862 70.264979617524659 0 0 0 0 -66.3958148541642 83.980952923782752 0 83.980952923782752 35.225252891446871 0 0 0 0 -81.26531029198668 112.80151480690984 0 112.80151480690984 45.951332485579769 0 0 0 0 -84.215318249379834 89.38756733693026 0 89.38756733693026 14.725889418070437 0 0 0 0 -128.87348259764622 96.792681330436608 0 96.792681330436608 35.255877716379473 0 0 0 0 7.2548977475588199 41.513924842203075 0 41.513924842203075 38.401414031975236 0 0 0 0 -103.52967379218899 90.383364947105292 0 90.383364947105292 39.957034814913641 0 0 0 0 -149.56503427244752 85.395019970601425 0 85.395019970601425 42.378299000381958 0 0 0 0 -154.80734465090791 151.02351638097025 0 151.02351638097025 5.1207840745337307 0 0 0 0 5.1490780077323421 4.2806436622687514 0 4.2806436622687514 3.3704326908550115 0 0 0 0 -153.91634423501455 87.108353402662033 0 87.108353402662033 44.256333090161206 0 0 0 0 -246.83690014257445 89.134731247497257 0 89.134731247497257 55.342635981942294 0 0 0 0 -99.318877277779393 104.40791994566098 0 104.40791994566098 21.584810996340821 0 0 0 0 -144.80511263733933 134.21899505038164 0 134.21899505038164 2.0885342414258048 0 0 0 0 -147.89932959378166 113.09430761747171 0 113.09430761747171 33.609116508538136 0 0 0 0 -95.633297944199512 102.86125628786249 0 102.86125628786249 32.121828152507078 0 0 0 0 -80.60433738680149 83.485474741486541 0 83.485474741486541 32.702614495559828 0 0 0 0 -79.428861422740738 78.871211247431347 0 78.871211247431347 18.854473247482019 0 0 0 0 -99.792939767314238 102.69053798932873 0 102.69053798932873 16.723352969449479 0 0 0 0 -63.138137542460754 88.062688628793694 0 88.062688628793694 24.172920525583322 0 0 0 0 15.332636567553664 39.867470843841147 0 39.867470843841147 41.317287856945768 0 0 0 0 -18.692618044306073 66.630820584199682 0 66.630820584199682 56.705379728464322 0 0 0 0 -13.491307470811433 15.31814327809515 0 15.31814327809515 4.8861063702916496 0 0 0 0 30.96808603025007 32.027609099426627 0 32.027609099426627 32.687883467355277 0 0 0 0 12.922748863989781 20.093922140075037 0 20.093922140075037 -2.5340585819047021 0 0 0 0 13.263782449084829 31.432020416876185 0 31.432020416876185 63.4771882371424 0 0 0 0 -3.8295728508452385 -11.309278346714564 0 -11.309278346714564 -14.922665671645518 0 0 0 0 73.067921538055643 57.237941317972854 0 57.237941317972854 -84.437660467832757 0 0 0 0 2.3048040401599792 90.684494562065083 0 90.684494562065083 -66.459983357533929 0 0 0 0 -83.674459593633287 80.19910253805574 0 80.19910253805574 -43.386725551717973 0 0 0 0 -11.81533544276585 3.3486918250875988 0 3.3486918250875988 -2.1212228151069823 0 0 0 0 -5.3571516375054671 64.481679483345943 0 64.481679483345943 114.89023813743552 0 0 0 0 8.2848774326896546 58.364795908953965 0 58.364795908953965 29.117767812480452 0 0 0 0 -10.454378279579032 58.437834086478688 0 58.437834086478688 55.720787925765762 0 0 0 0 -12.162954233647724 41.18169438242694 0 41.18169438242694 22.459194977964216 0 0 0 0 -1.6964858218070731 64.024271189839055 0 64.024271189839055 10.54766935072621 0 0 0 0 2.6950973394684752 60.179542337591556 0 60.179542337591556 7.9534453651431249 0 0 0 0 -7.628263991973995 55.449320897309008 0 55.449320897309008 28.6497138066552 0 0 0 0 -60.794449630091549 58.327487753718742 0 58.327487753718742 54.018989724663697 0 0 0 0 -58.046504942678439 58.860509244601417 0 58.860509244601417 39.910805228282697 0 0 0 0 -58.307715250070032 67.584481642399624 0 67.584481642399624 30.557680576865096 0 0 0 0 -79.225855272248737 81.190173535680515 0 81.190173535680515 38.245280807459494 0 0 0 0 -75.079752334138902 78.504190379331703 0 78.504190379331703 35.675305758952163 0 0 0 0 -77.204141809008433 73.074822040602157 0 73.074822040602157 23.254700607678387 0 0 0 0 -94.859477358761069 82.266153923759703 0 82.266153923759703 36.908480084850453 0 0 0 0 -107.73162575800598 131.53010981580155 0 131.53010981580155 -4.9373742249081261 0 0 0 0 -95.536903033607814 78.749113585428859 0 78.749113585428859 23.950234082120005 0 0 0 0 -90.696565287122212 93.39835110506101 0 93.39835110506101 -16.915984632985783 0 0 0 0 -94.652925639908062 85.582716376447934 0 85.582716376447934 28.829230844858103 0 0 0 0 -72.801170402748539 76.10114415686985 0 76.10114415686985 30.058480003033765 0 0 0 0 -79.898461392951504 88.680701389688693 0 88.680701389688693 30.074708561856824 0 0 0 0 27.163044964572521 46.263897452864171 0 46.263897452864171 25.947102124958377 0 0 0 0 -41.929349752076632 59.718597068018425 0 59.718597068018425 55.179180154125788 0 0 0 0 -49.047098211933189 42.464447351809213 0 42.464447351809213 34.439885066702118 0 0 0 0 -68.613679974750994 82.635513940495002 0 82.635513940495002 9.436550245853141 0 0 0 0 -56.657895966363867 57.573719420950511 0 57.573719420950511 44.843592992197955 0 0 0 0 -60.258877660216967 53.392979560077947 0 53.392979560077947 56.12938036378182 0 0 0 0 -37.534262171588125 48.232104692146095 0 48.232104692146095 17.267401017124939 0 0 0 0 -16.957957944505324 14.249501675414649 0 14.249501675414649 53.072265708959094 0 0 0 0 -69.418956323577731 69.161483556186795 0 69.161483556186795 21.704187582537998 0 0 0 0 25.180689420640313 43.583441774815668 0 43.583441774815668 19.590523047755283 0 0 0 0 -25.786222553340849 40.320706391399654 0 40.320706391399654 12.132142131245928 0 0 0 0 3.0633167766536644 13.930479719077994 0 13.930479719077994 33.768153195902414 0 0 0 0 -23.847412171450742 43.464195004158682 0 43.464195004158682 16.453081452658807 0 0 0 0 10.879333980698064 67.850348935003467 0 67.850348935003467 3.5500690177432261 0 0 0 0 0.75816171801716337 65.017974046735617 0 65.017974046735617 8.2566442579832255 0 0 0 0 -38.034384603625767 56.529966644935485 0 56.529966644935485 12.92083105673737 0 0 0 0 11.522929502024908 54.989218243226787 0 54.989218243226787 -2.0923840274444956 0 0 0 0 -45.275814604798143 56.983714530510042 0 56.983714530510042 14.063731814167113 0 0 0 0 -83.644614018017819 44.507021282341157 0 44.507021282341157 23.395449617397389 0 0 0 0 23.290335697844895 40.568693433854314 0 40.568693433854314 12.702317387829083 0 0 0 0 40.064728020348412 109.20934610265249 0 109.20934610265249 23.352922383302939 0 0 0 0 0.25843670881658909 76.321843555815576 0 76.321843555815576 -2.5286000428095576 0 0 0 0 -50.331045226653714 72.007609468400915 0 72.007609468400915 46.700731188786449 0 0 0 0 -27.556179657269695 73.093947116180061 0 73.093947116180061 52.15157592020114 0 0 0 0 -18.31756481899356 74.220214933026 0 74.220214933026 34.61930002356894 0 0 0 0 8.741608850339162 121.34460150397717 0 121.34460150397717 72.742917172930902 0 0 0 0 64.9253513033118 141.66562914369206 0 141.66562914369206 35.105249527769047 0 0 0 0 220.44454072168037 228.26646228506434 0 228.26646228506434 -19.535486048930977 0 0 0 0 198.46579538902097 -126.79589714491885 0 -126.79589714491885 -13.098123431118438 0 0 0 0 32.579906367205126 40.55867791461759 0 40.55867791461759 0.31241079094408519 0 0 0 0 -31.310945476813686 56.86274493050405 0 56.86274493050405 -4.7203333269790164 0 0 0 0 10.719818351764054 26.347920676116104 0 26.347920676116104 20.65922154547151 0 0 0 0 -61.216039683684357 27.426787474942103 0 27.426787474942103 56.032814508987485 0 0 0 0 -22.658116230274118 50.367673963555717 0 50.367673963555717 -27.522563536847883 0 0 0 0 9.1760489039027746 3.3724899490875835 0 3.3724899490875835 1.2269540772662708 0 0 0 0 -36.072952788005296 46.812923813864472 0 46.812923813864472 -1.651104789612873 0 0 0 0 203.76502912056446 -17.641678830699675 0 -17.641678830699675 -16.183504871150944 0 0 0 0 -26.294681622438652 55.587382108769901 0 55.587382108769901 22.118017151578357 0 0 0 0 -17.804424036000569 36.929769297707026 0 36.929769297707026 7.9138031225593295 0 0 0 0 7.7530249940487987 16.465466234760427 0 16.465466234760427 11.794184192630468 0 0 0 0 13.915754928461666 36.434220764103785 0 36.434220764103785 13.439975812726971 0 0 0 0 -42.659338733208642 39.094237177203468 0 39.094237177203468 1.6627622196247103 0 0 0 0 29.677849478104175 26.724934707454906 0 26.724934707454906 -6.6364647279206679 0 0 0 0 -35.60712040576982 78.032265196965454 0 78.032265196965454 53.331539458406041 0 0 0 0 153.19933628900981 -24.701372848368919 0 -24.701372848368919 7.6610138569521951 0 0 0 0 -55.593379524943884 56.355043421848677 0 56.355043421848677 30.266602786075964 0 0 0 0 -128.93610521275968 148.57334942674788 0 148.57334942674788 0.7588859994430095 0 0 0 0 -90.084704413227882 -19.625312050666253 0 -19.625312050666253 53.813886125084537 0 0 0 0 -86.578918146038632 -39.854185360974952 0 -39.854185360974952 -124.99978458692203 0 0 0 0 19.197360564172282 30.455944318487383 0 30.455944318487383 2.9146693533633083 0 0 0 0 0.32088960738175132 20.240964782142697 0 20.240964782142697 10.308769409912259 0 0 0 0 141.80928827057869 75.788908971186174 0 75.788908971186174 -97.866811177253112 0 0 0 0 -31.540678034582953 40.171030339519348 0 40.171030339519348 8.3216870239557466 0 0 0 0 -91.250558301569981 37.862691786773212 0 37.862691786773212 6.1989129144931212 0 0 0 0 -52.363510204309932 132.15840139443389 0 132.15840139443389 -79.117797838582192 0 0 0 0 -92.125607527963439 210.03035998822452 0 210.03035998822452 -231.09240340378892 0 0 0 0 -182.94044100898282 186.15166925475205 0 186.15166925475205 -42.427944731578464 0 0 0 0 -134.94457187945591 116.44224119208229 0 116.44224119208229 -47.516971261240542 0 0 0 0 -383.53076516120564 336.040991329799 0 336.040991329799 -174.8846486662369 0 0 0 0 -120.85281707628019 132.76885976105405 0 132.76885976105405 -8.1298079921471071 0 0 0 0 -105.12611090018436 168.21880314840564 0 168.21880314840564 -78.906818283256143 0 0 0 0 -125.81587239938381 129.10319449156668 0 129.10319449156668 -10.748917587636242 0 0 0 0 -18.333197758151073 73.817783538681397 0 73.817783538681397 -23.613919408548099 0 0 0 0 -13.683233485180608 24.621567217248412 0 24.621567217248412 23.866955723089632 0 0 0 0 -8.1859938837551454 49.006465988317359 0 49.006465988317359 -4.7866182982434111 0 0 0 0 14.557204069569728 16.176150943874546 0 16.176150943874546 15.681738101163461 0 0 0 0 -73.720357558867818 135.71295767656102 0 135.71295767656102 -117.73123766838398 0 0 0 0 -81.576003309583029 106.17267901157174 0 106.17267901157174 -39.308211125666276 0 0 0 0 -142.69170961264899 183.76381033210055 0 183.76381033210055 -130.59414356675734 0 0 0 0 -106.07944748621958 81.854561118780111 0 81.854561118780111 -7.7311266640335816 0 0 0 0 -236.69857925727592 132.41870798449963 0 132.41870798449963 -23.66544029454235 0 0 0 0 -108.90414746618626 146.51417442868114 0 146.51417442868114 -43.917451590816199 0 0 0 0 -125.08246501316171 139.25469032226465 0 139.25469032226465 -46.258619922475191 0 0 0 0 27.282745155864177 85.059508964255656 0 85.059508964255656 79.242818038073892 0 0 0 0 9.3696549207234057 22.931949263900606 0 22.931949263900606 54.428679328630096 0 0 0 0 -178.96845297044729 24.069267642755221 0 24.069267642755221 2.5943999774463009 0 0 0 0 -146.06154372974561 48.574934711716196 0 48.574934711716196 -15.034904008505691 0 0 0 0 -2.0504911120785394 4.100079391711585 0 4.100079391711585 -4.9876197358439356 0 0 0 0 -8.2076271053338132 6.623771875834791 0 6.623771875834791 22.193556446884031 0 0 0 0 -15.930754811919542 20.828746703080469 0 20.828746703080469 44.038585441012401 0 0 0 0 -3.5479142933368841 7.3081846321194099 0 7.3081846321194099 -5.8948537322971788 0 0 0 0 -0.14516676761923009 26.339712411729124 0 26.339712411729124 16.213906490205773 0 0 0 0 -11.408984378975219 28.841485112494411 0 28.841485112494411 -19.922020004247315 0 0 0 0 -70.889854312514217 0.057651058981718961 0 0.057651058981718961 8.4786586651389371 0 0 0 0 -12.668421358004707 29.027422396437032 0 29.027422396437032 44.339925984859292 0 0 0 0 -42.008727083364647 16.168770714320999 0 16.168770714320999 1.2537063926429255 0 0 0 0 -6.2298332013535145 8.1330017444217333 0 8.1330017444217333 5.3025061486230953 0 0 0 0 -6.7421019447692743 14.878715180514519 0 14.878715180514519 -5.958400951421936 0 0 0 0 -5.3361823190480209 24.059090064503835 0 24.059090064503835 -5.7685999569803244 0 0 0 0 -1.3642365058849748 12.262579389966596 0 12.262579389966596 -9.7047476106754402 0 0 0 0 -90.690246550773736 145.07038225401266 0 145.07038225401266 -47.123328554385807 0 0 0 0 -107.88964299217878 127.61217174674493 0 127.61217174674493 -36.097315593375242 0 0 0 0 -132.36394585449671 133.28253173530538 0 133.28253173530538 -33.637369021875202 0 0 0 0 -112.44330812587214 72.264248125275117 0 72.264248125275117 -21.847771902670502 0 0 0 0 -49.354115322512371 83.2745647846059 0 83.2745647846059 -50.223501779168146 0 0 0 0 -26.010832384981768 28.387604548759555 0 28.387604548759555 -14.315068645323663 0 0 0 0 -65.760802907927427 112.95292643455105 0 112.95292643455105 -82.188601054789615 0 0 0 0 -43.592604333272902 87.495940630564291 0 87.495940630564291 -53.368429147987626 0 0 0 0 -14.754666185646784 59.852885144719039 0 59.852885144719039 -114.9243512926696 0 0 0 0 -29.249921714988886 12.589344992375118 0 12.589344992375118 -38.069321896437032 0 0 0 0 -18.169765818609449 37.888977479407913 0 37.888977479407913 -92.977021736922325 0 0 0 0 -8.7359522159896557 5.2461778091027043 0 5.2461778091027043 6.6069552728768457 0 0 0 0 -46.471878072250547 64.025170196306135 0 64.025170196306135 -28.953533063307987 0 0 0 0 15.264451203564931 -21.271293350269843 0 -21.271293350269843 26.458540155756054 0 0 0 0 9.6805158238057629 16.956681725670933 0 16.956681725670933 -108.37839341988729 0 0 0 0 -6.342604126815786 -69.076471276999655 0 -69.076471276999655 -57.628754509059945 0 0 0 0 -243.59722793039691 -88.181080754984578 0 -88.181080754984578 -33.960102059143537 0 0 0 0 -0.42937436342448621 -1.1217152392974441 0 -1.1217152392974441 1.2900602088446078 0 0 0 0 -211.58313352200275 272.47914240352839 0 272.47914240352839 687.30803917803132 0 0 0 0 0.24464626634653541 171.35034215082123 0 171.35034215082123 612.4117699811286 0 0 0 0 0.32070051478687844 -4.4242536859961064 0 -4.4242536859961064 4.720646837840718 0 0 0 0 0.28277977756442851 -22.098443306102126 0 -22.098443306102126 510.27888340852951 0 0 0 0 43.55656617996101 17.271206068926404 0 17.271206068926404 320.64009149686899 0 0 0 0 104.59005900663033 121.90815949299576 0 121.90815949299576 409.13854309450835 0 0 0 0 118.60825105042386 75.883799860988802 0 75.883799860988802 -19.781005407203338 0 0 0 0 -5.0124213900916175 2.1167549494076638 0 2.1167549494076638 -0.80641063494806531 0 0 0 0 44.862846850523056 45.785451943709631 0 45.785451943709631 -6.8945792144804727 0 0 0 0 101.57172403208824 139.65166964498349 0 139.65166964498349 10.439213340941933 0 0 0 0 36.480803204802214 64.720995377821964 0 64.720995377821964 -35.250453678665508 0 0 0 0 -65.580632935671019 53.997539029049221 0 53.997539029049221 40.701004339796782 0 0 0 0 -84.24696797899378 48.967795057600597 0 48.967795057600597 86.155937395211367 0 0 0 0 36.987892949783827 103.0344923458008 0 103.0344923458008 44.963881900330307 0 0 0 0 -126.17597605098854 51.820649790621246 0 51.820649790621246 69.308179724903312 0 0 0 0 -68.529896730207838 49.265174141175521 0 49.265174141175521 12.044975001044804 0 0 0 0 -714.2180187274389 239.38639817031799 0 239.38639817031799 -43.675545591686387 0 0 0 0 -33.938840674425592 165.19356561626773 0 165.19356561626773 333.49373053899035 0 0 0 0 -345.67334513078094 100.56846130164195 0 100.56846130164195 364.18895000230987 0 0 0 0 126.47157608394082 127.3506372829188 0 127.3506372829188 179.09273870606557 0 0 0 0 -6.2053085473106648 12.581245710733512 0 12.581245710733512 -1.4369132261356867 0 0 0 0 70.789050563424098 153.56352653643989 0 153.56352653643989 217.8062118239468 0 0 0 0 134.18544630793576 151.3564379095651 0 151.3564379095651 195.00622684234986 0 0 0 0 108.98568759360205 344.70007881459605 0 344.70007881459605 457.87704389585997 0 0 0 0 324.12463366080556 301.82047161242372 0 301.82047161242372 262.95752666301996 0 0 0 0 312.45386701251846 422.10355054264073 0 422.10355054264073 318.21013670151297 0 0 0 0 224.63474332686383 147.93877887699273 0 147.93877887699273 70.643432578013744 0 0 0 0 414.08027228279207 222.87972505221842 0 222.87972505221842 97.967995602622977 0 0 0 0 414.17308394750216 256.76976054863917 0 256.76976054863917 -5.6040493000473361 0 0 0 0 -821.68079824922279 162.66684637598883 0 162.66684637598883 643.70640258464846 0 0 0 0 457.12539337272392 328.68235420938072 0 328.68235420938072 81.23358722111152 0 0 0 0 -0.49808396647831277 2.5616925588931849 0 2.5616925588931849 0.96629278524653728 0 0 0 0 -699.36284214387206 -140.72268157020244 0 -140.72268157020244 342.16294122104591 0 0 0 0 -406.83098299845187 250.17595987417371 0 250.17595987417371 -676.87080579047324 0 0 0 0 -442.5965858705847 -6.047865642153738 0 -6.047865642153738 185.29806014359929 0 0 0 0 236.32691691828586 9.3069848241066211 0 9.3069848241066211 -93.513249948304292 0 0 0 0 65.559526655430091 44.627260638648295 0 44.627260638648295 129.84468153551279 0 0 0 0 65.883479309307404 77.890499968116274 0 77.890499968116274 276.45345879405795 0 0 0 0 54.918794650009659 -24.918294906980009 0 -24.918294906980009 225.0627465385187 0 0 0 0 72.943648073016448 -13.8776192568439 0 -13.8776192568439 259.80060195377155 0 0 0 0 55.258642296939172 82.606872958821882 0 82.606872958821882 158.17214805196272 0 0 0 0 -149.10994726050012 -81.241923961872089 0 -81.241923961872089 -23.897328093727992 0 0 0 0 -4.7937849344938641 0.20962096233577654 0 0.20962096233577654 -0.15735105166056229 0 0 0 0 -135.88697068976398 371.14849553635577 0 371.14849553635577 -340.52596202774293 0 0 0 0 -38.734300989195617 59.912303284232621 0 59.912303284232621 153.30964047117232 0 0 0 0 -9.835969151715851 -0.34100709161651821 0 -0.34100709161651821 0.40493178607245994 0 0 0 0 73.479048891502316 -7.9285275712609291 0 -7.9285275712609291 0.15080112882424146 0 0 0 0 -748.07868099939151 -17.603660397449858 0 -17.603660397449858 331.31584779117111 0 0 0 0 14.42307663428619 -43.065429111124104 0 -43.065429111124104 77.174532126824488 0 0 0 0 511.35058517988546 -120.19098316360032 0 -120.19098316360032 -664.43054824969295 0 0 0 0 -38.965713943394803 -33.225937813722339 0 -33.225937813722339 95.711538110481342 0 0 0 0 -1.7766020598064642 40.587886384528247 0 40.587886384528247 70.782314108699211 0 0 0 0 66.487324284626311 -13.766411807596569 0 -13.766411807596569 96.846651716332417 0 0 0 0 3.4564626152860001 28.785498384575476 0 28.785498384575476 192.0645490247116 0 0 0 0 20.405010409476745 -9.2663415496281232 0 -9.2663415496281232 89.498616004217183 0 0 0 0 -55.775340373453218 21.32595413713716 0 21.32595413713716 189.64430222469673 0 0 0 0 17.809148345761059 10.449188863523887 0 10.449188863523887 189.26327513761498 0 0 0 0 81.550203045386297 38.753516597585985 0 38.753516597585985 188.84491160259859 0 0 0 0 -219.89664173431811 48.691218418694916 0 48.691218418694916 92.998307233880041 0 0 0 0 -175.80305578512343 55.858868315059226 0 55.858868315059226 199.77779040741734 0 0 0 0 -56.91857051048828 -0.16336663338142898 0 -0.16336663338142898 106.53870407669456 0 0 0 0 -58.454777811972235 7.2969431217716192 0 7.2969431217716192 24.178720435607829 0 0 0 0 -300.44914021611476 -254.71481625289016 0 -254.71481625289016 -17.474267916521057 0 0 0 0 -5.3523555896183694 -1.9566119097968624 0 -1.9566119097968624 0.50672471043914769 0 0 0 0 28.274693538714928 -5.6356683019839693 0 -5.6356683019839693 -167.43758891684411 0 0 0 0 -27.682736399412612 4.2899943357429322 0 4.2899943357429322 -1.2285226598274619 0 0 0 0 -319.01762300269002 -290.62100117945374 0 -290.62100117945374 30.849693358322838 0 0 0 0 159.10021751797103 3.7026184886199189 0 3.7026184886199189 -561.48386682533601 0 0 0 0 -38.588166467183328 43.244942422497843 0 43.244942422497843 -28.195439118677314 0 0 0 0 -42.631755026117403 17.67397735338615 0 17.67397735338615 -0.26749787198941988 0 0 0 0 -67.797602833306883 96.224461720281397 0 96.224461720281397 60.734397883974452 0 0 0 0 -1.3230902159351974 33.711548708267223 0 33.711548708267223 7.1934851338132262 0 0 0 0 -71.653637916879234 15.127925902615971 0 15.127925902615971 -14.812178938958823 0 0 0 0 -143.25191671950051 20.713417034574377 0 20.713417034574377 82.1406204332161 0 0 0 0 -337.52091580130218 -55.279795710244798 0 -55.279795710244798 106.52581003756495 0 0 0 0 -307.18477272931159 -138.73703548699086 0 -138.73703548699086 19.053528601594735 0 0 0 0 -224.91700614416186 -61.040197976661148 0 -61.040197976661148 54.239580055051192 0 0 0 0 -256.11271426419262 23.912101618829183 0 23.912101618829183 148.63204655970912 0 0 0 0 -190.80577820252074 -0.036382099948241375 0 -0.036382099948241375 152.88786020681437 0 0 0 0 -215.5705191740235 76.568998180538074 0 76.568998180538074 218.45269050257048 0 0 0 0 -214.64593385519822 89.717644448660621 0 89.717644448660621 52.228538578216103 0 0 0 0 -197.02902965294925 60.588839158634073 0 60.588839158634073 232.20127643593878 0 0 0 0 -72.410783059650839 48.15265087392072 0 48.15265087392072 3.7841082607337739 0 0 0 0 8.7840904958771837 30.627276382434587 0 30.627276382434587 5.0562830553901392 0 0 0 0 -23.322988419626199 129.76661281040288 0 129.76661281040288 41.468184253240906 0 0 0 0 -70.618257636312592 48.795952377269714 0 48.795952377269714 -0.93510382395106717 0 0 0 0 13.298720510232442 19.951790978093555 0 19.951790978093555 11.302395955423293 0 0 0 0 -184.7861770135969 286.00748842880421 0 286.00748842880421 -106.99155754224194 0 0 0 0 -371.35273821092414 253.14294921964029 0 253.14294921964029 269.95167272610706 0 0 0 0 -3.0488387773004177 0.68808577150488759 0 0.68808577150488759 0.030305985770510802 0 0 0 0 -254.85319491919654 65.82967496242054 0 65.82967496242054 444.88036815643864 0 0 0 0 -16.312977595473058 134.7227626636377 0 134.7227626636377 -620.87807124944811 0 0 0 0 -1.8057794000396825 50.43771175234906 0 50.43771175234906 -144.10579202315421 0 0 0 0 -13.046152225375408 73.78404458228033 0 73.78404458228033 -179.33087055698343 0 0 0 0 -30.933826993259572 59.390480924164876 0 59.390480924164876 -111.99806137717678 0 0 0 0 7.8555820798137574 36.012433696902008 0 36.012433696902008 -125.70643031676445 0 0 0 0 87.487886294606142 210.79105175519362 0 210.79105175519362 477.17451861931477 0 0 0 0 -0.36062615067801573 0.36345146829839337 0 0.36345146829839337 0.50557248608375005 0 0 0 0 -16.459456482203677 56.740297007738263 0 56.740297007738263 -140.95316019672464 0 0 0 0 -7.6923309194827993 2.6207397033533653 0 2.6207397033533653 2.3862761731346325 0 0 0 0 9.6741046698771243 186.31153236864338 0 186.31153236864338 514.69039752476965 0 0 0 0 50.283270787049332 70.836397050450614 0 70.836397050450614 269.32210382839548 0 0 0 0 23.043868607230252 100.6547975356807 0 100.6547975356807 448.36005322056008 0 0 0 0 60.672248252569261 178.30661071522627 0 178.30661071522627 406.23563666897826 0 0 0 0 44.215169228788 70.364667870977428 0 70.364667870977428 472.13175506645348 0 0 0 0 104.74161579855718 163.45769078443118 0 163.45769078443118 699.12762887844292 0 0 0 0 97.96462285429152 74.917828737292439 0 74.917828737292439 429.51595661250758 0 0 0 0 52.605393377583823 123.45837103256781 0 123.45837103256781 386.30703681823798 0 0 0 0 17.78191502502159 64.131498088943772 0 64.131498088943772 301.98927854278008 0 0 0 0 62.982296929345466 130.57048930464953 0 130.57048930464953 412.51727169724472 0 0 0 0 67.334500433916219 56.832466766624293 0 56.832466766624293 295.27583373888046 0 0 0 0 -58.342786955465272 55.514545030309819 0 55.514545030309819 303.50089430531079 0 0 0 0 -58.781345151415735 17.184336941878428 0 17.184336941878428 210.61941732955893 0 0 0 0 -198.89716531939303 64.691424022741558 0 64.691424022741558 324.85386930315872 0 0 0 0 13.419706037529977 41.37264951418183 0 41.37264951418183 277.39176184637472 0 0 0 0 -26.66343976801727 107.88673410785123 0 107.88673410785123 -16.263095922771754 0 0 0 0 -67.890638756876797 82.073539171945413 0 82.073539171945413 -28.474029906457872 0 0 0 0 -22.241529794384405 102.18905790555982 0 102.18905790555982 -43.585845618494204 0 0 0 0 -27.194139818266194 127.75110750956264 0 127.75110750956264 -35.638528599243728 0 0 0 0 1.8052217762975076 32.834525434344926 0 32.834525434344926 19.668719783250907 0 0 0 0 -16.352713994089655 55.830223746165757 0 55.830223746165757 -48.820332103132472 0 0 0 0 225.84512104406531 342.37491646297713 0 342.37491646297713 -34.333819097384549 0 0 0 0 81.538583374473092 -302.1932760157506 0 -302.1932760157506 302.95333069040498 0 0 0 0 -10.698086733318632 87.137988576949283 0 87.137988576949283 -34.740097063786379 0 0 0 0 -103.32512011463405 61.316257279715501 0 61.316257279715501 38.560046938000596 0 0 0 0 -39.001174063960207 19.35569913618383 0 19.35569913618383 -12.242128323443467 0 0 0 0 -1.5298974187098793 39.939851665963943 0 39.939851665963943 -63.542005682989839 0 0 0 0 4.0573042324188293 29.151859546258805 0 29.151859546258805 -0.46674538880373007 0 0 0 0 -4.6842414003659769 3.3123827386465905 0 3.3123827386465905 -1.4481083082100952 0 0 0 0 27.193393629044294 285.3536963185179 0 285.3536963185179 711.43693970571621 0 0 0 0 10.910157550450094 172.2231903079155 0 172.2231903079155 135.67130313295638 0 0 0 0 2.1854242286990484 145.65324301464443 0 145.65324301464443 252.59745771449525 0 0 0 0 234.79508086375427 203.90009317346994 0 203.90009317346994 102.37083663209341 0 0 0 0 42.323866544757038 208.12525887336233 0 208.12525887336233 91.96641062758863 0 0 0 0 38.175858226133641 170.33957649649255 0 170.33957649649255 32.006938593869563 0 0 0 0 92.046211813052651 251.96074514189968 0 251.96074514189968 90.155236140446505 0 0 0 0 117.52960173817701 196.20479153381893 0 196.20479153381893 -21.223325512059091 0 0 0 0 70.985298714200326 200.01221172704754 0 200.01221172704754 50.214583412976936 0 0 0 0 161.04033713540412 155.38263884138723 0 155.38263884138723 72.219668974983506 0 0 0 0 -49.825745229816306 29.154907733422576 0 29.154907733422576 -0.97197564950708681 0 0 0 0 11.498722294643812 145.05621127931954 0 145.05621127931954 135.4568959183307 0 0 0 0 -34.744292652845616 57.341277616884327 0 57.341277616884327 38.394386917017982 0 0 0 0 -31.921323355006699 18.339364882996378 0 18.339364882996378 17.47567909458661 0 0 0 0 -21.042652469026081 46.005252092136857 0 46.005252092136857 -7.059854583881247 0 0 0 0 -5.2501363302435493 80.24142471522282 0 80.24142471522282 -40.325024058038252 0 0 0 0 -95.069827043193072 -19.454318361229525 0 -19.454318361229525 -83.840885536832502 0 0 0 0 12.863411177569105 13.016057376117317 0 13.016057376117317 -4.8998955378383755 0 0 0 0 -106.10864496561953 31.484944168230868 0 31.484944168230868 23.570313549556886 0 0 0 0 270.5507011051086 490.64805324533518 0 490.64805324533518 -19.21332463197723 0 0 0 0 -4.8637158216055667 2.5512484967727431 0 2.5512484967727431 1.4200682906524378 0 0 0 0 219.32524151358848 185.50193666100313 0 185.50193666100313 -53.033342160619213 0 0 0 0 -10.440799432151834 44.992434245359618 0 44.992434245359618 16.720568312121031 0 0 0 0 -29.308363860908287 25.276762069859373 0 25.276762069859373 -4.3877566178471739 0 0 0 0 -19.781094530189876 45.472851520504264 0 45.472851520504264 18.727314481773647 0 0 0 0 -29.799580928422934 18.482594641370373 0 18.482594641370373 0.18622366414120961 0 0 0 0 64.181357767713052 14.91104624466243 0 14.91104624466243 -86.713516329802587 0 0 0 0 4.8990706697715751 2.0352947781965298 0 2.0352947781965298 -1.8408602390801292 0 0 0 0 52.432824920542771 213.67474108970782 0 213.67474108970782 244.65510731942777 0 0 0 0 17.952635647139687 243.80994362055208 0 243.80994362055208 241.92381144328101 0 0 0 0 85.730931609607069 219.46531691324344 0 219.46531691324344 115.46165635122452 0 0 0 0 128.34035682594913 162.15081720847957 0 162.15081720847957 192.55273597910855 0 0 0 0 24.581594248777037 267.68703385181288 0 267.68703385181288 284.13311161248566 0 0 0 0 6.6328571429485592 1.9450848919036616 0 1.9450848919036616 -0.090364128402555366 0 0 0 0 -58.790217140146524 86.353734737620471 0 86.353734737620471 16.44781943745329 0 0 0 0 342.72835213645885 60.636120268849481 0 60.636120268849481 -396.85328890457458 0 0 0 0 295.30984831649403 65.306827869775589 0 65.306827869775589 -246.38716984073108 0 0 0 0 258.39169973138269 -52.000953711583861 0 -52.000953711583861 -47.452219864280778 0 0 0 0 -89.394182849431672 -35.816374317582813 0 -35.816374317582813 -57.284461217233911 0 0 0 0 287.73762913491373 -102.98537681714879 0 -102.98537681714879 -361.76778558596561 0 0 0 0 160.56884987335434 341.32412869492691 0 341.32412869492691 -405.31078921533481 0 0 0 0 -9.7133984345782665 110.60812706242723 0 110.60812706242723 -171.67723951866355 0 0 0 0 13.212492490461813 6.1411222882142624 0 6.1411222882142624 2.1363468298310408 0 0 0 0 -25.100552018170674 68.73349109274659 0 68.73349109274659 -153.30329069087747 0 0 0 0 -36.415825244323059 48.435862761831231 0 48.435862761831231 -62.017575475256308 0 0 0 0 -75.569675738142905 98.398147493218858 0 98.398147493218858 -125.24117651240522 0 0 0 0 67.562131991660863 85.871541174878075 0 85.871541174878075 -165.90048139909777 0 0 0 0 68.112246234195482 243.62726643709175 0 243.62726643709175 101.99170775156381 0 0 0 0 39.555668197948762 232.62664528664209 0 232.62664528664209 143.25519514130428 0 0 0 0 76.368138097219344 98.212411736989452 0 98.212411736989452 -38.534765478092595 0 0 0 0 48.1313340662673 214.92186613645754 0 214.92186613645754 164.91068274390909 0 0 0 0 25.909893825402833 259.48679534664552 0 259.48679534664552 167.76729526023246 0 0 0 0 94.690800536784081 322.52571555643226 0 322.52571555643226 224.74311310311896 0 0 0 0 -19.703308577218195 296.91058133116894 0 296.91058133116894 221.55353389763332 0 0 0 0 318.94496846169204 626.13039230662253 0 626.13039230662253 473.7322246082249 0 0 0 0 378.30285871417436 148.39688050027053 0 148.39688050027053 35.502820805690135 0 0 0 0 26.742535218760167 -21.862872112757032 0 -21.862872112757032 348.03465020062868 0 0 0 0 2.6603507446703389 2.4288049279029451 0 2.4288049279029451 2.5741190333791053 0 0 0 0 128.34109904112302 33.585335955101982 0 33.585335955101982 -13.852857830846915 0 0 0 0 82.517757475412509 110.79776040461002 0 110.79776040461002 -67.370324415665891 0 0 0 0 270.1890492097009 253.81717518654477 0 253.81717518654477 76.063012222162797 0 0 0 0 -80.884108017064136 4.8735901861218736 0 4.8735901861218736 2.4393467558693374 0 0 0 0 5.2842785247274477 6.9844962594277433 0 6.9844962594277433 6.5419079401958697 0 0 0 0 -9.2618434426367457 33.376004561541777 0 33.376004561541777 -9.4454113950196188 0 0 0 0 24.451275611201709 -15.54487998571858 0 -15.54487998571858 -46.003759661580261 0 0 0 0 55.171684750624991 -101.1481340632381 0 -101.1481340632381 35.052468585461611 0 0 0 0 -47.226068691667024 -65.484036942179955 0 -65.484036942179955 236.68411610429757 0 0 0 0 -41.27533359744848 12.19269723432808 0 12.19269723432808 107.5110760370917 0 0 0 0 -62.663247855462032 -15.924289098133158 0 -15.924289098133158 77.889017256806255 0 0 0 0 -1.1157642612015479 -23.227291663140932 0 -23.227291663140932 67.548002277653723 0 0 0 0 -5.8401872760041442 10.460264410683521 0 10.460264410683521 14.195314962678822 0 0 0 0 -9.0834314353014634 8.9432546119569452 0 8.9432546119569452 13.541424413313507 0 0 0 0 0.5594496438952774 20.846663657292083 0 20.846663657292083 -10.342298061630572 0 0 0 0 -0.59839659397876233 -0.42134652744874757 0 -0.42134652744874757 0.27539376624959289 0 0 0 0 -70.80620177198216 -8.4601591143291444 0 -8.4601591143291444 18.213695744205324 0 0 0 0 -73.590957150201575 138.97159974589886 0 138.97159974589886 46.010877663495194 0 0 0 0 23.787807838576555 0.95473510206647916 0 0.95473510206647916 -412.99197329520393 0 0 0 0 24.306938512407214 56.22844655505105 0 56.22844655505105 -155.31034413114685 0 0 0 0 -21.882466532606486 357.74945612212468 0 357.74945612212468 -211.37937534644152 0 0 0 0 -2.0716014420896016 8.4247176638610313 0 8.4247176638610313 4.6184693689994845 0 0 0 0 -103.71033587750571 -93.12659812412312 0 -93.12659812412312 -437.17912602299475 0 0 0 0 5.4956380702547705 7.7152705486284958 0 7.7152705486284958 -2.7154712207172338 0 0 0 0 -293.89597260287701 127.81178607020411 0 127.81178607020411 -26.982690816876129 0 0 0 0 0.42616792661870306 0.91469350119464821 0 0.91469350119464821 -0.079875988542497112 0 0 0 0 0.041839237190941958 3.9956998650722397 0 3.9956998650722397 0.5098745771083486 0 0 0 0 -302.81584499506425 113.18824765478348 0 113.18824765478348 -38.804189968112041 0 0 0 0 -280.78710312359181 131.10854380724777 0 131.10854380724777 -48.740431620117306 0 0 0 0 -269.10162440016575 148.66528710531566 0 148.66528710531566 -31.437428472909232 0 0 0 0 13.277947892139338 8.6004496476506915 0 8.6004496476506915 3.1595680246317954 0 0 0 0 118.70633842951065 221.03718529751495 0 221.03718529751495 137.04437109851278 0 0 0 0 -261.89864900131579 76.2808711943253 0 76.2808711943253 -2.1529484952188795 0 0 0 0 -54.17587139592797 95.393593601547764 0 95.393593601547764 274.79081082312041 0 0 0 0 -6.1411320011413935 8.4525610015706789 0 8.4525610015706789 4.9724279666314146 0 0 0 0 -39.634242611042282 10.1474009716203 0 10.1474009716203 461.09947952486982 0 0 0 0 2.1094057020382024 50.689699294165621 0 50.689699294165621 -221.9261609667592 0 0 0 0 -356.95318680943092 283.56933578792086 0 283.56933578792086 303.66903404284676 0 0 0 0 -753.4309930979889 -167.04301606475383 0 -167.04301606475383 263.96140369953355 0 0 0 0 -5.073753457133293 7.890637312765115 0 7.890637312765115 2.8953959104242699 0 0 0 0 531.95265705929705 342.69754271391321 0 342.69754271391321 36.146677709592041 0 0 0 0 258.45908114873646 261.85309485344078 0 261.85309485344078 275.32234097731998 0 0 0 0 -158.33080837715534 218.0664499316772 0 218.0664499316772 -164.8053427728446 0 0 0 0 -86.812342584265934 26.408215779239981 0 26.408215779239981 348.80794326227624 0 0 0 0 450.35052914385415 460.58673509651999 0 460.58673509651999 30.500010391042451 0 0 0 0 -620.08995038955254 -141.45610313579164 0 -141.45610313579164 155.75621655289433 0 0 0 0 -6.059512290699189 5.8737195652361152 0 5.8737195652361152 2.5411752410619215 0 0 0 0 -233.94551466068879 126.64559600906796 0 126.64559600906796 32.557463161370833 0 0 0 0 722.29789518520374 621.5894098216304 0 621.5894098216304 -44.654678549253731 0 0 0 0 -2.1798431410105081 2.1118315829766487 0 2.1118315829766487 0.60498278962182894 0 0 0 0 -1273.1904131386254 -254.01395306371705 0 -254.01395306371705 139.25116723991232 0 0 0 0 -591.20502930534349 296.48066607900546 0 296.48066607900546 -2.9717121724970639 0 0 0 0 128.04988870734815 358.51488152249658 0 358.51488152249658 -211.27873463154538 0 0 0 0 -84.93638742172152 -105.90761485233088 0 -105.90761485233088 395.30353699915577 0 0 0 0 -459.86508601712558 -248.52688012518774 0 -248.52688012518774 -83.429923418618273 0 0 0 0 -89.213673212296271 87.719262460421305 0 87.719262460421305 32.245390865180525 0 0 0 0 270.64933317538635 459.01688384816589 0 459.01688384816589 302.70030508373748 0 0 0 0 -204.3426835097307 163.921596677872 0 163.921596677872 123.00830702251278 0 0 0 0 -213.94651216625334 141.43254962638548 0 141.43254962638548 67.70665186275437 0 0 0 0 -183.47740605835497 201.75539210336137 0 201.75539210336137 -72.679168684524484 0 0 0 0 286.85057840022637 100.91268451385258 0 100.91268451385258 -47.383110971968563 0 0 0 0 407.4848527469112 -249.94998010565905 0 -249.94998010565905 -99.829003081606061 0 0 0 0 14.303253810398445 12.65069541085758 0 12.65069541085758 13.3531792768934 0 0 0 0 -105.0003525423781 106.40911881394641 0 106.40911881394641 -8.006262723414693 0 0 0 0 -55.994106060890772 -12.401228130533127 0 -12.401228130533127 -251.04399909148924 0 0 0 0 -240.58131901281558 103.00532651289905 0 103.00532651289905 -7.4256990296562435 0 0 0 0 4.4579543092891996 4.1162051360490892 0 4.1162051360490892 4.0514943095165847 0 0 0 0 805.16947398342381 -278.33075761086366 0 -278.33075761086366 66.9078489049989 0 0 0 0 -38.682611881599769 109.48910875706679 0 109.48910875706679 163.4405579345912 0 0 0 0 963.91398139606827 325.07545257632592 0 325.07545257632592 -97.328947032438009 0 0 0 0 457.85383428703062 745.69216829566722 0 745.69216829566722 -9.4776172943456913 0 0 0 0 222.02931120986977 216.03222448023371 0 216.03222448023371 -106.87609956609958 0 0 0 0 468.91636141723575 398.61035045855897 0 398.61035045855897 -131.08637877652654 0 0 0 0 369.78997095989325 160.87258127548557 0 160.87258127548557 -147.40135327236385 0 0 0 0 452.23959918014225 266.67597327137264 0 266.67597327137264 0.35324022186978254 0 0 0 0 6.3478134561337356 37.168502971151611 0 37.168502971151611 5.4818925981817301 0 0 0 0 0.54299285941731945 11.510882184296825 0 11.510882184296825 18.686153124541363 0 0 0 0 130.1914833036426 289.14343679408921 0 289.14343679408921 -449.99535429291427 0 0 0 0 445.50851931292345 384.53414548085675 0 384.53414548085675 330.56843748678511 0 0 0 0 0.76218947249843438 5.0202007287794572 0 5.0202007287794572 3.8057764260944253 0 0 0 0 -384.35879431736248 358.43361903243931 0 358.43361903243931 -96.511232349352213 0 0 0 0 5.3764620466322519 4.2782841039299697 0 4.2782841039299697 -1.4807007567383152 0 0 0 0 44.422372248892543 -42.81913552053993 0 -42.81913552053993 -242.52918939823576 0 0 0 0 23.592281265843283 14.246693176976407 0 14.246693176976407 0.16204092892731836 0 0 0 0 -2.1035855326263118 37.346381531453517 0 37.346381531453517 15.512358906413283 0 0 0 0 33.153347642990411 29.629663014180551 0 29.629663014180551 -88.375856542214478 0 0 0 0 16.180352869781927 50.161107280222495 0 50.161107280222495 -0.17599441010679584 0 0 0 0 -30.763523434674426 72.424918360047741 0 72.424918360047741 -8.4675557979644509 0 0 0 0 -10.653865785552625 32.784084681108652 0 32.784084681108652 14.546107020694762 0 0 0 0 9.8510421733371913 90.455346359231044 0 90.455346359231044 -18.821216919146536 0 0 0 0 5.4469391316197289 74.027429831308837 0 74.027429831308837 -51.958865017688368 0 0 0 0 -20.541278251676218 52.014258837825764 0 52.014258837825764 -47.608762617827978 0 0 0 0 123.25009406315439 65.413977920543402 0 65.413977920543402 -86.911021043195888 0 0 0 0 24.460006311493942 29.367895383735458 0 29.367895383735458 -19.758047307457524 0 0 0 0 52.498835504055023 -9.820229175275017 0 -9.820229175275017 -120.78915335820056 0 0 0 0 -48.362235599855921 191.9274568842593 0 191.9274568842593 -196.27872752763142 0 0 0 0 -8.899382863255596 103.280337410215 0 103.280337410215 -13.901115824330191 0 0 0 0 -81.49041636768743 71.007341880816966 0 71.007341880816966 -5.8126196738739964 0 0 0 0 119.49872499899448 143.26591716458097 0 143.26591716458097 -70.192809571090038 0 0 0 0 -109.22346521465806 53.923776911276946 0 53.923776911276946 2.8263572052383097 0 0 0 0 -26.600867326557683 50.098517787058398 0 50.098517787058398 -50.221226379101353 0 0 0 0 97.420447221214999 99.338072795730113 0 99.338072795730113 -85.926211529120337 0 0 0 0 -299.72536309307361 259.95100171297599 0 259.95100171297599 25.359037009868189 0 0 0 0 -622.09411365060078 25.304582021304668 0 25.304582021304668 42.715639434423792 0 0 0 0 0.66982752061049933 1.1034311341125331 0 1.1034311341125331 1.6274277997716808 0 0 0 0 -375.76124684930255 80.286884560904582 0 80.286884560904582 59.60041830073169 0 0 0 0 -150.81514921292546 90.563522798063786 0 90.563522798063786 -12.247803254416795 0 0 0 0 -213.24819267201019 154.72205952994773 0 154.72205952994773 8.0956414717220468 0 0 0 0 -128.14145902488963 145.68850941835262 0 145.68850941835262 -0.92628080801841861 0 0 0 0 -86.984619154449319 180.12047575188626 0 180.12047575188626 -13.833843669242924 0 0 0 0 61.823552384928917 163.34607937124383 0 163.34607937124383 -53.806852783920476 0 0 0 0 -42.015408216291689 143.1414026627026 0 143.1414026627026 5.9565682172542438 0 0 0 0 -65.421892138019757 97.374941220077744 0 97.374941220077744 4.5726103605120443 0 0 0 0 -13.189260620791174 93.376940779358847 0 93.376940779358847 -15.853631826947094 0 0 0 0 56.287069190591865 94.919618419797189 0 94.919618419797189 -23.49091403397324 0 0 0 0 -134.29142537285952 60.034688780218858 0 60.034688780218858 20.840869325067615 0 0 0 0 -13.453987842405809 84.373703883801909 0 84.373703883801909 -0.56408306895173155 0 0 0 0 -84.659982881348697 36.770795193446247 0 36.770795193446247 14.333104386663763 0 0 0 0 -55.371464200048649 98.567843919547158 0 98.567843919547158 11.278079174255254 0 0 0 0 -94.213596109126229 76.059531697988859 0 76.059531697988859 -6.8193669064639835 0 0 0 0 -100.61929890141619 78.613654543289158 0 78.613654543289158 6.4443699020521308 0 0 0 0 -197.79511855250348 24.01371724200726 0 24.01371724200726 -12.525627880415414 0 0 0 0 991.50240945845871 -48.042192992907076 0 -48.042192992907076 143.80167363408145 0 0 0 0 1040.1872437426646 140.4721880875004 0 140.4721880875004 45.423149295958865 0 0 0 0 971.09248188232596 341.88520618267648 0 341.88520618267648 -27.181901766365627 0 0 0 0 666.958989670562 575.48540811198836 0 575.48540811198836 240.95495238556759 0 0 0 0 1132.1992806888866 249.8672492592741 0 249.8672492592741 -129.44496552048076 0 0 0 0 -0.45879750337541481 8.2779563110084169 0 8.2779563110084169 13.065903408188547 0 0 0 0 637.76298678247531 176.67994907663797 0 176.67994907663797 43.234799050784204 0 0 0 0 48.381225279725186 186.91488690562983 0 186.91488690562983 95.108058889090898 0 0 0 0 605.47297416139736 340.82060456642103 0 340.82060456642103 -88.657932756963419 0 0 0 0 243.15614697131241 224.44312116979563 0 224.44312116979563 95.868586773300194 0 0 0 0 249.23186171980342 364.87033603407326 0 364.87033603407326 146.43758941852138 0 0 0 0 1199.0345117166435 536.43787077422894 0 536.43787077422894 -44.274384175194427 0 0 0 0 1.762767702075962 2.4843088139103315 0 2.4843088139103315 2.0751393287572455 0 0 0 0 92.770823999187996 278.56811064245994 0 278.56811064245994 311.93897195420868 0 0 0 0 72.16916002299331 298.31799864436471 0 298.31799864436471 203.43563499680022 0 0 0 0 -128.04165808557991 8.0554500464822922 0 8.0554500464822922 137.88675174975651 0 0 0 0 910.22781725157984 259.12906361376372 0 259.12906361376372 -175.76557542664523 0 0 0 0 -203.37818844319554 -264.52733102777711 0 -264.52733102777711 -339.09943230421777 0 0 0 0 0.82171765748158521 1.2372067865581755 0 1.2372067865581755 1.7008603513230867 0 0 0 0 1220.902515138172 305.74180091348171 0 305.74180091348171 -64.002139074131264 0 0 0 0 0.15990228674962736 5.8610558044545726 0 5.8610558044545726 7.1079902982056637 0 0 0 0 1047.4188468363427 272.18807552679209 0 272.18807552679209 -9.0738249675378029 0 0 0 0 1134.5827611099412 389.08289317265371 0 389.08289317265371 41.516179612168344 0 0 0 0 1022.9627021056513 394.56690154327225 0 394.56690154327225 112.67241385845409 0 0 0 0 928.16536197328242 340.85476523231046 0 340.85476523231046 107.57942852051929 0 0 0 0 860.00145179658284 34.657762892587925 0 34.657762892587925 108.50531442717897 0 0 0 0 1699.0120610516278 367.99131662969376 0 367.99131662969376 -185.21475408681727 0 0 0 0 -13.998689981883672 -41.555230523475984 0 -41.555230523475984 151.81880752500729 0 0 0 0 890.32716224128671 -52.525605753013224 0 -52.525605753013224 -285.2814327507258 0 0 0 0 -163.380966826855 89.438499266463623 0 89.438499266463623 -66.690559799350467 0 0 0 0 0.92233748134648152 3.1446936807561912 0 3.1446936807561912 4.5113379558726479 0 0 0 0 -145.71695714490852 37.179492847775691 0 37.179492847775691 40.206920442651608 0 0 0 0 -134.50614816350389 155.50210480406167 0 155.50210480406167 -182.68213489779737 0 0 0 0 -125.95352506158451 133.13893154526158 0 133.13893154526158 -125.13258646022587 0 0 0 0 -107.27801663360151 134.93239481281489 0 134.93239481281489 -202.13690143279382 0 0 0 0 -136.92632820905033 389.98008005497536 0 389.98008005497536 -84.616425843909383 0 0 0 0 2.4885064337046714 4.2181109168308524 0 4.2181109168308524 3.2942559239272384 0 0 0 0 -89.549835089055705 35.462764965806855 0 35.462764965806855 -166.21658903617208 0 0 0 0 -165.55758335311111 65.483287231436407 0 65.483287231436407 34.304005490252166 0 0 0 0 -200.70629759024087 159.92567007770049 0 159.92567007770049 32.555294488280197 0 0 0 0 -137.53616116779813 98.592321349184203 0 98.592321349184203 66.830907687646686 0 0 0 0 -105.11799847484508 152.19466045453009 0 152.19466045453009 -148.19895480573177 0 0 0 0 14.057847650838085 310.1272176477687 0 310.1272176477687 51.825652159488527 0 0 0 0 -267.67137338873363 255.06952024418206 0 255.06952024418206 30.30920246912865 0 0 0 0 -363.52732840948738 250.38794357928418 0 250.38794357928418 123.24912214062715 0 0 0 0 -199.15640192167484 162.26228215323499 0 162.26228215323499 35.996375900531802 0 0 0 0 -293.95027884180308 272.4182679824371 0 272.4182679824371 -91.948202704639698 0 0 0 0 -172.58627871552017 183.39124544275546 0 183.39124544275546 -71.508944492605224 0 0 0 0 -202.01110584530397 143.48319265917235 0 143.48319265917235 -125.48047254883386 0 0 0 0 -426.87483274578972 346.67734924230172 0 346.67734924230172 13.2519854898419 0 0 0 0 -1012.9775212619861 -315.51496260557178 0 -315.51496260557178 119.52953446203173 0 0 0 0 882.71716513442971 509.28627289075303 0 509.28627289075303 -52.511242596418015 0 0 0 0 408.57376822780861 15.533402324377676 0 15.533402324377676 94.296144076535711 0 0 0 0 -1.4635798440587848 2.3400983032599356 0 2.3400983032599356 1.123646733107762 0 0 0 0 -139.68268310145686 189.43965322924123 0 189.43965322924123 -61.019484978001856 0 0 0 0 13.002799488163873 431.0099951624361 0 431.0099951624361 200.49254703424958 0 0 0 0 -218.75688143386833 282.66244747631572 0 282.66244747631572 -134.60489538471302 0 0 0 0 -142.54398780128395 202.98731069509086 0 202.98731069509086 -123.13376108447119 0 0 0 0 -0.06966843996331562 2.1278824745602947 0 2.1278824745602947 2.0852456506425483 0 0 0 0 -71.136265154958892 211.5662956056949 0 211.5662956056949 -240.88725412243002 0 0 0 0 -57.715369288307556 292.86453864922805 0 292.86453864922805 -200.50603586147918 0 0 0 0 -159.80073553784678 93.364909701733268 0 93.364909701733268 -37.495025714953954 0 0 0 0 -104.25210652478745 239.5012780881425 0 239.5012780881425 -40.55962959403405 0 0 0 0 -2.2081728370167184 136.60666498765931 0 136.60666498765931 -202.80629766859784 0 0 0 0 22.853987308693831 74.216723694862594 0 74.216723694862594 -178.62674261297616 0 0 0 0 -77.091239172419591 275.45100048899531 0 275.45100048899531 -55.227206812123768 0 0 0 0 12.570989866107084 152.80910871807828 0 152.80910871807828 -0.13070426314516226 0 0 0 0 -24.20149992295228 158.66990383917437 0 158.66990383917437 60.621673532674322 0 0 0 0 -0.87343042142396143 1.2856565940936235 0 1.2856565940936235 2.9984370151378812 0 0 0 0 -145.68110969334884 124.70851284144373 0 124.70851284144373 78.737514144086163 0 0 0 0 -104.30558219946852 46.664662482273343 0 46.664662482273343 8.134544118292979 0 0 0 0 6.899065790745226 83.025779039264307 0 83.025779039264307 18.595393674142542 0 0 0 0 -49.650127483488177 117.55872639016889 0 117.55872639016889 0.11805780830763979 0 0 0 0 19.119660226269843 54.25677259332133 0 54.25677259332133 0.95417056854057591 0 0 0 0 159.83764653856633 46.782388091742177 0 46.782388091742177 -21.16882106201956 0 0 0 0 -34.200391390379991 24.802451184279562 0 24.802451184279562 0.21677619885304011 0 0 0 0 136.16990730757243 36.511815585599834 0 36.511815585599834 -59.942812935376423 0 0 0 0 -204.98639233948779 164.50270682964765 0 164.50270682964765 -52.524964392765469 0 0 0 0 -12.327198121773108 66.128219400365197 0 66.128219400365197 -70.167563727904053 0 0 0 0 0.46635013871004816 3.1333866234379144 0 3.1333866234379144 4.7546508447497331 0 0 0 0 -45.810672988036458 -13.290667629997188 0 -13.290667629997188 -5.8941904824896483 0 0 0 0 -76.104994849989453 239.80760233402543 0 239.80760233402543 -125.1119456574088 0 0 0 0 578.11591798094378 8.0365128684716183 0 8.0365128684716183 -91.78937005460466 0 0 0 0 556.83006869965698 363.28055093833927 0 363.28055093833927 170.1211117659841 0 0 0 0 302.53667370214316 141.72053085355219 0 141.72053085355219 -2.9753209462796804 0 0 0 0 385.67164315911214 103.71905250225609 0 103.71905250225609 -67.254124569044507 0 0 0 0 148.68490811036827 -4.3962654959250358 0 -4.3962654959250358 -7.2886489468583022 0 0 0 0 159.95236007979375 78.666538928619502 0 78.666538928619502 -46.538837333573611 0 0 0 0 127.17834114801735 107.54415238357979 0 107.54415238357979 -0.031309923761000391 0 0 0 0 203.93411014183221 87.90538914609715 0 87.90538914609715 -49.162263680045726 0 0 0 0 221.94785817375669 152.30046679114821 0 152.30046679114821 -4.3329624481048086 0 0 0 0 236.51148327389819 139.53139156150974 0 139.53139156150974 -0.065093024531961419 0 0 0 0 209.28617336526077 131.51586662677073 0 131.51586662677073 25.191206586423505 0 0 0 0 192.8777910894205 153.97837773377614 0 153.97837773377614 44.820450970102684 0 0 0 0 314.93651439493988 235.59399866379317 0 235.59399866379317 -25.615740722590999 0 0 0 0 178.91884830872004 181.24343254281848 0 181.24343254281848 -1.0099538133126771 0 0 0 0 139.30883298360459 269.83922408808576 0 269.83922408808576 -17.489866002513736 0 0 0 0 -7.2570178541427595 146.84484652448737 0 146.84484652448737 45.792588099371642 0 0 0 0 8.9251623213440325 109.12825823728781 0 109.12825823728781 149.81872579741321 0 0 0 0 -4.0479245372346213 -1.994322533335108 0 -1.994322533335108 2.6732148778589817 0 0 0 0 -114.84843311173245 1.8438233718843549 0 1.8438233718843549 4.2765343248865975 0 0 0 0 -77.150414565305255 -42.423434816398185 0 -42.423434816398185 298.96254632955242 0 0 0 0 -12.655658995459177 -0.16105024488788899 0 -0.16105024488788899 0.70688716928670203 0 0 0 0 -24.946359597294759 34.316724868069286 0 34.316724868069286 9.2429659962726873 0 0 0 0 -107.7412833837825 38.437279902165756 0 38.437279902165756 -7.7612179121770168 0 0 0 0 -10.660335717826655 8.1288695192887275 0 8.1288695192887275 -7.7421229820876079 0 0 0 0 -47.280450609422587 -1.3968627425929299 0 -1.3968627425929299 17.476624070935941 0 0 0 0 -31.014997975669136 2.3223374543158002 0 2.3223374543158002 8.0457513252655275 0 0 0 0 -62.926039956075329 33.236235964535808 0 33.236235964535808 -3.9920831963245291 0 0 0 0 -37.630306430201017 -17.165497773539755 0 -17.165497773539755 -1.4025908437906764 0 0 0 0 -40.30041514747063 -14.329163196482114 0 -14.329163196482114 21.330848390956817 0 0 0 0 76.968066804032787 218.14998219476547 0 218.14998219476547 123.51160176495614 0 0 0 0 -135.63422277645986 -26.004134467664699 0 -26.004134467664699 0.47181515924603445 0 0 0 0 2.0245113080635235 0.02943427475287308 0 0.02943427475287308 -1.5719551361431456 0 0 0 0 -103.14746763489256 37.161123925341599 0 37.161123925341599 12.449999522519647 0 0 0 0 -57.598197022511158 49.021756285987067 0 49.021756285987067 -4.6809505737619475 0 0 0 0 -44.413314131057632 64.90940541544478 0 64.90940541544478 13.19816901361628 0 0 0 0 -27.640642149941414 49.450442938668857 0 49.450442938668857 -19.086904830561252 0 0 0 0 -32.869679741255823 56.207870517580886 0 56.207870517580886 25.283535090689838 0 0 0 0 -40.445254651116556 49.381797875103075 0 49.381797875103075 -18.539654774416704 0 0 0 0 -55.260119913116796 8.4521510836893867 0 8.4521510836893867 -60.669436607015086 0 0 0 0 -8.510504655103432 -27.69763548643823 0 -27.69763548643823 -107.86277471936774 0 0 0 0 19.807244649215136 74.020751508127432 0 74.020751508127432 -27.531704660592368 0 0 0 0 41.736078012158032 21.390121906501008 0 21.390121906501008 -112.36020139907487 0 0 0 0 -25.663025376921723 66.453210565960035 0 66.453210565960035 -119.99233004480629 0 0 0 0 -5.8485530248999567 16.712026122193492 0 16.712026122193492 -42.539904837001814 0 0 0 0 -29.426741822799158 70.387463330327591 0 70.387463330327591 132.82188020071771 0 0 0 0 86.940512227679278 90.911744360029843 0 90.911744360029843 -46.137058323496603 0 0 0 0 -181.04296298010195 91.033925890213141 0 91.033925890213141 239.26852788832912 0 0 0 0 -25.683312923983976 131.93411925296459 0 131.93411925296459 -171.50904116881429 0 0 0 0 -7.9842008253363588 1.3991701810894881 0 1.3991701810894881 -0.86809299762089154 0 0 0 0 41.79959249280364 -6.5577890057538752 0 -6.5577890057538752 -402.98018214644981 0 0 0 0 -79.982710815575956 -33.997604819303888 0 -33.997604819303888 -149.28643790230853 0 0 0 0 338.27088493268093 -36.154594702558825 0 -36.154594702558825 -553.63655247440329 0 0 0 0 290.85930537880904 146.74489907829229 0 146.74489907829229 -249.88921006931923 0 0 0 0 -383.55844886962586 169.30814635424758 0 169.30814635424758 -84.821094700382673 0 0 0 0 -113.23386343490165 -329.15871372054607 0 -329.15871372054607 270.48776259462466 0 0 0 0 -5.1645363359433318 -1.0671895557466371 0 -1.0671895557466371 0.64192322998800933 0 0 0 0 -313.9235233983818 258.75683392924839 0 258.75683392924839 -167.28328950813011 0 0 0 0 -209.98079686292294 256.95282568557377 0 256.95282568557377 -105.01260154877309 0 0 0 0 -32.63600123246033 -414.7948138686188 0 -414.7948138686188 -266.76485571891317 0 0 0 0 158.25293641341523 283.83865802607397 0 283.83865802607397 4.2425498708034866 0 0 0 0 -247.58452897067582 92.871303613537748 0 92.871303613537748 223.4224835097848 0 0 0 0 -474.50059302282352 532.38909686392981 0 532.38909686392981 3.8709542392462026 0 0 0 0 -0.90826540790018351 4.4292634345929791 0 4.4292634345929791 -0.43426837209347013 0 0 0 0 -552.9406623341456 469.44698322281329 0 469.44698322281329 236.32152385820518 0 0 0 0 -460.80988278777659 526.42986668748199 0 526.42986668748199 -70.720364728345885 0 0 0 0 -567.89983470711013 399.55729940661695 0 399.55729940661695 -4.4820604831256787 0 0 0 0 77.809479251431185 -244.14034609170994 0 -244.14034609170994 -93.570931057372945 0 0 0 0 -0.60873187518309635 2.7695196067847725 0 2.7695196067847725 -2.5575241391178452 0 0 0 0 -1.3849991275613434 -59.430606898486872 0 -59.430606898486872 -66.055764458913472 0 0 0 0 -389.11090087093362 81.306509552829084 0 81.306509552829084 1.1743690897201304 0 0 0 0 -228.95265863330326 58.718200336595601 0 58.718200336595601 -100.80127782195632 0 0 0 0 -325.67949035859783 88.680127012572484 0 88.680127012572484 127.3281081441819 0 0 0 0 -389.35530676584767 225.91199746443817 0 225.91199746443817 59.130589753214736 0 0 0 0 161.92593050280266 109.85635078099949 0 109.85635078099949 -49.234698211712384 0 0 0 0 -0.51729995182321886 0.32021868304934031 0 0.32021868304934031 -1.2005308287862704 0 0 0 0 -844.32061993525713 230.26067363851689 0 230.26067363851689 16.797411344698048 0 0 0 0 -45.898114810032894 49.866224016375782 0 49.866224016375782 -41.945059479505289 0 0 0 0 -327.01492945760401 75.720919812061766 0 75.720919812061766 3.7965774941258132 0 0 0 0 -96.14469391712737 -1.8403994654072449 0 -1.8403994654072449 25.778408113561454 0 0 0 0 -1.5377298808148225 3.1958950869203875 0 3.1958950869203875 -5.0555756081398613 0 0 0 0 -35.191875483449621 230.05551063479288 0 230.05551063479288 -326.14792622372624 0 0 0 0 -582.95407433680884 -114.26040359814942 0 -114.26040359814942 1.1956148199242307 0 0 0 0 -532.19359700569498 363.61713544282247 0 363.61713544282247 -117.04270424060815 0 0 0 0 -254.32505494276893 349.21625081594357 0 349.21625081594357 -299.96827854179719 0 0 0 0 -270.17706213115343 204.55836097684005 0 204.55836097684005 -371.74224400304593 0 0 0 0 -276.50827619400297 160.84438420615334 0 160.84438420615334 -106.88130606842242 0 0 0 0 -344.27957145164419 157.48753001781006 0 157.48753001781006 0.077880294033093378 0 0 0 0 -399.38500181085419 103.13055440652352 0 103.13055440652352 -23.677712884869834 0 0 0 0 -176.03532362984151 9.4927562904231308 0 9.4927562904231308 7.8409291648677026 0 0 0 0 -530.73291636433987 286.65765262968489 0 286.65765262968489 -68.370671274708002 0 0 0 0 -612.50456863737236 54.443341560519912 0 54.443341560519912 -34.773431047593476 0 0 0 0 -471.16309396788256 141.94243225814353 0 141.94243225814353 0.064856334116484504 0 0 0 0 -284.44985325005655 228.02456428022924 0 228.02456428022924 -61.423838290109416 0 0 0 0 -94.509895689127461 123.77690618043925 0 123.77690618043925 -147.06869583960361 0 0 0 0 -247.03962764190328 111.16445556483814 0 111.16445556483814 -0.083104926236855808 0 0 0 0 -92.371992306470617 51.572274039755825 0 51.572274039755825 -9.7203022470494034 0 0 0 0 -63.097445468772065 -1.1716134057996896 0 -1.1716134057996896 -53.968671899507171 0 0 0 0 -61.717730951667363 32.170161460926465 0 32.170161460926465 9.1176666834144271 0 0 0 0 -36.510527245725555 1.3028486567427819 0 1.3028486567427819 8.7878932813232922 0 0 0 0 -43.320118249094946 -5.3906519270103672 0 -5.3906519270103672 19.117797689141298 0 0 0 0 -33.44137805375658 13.878976675565355 0 13.878976675565355 -0.41288808672470623 0 0 0 0 -56.8279111584596 -14.674206221844088 0 -14.674206221844088 -29.834563908414566 0 0 0 0 -36.135715200870692 23.453536487000747 0 23.453536487000747 -19.817275474386406 0 0 0 0 -53.908780585616569 48.337033095085644 0 48.337033095085644 -47.996397005241306 0 0 0 0 -71.848822027834444 36.451428207317804 0 36.451428207317804 -0.089651462541951332 0 0 0 0 -64.501504693231368 40.632681283666898 0 40.632681283666898 -11.16218072999618 0 0 0 0 -45.513918120300559 21.789094432777347 0 21.789094432777347 -8.2223763933361624 0 0 0 0 -50.774523767796609 28.128565284605429 0 28.128565284605429 0.010079455081722699 0 0 0 0 -76.539317457965808 18.770233891234966 0 18.770233891234966 4.5541300970944576 0 0 0 0 -29.123902029463352 150.66205012276623 0 150.66205012276623 39.970156733304975 0 0 0 0 286.48563704909475 21.674068513261773 0 21.674068513261773 0.050661152650718577 0 0 0 0 2.4304383001737127 -4.5891049334463254 0 -4.5891049334463254 -1.4035138996598846 0 0 0 0 1.0148776631919711 -2.1730131491131672 0 -2.1730131491131672 0.94877557500043963 0 0 0 0 0.46608193615019333 -1.0726107513242802 0 -1.0726107513242802 0.021198105920746002 0 0 0 0 237.06841919168073 40.262881135004136 0 40.262881135004136 -96.547731616999954 0 0 0 0 1.7334941607703058 -12.163235431031353 0 -12.163235431031353 1.1263739739661105 0 0 0 0 23.219096216228536 -104.15410568303378 0 -104.15410568303378 52.585075746566872 0 0 0 0 -46.141304321041048 18.725471708461555 0 18.725471708461555 1.1650025044073118 0 0 0 0 1584.4475688942748 -39.878836691532342 0 -39.878836691532342 -223.08212105066923 0 0 0 0 1.8767418485802061 1.6270895418851339 0 1.6270895418851339 2.8110976875240681 0 0 0 0 -138.89843829090682 -45.240870607864053 0 -45.240870607864053 22.603601511422312 0 0 0 0 -268.49855139846068 172.56490872242284 0 172.56490872242284 0.047845002256749328 0 0 0 0 -16.283086274969719 26.981403904574108 0 26.981403904574108 -154.03444915788714 0 0 0 0 670.52466687703236 -47.073458478382236 0 -47.073458478382236 68.909000573941739 0 0 0 0 648.24426034728003 165.69270497999423 0 165.69270497999423 -179.40940814495843 0 0 0 0 -232.41706693852711 225.65706739412053 0 225.65706739412053 -2.2685133283448522 0 0 0 0 4.1360282067018996 7.2125190505396937 0 7.2125190505396937 6.3618322864561492 0 0 0 0 625.86528687021155 156.92753819984682 0 156.92753819984682 26.531610806108802 0 0 0 0 -156.07470092466065 174.93034056875331 0 174.93034056875331 26.881123164309429 0 0 0 0 -19.786126656077613 5.4516546880367969 0 5.4516546880367969 -14.610283398829779 0 0 0 0 -5.333976179002863 1.4940662083044547 0 1.4940662083044547 5.1099881734883184 0 0 0 0 0.32858466015828025 -1.1490915423023509 0 -1.1490915423023509 -0.4986903157667939 0 0 0 0 2.3252896403280374 24.997376578750846 0 24.997376578750846 10.201467747974675 0 0 0 0 16.705800563159301 13.917364505883597 0 13.917364505883597 -18.906125153847825 0 0 0 0 -216.09494131689291 137.50301720064181 0 137.50301720064181 78.41539429720433 0 0 0 0 -44.076400213552461 41.567092970719386 0 41.567092970719386 -152.39271962465136 0 0 0 0 16.773353064209289 11.698390207252487 0 11.698390207252487 50.114618604246061 0 0 0 0 -6.0484657142157054 6.1324335944936053 0 6.1324335944936053 2.0688615495493536 0 0 0 0 48.29189747796363 -19.976550447558111 0 -19.976550447558111 -49.815288521291222 0 0 0 0 5.9243748552974012 -52.417129193494475 0 -52.417129193494475 92.389205944084097 0 0 0 0 41.35895959289553 2.1380567392061494 0 2.1380567392061494 -68.668297657306539 0 0 0 0 -74.569354599892904 17.431154563939344 0 17.431154563939344 19.091128782336455 0 0 0 0 3.1322984162920164 20.905745435782286 0 20.905745435782286 -3.9406409136836942 0 0 0 0 -64.543035648442128 -17.97866218128911 0 -17.97866218128911 -7.6798076478889925 0 0 0 0 -58.108840319910541 99.276549068934401 0 99.276549068934401 -16.838796412074316 0 0 0 0 -187.64311559699354 143.91166151502694 0 143.91166151502694 60.15836836471135 0 0 0 0 -189.21181047906481 48.425787074013215 0 48.425787074013215 2.4486843303602654 0 0 0 0 -13.778109549077271 59.015701901109423 0 59.015701901109423 -5.3686636235870537 0 0 0 0 7.805362447292282 108.0935050207554 0 108.0935050207554 -104.57962083521124 0 0 0 0 110.64008685020326 31.841820274625206 0 31.841820274625206 -76.660429776398814 0 0 0 0 5.1958246645379997 10.302299109063746 0 10.302299109063746 9.3824917697368164 0 0 0 0 -113.05474198469165 -27.469152963527449 0 -27.469152963527449 -12.182278808752017 0 0 0 0 1171.8900703018808 294.48035212517334 0 294.48035212517334 -34.373664136990556 0 0 0 0 0.65142543877518233 1.8813320786232861 0 1.8813320786232861 3.1612938995227751 0 0 0 0 -370.36889234734008 90.28295604102459 0 90.28295604102459 96.57885971351061 0 0 0 0 0.52617303930688841 4.9198821686378142 0 4.9198821686378142 9.1373706362314238 0 0 0 0 -92.601896783644406 82.771592688965029 0 82.771592688965029 14.667891262737612 0 0 0 0 -61.513648458442333 34.48819762705989 0 34.48819762705989 5.9593139548960607 0 0 0 0 -62.327726352641548 43.617565150903829 0 43.617565150903829 -2.733221052090812 0 0 0 0 411.46002098321742 157.66615558429817 0 157.66615558429817 25.614656429708702 0 0 0 0 -195.98576049182429 28.712516468400281 0 28.712516468400281 22.501314739944064 0 0 0 0 198.22934663279921 22.06376169424766 0 22.06376169424766 -0.20727718065609224 0 0 0 0 -125.10964772528405 34.04157354920244 0 34.04157354920244 18.910031747494941 0 0 0 0 0.8949940259663216 5.2664506688493926 0 5.2664506688493926 13.828697227312858 0 0 0 0 32.005726223296733 79.391007714650186 0 79.391007714650186 105.81614578989684 0 0 0 0 -62.467735699610785 13.751747766395965 0 13.751747766395965 6.4884834056138061 0 0 0 0 -67.98681129261422 30.80038348276139 0 30.80038348276139 27.748946392108337 0 0 0 0 -34.382574723189464 42.420708903948253 0 42.420708903948253 2.6446645437263214 0 0 0 0 -84.832509350931559 60.80996578765189 0 60.80996578765189 2.0290559202549048 0 0 0 0 -4.929066398723581 24.912556231515424 0 24.912556231515424 4.634658895372695 0 0 0 0 -59.549296433383006 52.063272869017965 0 52.063272869017965 -8.1453502803778974 0 0 0 0 -68.327277861441416 66.126589188010257 0 66.126589188010257 -8.2548883091076277 0 0 0 0 -79.35856901231864 6.5695903239902691 0 6.5695903239902691 5.6810958625119383 0 0 0 0 -6.1272613598774797 37.867924019534257 0 37.867924019534257 -35.277516848407686 0 0 0 0 -93.82294424142674 34.012177293268905 0 34.012177293268905 3.7353812880683108 0 0 0 0 7.7590945587173561 20.622504891773737 0 20.622504891773737 0.35484429551485164 0 0 0 0 7.0652201978043667 11.559652468612057 0 11.559652468612057 11.893931120104071 0 0 0 0 -139.28997770352566 78.673072183381009 0 78.673072183381009 15.989437448995886 0 0 0 0 7.5782177311602936 32.122928972752561 0 32.122928972752561 -26.932089435824309 0 0 0 0 439.2901136859964 76.158740932733053 0 76.158740932733053 151.95147201498912 0 0 0 0 37.342418458265456 84.616838762951375 0 84.616838762951375 227.4232417868443 0 0 0 0 137.65476428457714 2.6339779377558443 0 2.6339779377558443 264.5848601605685 0 0 0 0 173.8338421786666 203.42127258842811 0 203.42127258842811 237.2616157135808 0 0 0 0 210.39141031165855 121.6448212526011 0 121.6448212526011 253.03537514119853 0 0 0 0 240.23617603649473 83.089510840640287 0 83.089510840640287 112.72418911899149 0 0 0 0 0.31401477274630807 0.66603334621119714 0 0.66603334621119714 0.19909381698479933 0 0 0 0 236.51071416429659 57.645934526961355 0 57.645934526961355 36.23438863606134 0 0 0 0 331.07618525082762 183.55360814200685 0 183.55360814200685 59.879186429156107 0 0 0 0 259.81164047969651 146.85773516232439 0 146.85773516232439 157.24434061857755 0 0 0 0 314.67332365838411 232.38592003865779 0 232.38592003865779 153.83520892923843 0 0 0 0 375.66898124182921 278.86115951757893 0 278.86115951757893 186.21143905763165 0 0 0 0 256.37014856204041 245.22590469686838 0 245.22590469686838 151.61582385415386 0 0 0 0 337.64866453504055 317.13202349163294 0 317.13202349163294 211.41014165667002 0 0 0 0 332.49612183095815 197.47045363670622 0 197.47045363670622 102.76569404936163 0 0 0 0 440.21934511643485 213.37704123794538 0 213.37704123794538 70.528975136665395 0 0 0 0 264.39965517068231 244.06867599368707 0 244.06867599368707 217.49869799150019 0 0 0 0 -11.101108518801993 24.745511666973471 0 24.745511666973471 142.61242866523389 0 0 0 0 95.776839416123039 146.16632464336726 0 146.16632464336726 217.12895930325612 0 0 0 0 154.88673645916606 99.843421688870876 0 99.843421688870876 156.79105803522179 0 0 0 0 287.39481189956223 170.68529879369999 0 170.68529879369999 145.66913599855616 0 0 0 0 160.20560861639842 92.972003095463151 0 92.972003095463151 156.85267614874465 0 0 0 0 76.996207166376735 9.9453482538883691 0 9.9453482538883691 183.04609053680906 0 0 0 0 47.298194545257502 74.623456515044381 0 74.623456515044381 185.73958774925268 0 0 0 0 33.581868775997691 13.683781051771803 0 13.683781051771803 133.91027588682482 0 0 0 0 35.589895360762966 42.99280285036366 0 42.99280285036366 89.396719899385062 0 0 0 0 27.157005913598368 19.773587835958097 0 19.773587835958097 136.32001156129991 0 0 0 0 -48.118948413930411 5.2622771991773334 0 5.2622771991773334 82.26772070149309 0 0 0 0 -13.469790952327706 1.8827344961825645 0 1.8827344961825645 0.44418711663966803 0 0 0 0 58.977827171967874 46.336354003378801 0 46.336354003378801 20.320013677570387 0 0 0 0 -155.4854571766009 178.30937656056631 0 178.30937656056631 -251.81161259487271 0 0 0 0 -143.32188939091429 264.54869036228047 0 264.54869036228047 -41.609624213640927 0 0 0 0 -136.82054198984406 194.91771992615395 0 194.91771992615395 -195.31573741858665 0 0 0 0 -22.094067327119774 39.043916782047745 0 39.043916782047745 -24.650198256436852 0 0 0 0 493.29438730329457 653.83152101823362 0 653.83152101823362 20.320695119153243 0 0 0 0 468.75145837079981 67.777706770008081 0 67.777706770008081 6.1234507054009555 0 0 0 0 130.65807388078065 237.93973649737018 0 237.93973649737018 374.10875783950178 0 0 0 0 257.97314461546375 338.13582246706937 0 338.13582246706937 -770.14647572088506 0 0 0 0 -3.8305251544274554 1.5589217945022682 0 1.5589217945022682 0.10989020404962702 0 0 0 0 371.30980339166126 92.541547047585482 0 92.541547047585482 -222.81443252571262 0 0 0 0 150.45518060109953 442.91658237779848 0 442.91658237779848 -268.99082694588287 0 0 0 0 319.76665825364216 389.71344921690616 0 389.71344921690616 25.377486683006282 0 0 0 0 678.49284130183969 271.92001699073808 0 271.92001699073808 -204.29637321364135 0 0 0 0 72.021318287811937 349.35423836762402 0 349.35423836762402 -128.96090017448296 0 0 0 0 45.853961994960628 258.93451184357764 0 258.93451184357764 33.954081431016675 0 0 0 0 94.577121277457081 426.77210628997636 0 426.77210628997636 -0.079378744696441572 0 0 0 0 786.25711837607287 397.13578550423335 0 397.13578550423335 0.5475090117615764 0 0 0 0 459.78970415297226 158.15656142486114 0 158.15656142486114 40.573646669077334 0 0 0 0 -384.93159948845209 281.13117437523579 0 281.13117437523579 7.7440021917864215 0 0 0 0 -339.22579337689081 44.494638733668125 0 44.494638733668125 36.991727150962106 0 0 0 0 -158.32224297248285 264.7271736849325 0 264.7271736849325 122.340482904081 0 0 0 0 -165.66168998435387 309.40138266266149 0 309.40138266266149 -71.510786811755679 0 0 0 0 -499.79860569150878 437.75240913164089 0 437.75240913164089 -0.13086687020404497 0 0 0 0 -769.0638947883117 85.642897728843309 0 85.642897728843309 107.13682516940753 0 0 0 0 -1.245022692614242 1.6887368702250143 0 1.6887368702250143 -3.0480977362375086 0 0 0 0 244.8057305221264 130.72340362085379 0 130.72340362085379 0.19197365467698546 0 0 0 0 244.05177280034331 115.40209975986363 0 115.40209975986363 15.910791414571577 0 0 0 0 -366.28455419653619 -334.7668153111299 0 -334.7668153111299 -130.04492660582764 0 0 0 0 226.25308095403307 240.13759200522327 0 240.13759200522327 151.86498231952282 0 0 0 0 225.34095964315929 107.8854110432585 0 107.8854110432585 110.13116798232659 0 0 0 0 239.0763041404316 149.79331715628359 0 149.79331715628359 12.239082286221674 0 0 0 0 226.49660467890953 102.16241421859195 0 102.16241421859195 19.154037625252386 0 0 0 0 173.24215030357664 141.59648696557269 0 141.59648696557269 -0.10686814420478186 0 0 0 0 61.738301028737624 126.43117791294208 0 126.43117791294208 48.90581445445423 0 0 0 0 -240.97369752193663 133.62392825655843 0 133.62392825655843 -0.14447835885221139 0 0 0 0 3.3830703184012236 -20.190912793081225 0 -20.190912793081225 -71.487860114655632 0 0 0 0 -0.75610889697418315 148.88771178781462 0 148.88771178781462 3.2728551945147046 0 0 0 0 -198.66610322095221 -38.409971530825715 0 -38.409971530825715 28.256826956756413 0 0 0 0 169.60221825967164 78.857841744753387 0 78.857841744753387 22.189778510859469 0 0 0 0 282.44256621876775 176.32911831619276 0 176.32911831619276 -13.75449616338301 0 0 0 0 170.5866565403885 158.2046212913192 0 158.2046212913192 67.08288185892161 0 0 0 0 333.84627339625149 157.2575687985227 0 157.2575687985227 53.83923547246377 0 0 0 0 166.63891495198675 64.231349479329538 0 64.231349479329538 0.6227838781196624 0 0 0 0 218.4333216178311 188.84054458646278 0 188.84054458646278 142.32160273386398 0 0 0 0 190.2180333534252 122.47740732905004 0 122.47740732905004 122.69270911780768 0 0 0 0 217.40300522642792 262.61321797943674 0 262.61321797943674 150.60828506521284 0 0 0 0 286.51627178469789 110.44478310114937 0 110.44478310114937 227.98679634324799 0 0 0 0 359.91838654436651 117.27140368289838 0 117.27140368289838 114.75907238922082 0 0 0 0 134.08335215607804 185.29077420140675 0 185.29077420140675 53.057839377150231 0 0 0 0 19.533329560053971 103.30646464263555 0 103.30646464263555 110.25947229123267 0 0 0 0 39.89822479499162 99.364234061202296 0 99.364234061202296 -35.538241584814386 0 0 0 0 167.3092448234238 146.88482084224233 0 146.88482084224233 46.323943604409578 0 0 0 0 128.33790328256327 221.67513410879201 0 221.67513410879201 100.64873523492133 0 0 0 0 248.9293308249471 187.80599044992414 0 187.80599044992414 75.390801775996806 0 0 0 0 451.79857422654459 241.89866607825388 0 241.89866607825388 42.685253766594542 0 0 0 0 82.390570889972878 7.7456387037364038 0 7.7456387037364038 32.545758183841826 0 0 0 0 -144.77883585248128 102.14861859760276 0 102.14861859760276 -45.20518021175485 0 0 0 0 -4.0436480920980102 -61.29974874555046 0 -61.29974874555046 36.656348764110589 0 0 0 0 366.58789119704306 378.80188024609379 0 378.80188024609379 142.36949040292529 0 0 0 0 -12.455870827354843 11.938898215401295 0 11.938898215401295 -8.6267004395567426 0 0 0 0 -21.507672888234108 11.139839865369723 0 11.139839865369723 -0.31089965751499449 0 0 0 0 190.26255338245392 212.90345309735858 0 212.90345309735858 308.26837567332404 0 0 0 0 263.12063350756944 356.07002457469935 0 356.07002457469935 223.91306697867549 0 0 0 0 -29.837496242411362 -10.013585790788056 0 -10.013585790788056 1.5757110156555427 0 0 0 0 -49.506961326906548 -15.494540637530008 0 -15.494540637530008 15.69890134925663 0 0 0 0 -47.653212332188559 -2.6078976201097248 0 -2.6078976201097248 39.498048220382771 0 0 0 0 -56.609957778931857 9.6380366195153329 0 9.6380366195153329 22.357427133511919 0 0 0 0 -31.796405532302742 7.6890190006815828 0 7.6890190006815828 22.161564259235092 0 0 0 0 -32.6965363904078 -2.8463685678252659 0 -2.8463685678252659 40.677818268275587 0 0 0 0 -10.666484846324238 14.494990872015478 0 14.494990872015478 -33.283433269964007 0 0 0 0 -7.8603160596558155 -26.749694279962569 0 -26.749694279962569 2.6925288119236939 0 0 0 0 -25.362174826911875 1.2929482161460299 0 1.2929482161460299 1.3317837507745054 0 0 0 0 -1.9088910679398765 -2.6013535689707226 0 -2.6013535689707226 0.92246000704642483 0 0 0 0 -121.62195630461542 -1.5654639445901921 0 -1.5654639445901921 10.983951715184958 0 0 0 0 -93.549079933259236 -12.750690903374561 0 -12.750690903374561 15.437212044205808 0 0 0 0 -190.87969590514331 75.752620969142299 0 75.752620969142299 -13.208354065750427 0 0 0 0 -112.84278152235129 68.420780171807564 0 68.420780171807564 -34.114795093555585 0 0 0 0 -6.5427845386345354 6.8524739049376535 0 6.8524739049376535 -5.7991259752328403 0 0 0 0 365.80978965277609 265.47865197946521 0 265.47865197946521 74.856059719990299 0 0 0 0 -44.328592654965178 -77.501544279992231 0 -77.501544279992231 -23.342908421996981 0 0 0 0 66.587384042271879 -172.87974824613775 0 -172.87974824613775 -5.9861357463523746 0 0 0 0 499.90332934408798 -350.32003795146011 0 -350.32003795146011 62.63501668185927 0 0 0 0 -1.1052551959612842 4.3818763428821654 0 4.3818763428821654 1.0175641373908704 0 0 0 0 -19.287341833362007 38.953038930023467 0 38.953038930023467 0.013586452256527048 0 0 0 0 32.16611400257716 7.7784084394065758 0 7.7784084394065758 -0.55393739361170447 0 0 0 0 43.686252416877778 26.356758182080739 0 26.356758182080739 -13.327314846472291 0 0 0 0 41.284527102172433 32.307541203146684 0 32.307541203146684 4.3334680773677974 0 0 0 0 93.218341056526697 21.09301177366433 0 21.09301177366433 -3.132287777178135 0 0 0 0 42.804885593271138 39.274614132137685 0 39.274614132137685 0.0049896268537850119 0 0 0 0 0.0021935912089503518 -1.1228771716427417 0 -1.1228771716427417 -1.4422499676774976 0 0 0 0 -593.82894806172044 -131.51942632235296 0 -131.51942632235296 32.904266350222315 0 0 0 0 -236.10839477513946 31.114911045013287 0 31.114911045013287 -80.64669721106111 0 0 0 0 -556.4667623936366 -98.012334244511294 0 -98.012334244511294 93.204489584561088 0 0 0 0 -144.06827370569772 -73.596578880210473 0 -73.596578880210473 -136.42740410419356 0 0 0 0 -185.49456411288702 76.079115542008367 0 76.079115542008367 112.86546077144885 0 0 0 0 -480.7856538652668 -23.89368699593615 0 -23.89368699593615 117.11419734518859 0 0 0 0 41.900100579412538 23.171824869103148 0 23.171824869103148 -9.3112168347215629 0 0 0 0 -1.6493016077618705 3.862537898535976 0 3.862537898535976 -8.783361238426437 0 0 0 0 -0.93702823987281647 1.36956062795484 0 1.36956062795484 -3.6041274918579234 0 0 0 0 65.954319136365484 26.205777718526406 0 26.205777718526406 0.69830741085752379 0 0 0 0 20.699537309018979 43.464688299969112 0 43.464688299969112 16.44569190996117 0 0 0 0 24.884922604545864 19.707997223551502 0 19.707997223551502 3.1337903640705917 0 0 0 0 48.80238524568631 40.268678670145164 0 40.268678670145164 0.015455098349775653 0 0 0 0 -0.75980365645242642 -1.9556090282541234 0 -1.9556090282541234 0.84566594217591273 0 0 0 0 -2.911139007062161 3.5883304372066078 0 3.5883304372066078 -0.14285721448169397 0 0 0 0 -64.026950451574521 48.378268104613653 0 48.378268104613653 -10.819466438813834 0 0 0 0 -15.887320862013439 8.1126523295888546 0 8.1126523295888546 -9.5297559878963511 0 0 0 0 -36.761316256357532 14.689166255797318 0 14.689166255797318 3.5916142042697174 0 0 0 0 2.2299583844069275 36.208013805720839 0 36.208013805720839 -39.241758104399196 0 0 0 0 -46.982319113836638 84.811952586785992 0 84.811952586785992 45.17273723645485 0 0 0 0 8.3112576122712198 12.993861209037277 0 12.993861209037277 -5.5637339107342996 0 0 0 0 -15.191575764143636 26.33080221932687 0 26.33080221932687 -5.1197854696874856 0 0 0 0 5.3275201238247973 34.52759959166724 0 34.52759959166724 -23.193353139522515 0 0 0 0 -3.7637099156222114 8.9991104152605601 0 8.9991104152605601 -16.473794547373984 0 0 0 0 -159.45939367342726 206.43828698956713 0 206.43828698956713 30.816592974995729 0 0 0 0 -342.45625314226163 -34.677777243767196 0 -34.677777243767196 124.06182373454794 0 0 0 0 -108.4807650011353 71.414110417181291 0 71.414110417181291 190.05321475828532 0 0 0 0 -41.510167757598538 -64.964047066190687 0 -64.964047066190687 -88.893821503224899 0 0 0 0 77.110111049230909 216.93763260295236 0 216.93763260295236 51.420258669127179 0 0 0 0 107.50335681140859 -47.842846029161592 0 -47.842846029161592 157.06718378604273 0 0 0 0 313.52345596622399 222.11349122892716 0 222.11349122892716 -20.963534096521471 0 0 0 0 -24.513390204956522 38.09413793659769 0 38.09413793659769 -46.906766003172379 0 0 0 0 -24.097470030039801 15.538980806587617 0 15.538980806587617 -7.7630736582873112 0 0 0 0 60.223640489985883 189.28539992471997 0 189.28539992471997 188.64110577820975 0 0 0 0 -13.585815627557167 12.428966273029801 0 12.428966273029801 9.3103796329232864 0 0 0 0 127.36810898716794 385.20088241512713 0 385.20088241512713 157.81379808246857 0 0 0 0 -24.631160672728356 17.106041784062029 0 17.106041784062029 -5.7223001661101591 0 0 0 0 -40.146117745389347 206.34697721425619 0 206.34697721425619 291.6722176170515 0 0 0 0 105.44299088825028 226.64089909785253 0 226.64089909785253 67.720462368124572 0 0 0 0 66.732349795012851 107.62138368747401 0 107.62138368747401 36.684769064811917 0 0 0 0 111.29691293212727 201.73886881602448 0 201.73886881602448 96.517805439405493 0 0 0 0 -16.291283275818444 21.125302111994827 0 21.125302111994827 -13.576990870840632 0 0 0 0 58.186717403597868 304.3643717032428 0 304.3643717032428 196.40999273661873 0 0 0 0 -57.923927076357359 256.51448970499041 0 256.51448970499041 262.25491501735814 0 0 0 0 328.20495703243978 285.76187356171431 0 285.76187356171431 184.01643487858382 0 0 0 0 53.875512994171004 170.90194569352025 0 170.90194569352025 326.69082878599875 0 0 0 0 53.650456397326707 165.91787634468074 0 165.91787634468074 217.17909911787137 0 0 0 0 -50.184626268151341 34.162123742200507 0 34.162123742200507 -19.406297760859417 0 0 0 0 93.982396342873471 65.802821159024461 0 65.802821159024461 129.10879076045239 0 0 0 0 94.045027353480691 53.939953991779475 0 53.939953991779475 256.34374542837759 0 0 0 0 167.78737082133739 82.440446905515273 0 82.440446905515273 130.67544848832767 0 0 0 0 37.564989116641982 52.251116143373793 0 52.251116143373793 153.8140379715187 0 0 0 0 206.27473108189952 279.18011816997387 0 279.18011816997387 20.241731191927101 0 0 0 0 -106.28074441978242 245.69474802687182 0 245.69474802687182 52.863322707067709 0 0 0 0 30.040878071619773 242.41745172377432 0 242.41745172377432 42.134715319611132 0 0 0 0 -29.131389457150362 316.85416027432075 0 316.85416027432075 108.55252085576649 0 0 0 0 -105.2286682105987 91.866502150565793 0 91.866502150565793 92.061214339424623 0 0 0 0 -61.073871553573554 39.926259849926282 0 39.926259849926282 -94.420477139006834 0 0 0 0 -230.60944756474055 146.10865931631997 0 146.10865931631997 -141.11355518369237 0 0 0 0 -232.66485777747948 -83.683666470307799 0 -83.683666470307799 21.077038413204718 0 0 0 0 -1.3717230944208865 2.8128824513637767 0 2.8128824513637767 -0.83878917610279302 0 0 0 0 21.044229403581994 270.46201885698247 0 270.46201885698247 -138.9291173396341 0 0 0 0 -22.234459380435723 16.582132302556658 0 16.582132302556658 5.8495142066576307 0 0 0 0 24.942866131696064 95.209726383593079 0 95.209726383593079 60.47501562294201 0 0 0 0 -45.974988253648917 22.46976366781746 0 22.46976366781746 13.81942957856154 0 0 0 0 -40.663128390287966 15.907540632579185 0 15.907540632579185 20.546276121269329 0 0 0 0 -4.0697629994319016 2.5996934679553334 0 2.5996934679553334 8.6426118815732593 0 0 0 0 433.45371696846996 345.59464812770966 0 345.59464812770966 -105.22278337014723 0 0 0 0 -48.727025557454908 -42.584605379794084 0 -42.584605379794084 55.849394375123666 0 0 0 0 0.37557845787815225 -0.57573417309775721 0 -0.57573417309775721 2.1420201945168174 0 0 0 0 -65.305892893782584 -2.2992140875794576 0 -2.2992140875794576 9.1464833279896993 0 0 0 0 -65.830658141654567 17.069795556235476 0 17.069795556235476 53.156022409297293 0 0 0 0 -182.50421854651358 65.900952840202081 0 65.900952840202081 97.544522132215207 0 0 0 0 26.368069945072861 44.093515365665411 0 44.093515365665411 51.601896686659131 0 0 0 0 -39.57507276577644 31.256264341998303 0 31.256264341998303 25.838245381295565 0 0 0 0 6.4230834913142019 32.015341437730712 0 32.015341437730712 14.608140475825735 0 0 0 0 17.144937539302191 32.277154652099853 0 32.277154652099853 17.499159925151616 0 0 0 0 -76.323950064063411 35.291589655493226 0 35.291589655493226 209.85097817960195 0 0 0 0 -50.853740155242122 74.017064289531845 0 74.017064289531845 138.23055936196761 0 0 0 0 -85.866131961169231 63.182197618618375 0 63.182197618618375 163.39482412244979 0 0 0 0 -27.798356521305323 34.9731665462823 0 34.9731665462823 190.63782021069346 0 0 0 0 -27.488452376010173 25.627088053581247 0 25.627088053581247 143.64192441302657 0 0 0 0 -48.643989489573869 24.517407409577572 0 24.517407409577572 145.72019133048889 0 0 0 0 -32.483312659362127 22.980907768156612 0 22.980907768156612 134.21988186943418 0 0 0 0 -24.568751534493458 3.2080804475190234 0 3.2080804475190234 73.262242359254742 0 0 0 0 -35.390203646398732 13.437777796585578 0 13.437777796585578 67.119672213797458 0 0 0 0 -44.826833345934574 15.865068797080312 0 15.865068797080312 82.42676172046049 0 0 0 0 -43.533833042582046 27.742583083585487 0 27.742583083585487 76.353905888856389 0 0 0 0 -48.965123411661807 28.493356743481854 0 28.493356743481854 104.50432078601443 0 0 0 0 -37.58494755353604 45.626200980274007 0 45.626200980274007 57.480177739942519 0 0 0 0 -36.904982258152813 18.667479229879973 0 18.667479229879973 53.226103207765846 0 0 0 0 -35.660139614456057 15.338685895927483 0 15.338685895927483 35.920102328091161 0 0 0 0 -15.721628688890632 22.306980508845299 0 22.306980508845299 -12.263612803057185 0 0 0 0 -13.763929483629909 55.792077724196133 0 55.792077724196133 22.11057024000911 0 0 0 0 -13.443704913518559 63.64998222754366 0 63.64998222754366 55.056916416506283 0 0 0 0 -34.492313814113004 59.937660852716363 0 59.937660852716363 89.571343859293847 0 0 0 0 -39.465799227426032 40.112862653379125 0 40.112862653379125 63.957527668215334 0 0 0 0 -21.46220476186658 14.324617400056525 0 14.324617400056525 -3.3838285569319737 0 0 0 0 -5.2497064027647866 44.408842375589302 0 44.408842375589302 44.170518494502176 0 0 0 0 -61.663538288648851 61.776545204302238 0 61.776545204302238 -81.080883054775768 0 0 0 0 192.40462742824457 62.62167420069818 0 62.62167420069818 245.58875977367279 0 0 0 0 247.34185177226209 376.30329956597961 0 376.30329956597961 194.0509101779171 0 0 0 0 -14.787193901982391 -12.718019130028551 0 -12.718019130028551 32.267378880875185 0 0 0 0 -15.928199446135878 15.68167508239479 0 15.68167508239479 -10.728618630507015 0 0 0 0 17.907965373182378 78.139059300214285 0 78.139059300214285 15.229236177023267 0 0 0 0 -49.746817584460587 68.243997821497032 0 68.243997821497032 86.174409231742175 0 0 0 0 5.6532262627235923 131.38039104904419 0 131.38039104904419 150.94190662020992 0 0 0 0 -33.702760026637407 199.69038405306856 0 199.69038405306856 290.22071547188534 0 0 0 0 -100.16939047373126 111.21622735355049 0 111.21622735355049 173.56564024444378 0 0 0 0 70.535450915053843 44.364232159110543 0 44.364232159110543 197.47280488089018 0 0 0 0 112.45263238775806 184.75578178121214 0 184.75578178121214 104.63019540545793 0 0 0 0 36.094375102566119 230.15907207712007 0 230.15907207712007 143.49377234195708 0 0 0 0 64.785755078015427 228.19255307828826 0 228.19255307828826 -94.806489186441468 0 0 0 0 1.7847896220841406 1.4928771198330253 0 1.4928771198330253 0.71063268966065607 0 0 0 0 -147.72720300029414 53.434928930073511 0 53.434928930073511 310.71534738861646 0 0 0 0 -82.70310504104782 77.379757319708006 0 77.379757319708006 -44.113501665032345 0 0 0 0 -143.59674144674585 -10.128228784111798 0 -10.128228784111798 150.49994623237581 0 0 0 0 -109.96191787568387 80.040315724094398 0 80.040315724094398 214.80070214440639 0 0 0 0 -121.71219871658286 53.532833933635629 0 53.532833933635629 207.54952271495131 0 0 0 0 -90.950391045412744 86.808526757438813 0 86.808526757438813 198.95089044810447 0 0 0 0 -5.691863770690361 8.8231689020758495 0 8.8231689020758495 153.34331108443439 0 0 0 0 -121.83454809913883 24.718254781913856 0 24.718254781913856 175.49059828241298 0 0 0 0 -134.07614132552931 22.622746038202422 0 22.622746038202422 15.20953807112528 0 0 0 0 129.69859060991621 91.040220803533884 0 91.040220803533884 19.218240532478376 0 0 0 0 2.0589462901325426 1.6026837433870753 0 1.6026837433870753 0.44493844205464939 0 0 0 0 126.12140419736534 271.79244292192743 0 271.79244292192743 -146.4570317889229 0 0 0 0 -151.51714627406182 110.45031128192204 0 110.45031128192204 224.70061777742376 0 0 0 0 -100.08498739804963 78.825029029296275 0 78.825029029296275 -48.044120057547843 0 0 0 0 -186.79608748758437 235.71143100783229 0 235.71143100783229 -17.461300885128367 0 0 0 0 2.8553469921642076 3.0685009416892228 0 3.0685009416892228 2.12271917357657 0 0 0 0 -138.61209998591949 168.79845215654495 0 168.79845215654495 -75.996728788755718 0 0 0 0 -89.191794872442188 51.978599549183855 0 51.978599549183855 -55.356411736327573 0 0 0 0 91.867957765458868 140.41225139176458 0 140.41225139176458 -53.004180772913969 0 0 0 0 28.469288607433555 61.979076267365599 0 61.979076267365599 -114.59046955231588 0 0 0 0 18.328370026167249 55.417469860876736 0 55.417469860876736 -40.982479085668274 0 0 0 0 20.902624956424006 101.61179610017643 0 101.61179610017643 -54.100400636059931 0 0 0 0 81.62612855669704 145.57411397035321 0 145.57411397035321 8.3210474722654908 0 0 0 0 -47.44455394295619 136.47654828883969 0 136.47654828883969 15.095394027579459 0 0 0 0 18.989714496506167 71.777089356932265 0 71.777089356932265 7.5191615020667086 0 0 0 0 56.4854748158387 42.433858419783064 0 42.433858419783064 27.696528322245285 0 0 0 0 68.296630225251874 127.98817532054773 0 127.98817532054773 -10.847268861849443 0 0 0 0 196.56995738887053 68.718338059683447 0 68.718338059683447 15.592064156138804 0 0 0 0 243.96042129496709 276.92448668211728 0 276.92448668211728 -72.663611069798208 0 0 0 0 -58.707905229846801 352.90586113180689 0 352.90586113180689 -54.212383816265174 0 0 0 0 107.33891531988684 51.632384426671706 0 51.632384426671706 -98.823353048828722 0 0 0 0 -244.74055393626759 305.82372670804943 0 305.82372670804943 189.90317391855933 0 0 0 0 161.9594795104349 228.27570945633488 0 228.27570945633488 91.834692815929884 0 0 0 0 84.56389051228507 69.620197521026967 0 69.620197521026967 85.184679204059648 0 0 0 0 205.18337630975293 19.532381471915869 0 19.532381471915869 190.89116148711764 0 0 0 0 0.67128178439909902 15.930140755111893 0 15.930140755111893 9.0639453817950937 0 0 0 0 111.18758894242637 65.069995687521441 0 65.069995687521441 29.501110247510951 0 0 0 0 399.45204035568895 123.94117907703912 0 123.94117907703912 -14.158365325987688 0 0 0 0 18.417743990960403 13.042023549122007 0 13.042023549122007 12.112431094300973 0 0 0 0 67.081208092782617 -66.529292844727024 0 -66.529292844727024 61.41628452615987 0 0 0 0 117.89717006121646 125.00404431849893 0 125.00404431849893 -54.685359232680639 0 0 0 0 13.11241319361886 11.357772544831221 0 11.357772544831221 5.7712138923301382 0 0 0 0 -116.53427819558419 80.860540917776234 0 80.860540917776234 -67.802907303193933 0 0 0 0 28.357904381093284 54.43405935045682 0 54.43405935045682 52.245221668358028 0 0 0 0 -123.11483843053429 300.93384852000599 0 300.93384852000599 171.03174962272169 0 0 0 0 -92.673483727554412 236.22494480662499 0 236.22494480662499 142.77498779715097 0 0 0 0 -41.446797369631064 42.841080721016397 0 42.841080721016397 -11.468152245953092 0 0 0 0 -64.523706054358627 312.94032191891165 0 312.94032191891165 112.29548625118332 0 0 0 0 158.85688425167609 6.8561445640225429 0 6.8561445640225429 349.63016950478777 0 0 0 0 9.4931054918506526 14.030513424913138 0 14.030513424913138 4.0623788096207818 0 0 0 0 236.39449651318773 151.47294118719583 0 151.47294118719583 -163.74188189730921 0 0 0 0 -115.50775269274436 107.47588769678623 0 107.47588769678623 418.11787616249057 0 0 0 0 56.405401070726839 56.84104042205945 0 56.84104042205945 29.200983370152244 0 0 0 0 20.386874543690283 109.41117239965388 0 109.41117239965388 59.687709100835491 0 0 0 0 31.453167771277549 163.55741166223015 0 163.55741166223015 113.26885795191629 0 0 0 0 -121.8539377762645 89.458758011176542 0 89.458758011176542 -185.88692675100174 0 0 0 0 119.6927594905861 121.44075428779122 0 121.44075428779122 -2.903891650071273 0 0 0 0 63.768398840986265 153.7918953604094 0 153.7918953604094 -2.8987016231549205 0 0 0 0 38.937961803081635 103.6010337109401 0 103.6010337109401 39.062638831957884 0 0 0 0 -94.55375971065223 173.50790197448805 0 173.50790197448805 227.8919281075141 0 0 0 0 1.2366348278337682 24.07356090686153 0 24.07356090686153 -81.580892328871414 0 0 0 0 46.383697717936684 79.02367720041002 0 79.02367720041002 -66.130296374831232 0 0 0 0 68.559389606551122 137.43255186386523 0 137.43255186386523 -85.858811662036942 0 0 0 0 113.73673841517666 157.60878605119069 0 157.60878605119069 36.647341689356836 0 0 0 0 75.193908312695385 116.10754287968666 0 116.10754287968666 -21.384711179314763 0 0 0 0 33.615568507166245 83.048421809973661 0 83.048421809973661 -34.695600974177069 0 0 0 0 20.906099752735827 69.982496252247074 0 69.982496252247074 6.5565418710539234 0 0 0 0 70.303052144590254 74.053756248666815 0 74.053756248666815 37.701519672711669 0 0 0 0 -25.789980548729545 88.403426471599232 0 88.403426471599232 32.55042810618761 0 0 0 0 23.800559946703515 76.927423145676585 0 76.927423145676585 18.963527356274426 0 0 0 0 33.523190151379822 81.287451178552146 0 81.287451178552146 13.192605619700771 0 0 0 0 88.378916674904758 40.334896037493309 0 40.334896037493309 74.774169910233468 0 0 0 0 58.55933560695847 77.27552346688546 0 77.27552346688546 36.652209093239492 0 0 0 0 60.126023480290314 35.629119106153667 0 35.629119106153667 78.079381305731658 0 0 0 0 121.8418346795188 25.398679400421315 0 25.398679400421315 -78.309996837520885 0 0 0 0 -38.200499259590288 135.75316469384416 0 135.75316469384416 36.30505822113264 0 0 0 0 77.360448641338735 167.04488350738029 0 167.04488350738029 -146.98240569221525 0 0 0 0 35.973010006178811 63.148616140200829 0 63.148616140200829 86.294764239632059 0 0 0 0 96.096545722148221 138.88692231645109 0 138.88692231645109 -19.608745701822045 0 0 0 0 78.2208520724962 85.716662513234041 0 85.716662513234041 76.656014262389363 0 0 0 0 -1.5248617070867851 0.8917547372522705 0 0.8917547372522705 -0.092934663629108627 0 0 0 0 19.746032725430268 157.89747900739167 0 157.89747900739167 130.55128779020743 0 0 0 0 36.067302916584595 4.3617207805691578 0 4.3617207805691578 -201.2265915505559 0 0 0 0 36.448620539156764 163.96069015179091 0 163.96069015179091 -2.2221567045562551 0 0 0 0 43.717967943484837 137.09819011125182 0 137.09819011125182 40.548889022189542 0 0 0 0 11.987852917888631 65.711932826063276 0 65.711932826063276 31.797829055569309 0 0 0 0 -94.091301418506191 160.32565710238305 0 160.32565710238305 55.87728850410349 0 0 0 0 70.598674688044554 75.212769490912876 0 75.212769490912876 38.395295848692939 0 0 0 0 8.316147521858511 111.54584164788957 0 111.54584164788957 33.663389511559217 0 0 0 0 16.988162356028624 98.66545792947818 0 98.66545792947818 41.203846109536244 0 0 0 0 47.719104198942659 98.83867530641146 0 98.83867530641146 32.733641499315127 0 0 0 0 46.344539672019891 109.12327200002255 0 109.12327200002255 23.230567086055089 0 0 0 0 45.448591907158516 109.52202336160508 0 109.52202336160508 59.375979868127615 0 0 0 0 85.745250517549721 90.744558637621594 0 90.744558637621594 40.171162568520231 0 0 0 0 48.40133943384717 102.58264664681337 0 102.58264664681337 43.372433822776657 0 0 0 0 87.878480551351458 93.547448572743633 0 93.547448572743633 36.140656009651138 0 0 0 0 -3.3994706443212923 7.5393726632271196 0 7.5393726632271196 -6.9916935848392257 0 0 0 0 -154.7023565622053 30.113292606505638 0 30.113292606505638 26.717049318845966 0 0 0 0 -14.595225756641412 26.201350612889655 0 26.201350612889655 101.85362079918741 0 0 0 0 -121.78497028750098 118.86725504412971 0 118.86725504412971 138.10121421563963 0 0 0 0 3.3308866035990157 1.2180925498887518 0 1.2180925498887518 -1.1750079503717075 0 0 0 0 -298.83117075940572 217.82908835549824 0 217.82908835549824 101.55269047937327 0 0 0 0 -18.955667192358305 122.79591773523134 0 122.79591773523134 -19.268321176801692 0 0 0 0 -179.70768035852598 173.62668418003159 0 173.62668418003159 82.231876182151609 0 0 0 0 -555.29778633531305 -34.372867922058504 0 -34.372867922058504 2.0633272307532025 0 0 0 0 -340.32020033932531 276.64457330572441 0 276.64457330572441 -39.14483902201755 0 0 0 0 23.281377735330352 -34.583675162975851 0 -34.583675162975851 -41.089299662475241 0 0 0 0 -3.0290112513865974 2.896081208806919 0 2.896081208806919 -1.0155870007043859 0 0 0 0 245.22266570204738 212.75878560348792 0 212.75878560348792 6.7472489839710761 0 0 0 0 247.33588710465119 248.74650210771506 0 248.74650210771506 176.12935302608093 0 0 0 0 369.75648138691577 137.12408729858726 0 137.12408729858726 45.923808773761266 0 0 0 0 118.65454499630505 171.25830012324877 0 171.25830012324877 43.71489224988909 0 0 0 0 162.13035200997365 122.15288878256979 0 122.15288878256979 70.842241550104518 0 0 0 0 207.31105665594987 43.291682899682201 0 43.291682899682201 195.00187429311336 0 0 0 0 17.477708925467596 77.236165260685084 0 77.236165260685084 53.516085491188278 0 0 0 0 90.976521843133469 28.91253893234898 0 28.91253893234898 80.159649246365007 0 0 0 0 -37.045938022776681 52.277878256654731 0 52.277878256654731 94.354277926307986 0 0 0 0 98.855824552691047 135.7762900606831 0 135.7762900606831 95.451226829386542 0 0 0 0 496.47338725674308 184.7072393608978 0 184.7072393608978 23.56315008407546 0 0 0 0 -0.80605963767624189 2.5187845048869697 0 2.5187845048869697 2.6954652714754843 0 0 0 0 266.88038308923024 226.43281005234894 0 226.43281005234894 217.67588979686479 0 0 0 0 189.3096633176192 68.861496296754922 0 68.861496296754922 86.460905785788782 0 0 0 0 272.98276210793119 166.04562434852414 0 166.04562434852414 69.643822568239557 0 0 0 0 336.13319997001599 58.443995515575807 0 58.443995515575807 28.186617028986802 0 0 0 0 324.72350614608331 143.99112434764538 0 143.99112434764538 57.045790972051691 0 0 0 0 310.50922259244908 94.775016158502694 0 94.775016158502694 -9.0966758749709697 0 0 0 0 3.002859881609087 -0.64660845660846178 0 -0.64660845660846178 2.2784193171456195 0 0 0 0 -41.338586854137247 249.28783700714121 0 249.28783700714121 35.071970205517573 0 0 0 0 105.79085549032425 126.18430543303839 0 126.18430543303839 -37.813481269899057 0 0 0 0 107.03344811422903 84.343583248017239 0 84.343583248017239 91.595643816515803 0 0 0 0 62.207121506209731 78.306588190581493 0 78.306588190581493 37.361807949315335 0 0 0 0 -78.027736370506318 197.80192922035349 0 197.80192922035349 -36.777529905084521 0 0 0 0 35.268465078897862 21.766604120264674 0 21.766604120264674 106.38886252864904 0 0 0 0 -134.33158672785839 -25.272010912114638 0 -25.272010912114638 -57.600398029695498 0 0 0 0 312.16634979013725 337.19922642892197 0 337.19922642892197 -109.99490482943293 0 0 0 0 24.077050891711473 15.27934009454194 0 15.27934009454194 2.8012578953963327 0 0 0 0 68.891498982269695 8.7911452756088693 0 8.7911452756088693 -30.271851989571587 0 0 0 0 -3.8227832543565023 12.228333181756877 0 12.228333181756877 -10.733778992459321 0 0 0 0 4.725450414181978 -77.094962689525346 0 -77.094962689525346 -4.5745439341699239 0 0 0 0 -1.2058852139369876 1.0066053406810482 0 1.0066053406810482 2.2077591307147486 0 0 0 0 -1.3335436771626519 -2.2733040890543634 0 -2.2733040890543634 -33.591365301792393 0 0 0 0 -3.7955659704366553 5.8483560380827839 0 5.8483560380827839 -48.924190584068128 0 0 0 0 4.7806959899025969 4.8019367807210074 0 4.8019367807210074 -66.000480970891886 0 0 0 0 -13.152399187045376 25.770461164109292 0 25.770461164109292 -65.683469067022088 0 0 0 0 -4.8590256882616814 8.8961288660684659 0 8.8961288660684659 -34.300250898755621 0 0 0 0 -43.85159153247173 74.554522670823644 0 74.554522670823644 -79.618908846925478 0 0 0 0 -37.927272822276791 39.470586129740695 0 39.470586129740695 -5.2057073564865277 0 0 0 0 -4.457748855394982 51.728788929449991 0 51.728788929449991 -128.44200109636586 0 0 0 0 -19.32401326345439 116.31567164668718 0 116.31567164668718 -109.88479347692191 0 0 0 0 -4.8506977992747125 36.587486009499116 0 36.587486009499116 -51.846632320884964 0 0 0 0 25.208280689616004 44.650458677082497 0 44.650458677082497 -86.898167588544311 0 0 0 0 -1.5904965766712849 3.2895958742137736 0 3.2895958742137736 -49.498028045491083 0 0 0 0 -57.940069629154095 155.50221067084931 0 155.50221067084931 -155.42157153478729 0 0 0 0 -43.150306590629043 29.199390685302205 0 29.199390685302205 -83.594392536906525 0 0 0 0 5.3226226242919239 2.7469529528179848 0 2.7469529528179848 -0.46364938681310264 0 0 0 0 27.813063354571568 258.77086834450893 0 258.77086834450893 -179.85262349663753 0 0 0 0 -205.72890301132975 120.04700369506554 0 120.04700369506554 37.954091562416579 0 0 0 0 -95.991054996688035 119.33426440192125 0 119.33426440192125 36.424666859841636 0 0 0 0 0.57231443317153108 2.9174969700707329 0 2.9174969700707329 1.8516349148698907 0 0 0 0 -5.9673814585712535 103.12846935874495 0 103.12846935874495 -46.486687854448974 0 0 0 0 -153.16113713237064 242.33588618748036 0 242.33588618748036 -33.338470140915888 0 0 0 0 98.615112168972701 -6.8109137911815196 0 -6.8109137911815196 2.6060610740169068 0 0 0 0 53.387024834664771 28.580715659918496 0 28.580715659918496 33.066770851568435 0 0 0 0 208.23217171989018 13.472761439908936 0 13.472761439908936 -7.5506838265719125 0 0 0 0 205.17122199198275 8.5897667504250421 0 8.5897667504250421 30.806763577260426 0 0 0 0 317.31537522825602 -32.914041543139319 0 -32.914041543139319 -3.7930913891796081 0 0 0 0 524.55256326582787 78.95862200622696 0 78.95862200622696 -51.991372658114415 0 0 0 0 189.94902679543156 86.529183743801696 0 86.529183743801696 34.505497291662323 0 0 0 0 149.65951103756379 -30.937502136137482 0 -30.937502136137482 0.39490376252251735 0 0 0 0 168.62501918894486 61.535062614475464 0 61.535062614475464 32.633178467003745 0 0 0 0 109.09741120687522 17.609924641010366 0 17.609924641010366 -57.466795503321919 0 0 0 0 165.90401796571314 16.774185776823288 0 16.774185776823288 -57.692112384389475 0 0 0 0 80.482964025107322 -17.616008798962866 0 -17.616008798962866 -59.069247310078936 0 0 0 0 255.10255347938255 119.54353262018049 0 119.54353262018049 -173.34380394894856 0 0 0 0 170.00386671598972 1.9505066096389783 0 1.9505066096389783 -173.04011908747634 0 0 0 0 56.660400136541284 72.598848616351461 0 72.598848616351461 -43.810123184961412 0 0 0 0 117.14954348393439 63.096222821734045 0 63.096222821734045 -42.326089427158877 0 0 0 0 -47.6076188031426 37.348158903172589 0 37.348158903172589 29.457763898717531 0 0 0 0 93.520149707712307 5.5293525779634365 0 5.5293525779634365 -22.043437355881906 0 0 0 0 41.716793931640495 36.202519071448478 0 36.202519071448478 -16.952631220177864 0 0 0 0 2.6352021725214279 38.674807877734352 0 38.674807877734352 -4.9409059782805684 0 0 0 0 -28.53261355773337 59.369701671698749 0 59.369701671698749 10.31849085460999 0 0 0 0 -33.915486294042921 67.600410121318419 0 67.600410121318419 28.715988883624959 0 0 0 0 -42.637884321530947 60.493763035297889 0 60.493763035297889 19.272548223758349 0 0 0 0 -34.730110700295199 52.057621722990007 0 52.057621722990007 27.535435276353383 0 0 0 0 -52.490906766431181 65.730442115600454 0 65.730442115600454 26.314807225746335 0 0 0 0 -33.869314555652636 82.30558037751689 0 82.30558037751689 -28.327654039065237 0 0 0 0 -22.953905200381087 62.058557330892654 0 62.058557330892654 9.1348120612601633 0 0 0 0 -5.8183379590218465 50.178093616355909 0 50.178093616355909 -27.787173147832618 0 0 0 0 0.31178834711408854 62.777986072891508 0 62.777986072891508 -36.282315262926204 0 0 0 0 -110.14517038778502 121.47933831724367 0 121.47933831724367 -16.421419877009612 0 0 0 0 -20.620068731068784 97.010542555461143 0 97.010542555461143 -92.224291159793211 0 0 0 0 13.829873972812379 16.018636417462403 0 16.018636417462403 -62.657542394515986 0 0 0 0 10.47336193983595 13.485897499805148 0 13.485897499805148 13.890509004778337 0 0 0 0 -9.2009232641305516 15.57169014097235 0 15.57169014097235 23.643064890326059 0 0 0 0 -5.2825924824388721 23.264210336634278 0 23.264210336634278 1.3650600639375625 0 0 0 0 101.9975761356809 -6.5774110948741509 0 -6.5774110948741509 -8.8435856708529172 0 0 0 0 2.4458149017621644 39.158835032672393 0 39.158835032672393 -9.6562825415168447 0 0 0 0 88.128452893603026 24.58715075353939 0 24.58715075353939 -37.198195142380428 0 0 0 0 -12.561461767953006 17.721428589924471 0 17.721428589924471 -5.3236764415669313 0 0 0 0 -109.76922823628524 274.07773601719236 0 274.07773601719236 -52.779112725263985 0 0 0 0 -152.4330690332929 -95.499120441043488 0 -95.499120441043488 16.318294492419227 0 0 0 0 -343.73428091797115 69.660945327857007 0 69.660945327857007 56.388579829974333 0 0 0 0 1.581638792905427 5.0304994589715655 0 5.0304994589715655 -1.3018965153155477 0 0 0 0 -149.41410969224364 154.68370568215323 0 154.68370568215323 -100.86769688413187 0 0 0 0 11.313936803275762 20.70952235698411 0 20.70952235698411 -6.4963404767044608 0 0 0 0 -34.608944923325907 32.862433500777115 0 32.862433500777115 41.20647402733448 0 0 0 0 204.55244368437388 87.113686265493016 0 87.113686265493016 -217.14962782393559 0 0 0 0 158.28955816055725 -46.733865461836103 0 -46.733865461836103 104.98094218430924 0 0 0 0 -1.1610748175884416 21.23944138629987 0 21.23944138629987 -6.0089793014724364 0 0 0 0 50.085081154040381 60.042245548844221 0 60.042245548844221 -14.030931872031942 0 0 0 0 -11.071147654851302 16.937779740532278 0 16.937779740532278 -11.279820673167706 0 0 0 0 62.685344212502969 -18.699033988614246 0 -18.699033988614246 -28.520624046461307 0 0 0 0 47.221206729995174 50.488366006058641 0 50.488366006058641 -30.016500521283888 0 0 0 0 -181.634281399179 -1.77972517736589 0 -1.77972517736589 54.106345416774275 0 0 0 0 -174.36988654367269 -171.56696482674306 0 -171.56696482674306 -62.689029983535875 0 0 0 0 -1.1827048962060673 10.056223919092034 0 10.056223919092034 18.261178476530745 0 0 0 0 -87.669811721457563 -42.603428971091489 0 -42.603428971091489 -8.7604710540836095 0 0 0 0 -2.7810898377973201 -0.13172513032026245 0 -0.13172513032026245 3.0549794762690965 0 0 0 0 -163.37921590405278 177.77807067454705 0 177.77807067454705 142.01675130171498 0 0 0 0 -32.512609068716984 35.156245795227733 0 35.156245795227733 25.239152863770869 0 0 0 0 1.8555457181755628 39.10036058685364 0 39.10036058685364 0.041299220931250602 0 0 0 0 7.5349583416165977 19.693171283540515 0 19.693171283540515 -5.9146115938286812 0 0 0 0 -2.805057391464028 23.538687237760641 0 23.538687237760641 -7.2888384434857585 0 0 0 0 24.988830989899611 96.33227401494878 0 96.33227401494878 4.8281019711212139 0 0 0 0 -8.6141143311342603 21.789845187444371 0 21.789845187444371 -3.7178212842845824 0 0 0 0 -8.9074694973905935 23.289923611802806 0 23.289923611802806 -1.5350835983117577 0 0 0 0 -39.473693366638827 39.010048846543214 0 39.010048846543214 13.593381001282978 0 0 0 0 10.768880563628741 22.628255306905885 0 22.628255306905885 6.3574827730190009 0 0 0 0 -21.133544433057978 21.666637294561951 0 21.666637294561951 20.272933789099625 0 0 0 0 -18.615499329938302 29.238362321063505 0 29.238362321063505 3.7905631983885542 0 0 0 0 -34.69398822412893 36.004684572457336 0 36.004684572457336 9.3192779713172058 0 0 0 0 -55.687271004988361 40.800213713355333 0 40.800213713355333 6.4867602911854192 0 0 0 0 -46.593417155133011 46.290516302409742 0 46.290516302409742 3.3996300183061976 0 0 0 0 0.81296146571718531 24.189163740357493 0 24.189163740357493 11.850447441418964 0 0 0 0 -9.793981434779834 12.116910692466258 0 12.116910692466258 9.5959619479370417 0 0 0 0 -35.149155729681262 17.89935234960592 0 17.89935234960592 1.3098780497844444 0 0 0 0 -25.806781858885245 27.729284078322962 0 27.729284078322962 6.8569468431596761 0 0 0 0 -21.280799150351186 30.285990904019854 0 30.285990904019854 6.7300428332891897 0 0 0 0 -44.013392027249665 46.769653189072415 0 46.769653189072415 22.273928476592118 0 0 0 0 -66.732806658819527 27.563984074992732 0 27.563984074992732 8.0024741494853515 0 0 0 0 -10.020905932540602 4.8763354102191663 0 4.8763354102191663 1.1839434036683087 0 0 0 0 -0.16194808756206314 15.658630627286506 0 15.658630627286506 12.99614231904431 0 0 0 0 -33.532621531456179 35.04048237818354 0 35.04048237818354 4.8052755655249513 0 0 0 0 -79.463492491064699 41.891380537752411 0 41.891380537752411 4.141481721017044 0 0 0 0 -25.755957942095847 15.362637537597038 0 15.362637537597038 1.1679109131291625 0 0 0 0 1.5048550795010858 1.4399993775353899 0 1.4399993775353899 0.40804708647954158 0 0 0 0 -3.4097280045162108 19.534564764481615 0 19.534564764481615 1.1160134183086825 0 0 0 0 -46.318224401362386 32.474887343472801 0 32.474887343472801 15.001079687230231 0 0 0 0 -49.775326883971303 22.979445449921059 0 22.979445449921059 16.73835766963748 0 0 0 0 -29.165038868760856 17.817329305024657 0 17.817329305024657 -3.5013095889764685 0 0 0 0 16.226678904994515 46.219775831377774 0 46.219775831377774 15.287758373582619 0 0 0 0 -53.75771222918047 50.386073487534304 0 50.386073487534304 34.381245932847378 0 0 0 0 -46.370869361600398 33.055512347260446 0 33.055512347260446 6.4602792178775417 0 0 0 0 -35.056568553542093 7.1113602991354128 0 7.1113602991354128 1.8676260779902805 0 0 0 0 -57.802858695596115 35.497151455914718 0 35.497151455914718 26.671007155135158 0 0 0 0 -25.413677963557802 0.77755793451069621 0 0.77755793451069621 5.6670180828659795 0 0 0 0 -6.4458343327578076 8.7251703018551154 0 8.7251703018551154 16.852556209927172 0 0 0 0 224.25792521542462 7.5421020069989027 0 7.5421020069989027 -37.769960784717114 0 0 0 0 220.55016306725776 86.033078799525811 0 86.033078799525811 22.348073426270275 0 0 0 0 295.61392442511624 65.460003952337502 0 65.460003952337502 8.5428302851796616 0 0 0 0 58.336912563570422 40.565979699331365 0 40.565979699331365 47.707108116039308 0 0 0 0 89.917030535382764 87.449705950924908 0 87.449705950924908 35.467409059405327 0 0 0 0 119.24287262712278 39.478613349012448 0 39.478613349012448 5.9967461291598738 0 0 0 0 16.111010593499017 -2.0325376689719548 0 -2.0325376689719548 -0.17957319051495801 0 0 0 0 463.17247423164372 178.08760559026996 0 178.08760559026996 -48.432612468732259 0 0 0 0 282.95777348356569 293.36153295939584 0 293.36153295939584 247.39190534740919 0 0 0 0 314.41115623481784 56.662595219330569 0 56.662595219330569 -129.21205610854668 0 0 0 0 310.19236944435397 127.75876724482077 0 127.75876724482077 4.1657531246637518 0 0 0 0 128.06217681959424 -20.087061263599026 0 -20.087061263599026 51.251048705649737 0 0 0 0 590.99199364591061 133.87281391174668 0 133.87281391174668 -13.284832400015148 0 0 0 0 0.61788967175536702 1.5593951895308926 0 1.5593951895308926 3.289954386476893 0 0 0 0 160.08434194225447 166.79658451093746 0 166.79658451093746 99.345884858616046 0 0 0 0 75.21982023034343 -323.72437528662522 0 -323.72437528662522 541.37255527448724 0 0 0 0 0.64920943829943933 3.0320873577666916 0 3.0320873577666916 8.6631962665250626 0 0 0 0 323.52816048423119 99.162441882603162 0 99.162441882603162 28.882546763306891 0 0 0 0 207.45622040627313 171.4010290775841 0 171.4010290775841 5.0061165247716417 0 0 0 0 141.9519742062148 31.179222017715801 0 31.179222017715801 51.331822198742884 0 0 0 0 112.49231228039571 -3.4502074756383081 0 -3.4502074756383081 -21.532449216407258 0 0 0 0 114.63887335771506 21.734369699632225 0 21.734369699632225 53.26667550948514 0 0 0 0 144.56745767258326 141.64998947230197 0 141.64998947230197 132.16940362365131 0 0 0 0 31.34358337354206 67.581033230439061 0 67.581033230439061 103.61309963672466 0 0 0 0 -32.551747802493992 255.13889732506505 0 255.13889732506505 -187.30479514146282 0 0 0 0 40.652450120416688 35.68030097574956 0 35.68030097574956 -11.3287356228102 0 0 0 0 142.76459253024586 32.938659572413599 0 32.938659572413599 -50.205592604441335 0 0 0 0 0.69113956274850463 4.1877484829257519 0 4.1877484829257519 7.2380082088365327 0 0 0 0 135.39579909556039 35.65999659613999 0 35.65999659613999 -17.579695283056935 0 0 0 0 271.33773697987999 54.084255605448561 0 54.084255605448561 9.3760440430924064 0 0 0 0 395.31269621694446 57.101881855312968 0 57.101881855312968 -85.103814388145111 0 0 0 0 287.69209819742491 208.81316933308472 0 208.81316933308472 -147.60728337286855 0 0 0 0 87.514145772751363 17.208310421774513 0 17.208310421774513 5.7214187336066971 0 0 0 0 212.88025686545916 -17.089948008579086 0 -17.089948008579086 -35.871305800945265 0 0 0 0 131.15215778981656 -12.344166882423451 0 -12.344166882423451 -32.622724506272789 0 0 0 0 304.43358545678711 -137.15864085734938 0 -137.15864085734938 12.119944712962024 0 0 0 0 78.220674955118739 -32.070539913358516 0 -32.070539913358516 33.995861245624837 0 0 0 0 30.752820196881657 23.824134251059149 0 23.824134251059149 -82.133407679575612 0 0 0 0 -11.451008168869066 -66.163892538553227 0 -66.163892538553227 90.564886883454164 0 0 0 0 9.4212840857608171 52.954826771196167 0 52.954826771196167 4.5714776539534796 0 0 0 0 237.19148017231782 -260.89833261843887 0 -260.89833261843887 151.11435642606375 0 0 0 0 4.5408719554837873 -3.0280465179834835 0 -3.0280465179834835 1.4744223779044674 0 0 0 0 802.30526335206559 -297.81865576044947 0 -297.81865576044947 -75.705096944700927 0 0 0 0 1028.5095331021803 286.35932960452919 0 286.35932960452919 -511.98848978025489 0 0 0 0 330.89402833043277 -50.195469902893819 0 -50.195469902893819 -192.8898291525984 0 0 0 0 -0.34267403194826329 58.22958155786182 0 58.22958155786182 -79.041845906803246 0 0 0 0 -40.6034955358773 128.91219812270174 0 128.91219812270174 -187.87932963621279 0 0 0 0 29.7433999442801 5.0993307479857322 0 5.0993307479857322 -65.025693393861729 0 0 0 0 54.447567640214402 -19.992710421360243 0 -19.992710421360243 -10.522046663247238 0 0 0 0 13.297807399817501 17.181092669830974 0 17.181092669830974 -18.273533248620879 0 0 0 0 22.144404413564189 -9.9832888615528645 0 -9.9832888615528645 1.1774692509097804 0 0 0 0 -3.2135138096782612 8.3443342813188792 0 8.3443342813188792 -27.218200454433827 0 0 0 0 -119.71707953004079 48.604349793293295 0 48.604349793293295 5.1510788988016429 0 0 0 0 12.858438221323084 17.005576893506344 0 17.005576893506344 -21.794106767527978 0 0 0 0 28.978316034721502 -10.583615030584042 0 -10.583615030584042 -23.975255253473733 0 0 0 0 95.208203584064904 -8.6306334176679229 0 -8.6306334176679229 -42.501471830022638 0 0 0 0 10.458081642937032 42.269101419144135 0 42.269101419144135 -82.18704144442745 0 0 0 0 13.697505341639044 63.258155717987393 0 63.258155717987393 -50.860271452414963 0 0 0 0 12.717423815107026 16.005998345403739 0 16.005998345403739 -23.112856734741513 0 0 0 0 95.424484050996398 15.078180948165027 0 15.078180948165027 -71.008250343249529 0 0 0 0 -8.5947351087525021 20.021508408335649 0 20.021508408335649 -22.715396552403035 0 0 0 0 -44.711779893601488 33.462727645139239 0 33.462727645139239 -15.921846083212586 0 0 0 0 -24.842738412480685 70.07954217815859 0 70.07954217815859 -75.085499529297522 0 0 0 0 0.057829504818073474 39.577819409096264 0 39.577819409096264 -38.02526113481872 0 0 0 0 -9.4097615032223985 40.389668002728286 0 40.389668002728286 -35.854984231380513 0 0 0 0 -0.020745158886711579 31.47790464654463 0 31.47790464654463 -28.769667680149723 0 0 0 0 -16.565772871592344 28.45014711728254 0 28.45014711728254 -24.918912279688811 0 0 0 0 -10.564985450865095 23.21068174587959 0 23.21068174587959 29.002812776080745 0 0 0 0 6.9618689877388533 64.870138368170956 0 64.870138368170956 -62.867919888907636 0 0 0 0 12.566777790233829 19.228659311047267 0 19.228659311047267 -25.827502341437764 0 0 0 0 0.50881559069239302 25.77038464355428 0 25.77038464355428 -24.49896502948377 0 0 0 0 -3.1872110153453832 31.844267118171047 0 31.844267118171047 -22.436197091752547 0 0 0 0 -0.0077853026450611651 28.066517073377327 0 28.066517073377327 -18.353245943748334 0 0 0 0 1.3745511211834014 4.5003294599938641 0 4.5003294599938641 -0.58612905091464995 0 0 0 0 -54.643533461987317 70.250280765541902 0 70.250280765541902 0.016909933816350531 0 0 0 0 0.45031663503168318 6.4269223430700464 0 6.4269223430700464 7.9981549639034029 0 0 0 0 1470.6811567136501 1188.6324251552196 0 1188.6324251552196 922.24663957556186 0 0 0 0 0.95503164950059727 2485.7679615003726 0 2485.7679615003726 0.96036520100424183 0 0 0 0 122.9206524057081 25.537196744378889 0 25.537196744378889 -6.5049355819737684 0 0 0 0 26.536949057355741 67.2666857380691 0 67.2666857380691 0.034087574436853174 0 0 0 0 1.2214854979611118 31.213831137960369 0 31.213831137960369 5.3904884183139075 0 0 0 0 7.6180461981639382 32.222961824340018 0 32.222961824340018 -13.828539569425629 0 0 0 0 -13.17627268981596 66.724843047013565 0 66.724843047013565 -10.613546664557362 0 0 0 0 17.240583854480064 49.221401035978488 0 49.221401035978488 12.951726724568289 0 0 0 0 2.2304815663500541 3.465585862656809 0 3.465585862656809 0.50046710530000382 0 0 0 0 65.871707001162576 45.383972288767836 0 45.383972288767836 -25.132388528305455 0 0 0 0 14.771953954184937 63.599311998046687 0 63.599311998046687 -30.878006497878232 0 0 0 0 23.302786663247389 18.064841879328014 0 18.064841879328014 -7.119475174753461 0 0 0 0 2.2469887828575281 16.313784686681245 0 16.313784686681245 24.788393566451248 0 0 0 0 5.516165401288049 28.567642386781017 0 28.567642386781017 33.37959595491273 0 0 0 0 -7.7981152709980961 95.823970669196569 0 95.823970669196569 -97.275222107738955 0 0 0 0 -39.488581261466607 81.839672981208423 0 81.839672981208423 -38.009788574403501 0 0 0 0 -6.5075589542539092 30.076708267901267 0 30.076708267901267 -30.490730742007145 0 0 0 0 -23.374908351674094 92.407326970380382 0 92.407326970380382 -75.094761117157759 0 0 0 0 -1.577781407861039 19.887604307325091 0 19.887604307325091 -4.7539375220367219 0 0 0 0 9.0708121886237052 21.654335380174274 0 21.654335380174274 13.658975678363277 0 0 0 0 22.159584383713124 46.577236897308055 0 46.577236897308055 -4.924738454077783 0 0 0 0 -40.38745675109385 118.31776791441007 0 118.31776791441007 -100.99346437434724 0 0 0 0 -8.1951834966894239 76.408330305595882 0 76.408330305595882 -100.4506494142372 0 0 0 0 11.782055245035735 82.687594242976047 0 82.687594242976047 -100.31177845370257 0 0 0 0 -48.125966181731201 80.027289959918562 0 80.027289959918562 -78.842002268211218 0 0 0 0 -24.63682359008817 30.312862246100849 0 30.312862246100849 18.668054900172137 0 0 0 0 -2.1928777926905241 45.380429079871192 0 45.380429079871192 -48.917558061752061 0 0 0 0 -16.693876514618751 121.96886458735389 0 121.96886458735389 -139.15998311743169 0 0 0 0 11.919713360781316 45.716507508099312 0 45.716507508099312 -49.459290336868435 0 0 0 0 18.65393663660754 19.025145196553211 0 19.025145196553211 8.9048351702404034 0 0 0 0 9.0074154477285902 25.896984059973548 0 25.896984059973548 14.305485442610987 0 0 0 0 -32.956364603116526 67.945269822997943 0 67.945269822997943 -3.4456883105958696 0 0 0 0 1.8714846548318746 57.731541854520401 0 57.731541854520401 -13.185176233018865 0 0 0 0 -25.802159133410896 41.833510471584304 0 41.833510471584304 4.7350465061826981 0 0 0 0 -44.427607711928431 28.808098546538531 0 28.808098546538531 -3.6353428919392172 0 0 0 0 -54.241826370038325 72.698009774921957 0 72.698009774921957 1.2134253407057258 0 0 0 0 -31.156496921670623 70.865148504610261 0 70.865148504610261 -19.894023820699658 0 0 0 0 -76.042773675559147 80.215220412839699 0 80.215220412839699 -0.016861274329130538 0 0 0 0 0.36710182829946447 -2.7253701728302246 0 -2.7253701728302246 -0.80934940542877598 0 0 0 0 -160.23786087317421 47.453091060404404 0 47.453091060404404 14.739450362460047 0 0 0 0 6.8258711578673683 90.985949276537212 0 90.985949276537212 -0.014965537702664733 0 0 0 0 -20.10719865529245 80.657714855344238 0 80.657714855344238 -6.8836075879517011 0 0 0 0 -30.574190498199641 66.569481775661188 0 66.569481775661188 -1.075058923146571 0 0 0 0 39.681760722887702 69.309974549501931 0 69.309974549501931 -21.957812976896093 0 0 0 0 33.478390264590416 80.69897243646119 0 80.69897243646119 -14.22227285214467 0 0 0 0 5.8673053836828331 52.712133604214614 0 52.712133604214614 -19.605160938539484 0 0 0 0 44.775440339704801 53.305757418755093 0 53.305757418755093 -24.083692996940954 0 0 0 0 20.072534901450297 28.617298959421888 0 28.617298959421888 16.682367745258105 0 0 0 0 -26.027425224972831 83.635878381493967 0 83.635878381493967 -35.045590252804686 0 0 0 0 -73.995192107133335 21.523847652941186 0 21.523847652941186 -29.637688539100054 0 0 0 0 29.818221778088798 31.678732374743504 0 31.678732374743504 18.558385557857989 0 0 0 0 16.715033079046407 39.676866839552531 0 39.676866839552531 -6.9990569677611347 0 0 0 0 28.30960336112912 49.74599406276684 0 49.74599406276684 -20.308739439511555 0 0 0 0 124.38801730814157 15.192157085039071 0 15.192157085039071 -130.15242434664106 0 0 0 0 31.690215103723688 27.421609396915962 0 27.421609396915962 21.639923418629948 0 0 0 0 2.8902763797377702 229.56047842309636 0 229.56047842309636 -241.90762689783878 0 0 0 0 23.195320435741451 49.632526579916885 0 49.632526579916885 -178.50639565064193 0 0 0 0 21.537599660427077 48.772728618481779 0 48.772728618481779 -34.985433390505932 0 0 0 0 2.0044349214294925 42.168498698149051 0 42.168498698149051 -19.900547872079187 0 0 0 0 24.903314412709506 22.815325014044738 0 22.815325014044738 18.888436115744113 0 0 0 0 1.3824722243152792 143.71194490262133 0 143.71194490262133 -221.86479320446961 0 0 0 0 1.4063307450560387 85.276197194143606 0 85.276197194143606 -138.16093259636546 0 0 0 0 -39.328211860047304 69.407069218847028 0 69.407069218847028 -103.87828754966176 0 0 0 0 27.558544254003209 -4.3687543186024413 0 -4.3687543186024413 -53.03484902837954 0 0 0 0 19.977893055915047 53.319524079628764 0 53.319524079628764 -117.12056550723355 0 0 0 0 -5.0252796589811624 66.689456427390724 0 66.689456427390724 -107.90043993613654 0 0 0 0 83.104328201523458 5.8386711173516233 0 5.8386711173516233 -109.50073430193152 0 0 0 0 26.688322208705358 -32.931994650338311 0 -32.931994650338311 12.981934347088099 0 0 0 0 25.86688497565774 -2.118391897816764 0 -2.118391897816764 -52.194265998472474 0 0 0 0 29.838874165019661 1.8090969424538343 0 1.8090969424538343 -13.429309826991812 0 0 0 0 -0.55119870902854018 -1.1487507058445772 0 -1.1487507058445772 6.3029698495984121 0 0 0 0 3.5218540240321943 -2.2076790493458986 0 -2.2076790493458986 1.5395155600648209 0 0 0 0 35.882917341892608 -46.463930542660819 0 -46.463930542660819 52.104739316848281 0 0 0 0 4.159690220367338 142.80642882212123 0 142.80642882212123 289.01495315734064 0 0 0 0 7.0504062347608851 136.22114731187685 0 136.22114731187685 -208.07719076589638 0 0 0 0 -27.126665057436185 133.21723718395879 0 133.21723718395879 -166.17341779894195 0 0 0 0 303.76087453639775 235.89233036346195 0 235.89233036346195 -145.58893888891907 0 0 0 0 197.33792731068388 -95.038072574745456 0 -95.038072574745456 -23.681474449072994 0 0 0 0 47.747386808079767 31.474780541672317 0 31.474780541672317 16.670128178506474 0 0 0 0 -6.0641837018993101 81.593548222332174 0 81.593548222332174 9.4999220167010208 0 0 0 0 35.74945918733863 33.124910483856425 0 33.124910483856425 22.504672951595481 0 0 0 0 -92.529505359156246 243.83020912375832 0 243.83020912375832 -38.340786175591347 0 0 0 0 -327.33587544789771 213.128535709875 0 213.128535709875 -22.621750238075037 0 0 0 0 9.4513448626117054 10.693754784201531 0 10.693754784201531 8.1808391255114543 0 0 0 0 -265.78407860956941 149.91051062404222 0 149.91051062404222 56.720955714023148 0 0 0 0 -42.425554082219605 218.61993824322417 0 218.61993824322417 -140.51358142611571 0 0 0 0 70.053175108245341 94.057817393284495 0 94.057817393284495 -207.86230620312563 0 0 0 0 15.628459495630523 30.551773202258119 0 30.551773202258119 -20.165123293299985 0 0 0 0 -39.758868030883605 142.89490424673204 0 142.89490424673204 -42.952199360736813 0 0 0 0 47.341056260556797 98.992917046594812 0 98.992917046594812 -18.483411682570477 0 0 0 0 59.710151992672763 123.26585558193619 0 123.26585558193619 -71.176009592818446 0 0 0 0 51.141125058999933 28.541520136420708 0 28.541520136420708 16.983004071737085 0 0 0 0 26.047215095488355 62.880339108138287 0 62.880339108138287 -22.150787576945731 0 0 0 0 41.914920148847159 121.09761661875746 0 121.09761661875746 132.56125500763301 0 0 0 0 89.131577952539374 102.34871880304854 0 102.34871880304854 -20.416148699630867 0 0 0 0 7.6868182025064016 27.088449402886909 0 27.088449402886909 49.010816283796885 0 0 0 0 12.494646183375153 4.9905308000015793 0 4.9905308000015793 139.23778460614722 0 0 0 0 -3.927631480502896 53.441764432394848 0 53.441764432394848 59.62708899754216 0 0 0 0 6.5136245986213908 5.0626468900882173 0 5.0626468900882173 -53.497641450390802 0 0 0 0 11.078164319574995 2.1852544844067552 0 2.1852544844067552 -10.009240539186095 0 0 0 0 8.7896911996958806 24.171872968930984 0 24.171872968930984 52.160771761737124 0 0 0 0 34.081620867358183 39.232249886669919 0 39.232249886669919 -16.069301805882787 0 0 0 0 -12.76850779477536 47.440445697062387 0 47.440445697062387 354.68418557540281 0 0 0 0 3.1992404275726471 0.51294758117167305 0 0.51294758117167305 0.56017511022984934 0 0 0 0 -43.415875654594856 -31.006244523596251 0 -31.006244523596251 99.211050490383059 0 0 0 0 78.614767601171479 -42.721498800929112 0 -42.721498800929112 -191.21403333086346 0 0 0 0 -6.1716932508970785 64.348541754457983 0 64.348541754457983 -2.1007680709008127 0 0 0 0 43.16011977633076 30.253350055770611 0 30.253350055770611 -0.70067460874891196 0 0 0 0 13.259647793522163 93.545156889336795 0 93.545156889336795 0.22577616397757083 0 0 0 0 152.36120574116649 156.86015570021118 0 156.86015570021118 27.083085343394487 0 0 0 0 -39.231878421625879 56.862259704284952 0 56.862259704284952 -132.27024662088661 0 0 0 0 20.399867036489013 11.75494996530324 0 11.75494996530324 -45.660599573326181 0 0 0 0 4.9872088116616453 2.1648108182892685 0 2.1648108182892685 -8.2790763014731397 0 0 0 0 3.0064319443752083 9.1495441176123506 0 9.1495441176123506 -1.1062473962776664 0 0 0 0 9.4360484800126869 -7.6507375036308076 0 -7.6507375036308076 -61.941587906097993 0 0 0 0 8.3576708146192686 5.8541967579726588 0 5.8541967579726588 -43.264571827254258 0 0 0 0 26.818398991847062 17.326833818937303 0 17.326833818937303 -53.055134021858976 0 0 0 0 37.348551558236096 34.924453319690841 0 34.924453319690841 9.6479670992218729 0 0 0 0 147.77697394475399 82.076700166609953 0 82.076700166609953 -185.90857963706367 0 0 0 0 9.3306459144369001 7.8779621004359797 0 7.8779621004359797 -37.011796099395724 0 0 0 0 1.0317592494538985 42.56509807951079 0 42.56509807951079 43.151385749020847 0 0 0 0 2.4015697559149203 20.383957401587338 0 20.383957401587338 -2.0991445701866098 0 0 0 0 33.990868165321444 49.061236981135153 0 49.061236981135153 -1.0366423759696772 0 0 0 0 19.175522051998996 44.717004404963518 0 44.717004404963518 24.650275236183006 0 0 0 0 29.638933164074842 39.038665559310175 0 39.038665559310175 1.5036335845470603 0 0 0 0 0.73423047005576336 2.6806844443068343 0 2.6806844443068343 1.0353136574633908 0 0 0 0 42.280521848566423 108.50759194290731 0 108.50759194290731 139.36368364843656 0 0 0 0 474.27752686158055 316.84211654326646 0 316.84211654326646 -7.9739986441563815 0 0 0 0 -601.28422680511721 -175.78569823314319 0 -175.78569823314319 -170.76962875239587 0 0 0 0 159.05152224589256 163.77054017884075 0 163.77054017884075 40.024670497790794 0 0 0 0 177.05743443052052 98.256090476250392 0 98.256090476250392 -75.142352826027491 0 0 0 0 196.4048020629707 126.86422871250397 0 126.86422871250397 -43.690028011915274 0 0 0 0 84.235241772457357 99.647019743299779 0 99.647019743299779 -3.7810858084703796 0 0 0 0 90.549198960448848 55.16655316138349 0 55.16655316138349 -78.136396218784284 0 0 0 0 115.7944877491027 89.474829672995838 0 89.474829672995838 -56.917163490550593 0 0 0 0 59.787637007122612 63.651531840413554 0 63.651531840413554 -44.893463036656613 0 0 0 0 24.791801846731687 33.982538329510135 0 33.982538329510135 -12.050564422723255 0 0 0 0 55.805278587067733 84.698210749542341 0 84.698210749542341 -27.984560764831258 0 0 0 0 84.588568094543803 117.84508932157189 0 117.84508932157189 6.2276291953457985 0 0 0 0 92.758924155583372 98.718781019924791 0 98.718781019924791 -33.227432074640092 0 0 0 0 70.485850422002841 75.807907996786525 0 75.807907996786525 -52.450315141730243 0 0 0 0 70.074906193673087 71.404822735043126 0 71.404822735043126 -39.450663256357075 0 0 0 0 96.013692585445824 87.230625706972205 0 87.230625706972205 -54.863820522121387 0 0 0 0 96.507513616747929 84.371738973341962 0 84.371738973341962 -58.117439643247053 0 0 0 0 83.816500952401839 83.637946364236996 0 83.637946364236996 -50.49380302229838 0 0 0 0 96.873879473259876 78.147675260306642 0 78.147675260306642 -48.436503203804023 0 0 0 0 48.487637483010985 61.532938898975772 0 61.532938898975772 -43.898016534658382 0 0 0 0 72.731203195158741 79.176651419744303 0 79.176651419744303 -45.739331578479323 0 0 0 0 70.033206254178367 72.76322968587192 0 72.76322968587192 -39.037141236018215 0 0 0 0 89.038824447867228 92.920766531162371 0 92.920766531162371 -34.737236526503693 0 0 0 0 78.558617181042791 79.382530703500379 0 79.382530703500379 -30.444744301745231 0 0 0 0 102.59199317860475 91.415396503965894 0 91.415396503965894 -30.712821979948785 0 0 0 0 119.93667859653215 73.494982838194119 0 73.494982838194119 -22.130442327077617 0 0 0 0 93.148159182499512 98.053455412948097 0 98.053455412948097 -7.1732866859238129 0 0 0 0 77.592184540906601 97.346915617508785 0 97.346915617508785 0.023798671412805561 0 0 0 0 121.38394929213973 75.08279033069266 0 75.08279033069266 -5.8890689449099227 0 0 0 0 46.006942902564333 86.081877365722903 0 86.081877365722903 5.8496976480237208 0 0 0 0 -1.2809094914622108 0.40523360501414629 0 0.40523360501414629 2.4240832445275089 0 0 0 0 -30.536389953893377 42.261073417361331 0 42.261073417361331 -0.21317353813719819 0 0 0 0 231.34322181413154 -60.108555449151936 0 -60.108555449151936 2.0699238103115931 0 0 0 0 238.16655026143417 16.749850137362955 0 16.749850137362955 0.045590372773485009 0 0 0 0 158.90686534278211 95.360898051141703 0 95.360898051141703 36.046436938213446 0 0 0 0 123.57000525990588 61.852780033290401 0 61.852780033290401 20.913541116984561 0 0 0 0 246.97673765482614 65.038756075700803 0 65.038756075700803 -18.376134517820901 0 0 0 0 139.29697041485633 62.075482885680685 0 62.075482885680685 -27.818141548603307 0 0 0 0 153.69489748435444 39.319580088391376 0 39.319580088391376 -7.3627330115123186 0 0 0 0 143.7420566422079 92.726266503770603 0 92.726266503770603 -7.2824454116198467 0 0 0 0 121.30325885575439 46.436265193566214 0 46.436265193566214 -40.416090165206697 0 0 0 0 2.6616098100785166 -4.1421595238643931 0 -4.1421595238643931 3.2601278890942922 0 0 0 0 100.27376921031282 -43.845776790893979 0 -43.845776790893979 14.16770221691695 0 0 0 0 62.590230975329177 5.4320821735018399 0 5.4320821735018399 -14.036087599757593 0 0 0 0 14.428603870983352 34.666674400221382 0 34.666674400221382 -15.867693999243784 0 0 0 0 42.800015435794194 73.497590619532275 0 73.497590619532275 -68.747773459937889 0 0 0 0 15.13491600549969 56.805569947220647 0 56.805569947220647 -120.06789034800022 0 0 0 0 4.8855974543985212 54.906084187201486 0 54.906084187201486 28.355730152281467 0 0 0 0 84.848286410375295 37.208035025629215 0 37.208035025629215 -41.511600897589233 0 0 0 0 66.753143971436657 62.297681137919426 0 62.297681137919426 -44.895537830008834 0 0 0 0 61.320356346390327 60.862401197511645 0 60.862401197511645 -59.182568776210246 0 0 0 0 97.975646224709635 62.996201563415525 0 62.996201563415525 -66.008560389702325 0 0 0 0 58.391114397789352 42.285135675658239 0 42.285135675658239 -79.43292976525845 0 0 0 0 61.656057457236443 34.819078931898161 0 34.819078931898161 -133.20302117610117 0 0 0 0 24.692354174301727 11.398931764204463 0 11.398931764204463 -65.534936517975439 0 0 0 0 21.559797706666359 19.265954335336573 0 19.265954335336573 -46.868708825175418 0 0 0 0 68.61881933452969 124.88001267571235 0 124.88001267571235 -210.65724816394504 0 0 0 0 5.1100405497820702 -93.185657847271159 0 -93.185657847271159 -263.77180410489382 0 0 0 0 0.47163198149064556 -9.2993075698177563 0 -9.2993075698177563 -82.821201330865733 0 0 0 0 -28.019695794399013 -200.53170407358266 0 -200.53170407358266 243.40347784849291 0 0 0 0 0.24888566859044658 1.0508720531452411 0 1.0508720531452411 -3.0978007358712318 0 0 0 0 119.13967282953672 127.6918496208018 0 127.6918496208018 395.9859831892536 0 0 0 0 -90.426051790367637 40.719421657715429 0 40.719421657715429 -90.46242250080104 0 0 0 0 250.46481144273275 32.254546567201032 0 32.254546567201032 -274.33101709339826 0 0 0 0 -92.61160625363118 43.493100216364837 0 43.493100216364837 -51.125949580571614 0 0 0 0 0.05774708011930052 -0.70564018029273257 0 -0.70564018029273257 2.3955531243962014 0 0 0 0 -1.1064470611371462 0.87106015666680037 0 0.87106015666680037 2.0471535575933046 0 0 0 0 -121.24137599185633 92.223751924117096 0 92.223751924117096 -79.585045877283846 0 0 0 0 -150.16308391930943 -13.129469499443076 0 -13.129469499443076 46.070108273503138 0 0 0 0 -80.612888911367918 50.597885573966778 0 50.597885573966778 -112.40966424265935 0 0 0 0 -107.59529998638027 36.061285774878343 0 36.061285774878343 -12.589696689741686 0 0 0 0 -106.07568791439553 52.413635277720459 0 52.413635277720459 17.320858241859241 0 0 0 0 -16.423093035984493 36.316677801713013 0 36.316677801713013 -28.925656548264669 0 0 0 0 -0.59317464213033588 1.4818439584005816 0 1.4818439584005816 3.3075778391896051 0 0 0 0 -15.37062875097763 25.671324357092089 0 25.671324357092089 -35.006464003163273 0 0 0 0 -32.030368439620361 21.800724972432363 0 21.800724972432363 -30.224581562972162 0 0 0 0 -10.696204562889761 31.981462420524622 0 31.981462420524622 -26.577164379894384 0 0 0 0 4.0398311544486205 -15.021336717026315 0 -15.021336717026315 86.882367620477453 0 0 0 0 176.7320008194074 66.611974203231512 0 66.611974203231512 -31.509906796331052 0 0 0 0 37.182621426982223 151.9731405206403 0 151.9731405206403 -117.37293853634037 0 0 0 0 36.837954518256538 143.80778702744601 0 143.80778702744601 12.046230302221375 0 0 0 0 -188.52558983975177 -27.597540200906224 0 -27.597540200906224 -51.710213095590007 0 0 0 0 -12.446298756098258 94.565013448707759 0 94.565013448707759 87.628726911483682 0 0 0 0 -0.45569254055764929 1.2869914845194188 0 1.2869914845194188 3.0783875078232654 0 0 0 0 -37.093189520237502 43.797874439202133 0 43.797874439202133 -26.195660037221387 0 0 0 0 -27.806077045199345 30.844940642360598 0 30.844940642360598 -34.849420067890605 0 0 0 0 -28.72819031389372 26.209027394063014 0 26.209027394063014 -9.8505133200233104 0 0 0 0 -44.298992953536072 30.246681472915952 0 30.246681472915952 -18.09894019382773 0 0 0 0 -12.48045809091127 31.017451190855354 0 31.017451190855354 -28.122085851471638 0 0 0 0 -32.869321034857421 34.596641184987675 0 34.596641184987675 -19.272815168224042 0 0 0 0 -11.156084492132322 23.535656932757774 0 23.535656932757774 -25.256271230784478 0 0 0 0 -18.037797970917381 29.101398728609638 0 29.101398728609638 -5.4363596980692819 0 0 0 0 -17.722249127356918 28.133919453081035 0 28.133919453081035 -20.624520117406064 0 0 0 0 -16.361709780750971 26.848943340930418 0 26.848943340930418 -10.9192661116831 0 0 0 0 -11.480055178079056 18.728812302566439 0 18.728812302566439 -6.1736909838655265 0 0 0 0 -32.213890435697976 23.969167894894781 0 23.969167894894781 -0.011602051064082106 0 0 0 0 -32.419531634062423 17.07884189306651 0 17.07884189306651 -11.880110848360346 0 0 0 0 -0.79932064361497623 -2.142456917640331 0 -2.142456917640331 0.91569262473527147 0 0 0 0 64.447058305493556 21.963219497400132 0 21.963219497400132 -20.933873088160908 0 0 0 0 4.1454158476481098 33.134786468828679 0 33.134786468828679 0.014213965051589705 0 0 0 0 9.394357392731763 31.011137144436361 0 31.011137144436361 -23.442463369610778 0 0 0 0 7.6774759511245065 15.785590948100435 0 15.785590948100435 -13.095705524196092 0 0 0 0 -35.969421179419442 52.970196508291338 0 52.970196508291338 -3.3558236132812453 0 0 0 0 4.0195601899577014 30.260009591569542 0 30.260009591569542 -19.058549150271574 0 0 0 0 7.3644342921761563 24.093963318722672 0 24.093963318722672 -28.818986336584203 0 0 0 0 7.6019535620653187 25.002809478995914 0 25.002809478995914 -27.112241484574042 0 0 0 0 5.4180727927887347 15.616802900920447 0 15.616802900920447 -23.042316019476857 0 0 0 0 109.22386308952264 11.336173697440245 0 11.336173697440245 -22.91378853678566 0 0 0 0 -20.310378153599231 28.681589153286041 0 28.681589153286041 -21.230758306846838 0 0 0 0 24.335742526003742 83.223177693973412 0 83.223177693973412 -1.097088735550642 0 0 0 0 12.679194661555812 75.397791580966441 0 75.397791580966441 -2.6832727919827448 0 0 0 0 35.605910132930148 25.993347318515589 0 25.993347318515589 -31.278017347809509 0 0 0 0 88.37143622986332 121.41710481398331 0 121.41710481398331 -10.628650728234788 0 0 0 0 -14.74488334954367 73.449786222045077 0 73.449786222045077 125.03759859815182 0 0 0 0 -11.855974304977281 40.973294724986772 0 40.973294724986772 -63.146904571724008 0 0 0 0 -33.640111108426936 -13.468167538951093 0 -13.468167538951093 -16.525357933380292 0 0 0 0 3.9214577108564299 17.898463203779855 0 17.898463203779855 5.5299959564891452 0 0 0 0 -1.8836184611973295 -3.3954715530126123 0 -3.3954715530126123 -70.202805275373976 0 0 0 0 114.7591853505146 -0.47110969242203282 0 -0.47110969242203282 -50.687442206719425 0 0 0 0 -10.580256435248884 45.635636164908647 0 45.635636164908647 0.52253169545656419 0 0 0 0 14.802748706404955 20.973612641440596 0 20.973612641440596 11.015375645542889 0 0 0 0 3.1140984781355314 21.529488076996017 0 21.529488076996017 22.485757964678982 0 0 0 0 25.296448293185676 -11.239831783255795 0 -11.239831783255795 -15.569475965705351 0 0 0 0 -7.3691741552420353 128.15954175268871 0 128.15954175268871 -38.876949288212927 0 0 0 0 -0.13438225218436628 2.9433117820287649 0 2.9433117820287649 -1.2239104982047877 0 0 0 0 -23.038375164520403 159.61380197528388 0 159.61380197528388 6.6918879095610464 0 0 0 0 108.15278799987755 119.70651502877695 0 119.70651502877695 -52.501158945757197 0 0 0 0 6.8415395185875241 162.10350751517399 0 162.10350751517399 1.2616890613280702 0 0 0 0 -1.5712537559188036 0.6075705634345212 0 0.6075705634345212 2.7773140023022904 0 0 0 0 14.454828085588815 40.536491677696176 0 40.536491677696176 -11.129132992617087 0 0 0 0 -94.224070992764609 96.983747509766545 0 96.983747509766545 109.49220278485154 0 0 0 0 -101.96506293042603 22.570676367639408 0 22.570676367639408 37.124434461118653 0 0 0 0 2.7711370510893261 12.458283280221892 0 12.458283280221892 14.466602282113513 0 0 0 0 9.8979249550396222 12.053123503450934 0 12.053123503450934 -18.534759644237795 0 0 0 0 118.80177574648769 46.900809220376686 0 46.900809220376686 -98.12980580877047 0 0 0 0 56.700324035169615 35.218541882939462 0 35.218541882939462 -46.8951655804849 0 0 0 0 244.36518562263154 -27.336306544999388 0 -27.336306544999388 -26.687156537373085 0 0 0 0 279.42674772284226 -105.19456720335438 0 -105.19456720335438 -418.6690301697563 0 0 0 0 51.139119359012568 38.677061471295119 0 38.677061471295119 4.2753750372049595 0 0 0 0 -15.791577426454751 30.908331340346194 0 30.908331340346194 14.431631214116351 0 0 0 0 -5.3752852852558135 45.112775908426556 0 45.112775908426556 -9.1153942018700036 0 0 0 0 -6.841274465414557 22.258258385420262 0 22.258258385420262 15.962097367136295 0 0 0 0 8.5198209923207884 20.51356754011055 0 20.51356754011055 12.193124925208849 0 0 0 0 -6.3220341877313331 41.514830445805273 0 41.514830445805273 0.93060502449588967 0 0 0 0 -11.074466265124101 45.732728296201458 0 45.732728296201458 -2.69549613144045 0 0 0 0 8.7011830128326952 37.95055235249405 0 37.95055235249405 2.4903441914589166 0 0 0 0 159.24981037799807 162.10821167951144 0 162.10821167951144 -22.343299490137724 0 0 0 0 -7.2778712852050376 32.039194696008053 0 32.039194696008053 449.59894247096963 0 0 0 0 102.23997025111748 203.84374137636769 0 203.84374137636769 202.91472926129791 0 0 0 0 107.98808642572112 30.310248928490182 0 30.310248928490182 -134.77987107993977 0 0 0 0 17.509423159543076 51.336605383825372 0 51.336605383825372 2.9060642257772997 0 0 0 0 -5.4703026548304479 64.849924224899951 0 64.849924224899951 30.528975602937862 0 0 0 0 -16.640911392838461 53.064300095196813 0 53.064300095196813 14.970302867099235 0 0 0 0 -15.429844230995513 64.498488838027697 0 64.498488838027697 23.929956189487712 0 0 0 0 -8.6749775155913085 58.205211252025038 0 58.205211252025038 17.952851020658272 0 0 0 0 -31.587430752988439 63.327339542767731 0 63.327339542767731 22.06297180641559 0 0 0 0 -25.714669889428478 57.487825504336797 0 57.487825504336797 23.526921033830149 0 0 0 0 -40.41358152795874 45.436294307677599 0 45.436294307677599 32.783690379089421 0 0 0 0 -9.1486619079660159 35.468804273317801 0 35.468804273317801 31.904298816433766 0 0 0 0 5.2291827968250715 20.202318557653328 0 20.202318557653328 27.33476674563525 0 0 0 0 19.074855825972918 39.198652897415741 0 39.198652897415741 39.789167751150671 0 0 0 0 -7.9116398299246669 0.45410189613051699 0 0.45410189613051699 8.3513877552749989 0 0 0 0 -21.669639364394243 49.332553710421053 0 49.332553710421053 19.015819039283087 0 0 0 0 -16.857495542455581 54.415891729280702 0 54.415891729280702 24.381856753803731 0 0 0 0 20.369216302624409 22.427601008643251 0 22.427601008643251 -6.8654285730444826 0 0 0 0 9.7089823530768626 34.776368369362899 0 34.776368369362899 2.4534590455423313 0 0 0 0 -13.452781446736481 47.582177329495607 0 47.582177329495607 19.066471935861045 0 0 0 0 6.1055639412786888 15.850772061443607 0 15.850772061443607 22.765538535389737 0 0 0 0 -7.4560837544704555 37.895268328269594 0 37.895268328269594 -16.297695326706162 0 0 0 0 14.757091810939102 18.839425174168706 0 18.839425174168706 1.6347091467060864 0 0 0 0 -6.5367532413656591 47.831688964637578 0 47.831688964637578 -6.0595977962439065 0 0 0 0 -0.1046868306111719 54.230957126790599 0 54.230957126790599 8.3911043762491317 0 0 0 0 -12.020821723563131 41.127984312515764 0 41.127984312515764 -3.3519799332061666 0 0 0 0 -85.223207004601136 72.605325514792639 0 72.605325514792639 143.11163096869132 0 0 0 0 -76.617478313826723 56.445044812367996 0 56.445044812367996 110.46346566539978 0 0 0 0 -58.717068475500128 35.077148943608336 0 35.077148943608336 78.583886440726928 0 0 0 0 -50.927882390766172 55.198715890554013 0 55.198715890554013 110.52276916730079 0 0 0 0 -51.24850217421772 58.226269455568399 0 58.226269455568399 82.418727075200877 0 0 0 0 -39.86692578002112 74.813206487262505 0 74.813206487262505 100.34434432504349 0 0 0 0 -38.556197433994384 82.902193091722438 0 82.902193091722438 90.099880009132903 0 0 0 0 -16.456110717233969 82.94784336531302 0 82.94784336531302 73.933575852250215 0 0 0 0 -30.132975925938808 91.268558574884082 0 91.268558574884082 92.451238195328187 0 0 0 0 -67.810502948210342 73.906829152867431 0 73.906829152867431 101.64826060906489 0 0 0 0 -82.614308938558679 104.33645025486476 0 104.33645025486476 112.99451047611728 0 0 0 0 -55.678130641419557 118.37461655242805 0 118.37461655242805 119.52827899088152 0 0 0 0 -48.306142041823477 96.815831898718898 0 96.815831898718898 114.59153545895242 0 0 0 0 -67.711808659500093 68.568695584930538 0 68.568695584930538 126.42015705048107 0 0 0 0 -83.48338192534402 80.561429631951114 0 80.561429631951114 129.74506620166358 0 0 0 0 -88.714578412473202 69.825782888379763 0 69.825782888379763 141.39378600286727 0 0 0 0 -118.47725758302113 -24.635165798976232 0 -24.635165798976232 119.13374104841205 0 0 0 0 0.35167023307024614 0.74643727333626941 0 0.74643727333626941 1.4364054246313458 0 0 0 0 -93.478586317378358 76.144692840521202 0 76.144692840521202 173.86764744922402 0 0 0 0 -97.526141260852455 111.28550747169356 0 111.28550747169356 323.86784642218845 0 0 0 0 -106.83071032469161 7.4263823201617924 0 7.4263823201617924 201.31658011481341 0 0 0 0 -93.128309254650958 -20.392486270786321 0 -20.392486270786321 113.28378918886301 0 0 0 0 -78.575134551560041 55.037555239316134 0 55.037555239316134 152.39412675867788 0 0 0 0 -91.619934664748143 27.200717469575466 0 27.200717469575466 116.83227236413222 0 0 0 0 -93.269809612364043 20.966524153176579 0 20.966524153176579 198.77778751486767 0 0 0 0 -58.417396542034112 30.340144928341033 0 30.340144928341033 113.47108477687289 0 0 0 0 -53.52763536448947 57.896845863955605 0 57.896845863955605 21.903736311302055 0 0 0 0 -59.73672865726985 4.9592530708614504 0 4.9592530708614504 61.096093217958696 0 0 0 0 -34.188416060715099 40.510151228212635 0 40.510151228212635 30.281591362858308 0 0 0 0 -72.47807631159958 -29.099651947693928 0 -29.099651947693928 9.2831288696761476 0 0 0 0 -61.798195860465057 5.2124557698844001 0 5.2124557698844001 99.887634655846341 0 0 0 0 -33.281226536870236 42.176346086635021 0 42.176346086635021 -33.108396453462774 0 0 0 0 -35.170377600898064 41.83854238396998 0 41.83854238396998 33.342287208943162 0 0 0 0 -25.229574727534782 51.773538709327113 0 51.773538709327113 12.783166427223478 0 0 0 0 -21.801606636028737 55.605749466645648 0 55.605749466645648 35.660620085633127 0 0 0 0 -25.384537120767163 53.76270557383441 0 53.76270557383441 34.738679974616389 0 0 0 0 -18.630473281467857 63.684418874290714 0 63.684418874290714 55.947064117412083 0 0 0 0 -34.923805989114044 40.661263215890358 0 40.661263215890358 53.19583752923063 0 0 0 0 -32.515404848742037 55.114709285015124 0 55.114709285015124 57.713818147080019 0 0 0 0 -32.01329567785433 52.608098086551763 0 52.608098086551763 69.382318715986912 0 0 0 0 -0.20941187468997668 75.810560011203052 0 75.810560011203052 47.244710652332287 0 0 0 0 -22.643996497123226 75.793037324856414 0 75.793037324856414 71.798496630857699 0 0 0 0 -23.713559953393997 69.277368462804588 0 69.277368462804588 73.787493792944588 0 0 0 0 -3.7304956777588814 62.005902603676077 0 62.005902603676077 30.246414456807543 0 0 0 0 32.453309782296856 65.991934633366327 0 65.991934633366327 16.592051011175499 0 0 0 0 15.586901224315209 36.026325858621021 0 36.026325858621021 -1.8226229175428728 0 0 0 0 11.701962233739323 77.828383356914856 0 77.828383356914856 46.367915001857909 0 0 0 0 13.432841879734042 70.659019843078568 0 70.659019843078568 40.159970551525475 0 0 0 0 34.748255228230846 74.234291558019322 0 74.234291558019322 29.252245408948511 0 0 0 0 15.184290647826856 91.194780590398295 0 91.194780590398295 61.990773992089089 0 0 0 0 40.881054915124452 35.987853763440249 0 35.987853763440249 19.32753139078433 0 0 0 0 29.315047438525653 17.08948595970287 0 17.08948595970287 50.515442754231117 0 0 0 0 10.883067413736171 21.902644322716696 0 21.902644322716696 -52.644750455074245 0 0 0 0 130.96684041115805 52.310085798890213 0 52.310085798890213 7.8599428892866854 0 0 0 0 147.43340334902314 146.67711125423011 0 146.67711125423011 2.5681378411245532 0 0 0 0 148.68880077092763 83.72799907683293 0 83.72799907683293 31.493930417636875 0 0 0 0 11.756033428991767 65.688799777821501 0 65.688799777821501 27.863268890515542 0 0 0 0 36.561295671766857 81.49986029851425 0 81.49986029851425 67.534020485793008 0 0 0 0 5.31010758591583 102.5560892484209 0 102.5560892484209 81.800936855652253 0 0 0 0 -27.725027978103753 102.17679234428579 0 102.17679234428579 85.878179706225637 0 0 0 0 6.2307502011244651 85.75137319440546 0 85.75137319440546 64.96609367855126 0 0 0 0 18.280603796229116 91.023030981232296 0 91.023030981232296 67.245149714552099 0 0 0 0 -10.793206816480961 94.922988203827117 0 94.922988203827117 78.233687367173843 0 0 0 0 9.2653568407040439 82.683009800355649 0 82.683009800355649 74.155660006654216 0 0 0 0 141.2878985083662 147.80203650379553 0 147.80203650379553 25.931916476401966 0 0 0 0 -22.561450351746018 12.925183679297994 0 12.925183679297994 17.052929320375966 0 0 0 0 22.181792636227328 128.54934374139702 0 128.54934374139702 89.444961104527465 0 0 0 0 -70.376530459645437 146.31493805414357 0 146.31493805414357 86.55186726503598 0 0 0 0 -42.348996824977803 268.31370914836589 0 268.31370914836589 -12.512130040042393 0 0 0 0 67.665981063633808 215.13848745716314 0 215.13848745716314 11.122274174587801 0 0 0 0 20.529801546392264 31.892956207811949 0 31.892956207811949 45.179425672533398 0 0 0 0 112.25112774275294 31.551308017661995 0 31.551308017661995 -7.8488834348609089 0 0 0 0 -13.497389837364608 115.75631879637695 0 115.75631879637695 19.15247662452748 0 0 0 0 168.3038257641947 -60.814516109556735 0 -60.814516109556735 -96.718955930424272 0 0 0 0 10.52470981320738 63.598380577401798 0 63.598380577401798 26.551413370458903 0 0 0 0 4.0116137869772501 61.47707523041754 0 61.47707523041754 64.721302127865783 0 0 0 0 -87.171701606246643 140.27187152471379 0 140.27187152471379 19.781062934423971 0 0 0 0 45.615384173914208 41.859504993910377 0 41.859504993910377 -189.18703001477115 0 0 0 0 -104.03322757338174 97.627087618842779 0 97.627087618842779 142.95257857915726 0 0 0 0 -5.0456987152716408 -1.5533876902386226 0 -1.5533876902386226 -0.13680787247157866 0 0 0 0 6.7029645405782503 145.0972528630482 0 145.0972528630482 -147.77558413955558 0 0 0 0 -151.38493233558256 153.04223582887789 0 153.04223582887789 107.48653026920147 0 0 0 0 19.446347284618241 34.033208103468496 0 34.033208103468496 -110.65606064134045 0 0 0 0 11.50134450483165 117.39840732619268 0 117.39840732619268 82.76205071953882 0 0 0 0 -1.0067661216613715 -0.13380977003862426 0 -0.13380977003862426 1.2444258218979201 0 0 0 0 4.2761847776127979 124.13928816364205 0 124.13928816364205 -45.708234758985782 0 0 0 0 73.046450824593194 158.6141532713882 0 158.6141532713882 -28.599957432961673 0 0 0 0 40.965188122128893 115.3770351954845 0 115.3770351954845 -25.426502703347069 0 0 0 0 -4.2569558192735713 132.27163642023879 0 132.27163642023879 16.087130432890262 0 0 0 0 48.535299292892887 59.043727773231694 0 59.043727773231694 8.1882501299260184 0 0 0 0 32.296599906815118 43.674134470079252 0 43.674134470079252 41.668664376578818 0 0 0 0 -4.629362305715631 1.5797418438677937 0 1.5797418438677937 -1.6335696328907545 0 0 0 0 33.429492382027092 53.765526889594184 0 53.765526889594184 6.5395698227257526 0 0 0 0 90.262079104216355 113.53078247557096 0 113.53078247557096 84.116323009810003 0 0 0 0 80.909256089726114 80.987679027675767 0 80.987679027675767 60.755819039342896 0 0 0 0 4.9145302626958625 12.95501463294778 0 12.95501463294778 4.3779650136694102 0 0 0 0 56.994681335658242 48.259706916298455 0 48.259706916298455 41.068205397419661 0 0 0 0 75.376730974026941 63.575105287519818 0 63.575105287519818 50.308364691547467 0 0 0 0 63.616206691251136 60.637718649817543 0 60.637718649817543 50.173911743995632 0 0 0 0 -297.86067450496921 297.57973054102149 0 297.57973054102149 397.73791177640669 0 0 0 0 222.21699679427547 -31.664354732114589 0 -31.664354732114589 137.62776391094667 0 0 0 0 -9.1541969067068418 15.390522226943077 0 15.390522226943077 51.462951380677552 0 0 0 0 -72.655271029215896 52.849312841489507 0 52.849312841489507 -7.4764863919045865 0 0 0 0 -158.12006372567703 113.83884865246182 0 113.83884865246182 106.92245825113787 0 0 0 0 -4.4392840717667852 66.205590395256436 0 66.205590395256436 31.155726432807654 0 0 0 0 -163.8133778845804 294.9670738087807 0 294.9670738087807 67.110779160524544 0 0 0 0 -114.73600944661302 266.69209484840394 0 266.69209484840394 -81.287282116754795 0 0 0 0 1.6719781383748682 1.7126675860330067 0 1.7126675860330067 1.2512063820494177 0 0 0 0 -57.644490078462695 345.98916456137522 0 345.98916456137522 -436.87431466507405 0 0 0 0 -171.05064651829525 328.36032102431909 0 328.36032102431909 -84.178857427272305 0 0 0 0 -93.706104341283208 72.559704280562073 0 72.559704280562073 -0.37480479660735 0 0 0 0 -111.74683514391654 280.35641350663718 0 280.35641350663718 -140.91192349815901 0 0 0 0 56.526462096969226 136.40264114940942 0 136.40264114940942 -27.982522723796137 0 0 0 0 88.082103595937951 32.060256382985244 0 32.060256382985244 28.321132980912807 0 0 0 0 11.728485784992092 63.558366953570129 0 63.558366953570129 27.97836677779469 0 0 0 0 -80.414296992908021 186.68125053032259 0 186.68125053032259 -103.02502607359202 0 0 0 0 -118.70352506794734 172.63862955785953 0 172.63862955785953 -69.119788180975775 0 0 0 0 -133.10502978242585 156.80104424275851 0 156.80104424275851 20.392623195995839 0 0 0 0 -130.61640630681359 170.94835123409393 0 170.94835123409393 -12.521081592614792 0 0 0 0 -132.70500060719496 142.99880086028134 0 142.99880086028134 -56.191622986334551 0 0 0 0 5.1472279725260819 6.1414717172242845 0 6.1414717172242845 3.1618408189149037 0 0 0 0 -126.44532421592157 168.67787359442082 0 168.67787359442082 -124.99826687549648 0 0 0 0 -84.43527947444818 143.69773820300907 0 143.69773820300907 -181.52339600553387 0 0 0 0 -114.55479477180052 130.59232839140896 0 130.59232839140896 -84.765845123931285 0 0 0 0 -120.79023920927284 133.88302318064962 0 133.88302318064962 -51.560178026047652 0 0 0 0 -100.08431995424326 110.04027130773102 0 110.04027130773102 -233.5641179894883 0 0 0 0 -42.531739587822813 -216.81772219691265 0 -216.81772219691265 673.2733353288022 0 0 0 0 -61.085470934733166 -49.781288725791455 0 -49.781288725791455 399.3896401482998 0 0 0 0 11.342378828572691 93.239406646436692 0 93.239406646436692 268.22295673047483 0 0 0 0 -57.370061528970837 117.67044772616282 0 117.67044772616282 126.59548100406937 0 0 0 0 -37.391734589469706 9.1444386233215482 0 9.1444386233215482 192.97504293794918 0 0 0 0 3.4674043953855289 -104.42032868370188 0 -104.42032868370188 69.205321444887886 0 0 0 0 -51.716659430720028 107.84715468458671 0 107.84715468458671 32.696754535645596 0 0 0 0 -129.84904445933353 0.095438023603492184 0 0.095438023603492184 79.336589410759188 0 0 0 0 -61.752969771552671 90.178417005120991 0 90.178417005120991 170.64885895529733 0 0 0 0 -200.97636345445062 157.15146210144212 0 157.15146210144212 199.2909764151118 0 0 0 0 -1.4976587401579309 68.551174242229536 0 68.551174242229536 95.335347609361634 0 0 0 0 -35.766866009711521 94.428462209914869 0 94.428462209914869 101.15063456201642 0 0 0 0 -69.542239688278642 44.969050535288261 0 44.969050535288261 218.79228075512947 0 0 0 0 -9.2708340942845098 58.650315732589661 0 58.650315732589661 192.12358586922346 0 0 0 0 24.825122778725927 -21.635236588310363 0 -21.635236588310363 225.56889113444436 0 0 0 0 -81.718400582874892 37.002260187124193 0 37.002260187124193 196.10514736455661 0 0 0 0 -107.85682921607804 91.784177988319243 0 91.784177988319243 198.49469966223114 0 0 0 0 6.2934355492712371 3.7636619294357416 0 3.7636619294357416 -0.70338149458460464 0 0 0 0 4.9120734543606659 5.8423897697271201 0 5.8423897697271201 0.83351182775013033 0 0 0 0 4.6054975420993287 5.4946337320761813 0 5.4946337320761813 -0.43068557702281396 0 0 0 0 -40.32671858590038 16.632896614859419 0 16.632896614859419 -1.7109490211223601 0 0 0 0 -14.579537283345417 73.871693140104981 0 73.871693140104981 172.30670202887995 0 0 0 0 0.0041649712733260458 0.82161147709757643 0 0.82161147709757643 3.2082066772398576 0 0 0 0 8.3883201812350308 33.935437327656473 0 33.935437327656473 -58.801935377829068 0 0 0 0 -74.185677445319016 132.88084443887783 0 132.88084443887783 -138.78576731319799 0 0 0 0 -51.833561753803224 43.350874347455829 0 43.350874347455829 -15.580322380388679 0 0 0 0 -125.0326075153489 78.752929726630782 0 78.752929726630782 -31.301911865390139 0 0 0 0 -50.276568810299068 46.115980278029383 0 46.115980278029383 -18.01439269023831 0 0 0 0 194.81205083834357 244.32647658353744 0 244.32647658353744 78.629721883033199 0 0 0 0 -2.734473378150625 4.6921805966198633 0 4.6921805966198633 -1.0253418117848412 0 0 0 0 -1.9159239656413263 2.0063557834051551 0 2.0063557834051551 -0.39633393153008001 0 0 0 0 366.87402331096382 234.67279692527882 0 234.67279692527882 -120.8838279061747 0 0 0 0 -193.1351084686321 58.931715602415352 0 58.931715602415352 18.91240380859017 0 0 0 0 -456.48435986940603 94.755705999201382 0 94.755705999201382 26.256436349256546 0 0 0 0 -221.61898525452489 196.3994549569793 0 196.3994549569793 -16.975790646356472 0 0 0 0 -77.667079820108484 149.54458172310478 0 149.54458172310478 -65.658888836163896 0 0 0 0 -13.100039063443546 110.60750148216903 0 110.60750148216903 -34.532987056998536 0 0 0 0 -86.090468165260972 132.85036332502568 0 132.85036332502568 -0.48602334676979808 0 0 0 0 11.194500824834904 96.78419033863338 0 96.78419033863338 -44.865606317689526 0 0 0 0 -207.34947244427167 230.91549197521817 0 230.91549197521817 -97.839387882202573 0 0 0 0 -49.292212871878291 108.19934712734175 0 108.19934712734175 -95.323826648782585 0 0 0 0 -64.95214731759188 75.641643588369334 0 75.641643588369334 16.211525039183471 0 0 0 0 45.533709243289195 53.42652675309364 0 53.42652675309364 -13.097836164317414 0 0 0 0 -16.267612047295188 46.395240267892405 0 46.395240267892405 25.826819018824608 0 0 0 0 1.7831269546677504 111.87381127957178 0 111.87381127957178 -22.764177442528307 0 0 0 0 35.297935185582901 97.879062236908794 0 97.879062236908794 7.0161783211842703 0 0 0 0 -129.99378864684763 162.26818603304275 0 162.26818603304275 -16.449305890382675 0 0 0 0 171.39320387611224 216.40375715716436 0 216.40375715716436 -120.48971245580276 0 0 0 0 -130.91335979656287 103.8036149686377 0 103.8036149686377 -8.0036182643671054 0 0 0 0 208.81871502326976 119.74023790076717 0 119.74023790076717 -225.0963233335824 0 0 0 0 180.53083110990701 31.911719623469253 0 31.911719623469253 -91.48787971870297 0 0 0 0 -1.1102998612077499 20.032235102808954 0 20.032235102808954 -75.544659018465609 0 0 0 0 185.03875231089478 -120.95710327726556 0 -120.95710327726556 21.804597023161477 0 0 0 0 311.5650769355052 217.23968029926527 0 217.23968029926527 193.05292131737951 0 0 0 0 74.233358054494602 -9.5444481506019656 0 -9.5444481506019656 48.932375709038752 0 0 0 0 189.77094741423207 -35.763097164825012 0 -35.763097164825012 -261.42110784813121 0 0 0 0 16.819899668889803 -2.6921192703025412 0 -2.6921192703025412 -2.0114326982704185 0 0 0 0 270.81522957549168 321.76424091203444 0 321.76424091203444 -455.39025137294811 0 0 0 0 -212.6943455303408 564.78004913131736 0 564.78004913131736 -321.77037265276886 0 0 0 0 -284.33496875688434 162.75322343767039 0 162.75322343767039 41.739051823897171 0 0 0 0 -240.45995124944602 165.19803509067424 0 165.19803509067424 -269.05902838721522 0 0 0 0 -170.92695738005568 260.13630071971784 0 260.13630071971784 -299.50930340078776 0 0 0 0 -628.00503513183503 711.44556297753661 0 711.44556297753661 -300.16544096828147 0 0 0 0 -887.97167867942335 679.52057669450323 0 679.52057669450323 -144.68963251954119 0 0 0 0 -266.0273559212219 452.2709731056093 0 452.2709731056093 -237.21099324623356 0 0 0 0 -242.14515050022601 363.32061509716732 0 363.32061509716732 -272.37327671494131 0 0 0 0 -878.49491433462572 544.26317286999347 0 544.26317286999347 -223.06651583814528 0 0 0 0 -616.27507513790624 312.08662877512688 0 312.08662877512688 -242.93070959291072 0 0 0 0 -411.24421468088985 220.64819932778482 0 220.64819932778482 -214.31691080023302 0 0 0 0 -221.76665332986886 236.77422796831524 0 236.77422796831524 -116.90116221623248 0 0 0 0 19.351708421199874 95.546100670764645 0 95.546100670764645 -203.21005380625138 0 0 0 0 -10.75487846852775 84.612048190037967 0 84.612048190037967 -106.15701436181553 0 0 0 0 3.6539632402433142 8.3846943963801692 0 8.3846943963801692 9.521856441035851 0 0 0 0 14.525476317641733 48.537097747235748 0 48.537097747235748 -98.733758248388767 0 0 0 0 -161.09467393009982 248.89583696529007 0 248.89583696529007 -104.1705548853206 0 0 0 0 -118.05999013940163 236.30507480957021 0 236.30507480957021 -103.8480913867952 0 0 0 0 4.3361362146719387 6.8878429451117427 0 6.8878429451117427 8.931316738863643 0 0 0 0 -0.69732656791165937 9.5799435892768088 0 9.5799435892768088 -82.931090529898938 0 0 0 0 217.75403895237105 165.64214689150322 0 165.64214689150322 -167.19310651965679 0 0 0 0 16.278462836889958 70.820829607947189 0 70.820829607947189 -75.524511999130482 0 0 0 0 269.21219383816788 83.805860050288175 0 83.805860050288175 -93.368453691684408 0 0 0 0 110.76485424164275 98.574539578859913 0 98.574539578859913 -78.007011655077804 0 0 0 0 189.82776493803249 220.92659415366506 0 220.92659415366506 103.56025644781039 0 0 0 0 199.25109302486817 223.5508555378492 0 223.5508555378492 73.776350391133747 0 0 0 0 186.21256890354562 344.04028551378724 0 344.04028551378724 148.70598827901995 0 0 0 0 198.21089219278656 253.22268102786256 0 253.22268102786256 46.848562638133444 0 0 0 0 595.39440124700559 228.78686527855189 0 228.78686527855189 -7.9759216069287504 0 0 0 0 2.2237993189981893 3.0912163584505947 0 3.0912163584505947 3.8154806122952891 0 0 0 0 940.78752622171305 81.99123918832629 0 81.99123918832629 500.665404782525 0 0 0 0 -38.584814433575957 60.923107856102433 0 60.923107856102433 -57.891350863985281 0 0 0 0 363.44690532190725 580.30341468235019 0 580.30341468235019 240.40839736706403 0 0 0 0 -358.4622719728286 24.923467836029886 0 24.923467836029886 610.41029824779162 0 0 0 0 10.327830119333726 7.1950576519871845 0 7.1950576519871845 -1.7484298533630573 0 0 0 0 4.7137295049324166 459.7983871392571 0 459.7983871392571 570.9150476262439 0 0 0 0 6.3356903205453392 6.6256928088158418 0 6.6256928088158418 -3.1733336366780236 0 0 0 0 -444.08149515697733 63.127507483186491 0 63.127507483186491 279.06587439334544 0 0 0 0 89.239776009169873 129.87909067725559 0 129.87909067725559 201.56144999210665 0 0 0 0 0.92825145660653163 2.9469368643310929 0 2.9469368643310929 0.7237096140636794 0 0 0 0 131.74198722270376 157.26284761804345 0 157.26284761804345 151.96195076532604 0 0 0 0 131.00160188114296 159.00788194187658 0 159.00788194187658 430.93243668781361 0 0 0 0 -110.78144619462546 46.410508737924829 0 46.410508737924829 -17.01273721648613 0 0 0 0 52.993087627692148 200.38668888028405 0 200.38668888028405 206.2605403341804 0 0 0 0 9.7936741856392473 71.680827538468293 0 71.680827538468293 -60.098556754768651 0 0 0 0 -2.0339109063788783 73.53587070559297 0 73.53587070559297 -60.362208902250131 0 0 0 0 1.5408509994886117 86.850476823678036 0 86.850476823678036 -22.048597652566968 0 0 0 0 50.781154893891653 97.837360769015504 0 97.837360769015504 -22.832490279618014 0 0 0 0 -93.043179689135286 115.99129742320292 0 115.99129742320292 38.60859885802347 0 0 0 0 3.9392556326347403 202.32472177287855 0 202.32472177287855 114.66217865790532 0 0 0 0 323.79752973097493 240.20243000584742 0 240.20243000584742 98.46757807855829 0 0 0 0 0.36086046820855699 102.33692544734731 0 102.33692544734731 106.02548474352807 0 0 0 0 57.890499711807934 165.93937679763076 0 165.93937679763076 98.163119639299111 0 0 0 0 101.48886750816018 214.83471889784414 0 214.83471889784414 186.1681315680753 0 0 0 0 78.442961044725962 119.24838092955542 0 119.24838092955542 203.80603465494642 0 0 0 0 -0.56132902467676615 1.0467343679919168 0 1.0467343679919168 2.5239810729357259 0 0 0 0 722.99460351005837 396.49409614162505 0 396.49409614162505 -13.112336230449728 0 0 0 0 -465.87828422150778 -57.956849589510966 0 -57.956849589510966 95.720867726609868 0 0 0 0 158.88043299649144 612.97621216618427 0 612.97621216618427 129.1667715937765 0 0 0 0 -73.717181205080124 185.17893169436866 0 185.17893169436866 75.84877745434278 0 0 0 0 -51.312094763212372 138.41016672647584 0 138.41016672647584 -47.020824592051213 0 0 0 0 -63.971964226147975 140.48843320901506 0 140.48843320901506 124.96916238878475 0 0 0 0 -62.978713880918804 175.81649056175593 0 175.81649056175593 147.62091452410095 0 0 0 0 -16.790194395784056 132.52423095771519 0 132.52423095771519 163.63213327298047 0 0 0 0 5.9573426916904282 191.27289852058311 0 191.27289852058311 163.08723418249656 0 0 0 0 -9.6113386670258478 142.25237141621255 0 142.25237141621255 57.44535791304952 0 0 0 0 -52.36492147181707 117.78630623325444 0 117.78630623325444 67.629720288186945 0 0 0 0 54.380805347143905 81.748413003224414 0 81.748413003224414 -343.47264775911026 0 0 0 0 7.1366055178368697 142.15003845129831 0 142.15003845129831 -57.81113106974226 0 0 0 0 -20.751355170592433 40.595240424212534 0 40.595240424212534 -74.790483064960426 0 0 0 0 36.893990752891114 61.431838329517632 0 61.431838329517632 -97.445476389591931 0 0 0 0 -78.517074664356187 203.41826509860766 0 203.41826509860766 -127.27030343695151 0 0 0 0 -103.41241201285993 124.10892370014744 0 124.10892370014744 -39.806935595268442 0 0 0 0 -19.278100757772336 114.62767670744688 0 114.62767670744688 -74.127983456601214 0 0 0 0 5.8240324470718292 5.298344589338015 0 5.298344589338015 0.31568397642202051 0 0 0 0 -269.7001791709481 269.9776333369482 0 269.9776333369482 926.27756192262177 0 0 0 0 72.451079736660176 76.184072165786347 0 76.184072165786347 -157.33178595862046 0 0 0 0 -356.86317655340099 26.20934736835261 0 26.20934736835261 532.09651358970586 0 0 0 0 148.21767599668965 299.73748865309608 0 299.73748865309608 306.51123720363103 0 0 0 0 171.90609130681014 37.024728700764399 0 37.024728700764399 5.3997856782225426 0 0 0 0 103.00022825963333 145.58109103695529 0 145.58109103695529 -115.93699440216005 0 0 0 0 1.406965334872325 1.1499622133561189 0 1.1499622133561189 0.098436777708019285 0 0 0 0 72.692646302515641 361.94574505687342 0 361.94574505687342 880.21882637801536 0 0 0 0 88.443466096839984 200.96071327531172 0 200.96071327531172 -721.0709559029583 0 0 0 0 62.742032595166165 461.30919133955467 0 461.30919133955467 31.51892592079821 0 0 0 0 67.71306612808803 432.38092777217298 0 432.38092777217298 198.27977096369432 0 0 0 0 -54.02235088130692 180.73445231026017 0 180.73445231026017 506.81092681504197 0 0 0 0 -39.667079983046278 105.4234033874327 0 105.4234033874327 111.37105269214362 0 0 0 0 -105.55966192964115 225.31706149765341 0 225.31706149765341 168.6956814439327 0 0 0 0 2.3145742591732414 354.17009796670027 0 354.17009796670027 437.30126287503663 0 0 0 0 15.170639598116395 409.49431366587669 0 409.49431366587669 192.22911071808267 0 0 0 0 14.453356484009106 266.49685823361972 0 266.49685823361972 342.82474259239825 0 0 0 0 -122.81776067841565 383.63243614850944 0 383.63243614850944 279.40931442015062 0 0 0 0 -0.33304320523893693 380.19545690734049 0 380.19545690734049 0.32294504929450341 0 0 0 0 -78.06127701314108 177.08326661258252 0 177.08326661258252 -235.39282480780821 0 0 0 0 -49.250401765835704 379.83379749991582 0 379.83379749991582 268.42676948319786 0 0 0 0 -22.404307511424122 280.93649806839494 0 280.93649806839494 -18.183408833421709 0 0 0 0 -75.728644362854538 363.50657994994617 0 363.50657994994617 -101.06252747343387 0 0 0 0 57.010449604538735 252.2400837487221 0 252.2400837487221 -269.65032762609189 0 0 0 0 -50.321162541338708 80.965903973654349 0 80.965903973654349 -301.91334853272565 0 0 0 0 46.033316387518425 248.96925043802185 0 248.96925043802185 -828.78351433101443 0 0 0 0 0.0094670487378607504 56.020508675643214 0 56.020508675643214 -811.74603804021899 0 0 0 0 -139.18701063818662 314.75495973767283 0 314.75495973767283 -338.84460145488265 0 0 0 0 -12.363545331238129 60.144142926130371 0 60.144142926130371 432.91569315270317 0 0 0 0 54.919357681170368 334.26612083030159 0 334.26612083030159 356.51889644017501 0 0 0 0 -2.6449009164870745 1.9442395885816381 0 1.9442395885816381 -1.5913710943347468 0 0 0 0 -0.33405652988585643 134.4991052664227 0 134.4991052664227 232.87049426143494 0 0 0 0 134.0282824601818 128.46497984571033 0 128.46497984571033 3.7680643309831794 0 0 0 0 167.15357458390645 -45.635309103887266 0 -45.635309103887266 161.16114593929888 0 0 0 0 -107.0415459509677 -113.55365925663864 0 -113.55365925663864 -229.6791660726235 0 0 0 0 -17.34915975916374 -277.72939411989864 0 -277.72939411989864 -889.84797965511052 0 0 0 0 87.659608742062119 -95.922136655468421 0 -95.922136655468421 -298.09579780896092 0 0 0 0 16.280571577794035 76.134963882075681 0 76.134963882075681 1.3396341986431253 0 0 0 0 85.193263292734628 78.397158553123518 0 78.397158553123518 -102.58594040771277 0 0 0 0 15.853647539986923 25.913061591540099 0 25.913061591540099 -141.04943274693505 0 0 0 0 -2.7872356076072435 6.1592437471529422 0 6.1592437471529422 -6.6444305071549223 0 0 0 0 -28.276827530295122 620.89683293045709 0 620.89683293045709 408.89541172911413 0 0 0 0 -213.73040656048397 697.35477184269257 0 697.35477184269257 -655.29414332813758 0 0 0 0 283.54048880597111 -41.996081670076819 0 -41.996081670076819 150.81320873014738 0 0 0 0 193.41007786238333 334.52081823530898 0 334.52081823530898 331.20536677560449 0 0 0 0 158.9371692903278 535.99695481861727 0 535.99695481861727 -203.47388832479191 0 0 0 0 0.39101031631705041 7.559733989806233 0 7.559733989806233 -8.6189844436721046 0 0 0 0 114.20270798838465 -160.85087103332626 0 -160.85087103332626 -228.39490552053212 0 0 0 0 691.55313971318537 -203.06356699934986 0 -203.06356699934986 -127.0814809002477 0 0 0 0 572.18688459740952 14.393559561765869 0 14.393559561765869 -368.44161205936689 0 0 0 0 2.6185690178292447 1.6046162995775006 0 1.6046162995775006 -3.6019426441037012 0 0 0 0 935.88256702735089 -235.67740485511604 0 -235.67740485511604 -386.79207629399025 0 0 0 0 650.9224302257353 -55.446428447045037 0 -55.446428447045037 -388.12546630724682 0 0 0 0 1009.0233382937731 -301.46998732036445 0 -301.46998732036445 -249.60931177176826 0 0 0 0 865.49406214134069 142.56824520101145 0 142.56824520101145 -845.84130394400563 0 0 0 0 -165.35540885024238 1.3538907952897716 0 1.3538907952897716 -307.79547549801646 0 0 0 0 -339.08027918910375 945.58173393364996 0 945.58173393364996 -1368.4224301551003 0 0 0 0 -72.412915877182968 393.24164528651454 0 393.24164528651454 -614.07482752924261 0 0 0 0 1878.4532613405026 -530.36342333434732 0 -530.36342333434732 -1358.543819170096 0 0 0 0 1.7579203656739963 1.4385204555485416 0 1.4385204555485416 -1.5207985321974888 0 0 0 0 326.27643382815586 -249.47228166601235 0 -249.47228166601235 -1007.6881159830082 0 0 0 0 -5.7433300779012768 4.9772203040894141 0 4.9772203040894141 -2.1113988832732673 0 0 0 0 -181.96645555252326 65.439435024207341 0 65.439435024207341 38.382978449197253 0 0 0 0 -227.3218739394506 325.03113763741203 0 325.03113763741203 -216.20540608975034 0 0 0 0 0.48623226639028871 155.04618147901783 0 155.04618147901783 -496.47678698504387 0 0 0 0 -145.35951724452934 -230.23158834253729 0 -230.23158834253729 -154.4585801885296 0 0 0 0 -4.9984243324070121 52.293339697887404 0 52.293339697887404 36.793826181718032 0 0 0 0 -13.151936334645143 44.450180802774412 0 44.450180802774412 35.65871304054258 0 0 0 0 0.020395040344737936 61.219875814806073 0 61.219875814806073 29.473852439043185 0 0 0 0 4.8183614846639102 20.148221905392347 0 20.148221905392347 89.815344457299943 0 0 0 0 1.4633334985825854 -1.2425490660485465 0 -1.2425490660485465 -2.5593709212845965 0 0 0 0 -3.3335018728830619 5.2656049058368808 0 5.2656049058368808 -6.3001051179271599 0 0 0 0 -1.1833927386234393 -0.34400682732893983 0 -0.34400682732893983 0.71932332024706369 0 0 0 0 -8.6988175248667972 7.2042271445181569 0 7.2042271445181569 -6.8924782288602415 0 0 0 0 5.1336652116434323 0.30483729179145591 0 0.30483729179145591 -6.2479234616041239 0 0 0 0 8.3708567300636787 17.0578904133381 0 17.0578904133381 -0.65087435339000876 0 0 0 0 8.4010596857115161 12.164921195360876 0 12.164921195360876 -12.940317883436364 0 0 0 0 -3.6966964493583134 15.496699626925647 0 15.496699626925647 -17.848425904741362 0 0 0 0 3.9999072716018418 24.883486082348099 0 24.883486082348099 -14.639741240260264 0 0 0 0 8.2901570478643407 33.380092134650113 0 33.380092134650113 -34.803030850419418 0 0 0 0 6.047931906479775 31.173716655273466 0 31.173716655273466 -30.767432597336406 0 0 0 0 -7.3722851066631847 23.87384604982617 0 23.87384604982617 -15.681707797169111 0 0 0 0 50.096556505050103 47.208367491396075 0 47.208367491396075 -50.874029445255019 0 0 0 0 6.5485272915102541 42.932131548124289 0 42.932131548124289 -3.771036130745415 0 0 0 0 9.6745601692409764 66.929339959303206 0 66.929339959303206 -27.550200306203806 0 0 0 0 -20.007880839729623 32.188227371761656 0 32.188227371761656 -10.320134035972952 0 0 0 0 -6.4505543870383519 20.816752056378647 0 20.816752056378647 -20.617712240608753 0 0 0 0 -7.1933427372277947 47.623410019647963 0 47.623410019647963 0.29640596141553033 0 0 0 0 -3.9497129345108988 22.019752289619646 0 22.019752289619646 6.7615238315902388 0 0 0 0 5.5091784056003235 72.575032816494513 0 72.575032816494513 -12.057022562945349 0 0 0 0 19.487872316674839 41.886053332933898 0 41.886053332933898 -36.241820114548318 0 0 0 0 -19.973418447155495 23.044042328848505 0 23.044042328848505 -17.15208859326048 0 0 0 0 -23.546743991866776 17.082882236385572 0 17.082882236385572 8.2368395775131589 0 0 0 0 -9.3937625330145238 62.141470949725772 0 62.141470949725772 -56.962588702916037 0 0 0 0 3.6226344137469937 7.4679773664561262 0 7.4679773664561262 -6.3373924702011806 0 0 0 0 -23.785471958341077 18.154940861779323 0 18.154940861779323 -16.539939902162587 0 0 0 0 -5.7212834622041555 34.155419852402702 0 34.155419852402702 -23.213076666221241 0 0 0 0 -15.327655364391632 34.402232555123987 0 34.402232555123987 -28.620252761351054 0 0 0 0 44.305733476947353 61.981798766322299 0 61.981798766322299 -92.552093631638854 0 0 0 0 -12.261659264582818 20.723670413800306 0 20.723670413800306 -15.174488549618374 0 0 0 0 -10.20233918682186 28.520252234836619 0 28.520252234836619 -36.578357424419664 0 0 0 0 0.33484398692235118 59.875731663019906 0 59.875731663019906 -108.88417741483499 0 0 0 0 -0.5597424658244563 23.593412877925857 0 23.593412877925857 -0.61200860652024858 0 0 0 0 -0.025472286477452144 61.087614510093772 0 61.087614510093772 -40.107581120591931 0 0 0 0 -7.0599829617567593 16.821759726250093 0 16.821759726250093 -74.464943880080682 0 0 0 0 -19.317968073592056 -124.10804276486306 0 -124.10804276486306 64.798375127287727 0 0 0 0 0.024562579167572974 57.010539482423013 0 57.010539482423013 -137.28729159776412 0 0 0 0 1.6204369289305021 -1.3051672736468163 0 -1.3051672736468163 -0.94292592070607029 0 0 0 0 4.0145329610655835 -1.0810130468846602 0 -1.0810130468846602 -0.40110156042774747 0 0 0 0 -34.124260571442164 149.5180665936237 0 149.5180665936237 -52.199611184703826 0 0 0 0 2.7572430615657595 0.997601910943958 0 0.997601910943958 0.78108261082851982 0 0 0 0 -89.787680237008317 172.99678900283789 0 172.99678900283789 41.84037839044322 0 0 0 0 15.51595495325455 67.914721705750708 0 67.914721705750708 483.8830548572987 0 0 0 0 1.7148586058577848 -0.63641811205486043 0 -0.63641811205486043 -0.51258207450476334 0 0 0 0 0.20655127156351227 189.29585542987479 0 189.29585542987479 -88.816746175032677 0 0 0 0 179.04567663824855 211.03663728698666 0 211.03663728698666 -210.69481363699015 0 0 0 0 1.7203467149889207 0.95435420683950056 0 0.95435420683950056 1.1326459865767262 0 0 0 0 273.84207598524517 242.87080528835577 0 242.87080528835577 -355.31136077850897 0 0 0 0 15.693474146348308 -101.83717137095664 0 -101.83717137095664 -148.77339385140658 0 0 0 0 28.497487264936353 -91.538651018102883 0 -91.538651018102883 988.73994096493698 0 0 0 0 -230.11817731343035 -27.363439789052791 0 -27.363439789052791 1442.6434820614231 0 0 0 0 -164.32408087606018 287.46313049940363 0 287.46313049940363 902.54703718525707 0 0 0 0 -57.6616676843405 54.822205198550364 0 54.822205198550364 306.2807117515149 0 0 0 0 47.019233575926592 96.553756371314762 0 96.553756371314762 396.81802996318584 0 0 0 0 32.963744882668834 180.00878897300572 0 180.00878897300572 -312.32978395956707 0 0 0 0 -26.675637709427974 -76.814557464551399 0 -76.814557464551399 592.52349911378769 0 0 0 0 1.5384199948520632 5.0265765012873356 0 5.0265765012873356 4.0075936928599063 0 0 0 0 -41.56969955743989 33.246214222199342 0 33.246214222199342 289.5562588435057 0 0 0 0 -31.414673862599557 43.049756448283119 0 43.049756448283119 274.31850801785913 0 0 0 0 195.77388188929763 173.52464961927035 0 173.52464961927035 -212.51072176427988 0 0 0 0 0.12500092049424438 6.3570743337916511 0 6.3570743337916511 4.9325644084551001 0 0 0 0 -116.43141671548892 184.67394804588275 0 184.67394804588275 -9.5106042289335164 0 0 0 0 -109.03921171899128 -87.666565655927116 0 -87.666565655927116 313.22489685262553 0 0 0 0 -150.31886589506939 -31.971983051675579 0 -31.971983051675579 -13.203128397348337 0 0 0 0 55.561028224226902 51.747036373992159 0 51.747036373992159 20.664932016250532 0 0 0 0 -12.387383727997076 -64.042047294879012 0 -64.042047294879012 11.217254065870293 0 0 0 0 -32.645591756680005 90.574124985806975 0 90.574124985806975 -24.9939511436678 0 0 0 0 2.6387655901350229 5.0071058182993005 0 5.0071058182993005 -0.037342202192654383 0 0 0 0 71.449697337659018 89.038028904307794 0 89.038028904307794 23.062213368248194 0 0 0 0 -66.372233067413617 38.799046851478124 0 38.799046851478124 147.56397919900337 0 0 0 0 33.932362891995581 -7.3696042411338567 0 -7.3696042411338567 -23.083342221441853 0 0 0 0 -55.593535260122735 -4.394562109006074 0 -4.394562109006074 51.934316542516171 0 0 0 0 -2.8467748907756487 3.2741101358811875 0 3.2741101358811875 2.2907160993215712 0 0 0 0 -39.623893782438245 12.142638329918555 0 12.142638329918555 15.402164321196324 0 0 0 0 -148.66475729401282 32.488209063889371 0 32.488209063889371 22.277397211946663 0 0 0 0 -80.289219811049406 75.094870804705351 0 75.094870804705351 -27.994515338614292 0 0 0 0 -42.920010404704954 37.859792100734921 0 37.859792100734921 -2.3943580339036998 0 0 0 0 -43.127392935522948 47.142339696207273 0 47.142339696207273 -18.183502646286797 0 0 0 0 -64.430262647671043 45.111052802831182 0 45.111052802831182 14.099976244120626 0 0 0 0 21.707576308064745 27.705970138475095 0 27.705970138475095 23.843600252102988 0 0 0 0 -0.43075800414953846 44.549158288224135 0 44.549158288224135 72.476702018293508 0 0 0 0 -5.9227744950004819 7.7188473215188083 0 7.7188473215188083 7.3039473688633763 0 0 0 0 -2.9021418459597044 47.836963947069307 0 47.836963947069307 73.407569496772339 0 0 0 0 -31.09797005247674 -22.939322906517191 0 -22.939322906517191 291.98170682720956 0 0 0 0 -99.708928477091831 -114.69634223897447 0 -114.69634223897447 -57.9666424542811 0 0 0 0 -11.185888345280546 -33.244281294766552 0 -33.244281294766552 147.27681637358182 0 0 0 0 -29.519365309890418 41.022956504652029 0 41.022956504652029 213.69648840490845 0 0 0 0 -91.179136989172548 106.49723447037832 0 106.49723447037832 234.83746387184874 0 0 0 0 -43.133932286698837 70.404190900932008 0 70.404190900932008 248.85411717145325 0 0 0 0 -28.873703120043501 49.132597579569847 0 49.132597579569847 201.31490637768729 0 0 0 0 -25.90411746231257 44.41119652114503 0 44.41119652114503 180.78852238818945 0 0 0 0 -47.898352596501354 90.457874156745675 0 90.457874156745675 183.14105192523448 0 0 0 0 -0.56408964397269301 84.977916692776489 0 84.977916692776489 126.19468630738993 0 0 0 0 3.9257686879427638 68.681847092993848 0 68.681847092993848 121.85931265976978 0 0 0 0 21.285226852676715 105.33846999118396 0 105.33846999118396 134.46798218754702 0 0 0 0 43.404944039531983 132.99439334696945 0 132.99439334696945 140.75586987452698 0 0 0 0 -23.102024073072243 108.55209038547582 0 108.55209038547582 188.4582795452734 0 0 0 0 -11.902380006533349 148.96147941988602 0 148.96147941988602 190.39304445493326 0 0 0 0 -43.430007316957926 126.01414746992668 0 126.01414746992668 188.09207047271309 0 0 0 0 -2.2943824012763798 156.75817098318657 0 156.75817098318657 192.96254730688452 0 0 0 0 -9.3439293688861653 138.08042780414689 0 138.08042780414689 180.47890463194926 0 0 0 0 4.3136970377236139 147.09784190818027 0 147.09784190818027 183.28179193563847 0 0 0 0 -23.884288834808103 145.99921082935361 0 145.99921082935361 170.36211378962616 0 0 0 0 -51.908895741100423 173.04786008939118 0 173.04786008939118 192.29151275516779 0 0 0 0 -68.001477727368183 147.83349166072367 0 147.83349166072367 228.02908562966331 0 0 0 0 -86.314373741843156 184.99302763737433 0 184.99302763737433 170.68296655922677 0 0 0 0 -126.27833298375481 136.11123794118976 0 136.11123794118976 309.04656911847633 0 0 0 0 -51.251490135902714 127.91409843907059 0 127.91409843907059 224.66981500595284 0 0 0 0 -134.92682055023761 45.472350694657507 0 45.472350694657507 -23.103532181386981 0 0 0 0 -198.67118484219463 39.185042788443752 0 39.185042788443752 17.49582546815509 0 0 0 0 169.75442515579925 169.63137798565367 0 169.63137798565367 133.25003963452764 0 0 0 0 228.4102351416368 112.73250796986031 0 112.73250796986031 186.7911300074411 0 0 0 0 -1.5581910800304257 1.7097794955975871 0 1.7097794955975871 7.2657153450629153 0 0 0 0 122.43708719365532 174.22163074947457 0 174.22163074947457 173.53151571125909 0 0 0 0 50.213703237401205 146.92466069265356 0 146.92466069265356 184.81326863162394 0 0 0 0 40.1098248478811 186.94155308890367 0 186.94155308890367 181.05627840213128 0 0 0 0 114.80180689130793 149.20894478460832 0 149.20894478460832 145.58213711372809 0 0 0 0 46.866537402820541 142.39501822454622 0 142.39501822454622 145.86376745808957 0 0 0 0 -4.361742490393226 -39.196959107197472 0 -39.196959107197472 -21.40374931329643 0 0 0 0 10.262238181036082 59.218618949811571 0 59.218618949811571 97.073813389357383 0 0 0 0 144.09239532427 148.71201187950237 0 148.71201187950237 171.34930295860977 0 0 0 0 38.864559885681956 65.430291409547863 0 65.430291409547863 64.992048988948227 0 0 0 0 144.43373126027291 131.97374073031096 0 131.97374073031096 95.876458919461584 0 0 0 0 -100.37375305325259 8.0401851292845095 0 8.0401851292845095 15.147403826384107 0 0 0 0 -234.91089134109643 -31.596787353118998 0 -31.596787353118998 16.189826848043595 0 0 0 0 -121.16515620792052 -10.550402381752065 0 -10.550402381752065 -1.4698353921048692 0 0 0 0 -144.74250117470365 20.929417366347479 0 20.929417366347479 28.197903286898509 0 0 0 0 -107.07332573785243 54.000510898446009 0 54.000510898446009 6.4389188434215612 0 0 0 0 -77.757316092713154 48.233521348155136 0 48.233521348155136 42.885123470128747 0 0 0 0 -104.22956151042672 34.15174127157934 0 34.15174127157934 42.251322057898506 0 0 0 0 -106.48468816275272 7.8776824519500224 0 7.8776824519500224 26.134556868841173 0 0 0 0 -96.129474292465602 28.138006220033276 0 28.138006220033276 25.832866477256175 0 0 0 0 -85.682323675137013 20.244546272711887 0 20.244546272711887 32.822897889207525 0 0 0 0 -2.0740912657249453 -0.22494748608838222 0 -0.22494748608838222 0.31515768688186085 0 0 0 0 11.67017856680468 59.251255838675206 0 59.251255838675206 84.333712302046479 0 0 0 0 -103.33698545216248 0.54363250164078636 0 0.54363250164078636 23.793574290320976 0 0 0 0 -2.6435773081811362 1.9207760975888277 0 1.9207760975888277 11.672495916905916 0 0 0 0 -86.471597551048035 -3.3851462011589319 0 -3.3851462011589319 18.931252036287333 0 0 0 0 -41.522321820026264 -22.1422373540845 0 -22.1422373540845 -32.017043914107489 0 0 0 0 -20.935519274497892 14.384597091095458 0 14.384597091095458 5.1818988334825349 0 0 0 0 -33.167757990471728 15.210573295524227 0 15.210573295524227 17.9080443301591 0 0 0 0 -21.024687636144236 5.6751419087281363 0 5.6751419087281363 8.450778734458595 0 0 0 0 -33.620607034612476 12.774700686011329 0 12.774700686011329 23.830334212398157 0 0 0 0 -16.415601218912627 8.8202091288281963 0 8.8202091288281963 15.145641939672714 0 0 0 0 -73.853730117349187 13.906722447856737 0 13.906722447856737 26.385992863120919 0 0 0 0 -38.380033783237991 10.600650935784273 0 10.600650935784273 11.73998938982686 0 0 0 0 -61.551364962320577 25.974506446796397 0 25.974506446796397 -5.3767341147854637 0 0 0 0 -7.7908273753026265 9.9350920688028275 0 9.9350920688028275 1.9999009561478047 0 0 0 0 -70.503795967495535 16.685553684052138 0 16.685553684052138 27.476093116078118 0 0 0 0 -42.710290881461333 23.730917983919426 0 23.730917983919426 97.828331947981496 0 0 0 0 -30.464409973668808 29.4407167878162 0 29.4407167878162 85.328446135834383 0 0 0 0 -22.521960163416225 46.402770767530455 0 46.402770767530455 101.62739247768059 0 0 0 0 -26.280436722328886 71.899712979848573 0 71.899712979848573 25.146298413938894 0 0 0 0 14.368314935585659 91.480779397953029 0 91.480779397953029 15.836724446080552 0 0 0 0 -26.093631289507357 45.47066732107416 0 45.47066732107416 35.202074686868741 0 0 0 0 -1.2844576412899187 79.076289080044262 0 79.076289080044262 12.896835492654645 0 0 0 0 -10.410820122755528 15.15004700139454 0 15.15004700139454 3.8522917679610984 0 0 0 0 -38.915176881462685 31.375588871655054 0 31.375588871655054 100.46838345281139 0 0 0 0 -58.40152056707484 -2.6585056170124517 0 -2.6585056170124517 9.0818578493053792 0 0 0 0 -45.478400724285166 49.580653338005504 0 49.580653338005504 24.425261879936443 0 0 0 0 -47.145849350257777 49.480042327955744 0 49.480042327955744 36.30756231531268 0 0 0 0 -35.874753344962301 10.692519367486966 0 10.692519367486966 64.763888761386625 0 0 0 0 -38.1319778251003 25.618548637476081 0 25.618548637476081 50.339137074548844 0 0 0 0 -30.209417528836639 46.791853753573378 0 46.791853753573378 86.473195476977708 0 0 0 0 -29.724858581398991 9.0562591905331118 0 9.0562591905331118 12.83309786825798 0 0 0 0 -36.662780916478368 48.251407734958775 0 48.251407734958775 -4.2230940777808428 0 0 0 0 -40.820184240291297 11.99716377006839 0 11.99716377006839 9.1170525880485478 0 0 0 0 -55.539322463497228 27.567905946621067 0 27.567905946621067 32.211884848744376 0 0 0 0 -32.192691125819692 30.159453090649549 0 30.159453090649549 -13.565292679460981 0 0 0 0 -58.300911472823557 15.454722446045849 0 15.454722446045849 38.783398078862866 0 0 0 0 -27.214850812684745 19.753691579979204 0 19.753691579979204 35.846137998898485 0 0 0 0 -36.192504551737272 15.56083524859234 0 15.56083524859234 20.029967028411733 0 0 0 0 -39.929053227725035 22.585732189739204 0 22.585732189739204 -0.26258338313546759 0 0 0 0 -41.859661543450784 41.304226551423199 0 41.304226551423199 17.687345940976229 0 0 0 0 -45.978264105980827 24.828577634804901 0 24.828577634804901 26.712982888173514 0 0 0 0 -67.245539400610141 21.88037115278712 0 21.88037115278712 42.017454256463679 0 0 0 0 -59.480100525805028 24.137176562078821 0 24.137176562078821 75.588765338878147 0 0 0 0 -48.387341842171736 20.550137636018917 0 20.550137636018917 36.481707157494384 0 0 0 0 -18.097667012030087 20.428230956806956 0 20.428230956806956 14.857754030974448 0 0 0 0 -5.0792360967762136 6.9465612617563899 0 6.9465612617563899 -0.16908420421900061 0 0 0 0 -76.044589197930492 41.025080681242358 0 41.025080681242358 26.084658419769838 0 0 0 0 -46.102214356767945 24.739439963042969 0 24.739439963042969 18.00319937671884 0 0 0 0 -70.37233326875139 3.5385583884781227 0 3.5385583884781227 -6.3099102198539185 0 0 0 0 -34.528394078894053 25.044722086837282 0 25.044722086837282 -20.353897884400794 0 0 0 0 -24.36970170744442 21.252158198406839 0 21.252158198406839 1.312024509437947 0 0 0 0 -21.288072674831994 13.842376400810927 0 13.842376400810927 8.3417500808189402 0 0 0 0 -18.779495060633053 31.709561267293338 0 31.709561267293338 -21.977038189175801 0 0 0 0 14.406516363378614 107.28435892814741 0 107.28435892814741 -24.456889307894016 0 0 0 0 13.155443790676031 5.3170820038071582 0 5.3170820038071582 -9.7577656297484907 0 0 0 0 -141.67464877846942 -21.741702033559704 0 -21.741702033559704 19.840658788294604 0 0 0 0 -38.850318301327917 35.431073942469979 0 35.431073942469979 -18.839495854902694 0 0 0 0 -51.815553375103264 62.60370730439422 0 62.60370730439422 57.074182018575812 0 0 0 0 -175.60814886458684 52.462116658768082 0 52.462116658768082 64.411125747119513 0 0 0 0 -41.351345782182761 64.937592157579274 0 64.937592157579274 10.770912954754749 0 0 0 0 -65.225019040095503 -26.036734911440362 0 -26.036734911440362 56.682263812046585 0 0 0 0 -22.40935767427824 15.751512497627758 0 15.751512497627758 11.382962039168369 0 0 0 0 -68.539289516353165 103.04912516763943 0 103.04912516763943 66.490144660190708 0 0 0 0 -47.889011592490448 27.223662644129888 0 27.223662644129888 -7.8201929235509979 0 0 0 0 -103.80835748970276 80.289538966601867 0 80.289538966601867 80.383878516691311 0 0 0 0 -107.32646198439397 95.624871979556247 0 95.624871979556247 27.633277521410491 0 0 0 0 -138.93167168637956 142.69533021087341 0 142.69533021087341 -8.2066205340429406 0 0 0 0 -313.08188821899239 15.004763950858433 0 15.004763950858433 19.685148024451337 0 0 0 0 -1.489158482530911 92.759153455396245 0 92.759153455396245 1.4572373854771286 0 0 0 0 -10.145360350092233 50.367517936206696 0 50.367517936206696 -25.967625827029224 0 0 0 0 2.4872946743562352 54.66221266805951 0 54.66221266805951 -15.890748395982882 0 0 0 0 -14.10442409431198 78.426062520445385 0 78.426062520445385 -43.501885663773464 0 0 0 0 22.245514606700453 142.08748397639738 0 142.08748397639738 -23.995006726711154 0 0 0 0 48.008523773067282 190.76678264723023 0 190.76678264723023 -114.23378663193944 0 0 0 0 -124.50289097646601 170.64691605383314 0 170.64691605383314 72.158327071155099 0 0 0 0 15.00713494791853 263.50858054137188 0 263.50858054137188 -154.89577854340496 0 0 0 0 -109.05619891334209 244.30985142911277 0 244.30985142911277 113.58230846879133 0 0 0 0 -150.09032064944768 242.29787936712933 0 242.29787936712933 -107.80493905930689 0 0 0 0 -331.27859544944658 126.42394596003987 0 126.42394596003987 101.46686480245944 0 0 0 0 -211.87713698722655 21.28591366701221 0 21.28591366701221 55.091356667160653 0 0 0 0 -166.41844171704724 50.084934351427364 0 50.084934351427364 68.069507733683622 0 0 0 0 -104.31564011768205 3.274123138802679 0 3.274123138802679 92.20847299977504 0 0 0 0 -50.096611242821382 84.68739862044913 0 84.68739862044913 100.90929199783977 0 0 0 0 -199.89395473728655 131.09660996407911 0 131.09660996407911 89.571978945682986 0 0 0 0 -40.198416652896412 68.42647186673139 0 68.42647186673139 111.45340695650066 0 0 0 0 -102.11583836909995 69.201390285054913 0 69.201390285054913 111.49721062503795 0 0 0 0 0.049463995850429043 -0.62066773135592257 0 -0.62066773135592257 0.53570129447015091 0 0 0 0 235.32429565368511 152.8625643830901 0 152.8625643830901 44.316017297641338 0 0 0 0 -14.115892266658193 88.038852074845636 0 88.038852074845636 32.093608281536945 0 0 0 0 9.3155975460394984 32.246468490499865 0 32.246468490499865 111.26828624685095 0 0 0 0 -0.35843170188309159 38.315682772029504 0 38.315682772029504 107.670101380294 0 0 0 0 -11.306728933421255 54.254775081231855 0 54.254775081231855 103.74149010703411 0 0 0 0 -3.0042657329759095 33.397033051321159 0 33.397033051321159 98.834699605141623 0 0 0 0 -32.932467366830679 19.29652964533534 0 19.29652964533534 92.384634457655011 0 0 0 0 -32.179510703426786 -33.252454946616808 0 -33.252454946616808 72.250482828058011 0 0 0 0 82.380601093755104 53.699563587102602 0 53.699563587102602 -1.1963888676348233 0 0 0 0 -6.7845603753739852 42.729192222893516 0 42.729192222893516 123.75311348853256 0 0 0 0 0.12451325699328208 1.1041991547432062 0 1.1041991547432062 8.9449022041064694 0 0 0 0 45.116559057685663 22.019462846254555 0 22.019462846254555 -13.907692186200848 0 0 0 0 12.982735467259772 52.330256483083758 0 52.330256483083758 57.086882267192664 0 0 0 0 -33.728685500842403 15.814218020822409 0 15.814218020822409 45.432397613859848 0 0 0 0 0.79121034442505334 33.377493069037882 0 33.377493069037882 64.879323886638304 0 0 0 0 2.1046033806997002 38.617266515540905 0 38.617266515540905 68.233603194836178 0 0 0 0 -0.91867707110395713 22.872830727303253 0 22.872830727303253 30.696825490283274 0 0 0 0 18.784401535318466 20.273878466044152 0 20.273878466044152 -9.4607591996045812 0 0 0 0 9.9864294520302792 40.78093261797585 0 40.78093261797585 79.203813152178554 0 0 0 0 -3.3534488026198233 37.360449402469385 0 37.360449402469385 76.285828480169585 0 0 0 0 -0.32146193462128281 21.407166831412539 0 21.407166831412539 -6.7662144387544041 0 0 0 0 -3.8598003290535416 32.299495078168547 0 32.299495078168547 74.991884707053032 0 0 0 0 -1.1506878010124808 20.455916101324455 0 20.455916101324455 16.968152333031583 0 0 0 0 -2.5470108042318316 37.627013571184307 0 37.627013571184307 71.255298080606735 0 0 0 0 -37.050880911228887 -1.5608498338297068 0 -1.5608498338297068 118.49764639027489 0 0 0 0 -1.3642485639876156 30.442393886455939 0 30.442393886455939 11.439392237567418 0 0 0 0 -12.511823908032966 17.566909444998601 0 17.566909444998601 69.65852146067482 0 0 0 0 1.29397688768222 40.763698445818591 0 40.763698445818591 28.903585892170668 0 0 0 0 -5.7777085115129694 22.159979080722593 0 22.159979080722593 13.485559077704499 0 0 0 0 -2.3708264556662471 29.155897853219034 0 29.155897853219034 24.634025348123274 0 0 0 0 -0.48536793253904165 30.283168020125572 0 30.283168020125572 51.850275263316135 0 0 0 0 34.047599705481844 -23.844965974765728 0 -23.844965974765728 118.10704366724531 0 0 0 0 8.7926460398666677 7.3192332031467231 0 7.3192332031467231 80.623710597938043 0 0 0 0 5.3855207836204499 0.27295192002020485 0 0.27295192002020485 66.474161790043581 0 0 0 0 -23.736463803572406 45.61184151229827 0 45.61184151229827 60.603708071725123 0 0 0 0 -32.326289895150694 28.254419239270646 0 28.254419239270646 25.688846922741504 0 0 0 0 -45.308622088617994 62.701461133481644 0 62.701461133481644 70.954111137460586 0 0 0 0 -102.58304986958683 67.099324090519076 0 67.099324090519076 44.942327962715353 0 0 0 0 -45.757041908829706 52.934501199308215 0 52.934501199308215 9.4775862289170618 0 0 0 0 -50.898991087677132 65.121450835831638 0 65.121450835831638 28.632552079790912 0 0 0 0 -78.372202464939619 99.461027389414085 0 99.461027389414085 10.784413483765093 0 0 0 0 22.436029396420054 104.35644041829073 0 104.35644041829073 172.06090868960018 0 0 0 0 -4.6178334127616836 75.297124245407758 0 75.297124245407758 23.015674492635299 0 0 0 0 -1.3552592001215089 58.148408067343553 0 58.148408067343553 93.327598715601198 0 0 0 0 51.169678056263365 122.32327057748989 0 122.32327057748989 20.414699911154457 0 0 0 0 20.355032345702057 114.36697217580149 0 114.36697217580149 -6.1287430674565258 0 0 0 0 35.825162076958804 74.901055465001264 0 74.901055465001264 66.792672813219724 0 0 0 0 27.997650129967951 107.99228309629325 0 107.99228309629325 -124.46135525467616 0 0 0 0 85.214801328122121 24.018803852608471 0 24.018803852608471 164.80556770078692 0 0 0 0 144.40611021201767 75.137689644019702 0 75.137689644019702 65.892453498773648 0 0 0 0 3.4882158039776741 14.071406493117493 0 14.071406493117493 -6.0519050771891614 0 0 0 0 0.069072671698961585 52.130510509259956 0 52.130510509259956 37.426640641591781 0 0 0 0 -20.042264533753041 13.436939860519487 0 13.436939860519487 163.99610901142296 0 0 0 0 85.700041423910079 105.38142534285907 0 105.38142534285907 -19.268334434673307 0 0 0 0 -41.858542665060668 59.510535958270793 0 59.510535958270793 85.574006302259477 0 0 0 0 -65.463649414785323 83.845175937323802 0 83.845175937323802 175.00644662414561 0 0 0 0 -12.450943131209584 49.667850864839778 0 49.667850864839778 28.120745027076531 0 0 0 0 -24.888352645895793 66.232469946880883 0 66.232469946880883 57.052427970895224 0 0 0 0 -32.66568504011957 9.468729833017278 0 9.468729833017278 274.12311424435393 0 0 0 0 0.20870626582214413 -0.0088568268705451203 0 -0.0088568268705451203 0.22715226283632717 0 0 0 0 1.7831198953099374 -8.951179010911801 0 -8.951179010911801 125.32949418987846 0 0 0 0 -17.624409934622236 32.263751789138041 0 32.263751789138041 -41.354345419444144 0 0 0 0 -28.286834090031334 84.07306599126423 0 84.07306599126423 0.6081215898739174 0 0 0 0 -13.254861313966103 61.317935462904643 0 61.317935462904643 29.316305432665104 0 0 0 0 34.406575285567669 71.020532483125862 0 71.020532483125862 -37.114015388746338 0 0 0 0 -64.460439567398595 31.117196311633606 0 31.117196311633606 -10.147835233616547 0 0 0 0 13.876584727462614 110.0948870594184 0 110.0948870594184 47.814620549417668 0 0 0 0 -77.771698887547245 30.020702376550616 0 30.020702376550616 16.141969319411146 0 0 0 0 -52.710779414495846 82.682212746263303 0 82.682212746263303 13.213554307159939 0 0 0 0 -51.106066558175371 59.487676638978883 0 59.487676638978883 -1.5182574808932259 0 0 0 0 -34.158672742294584 72.103492874235599 0 72.103492874235599 -2.7520865147380391 0 0 0 0 -33.72451026114868 59.057586646908021 0 59.057586646908021 -3.5540988546854351 0 0 0 0 -135.20064504075663 67.781116467108802 0 67.781116467108802 26.180511622813356 0 0 0 0 -77.434257431058029 36.689837883033647 0 36.689837883033647 -14.578053735951613 0 0 0 0 -9.8032470051766722 84.864886075221875 0 84.864886075221875 -41.00594953680411 0 0 0 0 -1.4738389007361548 154.09121484333264 0 154.09121484333264 83.296145969299687 0 0 0 0 -69.954293156393163 34.593246220820333 0 34.593246220820333 -12.035002921732087 0 0 0 0 -23.534182971323389 37.766777359859134 0 37.766777359859134 -52.414618753216928 0 0 0 0 -19.461912868479885 72.859859994282942 0 72.859859994282942 27.270373331015435 0 0 0 0 -66.886970261586612 65.860663268862481 0 65.860663268862481 -6.4326408825436374 0 0 0 0 -12.296954581994214 92.223574105039006 0 92.223574105039006 10.234835680963442 0 0 0 0 7.2598619763766692 81.488115010291949 0 81.488115010291949 15.907677973616956 0 0 0 0 36.948462683307298 90.286404081383807 0 90.286404081383807 -8.2095720709985471 0 0 0 0 5.5316365517537633 92.124764820474979 0 92.124764820474979 1.8790402460508631 0 0 0 0 -34.121528964566096 118.30191312085117 0 118.30191312085117 2.1459005099532078 0 0 0 0 4.9631929684001079 100.56076533954592 0 100.56076533954592 -18.31591361341998 0 0 0 0 -167.77771579477121 138.12482730190095 0 138.12482730190095 -11.435626192749623 0 0 0 0 -254.72172940739256 27.225821835547322 0 27.225821835547322 17.622846571110131 0 0 0 0 -369.52675333780644 129.87004081090345 0 129.87004081090345 -9.4457927554612979 0 0 0 0 -134.76652558195201 61.530560524017346 0 61.530560524017346 -16.953412877050141 0 0 0 0 -137.31952149422432 114.33403711280334 0 114.33403711280334 33.861947629005954 0 0 0 0 -292.3704943804878 79.936281806281841 0 79.936281806281841 66.704509276469253 0 0 0 0 2.5310914857733806 9.1657730672663718 0 9.1657730672663718 38.639419352467371 0 0 0 0 -65.055788620131352 169.23019046708396 0 169.23019046708396 126.94964141903256 0 0 0 0 -84.772920422072275 50.350072093322069 0 50.350072093322069 16.201971536022029 0 0 0 0 124.43531992777571 87.972457350660989 0 87.972457350660989 31.312105164120112 0 0 0 0 106.53070729285901 50.638491515606802 0 50.638491515606802 38.569230201974278 0 0 0 0 172.68572344318045 53.318062518642591 0 53.318062518642591 28.814892198708549 0 0 0 0 153.68443243712227 118.08315664715201 0 118.08315664715201 50.914187054986542 0 0 0 0 179.13302397466759 44.455524919012532 0 44.455524919012532 37.469729671916866 0 0 0 0 353.17746115265982 69.31346316051895 0 69.31346316051895 27.20205306466778 0 0 0 0 0.78491050829862097 6.9793261862306935 0 6.9793261862306935 23.987275193857954 0 0 0 0 207.50463977947038 116.64116982448468 0 116.64116982448468 80.191205796581926 0 0 0 0 162.31144317414874 75.431071229080771 0 75.431071229080771 64.849718475339614 0 0 0 0 125.9774453711143 182.12175872740409 0 182.12175872740409 164.44177124549606 0 0 0 0 341.09832476756856 77.943306138124171 0 77.943306138124171 80.037714607387898 0 0 0 0 84.166043414599699 30.053613032012436 0 30.053613032012436 185.86871841822722 0 0 0 0 26.36347883027338 97.92820057280187 0 97.92820057280187 88.714268211660965 0 0 0 0 203.84883097466809 103.12077783800487 0 103.12077783800487 72.404041164831142 0 0 0 0 96.900663342086773 13.085381106986461 0 13.085381106986461 52.134704920987133 0 0 0 0 37.913864942762302 344.60061693934404 0 344.60061693934404 413.05694919465896 0 0 0 0 0.44807796603477357 2.3143903909331556 0 2.3143903909331556 8.2930802025513231 0 0 0 0 837.54097887422176 301.52737182234523 0 301.52737182234523 46.216510413632932 0 0 0 0 -358.74442350319441 -11.997296575958899 0 -11.997296575958899 -24.706094617209146 0 0 0 0 -223.05013948169653 114.37813274230939 0 114.37813274230939 14.118450003530597 0 0 0 0 -625.35898765458478 120.77850633623893 0 120.77850633623893 177.06408752693096 0 0 0 0 -216.41121811307676 72.389450514681812 0 72.389450514681812 28.455515093344729 0 0 0 0 -101.94432547801989 62.412176567057031 0 62.412176567057031 -33.426581770373559 0 0 0 0 -153.38848887679342 59.459493733185809 0 59.459493733185809 40.516551568460272 0 0 0 0 -96.458331447689488 92.50898011457457 0 92.50898011457457 4.3783088819982368 0 0 0 0 -92.395362588056742 99.225758531183601 0 99.225758531183601 36.371017801029666 0 0 0 0 -167.57958105525177 152.41789077685098 0 152.41789077685098 43.761840122904687 0 0 0 0 -381.85210381310026 266.93725113045366 0 266.93725113045366 195.47008417378674 0 0 0 0 -323.22746241374989 69.459627563490358 0 69.459627563490358 51.52358807309065 0 0 0 0 -119.91747450409457 471.66437076907459 0 471.66437076907459 210.42306710985758 0 0 0 0 -218.92796100392297 253.51798415367375 0 253.51798415367375 -128.63568370917346 0 0 0 0 326.85081775615254 161.98403935385431 0 161.98403935385431 -879.971667636848 0 0 0 0 122.84431162389228 90.460194245286402 0 90.460194245286402 50.579656998277642 0 0 0 0 -3.3414954327562327 2.2254459256654258 0 2.2254459256654258 -0.87583192613943339 0 0 0 0 -20.19640912261093 137.50642357892502 0 137.50642357892502 371.4950168998912 0 0 0 0 -166.81571047233592 136.464143711426 0 136.464143711426 -112.07481667180127 0 0 0 0 -214.45672497768692 191.12520468950856 0 191.12520468950856 12.51562771773024 0 0 0 0 -174.89911818530709 82.715602163385483 0 82.715602163385483 15.968695093892165 0 0 0 0 -20.593570823188202 155.15443945606603 0 155.15443945606603 -36.431262442958541 0 0 0 0 7.7825398538216177 -100.68566093074469 0 -100.68566093074469 220.2672562590742 0 0 0 0 -9.9606266108455372 7.5196695597382899 0 7.5196695597382899 18.357416192650646 0 0 0 0 -9.8930518587003462 105.02825301948906 0 105.02825301948906 178.93997327187026 0 0 0 0 -97.824600719752198 119.67748958062293 0 119.67748958062293 31.307144004051224 0 0 0 0 30.456260591759929 47.529619550266943 0 47.529619550266943 10.039469324070524 0 0 0 0 14.624192582776374 45.592378772644309 0 45.592378772644309 2.5746703810934051 0 0 0 0 3.5809202484616378 22.636090504602414 0 22.636090504602414 7.0493623101841756 0 0 0 0 24.335797101390199 49.626052828343518 0 49.626052828343518 10.241386289741854 0 0 0 0 5.8887214653368574 41.178394656926685 0 41.178394656926685 87.972412055622044 0 0 0 0 19.56302326254081 64.687629581964416 0 64.687629581964416 24.543788272723305 0 0 0 0 17.989297001913656 71.0895765694695 0 71.0895765694695 34.174278701124422 0 0 0 0 -0.5219343129683125 0.9598085951013644 0 0.9598085951013644 11.954067486103042 0 0 0 0 71.74152596971544 98.159206816088272 0 98.159206816088272 31.408159370203862 0 0 0 0 19.33047539574909 96.697076543649018 0 96.697076543649018 50.345771828149736 0 0 0 0 20.768399337169512 62.312073940236957 0 62.312073940236957 35.322192680835045 0 0 0 0 40.467502785257238 66.744792862916029 0 66.744792862916029 145.60280946787452 0 0 0 0 4.2589835657436197 126.37438434646538 0 126.37438434646538 -108.6082768582346 0 0 0 0 21.96005777479877 -21.132703447230597 0 -21.132703447230597 -263.34592654785229 0 0 0 0 -1.5312002678635963 0.018605769436618402 0 0.018605769436618402 0.37096873273010544 0 0 0 0 30.246543106577519 42.455727378118354 0 42.455727378118354 -80.547060097553185 0 0 0 0 -155.48849577902001 -94.655078052332101 0 -94.655078052332101 262.71789129661192 0 0 0 0 131.49369141631178 7.8359996710205451 0 7.8359996710205451 -395.76935835184122 0 0 0 0 613.23016795148578 653.56088401315719 0 653.56088401315719 -546.42052460110426 0 0 0 0 64.861540105761378 253.00391322712676 0 253.00391322712676 175.25374519360048 0 0 0 0 65.500003692359314 225.46216863697919 0 225.46216863697919 -406.63985415912975 0 0 0 0 -10.051407256352832 39.356814132870113 0 39.356814132870113 -15.098041186476621 0 0 0 0 39.708040288296615 83.364278182588009 0 83.364278182588009 13.54151157043998 0 0 0 0 41.519519591107382 58.46234985217643 0 58.46234985217643 -2.5595126470102514 0 0 0 0 14.834959611340309 49.785947054365806 0 49.785947054365806 64.842876947652258 0 0 0 0 -0.88179253143607639 62.318652692936439 0 62.318652692936439 88.515540204003628 0 0 0 0 15.234445180365583 77.488842707422577 0 77.488842707422577 25.68654100541562 0 0 0 0 -2.2484395478422812 68.006753201502363 0 68.006753201502363 113.91488150717578 0 0 0 0 1.7720202501122913 97.781651201391099 0 97.781651201391099 15.043206275423472 0 0 0 0 70.770167618524283 33.082930980634728 0 33.082930980634728 -242.60391251948613 0 0 0 0 0.015284299873485452 -0.29599088369725735 0 -0.29599088369725735 -0.91778365190942801 0 0 0 0 -78.653215379650646 69.141009523990078 0 69.141009523990078 314.43859281746336 0 0 0 0 -18.476653039921075 6.4226340559040409 0 6.4226340559040409 -57.847836297260073 0 0 0 0 32.263606651467853 123.42092236705162 0 123.42092236705162 -117.82622039617263 0 0 0 0 20.215099308175922 95.545428436019336 0 95.545428436019336 6.4984686380662424 0 0 0 0 36.990314442125964 77.941517100456394 0 77.941517100456394 24.80404767630359 0 0 0 0 24.253877344046487 52.707146329797979 0 52.707146329797979 15.029475742202749 0 0 0 0 44.516099187781037 56.402533167352942 0 56.402533167352942 8.317990678771821 0 0 0 0 55.716007425718999 72.342179491706474 0 72.342179491706474 27.419077679899374 0 0 0 0 36.800956128921825 58.912366387007069 0 58.912366387007069 50.375375233776936 0 0 0 0 40.768527994377109 78.190266045775942 0 78.190266045775942 21.69706737840761 0 0 0 0 49.960063829203136 119.51493565439624 0 119.51493565439624 85.19527689713658 0 0 0 0 11.24789667713776 81.391047965902146 0 81.391047965902146 57.676927867205137 0 0 0 0 82.045326857292821 80.544604789602801 0 80.544604789602801 21.380392404039185 0 0 0 0 53.964060322272417 116.26236331053349 0 116.26236331053349 22.703593844841862 0 0 0 0 133.17858459575837 245.18818134656749 0 245.18818134656749 -44.621767051747497 0 0 0 0 -11.240749694552505 147.13425339522462 0 147.13425339522462 73.20850670346978 0 0 0 0 -7.8351535404681272 104.77323259916426 0 104.77323259916426 77.202669211042803 0 0 0 0 -68.260994774042047 80.770611955814104 0 80.770611955814104 79.755871521970903 0 0 0 0 -32.73555187661259 160.69315121786269 0 160.69315121786269 27.966922009615757 0 0 0 0 -31.315619438508293 51.701829540253357 0 51.701829540253357 69.046538578988589 0 0 0 0 -16.007333407811529 84.402513355063689 0 84.402513355063689 62.587463719928223 0 0 0 0 32.03436229275394 44.071199984303178 0 44.071199984303178 10.417695201874835 0 0 0 0 61.60860088703339 102.52521264351731 0 102.52521264351731 52.430674794713298 0 0 0 0 0.098334459507896099 41.492292013413433 0 41.492292013413433 80.803799017020992 0 0 0 0 15.258832457417157 53.672622630460808 0 53.672622630460808 159.95262557296712 0 0 0 0 -11.599805628793547 142.47429403488496 0 142.47429403488496 156.70681852286577 0 0 0 0 -1.3733260651052035 1.0436030970357919 0 1.0436030970357919 1.3965234421786537 0 0 0 0 46.96800043078656 117.41029551883517 0 117.41029551883517 132.04542437994246 0 0 0 0 65.660712665456231 51.989503832299988 0 51.989503832299988 64.784249696543952 0 0 0 0 -7.3012075400783942 60.598428163994299 0 60.598428163994299 112.94794553920815 0 0 0 0 -12.058961431768552 5.3598135341098754 0 5.3598135341098754 0.75532324678526575 0 0 0 0 -0.78925297844398301 32.884861790153423 0 32.884861790153423 225.7415380922273 0 0 0 0 15.046746004495674 9.3100779923747723 0 9.3100779923747723 5.1487082751758804 0 0 0 0 34.736222572581028 15.680345361131813 0 15.680345361131813 52.623095448581125 0 0 0 0 -41.521314860772691 -104.38150320536155 0 -104.38150320536155 223.03552275837859 0 0 0 0 14.372440509992884 92.625689458511729 0 92.625689458511729 145.26664501514756 0 0 0 0 -73.620001933246385 -42.755168276954237 0 -42.755168276954237 24.644296776150895 0 0 0 0 1.5717377752447987 1.0975189185519056 0 1.0975189185519056 0.1518887494722303 0 0 0 0 0.37991995435731951 52.998795963015851 0 52.998795963015851 62.626269926746204 0 0 0 0 -152.99709785333107 95.65614795607965 0 95.65614795607965 238.3655476663593 0 0 0 0 -64.998161421091936 14.838793932727071 0 14.838793932727071 156.72709533897569 0 0 0 0 -106.97976763868792 173.76924520060027 0 173.76924520060027 -67.206692243227508 0 0 0 0 -109.52008127707813 138.38104821271247 0 138.38104821271247 19.042182512130694 0 0 0 0 -103.89283848430205 227.63832805281027 0 227.63832805281027 -215.9336487823316 0 0 0 0 -78.293230940886133 106.07635998826765 0 106.07635998826765 -58.735588445966869 0 0 0 0 -82.050092593785394 208.51856919374168 0 208.51856919374168 -117.40263085359538 0 0 0 0 -62.636325206114634 246.88623777235892 0 246.88623777235892 -415.04420170402773 0 0 0 0 -91.151711820593846 147.91644458786772 0 147.91644458786772 -281.3345186992351 0 0 0 0 -61.995028018776793 268.72513342696743 0 268.72513342696743 -571.63816175421107 0 0 0 0 -82.656142811101745 349.72394480855382 0 349.72394480855382 -694.52210787755257 0 0 0 0 -100.21058715871186 114.42030577789546 0 114.42030577789546 -159.90842989656676 0 0 0 0 -140.36853489157511 246.74419609904589 0 246.74419609904589 -210.75823194788711 0 0 0 0 -42.94439510874372 94.424470227767543 0 94.424470227767543 -879.98529058677559 0 0 0 0 -111.27219880227585 -81.736287745826885 0 -81.736287745826885 -660.59448249394427 0 0 0 0 -29.436039959739901 236.64053739504664 0 236.64053739504664 -822.87308859059158 0 0 0 0 -100.88073810107892 151.52461886013222 0 151.52461886013222 188.31675514015524 0 0 0 0 -58.865901622295496 6.2470625525213563 0 6.2470625525213563 -546.58840220504112 0 0 0 0 0.11570469467440603 0.58347406798924117 0 0.58347406798924117 -0.63906841980993678 0 0 0 0 -20.247215128241805 84.660237067215348 0 84.660237067215348 -609.62580866982319 0 0 0 0 93.062746287716436 134.99819549046674 0 134.99819549046674 -996.44699565218548 0 0 0 0 32.991244270837342 73.106831654771213 0 73.106831654771213 -910.69140051922159 0 0 0 0 -162.27129872134537 53.123480741804087 0 53.123480741804087 373.62390074172617 0 0 0 0 -17.366875605005816 12.055726596839628 0 12.055726596839628 -7.3875210356863601 0 0 0 0 47.878217175064492 503.22890507302873 0 503.22890507302873 313.95367141700626 0 0 0 0 6.2233722135060816 -59.243371476175525 0 -59.243371476175525 70.402322899706178 0 0 0 0 105.85696165004629 83.9434195529102 0 83.9434195529102 -349.16955305491138 0 0 0 0 -35.48928513127612 -107.64961578222938 0 -107.64961578222938 -41.635909903696302 0 0 0 0 568.68231296612066 479.63444313963737 0 479.63444313963737 -251.07700384930286 0 0 0 0 51.216190984472632 552.04897017419353 0 552.04897017419353 -211.82605505559332 0 0 0 0 106.47112465686678 -198.18976778897718 0 -198.18976778897718 -296.26681185349298 0 0 0 0 1.2493672360618007 -3.2973688171974942 0 -3.2973688171974942 -6.1473242441679954 0 0 0 0 115.14286403698497 165.97063535465531 0 165.97063535465531 -981.30035213413976 0 0 0 0 -98.412555706985586 -255.61522768485929 0 -255.61522768485929 3.6384935026289895 0 0 0 0 166.13778234690108 -572.38179289810068 0 -572.38179289810068 211.83336193066134 0 0 0 0 844.80897015458322 -172.47645294279937 0 -172.47645294279937 -301.87496053283326 0 0 0 0 31.510608084267005 -0.41131182640197039 0 -0.41131182640197039 -9.6387661205158111 0 0 0 0 -41.098408839425247 85.09592156399782 0 85.09592156399782 151.1185582248022 0 0 0 0 49.847543440373556 42.874224085392598 0 42.874224085392598 -573.34404972724917 0 0 0 0 -31.732051268867508 118.10838961659988 0 118.10838961659988 -413.0081840673331 0 0 0 0 0.4691531409367542 3.0686318890093687 0 3.0686318890093687 -0.99520084423600819 0 0 0 0 -9.7611225360706158 36.557683454439086 0 36.557683454439086 -327.34194016782783 0 0 0 0 38.166831404620098 182.6648510338041 0 182.6648510338041 -264.73739726242889 0 0 0 0 10.008322093033712 71.10134458229976 0 71.10134458229976 -376.62798933335807 0 0 0 0 -28.72939274883538 204.29606248952723 0 204.29606248952723 -220.75255663635687 0 0 0 0 -43.546379382707528 114.16812873666066 0 114.16812873666066 -229.92727056537387 0 0 0 0 24.22444602590258 117.68557667166436 0 117.68557667166436 -146.88320856769542 0 0 0 0 -37.342105581924443 194.82721161043514 0 194.82721161043514 -38.194655552707218 0 0 0 0 -39.154795801041473 113.10346629372759 0 113.10346629372759 -19.247208610794928 0 0 0 0 3.9681075190619595 213.42376386684501 0 213.42376386684501 -35.787383470867269 0 0 0 0 59.068512818732415 227.68556191444679 0 227.68556191444679 -137.0729134979008 0 0 0 0 -138.19017793521198 235.50084424363206 0 235.50084424363206 -99.282301210323652 0 0 0 0 -113.52192582363932 122.57486580128935 0 122.57486580128935 -100.10487564749451 0 0 0 0 -45.185876585584992 158.12063296063053 0 158.12063296063053 -182.37461834263888 0 0 0 0 60.975584527397586 117.87425623862987 0 117.87425623862987 -195.89716655146162 0 0 0 0 0.56531167014543371 4.3204289247235055 0 4.3204289247235055 -1.1115231666865162 0 0 0 0 36.812525933924917 79.380901330849042 0 79.380901330849042 -302.28334080651325 0 0 0 0 4.8530617342548794 74.996799462176909 0 74.996799462176909 -163.47757501532911 0 0 0 0 -38.24110648460919 71.560784851714459 0 71.560784851714459 -95.354385945849799 0 0 0 0 7.6637506152328569 39.334770081484749 0 39.334770081484749 -24.139830841033472 0 0 0 0 -11.803280581676518 56.56380798677128 0 56.56380798677128 12.410363754968785 0 0 0 0 9.9064274605515834 17.55234773473552 0 17.55234773473552 11.903452277595173 0 0 0 0 1.0923346841568673 6.1069576970763295 0 6.1069576970763295 0.057637711086312216 0 0 0 0 -6.3146179028917686 10.129342757753875 0 10.129342757753875 82.452975533234678 0 0 0 0 5.3387359337866656 58.892434249778717 0 58.892434249778717 4.018320250560464 0 0 0 0 20.810711434312879 10.102760602381252 0 10.102760602381252 -1.8128731772088229 0 0 0 0 10.503291712127975 19.102501286634833 0 19.102501286634833 -31.133899031299052 0 0 0 0 19.415685222906177 2.811307854796496 0 2.811307854796496 1.0598835433713134 0 0 0 0 59.83659886350506 -24.54328468517997 0 -24.54328468517997 -45.284542350106221 0 0 0 0 15.515285045109124 19.011381153274151 0 19.011381153274151 5.1199233713459966 0 0 0 0 7.4883091169322142 22.308918980370436 0 22.308918980370436 -18.278575933796674 0 0 0 0 21.603576806189238 3.6514093333796751 0 3.6514093333796751 -14.115829390167612 0 0 0 0 9.7602202133275568 18.378964758661823 0 18.378964758661823 -30.805686350493488 0 0 0 0 6.4563514364417642 25.476511741515424 0 25.476511741515424 -29.491420240668049 0 0 0 0 5.5756129517554314 15.975793411249605 0 15.975793411249605 -6.5643237062702848 0 0 0 0 0.69559839481735253 27.962056256861615 0 27.962056256861615 28.848158717224578 0 0 0 0 4.8243541502848757 1.9797332424706298 0 1.9797332424706298 -8.4057261565276562 0 0 0 0 72.042026542240819 86.721460588734146 0 86.721460588734146 -32.667341662789113 0 0 0 0 19.298073280326207 8.223831339751996 0 8.223831339751996 30.400676152268716 0 0 0 0 -4.125787716373452 21.833683299391851 0 21.833683299391851 39.474782550109012 0 0 0 0 20.260163800490503 11.774333223901522 0 11.774333223901522 -8.6237522612383586 0 0 0 0 21.269131853666934 13.853543641162418 0 13.853543641162418 -8.5696254941218797 0 0 0 0 8.8479772626888007 20.419405423765056 0 20.419405423765056 -22.657892800416448 0 0 0 0 11.791692029214033 16.974318016724009 0 16.974318016724009 8.7852458338518495 0 0 0 0 22.620809096850934 16.03145135488078 0 16.03145135488078 0.18859902103685933 0 0 0 0 3.184280159096545 3.0211161677295308 0 3.0211161677295308 -1.622922366978468 0 0 0 0 -21.981141752003168 52.47542527695947 0 52.47542527695947 -84.879414120566707 0 0 0 0 57.640067456813995 -10.472690211530562 0 -10.472690211530562 -32.754525921061145 0 0 0 0 56.302583220422093 24.470265136762919 0 24.470265136762919 -45.975414010933036 0 0 0 0 43.927692080984343 31.826856259363851 0 31.826856259363851 12.92295174904848 0 0 0 0 162.88640590783325 -66.482883311453691 0 -66.482883311453691 -16.898854855598074 0 0 0 0 -110.06302218462224 120.14901810505187 0 120.14901810505187 -81.134054153387609 0 0 0 0 0.64741922300046895 0.4920053762623553 0 0.4920053762623553 0.042259547107303952 0 0 0 0 -30.037893404169154 121.82046733712608 0 121.82046733712608 -100.08808622142192 0 0 0 0 -78.34250079409685 103.22342259809199 0 103.22342259809199 -82.32172413539557 0 0 0 0 -86.909628392088052 131.9583577057453 0 131.9583577057453 -101.58592913901803 0 0 0 0 -44.589388211017649 113.98715808835456 0 113.98715808835456 -85.676578411540817 0 0 0 0 -85.311936855388012 119.57613235688683 0 119.57613235688683 -84.873072272178717 0 0 0 0 -108.408377680782 172.9434734266886 0 172.9434734266886 -56.092298981574174 0 0 0 0 -112.17834578329348 139.74124311796217 0 139.74124311796217 -41.015608076432727 0 0 0 0 -108.85300861702126 200.94793851601867 0 200.94793851601867 -71.415270995236824 0 0 0 0 -89.223910132677702 169.21804104757285 0 169.21804104757285 -76.778523631793178 0 0 0 0 -106.9655205985182 179.77392873702331 0 179.77392873702331 -95.938522184956412 0 0 0 0 -127.2878753678815 166.14186367018038 0 166.14186367018038 -104.48316249599281 0 0 0 0 -127.29396773274493 168.90594645134325 0 168.90594645134325 -111.32187207618367 0 0 0 0 -107.38181979083311 142.0900704408748 0 142.0900704408748 -80.308752130035316 0 0 0 0 -213.12345540738897 124.37502874958696 0 124.37502874958696 -76.874194983526479 0 0 0 0 0.79550938406757865 1.8622124087692953 0 1.8622124087692953 0.19691166584421238 0 0 0 0 406.28414920052455 61.687034397963401 0 61.687034397963401 -27.048154596635584 0 0 0 0 -375.86402220230957 248.85686367943532 0 248.85686367943532 -62.535018356299858 0 0 0 0 130.31537596682574 47.630125568708621 0 47.630125568708621 0.68729866104013126 0 0 0 0 1.5648638297877397 2.979469077483671 0 2.979469077483671 1.7138132378266357 0 0 0 0 85.515444208911504 77.314097256668788 0 77.314097256668788 -3.7530887769618175 0 0 0 0 -140.02432817312365 126.92322713051982 0 126.92322713051982 -67.215055242839185 0 0 0 0 -114.76734488283546 122.71796243268284 0 122.71796243268284 -81.331169056026923 0 0 0 0 -106.67583504843788 97.776380034153647 0 97.776380034153647 -42.229499116692068 0 0 0 0 63.212449621518317 25.897105529985083 0 25.897105529985083 -1.8048853434588636 0 0 0 0 12.190027345932322 23.566855062580998 0 23.566855062580998 9.602335957113155 0 0 0 0 18.427582677823921 18.313585431680735 0 18.313585431680735 -2.7269340175434991 0 0 0 0 11.845906319420465 26.371751077033082 0 26.371751077033082 -1.0546346724013347 0 0 0 0 0.45397904937605205 7.0454955441032183 0 7.0454955441032183 1.8412085656192012 0 0 0 0 -13.110337745765719 27.465204790262305 0 27.465204790262305 -50.208780711703639 0 0 0 0 -53.245024598974851 56.233844911507845 0 56.233844911507845 -32.260151938822048 0 0 0 0 -12.325026881133226 6.6084172447625384 0 6.6084172447625384 2.3302286892225306 0 0 0 0 -19.953468251289451 119.83840663307154 0 119.83840663307154 -399.65798710088256 0 0 0 0 -5.5002399810232134 0.63206832204761554 0 0.63206832204761554 -0.78371448370744679 0 0 0 0 -2.2826458239633212 49.929123213258151 0 49.929123213258151 -124.9331923925763 0 0 0 0 -171.29905242312816 273.89125526306907 0 273.89125526306907 -168.99320720257333 0 0 0 0 -101.14233824897383 220.57950586763297 0 220.57950586763297 -146.93741432223982 0 0 0 0 -53.697349367837887 139.11869913161877 0 139.11869913161877 -94.744790688390253 0 0 0 0 -76.183473110959312 185.78385944145015 0 185.78385944145015 -191.57946301597667 0 0 0 0 -156.99608905689092 -363.67668780568829 0 -363.67668780568829 -657.85653424173529 0 0 0 0 -165.39361002855003 132.14879290761064 0 132.14879290761064 123.09072511022123 0 0 0 0 0.15636991295002645 -0.52543513080259885 0 -0.52543513080259885 -0.40169203309309909 0 0 0 0 -73.771026490649092 -52.113547710551302 0 -52.113547710551302 -75.853801589233683 0 0 0 0 -1.3877872045740673 -0.23114621810512403 0 -0.23114621810512403 0.23762563111059043 0 0 0 0 -62.78800710667565 106.48315799846239 0 106.48315799846239 91.68912198368298 0 0 0 0 -258.56626379187219 19.752989042215631 0 19.752989042215631 -798.6834670321723 0 0 0 0 -90.96743392830831 -35.086823146203642 0 -35.086823146203642 -314.9663912215683 0 0 0 0 -339.55837200424867 -621.65870432412385 0 -621.65870432412385 -184.86674563797339 0 0 0 0 -203.00075893258327 -43.851159599511448 0 -43.851159599511448 -138.24228563616191 0 0 0 0 -76.818599928825279 -175.56973591331575 0 -175.56973591331575 148.04000448668629 0 0 0 0 -122.88645784140681 225.33331528212943 0 225.33331528212943 -127.91943182294665 0 0 0 0 -133.19850686191057 184.33454482045261 0 184.33454482045261 16.327527454613119 0 0 0 0 -140.04279994007084 186.39070158758591 0 186.39070158758591 -162.70127418914331 0 0 0 0 -173.26795427233446 317.44562595912475 0 317.44562595912475 -168.14701045531172 0 0 0 0 -161.4697034231358 263.60527089288098 0 263.60527089288098 -262.62599916781846 0 0 0 0 -332.08704267783105 420.9149076311669 0 420.9149076311669 -684.96523130180685 0 0 0 0 -815.69810990343103 3.8041331283639011 0 3.8041331283639011 -763.40784723518846 0 0 0 0 -40.558741617445776 252.87921552626653 0 252.87921552626653 -604.04750822627398 0 0 0 0 -556.35789253085386 64.591294352479053 0 64.591294352479053 -793.65593623314544 0 0 0 0 -217.78143039208953 68.919631982308601 0 68.919631982308601 124.05957819051719 0 0 0 0 -622.84710567528964 381.56878240902279 0 381.56878240902279 -152.35264253869354 0 0 0 0 -442.70968093367992 -63.898235835603373 0 -63.898235835603373 -928.32843912779026 0 0 0 0 -386.00367231012206 234.6130083920516 0 234.6130083920516 -32.935017508908459 0 0 0 0 -112.82862512166321 191.76022213072974 0 191.76022213072974 -373.94703086546178 0 0 0 0 -347.26179653438157 252.85679201276798 0 252.85679201276798 -104.97364904820552 0 0 0 0 -371.5161444117839 369.94927876871043 0 369.94927876871043 -259.77194354997846 0 0 0 0 -180.16047723683005 351.77828617002797 0 351.77828617002797 -617.32268568049949 0 0 0 0 -116.97260928613832 -31.245176506216694 0 -31.245176506216694 -781.1875427809382 0 0 0 0 -210.12755675552762 81.449160537368698 0 81.449160537368698 -929.94582840679504 0 0 0 0 -225.71563743025763 79.075465581983735 0 79.075465581983735 -560.79193506104059 0 0 0 0 -50.184534472122323 59.57160546681007 0 59.57160546681007 -373.9803889794448 0 0 0 0 74.532496913117939 247.90555278527154 0 247.90555278527154 -105.1671140283197 0 0 0 0 -130.92589684360064 -0.86702540156431951 0 -0.86702540156431951 -249.37047669711137 0 0 0 0 -67.76858115750656 307.83437204090842 0 307.83437204090842 -270.1608827433904 0 0 0 0 58.776542675812379 191.44500985634613 0 191.44500985634613 -168.64979587496236 0 0 0 0 331.81742334942101 -74.21015893445724 0 -74.21015893445724 -62.621048321654712 0 0 0 0 104.26711779477046 232.75109370670702 0 232.75109370670702 -208.40384195566912 0 0 0 0 225.99173255191999 113.37252060507899 0 113.37252060507899 -151.71332462068358 0 0 0 0 85.289682685241132 10.294253807628024 0 10.294253807628024 -89.330220149555316 0 0 0 0 213.33502343899454 129.99783765688881 0 129.99783765688881 -200.49645959426653 0 0 0 0 490.88482114128419 277.70103051306751 0 277.70103051306751 -138.97635922348127 0 0 0 0 21.494152392959222 57.927456124088508 0 57.927456124088508 -52.773872385906998 0 0 0 0 17.104379354837874 50.349547638859121 0 50.349547638859121 -46.602026502715148 0 0 0 0 182.60921599247376 -29.699398710936293 0 -29.699398710936293 -381.8489118309277 0 0 0 0 -18.143302007265447 57.347076015525317 0 57.347076015525317 145.63714046308723 0 0 0 0 17.980635895451996 43.30121210105608 0 43.30121210105608 -64.84377374149517 0 0 0 0 -85.038460150346509 20.143336647399792 0 20.143336647399792 -69.777804748303652 0 0 0 0 7.9207309815795384 1.1937223820230685 0 1.1937223820230685 0.36952825049011251 0 0 0 0 2.3770352996153292 7.690421413157857 0 7.690421413157857 -5.3494052520015973 0 0 0 0 -649.89724870568898 -422.04586923507577 0 -422.04586923507577 723.233431448999 0 0 0 0 59.051436196517898 363.35222833578837 0 363.35222833578837 428.90779018126159 0 0 0 0 621.03808328401647 474.63036297521467 0 474.63036297521467 -334.11276070562735 0 0 0 0 185.12836421110842 92.974011853460297 0 92.974011853460297 -116.91882613992902 0 0 0 0 38.645588753177435 83.27748348580235 0 83.27748348580235 17.264301588953003 0 0 0 0 -0.62515287356964677 4.4734067896396255 0 4.4734067896396255 -0.22994968197524157 0 0 0 0 32.486358412075788 29.603456138608408 0 29.603456138608408 12.854503444934977 0 0 0 0 79.936622800247278 3.767320024199762 0 3.767320024199762 -97.977358951118276 0 0 0 0 69.054917748973821 7.4809013395721422 0 7.4809013395721422 2.6742633830125726 0 0 0 0 -15.990462264599046 44.15570929925336 0 44.15570929925336 14.028914359958661 0 0 0 0 78.345572341204388 11.500298859637496 0 11.500298859637496 1.530838721958844 0 0 0 0 -45.967615388246486 3.5375826545937343 0 3.5375826545937343 38.826027364362517 0 0 0 0 13.232907798404142 19.786995526281387 0 19.786995526281387 -7.9292651529501077 0 0 0 0 26.838764426560374 35.05247863766408 0 35.05247863766408 -19.790321888664948 0 0 0 0 -0.32136992679016885 37.678775762444225 0 37.678775762444225 -6.0051259376778976 0 0 0 0 -44.287810917456227 77.304135099258303 0 77.304135099258303 -12.893342616269479 0 0 0 0 47.373072081754799 39.711936298761657 0 39.711936298761657 -24.144936058882195 0 0 0 0 40.823002177605233 32.111786875053184 0 32.111786875053184 1.3673606964949929 0 0 0 0 -50.478002455315618 9.8382337270888414 0 9.8382337270888414 18.489676709627929 0 0 0 0 -0.67158354262937792 -16.515013878393376 0 -16.515013878393376 14.437581426656038 0 0 0 0 82.759032840651344 -35.906636740677669 0 -35.906636740677669 -15.238947615832075 0 0 0 0 4.2592730457574106 9.5355738722174408 0 9.5355738722174408 4.5491538702388024 0 0 0 0 23.080469082997297 46.531725801006075 0 46.531725801006075 -39.797806093533154 0 0 0 0 2.0096357526159352 2.4100665181212406 0 2.4100665181212406 2.6608119825641769 0 0 0 0 -49.304982957954053 -65.745663948567085 0 -65.745663948567085 274.67099039743687 0 0 0 0 212.498359649544 2.0310223026543781 0 2.0310223026543781 -16.123676981990169 0 0 0 0 259.76335632716655 144.32397826529029 0 144.32397826529029 23.175085349004995 0 0 0 0 -47.725529238610761 26.215821515612419 0 26.215821515612419 47.513278133713001 0 0 0 0 5.8200421463625389 180.31780361357551 0 180.31780361357551 380.45066801404653 0 0 0 0 53.580974767290172 56.611914900516012 0 56.611914900516012 13.299146764493912 0 0 0 0 36.962635258774753 114.25019400088992 0 114.25019400088992 22.181363954272797 0 0 0 0 105.21102335507749 85.051553138016743 0 85.051553138016743 15.665792662857257 0 0 0 0 162.01552275581344 22.486365070882812 0 22.486365070882812 -26.154277748285722 0 0 0 0 80.260360988941102 12.583095586415283 0 12.583095586415283 -20.342675653392689 0 0 0 0 76.620706316462019 52.735921301489611 0 52.735921301489611 12.051471548617315 0 0 0 0 86.141561900934903 25.455011518914944 0 25.455011518914944 0.094110352563347988 0 0 0 0 -18.460607582226658 62.242010493765633 0 62.242010493765633 37.810844836550359 0 0 0 0 -17.702786258718788 87.97106175628906 0 87.97106175628906 19.567956859230662 0 0 0 0 41.186014561157208 19.360308747426643 0 19.360308747426643 68.341998982301334 0 0 0 0 69.259775713348063 11.353582651616954 0 11.353582651616954 16.876211829728163 0 0 0 0 -105.97172525899805 141.80891610595717 0 141.80891610595717 20.611310324700867 0 0 0 0 -77.676071715293801 150.96919632748677 0 150.96919632748677 -32.569439697093259 0 0 0 0 -154.24104526999872 199.79783722585739 0 199.79783722585739 -11.911804394067758 0 0 0 0 -85.247222417325247 109.96480366274886 0 109.96480366274886 39.945318492585216 0 0 0 0 -49.42564355682407 116.87176173271379 0 116.87176173271379 -32.303566241950612 0 0 0 0 -3.5904667521535885 44.409078029630024 0 44.409078029630024 -6.461213618739734 0 0 0 0 -47.963626744895009 91.946916844525049 0 91.946916844525049 90.551595506609942 0 0 0 0 -28.992162904243742 24.876823843273655 0 24.876823843273655 31.115666764423338 0 0 0 0 27.993653978774091 -14.968241630152647 0 -14.968241630152647 -21.383417418378144 0 0 0 0 75.556499359336158 32.906336413865056 0 32.906336413865056 -165.84023141182979 0 0 0 0 -128.75915615059057 118.83681225667124 0 118.83681225667124 -81.182568422275949 0 0 0 0 -170.91243513643349 -429.01309799586113 0 -429.01309799586113 251.72824061854396 0 0 0 0 264.33478948109041 601.24645893385866 0 601.24645893385866 328.90144480738991 0 0 0 0 38.962212141952477 5.1957190892314884 0 5.1957190892314884 -323.88862658416735 0 0 0 0 -60.665391613176325 64.391200904039351 0 64.391200904039351 45.848938728042114 0 0 0 0 8.1006566655430774 -1.2942990470254045 0 -1.2942990470254045 -4.1426049203220519 0 0 0 0 41.686556349601233 6.1366927086503722 0 6.1366927086503722 -7.0981272039430205 0 0 0 0 -6.8519268054806162 40.76660173131404 0 40.76660173131404 -16.509470477129184 0 0 0 0 13.856346412473613 16.73882278185414 0 16.73882278185414 0.83705262797209357 0 0 0 0 -8.4589442093238176 14.745331338596429 0 14.745331338596429 -37.65210890504693 0 0 0 0 130.36418083114404 70.312721729592795 0 70.312721729592795 -112.91801538789508 0 0 0 0 8.5793983639741782 24.008023267176441 0 24.008023267176441 -15.894770760027313 0 0 0 0 29.021458833914949 68.990660056146226 0 68.990660056146226 -24.514157204845588 0 0 0 0 10.654118164813553 -3.6294585641975345 0 -3.6294585641975345 -24.802256867244068 0 0 0 0 18.265864174549449 9.6240075384299857 0 9.6240075384299857 -1.6886060567960626 0 0 0 0 0.93045948099461384 30.074866432639283 0 30.074866432639283 -24.283833186088486 0 0 0 0 7.0494050846150742 23.50137715533624 0 23.50137715533624 -13.056760672797282 0 0 0 0 3.4918343611169576 13.571709628221051 0 13.571709628221051 0.92032905433483592 0 0 0 0 13.150342968839539 8.8646408170206854 0 8.8646408170206854 -8.0398083882578213 0 0 0 0 -4.7370895437998115 6.9730918231698951 0 6.9730918231698951 -1.4474629984345819 0 0 0 0 12.954397856228752 30.426894563076914 0 30.426894563076914 -35.873270747540445 0 0 0 0 5.9150535033040796 21.94496337246369 0 21.94496337246369 -10.114906023847652 0 0 0 0 -27.627936566923381 6.1208656180121999 0 6.1208656180121999 18.004392270714334 0 0 0 0 35.792437992452889 11.934984156490302 0 11.934984156490302 -8.9508971034320233 0 0 0 0 -8.6775786379876081 17.592610729893977 0 17.592610729893977 -7.8599276605709747 0 0 0 0 10.891897107300053 12.472130317710281 0 12.472130317710281 -2.5705493566990238 0 0 0 0 -9.9185180724826694 21.24363475391889 0 21.24363475391889 -6.1036050340287034 0 0 0 0 -8.1677629213954788 21.076611022965807 0 21.076611022965807 -29.776613411556582 0 0 0 0 5.4473065547645092 28.549972239291719 0 28.549972239291719 -26.723044138885029 0 0 0 0 7.5455777536262758 12.935354112238201 0 12.935354112238201 -8.6116789910010993 0 0 0 0 6.9998671942448709 11.430553738052822 0 11.430553738052822 -11.622019005886386 0 0 0 0 -11.639921667039744 24.692412830595799 0 24.692412830595799 -23.33996484132922 0 0 0 0 8.6686627495332829 11.330271469418861 0 11.330271469418861 -14.555437608157892 0 0 0 0 -21.37373931647744 16.411370346853801 0 16.411370346853801 -29.862451200817304 0 0 0 0 2.3699068559387939 -0.81246022133881013 0 -0.81246022133881013 -0.65685648898453053 0 0 0 0 14.839849193114787 22.533507996643493 0 22.533507996643493 -3.0413374399358872 0 0 0 0 14.420816578050285 25.617873188673556 0 25.617873188673556 -24.656514498194014 0 0 0 0 -10.399297677446157 25.316224503005174 0 25.316224503005174 -25.474918753754082 0 0 0 0 2.7945936009055004 3.3172813163014325 0 3.3172813163014325 20.380878678715817 0 0 0 0 -10.805850292920269 18.163660702026519 0 18.163660702026519 6.583266749063867 0 0 0 0 2.5801622439466882 21.078230100547444 0 21.078230100547444 1.1583030541369226 0 0 0 0 -20.571746848717737 20.406005312040506 0 20.406005312040506 0.89956229051677639 0 0 0 0 -7.4248129443703306 17.17542926467172 0 17.17542926467172 -2.9201624007791374 0 0 0 0 -3.68751775000419 23.578732562861546 0 23.578732562861546 5.6436400422480801 0 0 0 0 -3.5337125196855936 15.486929019888741 0 15.486929019888741 -3.7279129133469908 0 0 0 0 9.9983274195546983 10.789677630815277 0 10.789677630815277 -12.820392175132838 0 0 0 0 -3.1268671025900403 21.983823993457918 0 21.983823993457918 10.386852044696752 0 0 0 0 10.714071736257267 9.0339225678454564 0 9.0339225678454564 -16.417519595106089 0 0 0 0 12.199728661347763 19.204243879870774 0 19.204243879870774 -42.16552101837442 0 0 0 0 11.871553526842035 17.334998465749777 0 17.334998465749777 -29.764295388857136 0 0 0 0 0.46097913824797843 0.93081260629847407 0 0.93081260629847407 1.8575295001257706 0 0 0 0 -0.026874949110634816 15.45568892350164 0 15.45568892350164 -2.789086373193248 0 0 0 0 -0.57660014875000343 18.102312651550164 0 18.102312651550164 11.627746425983787 0 0 0 0 15.297632253822485 16.676063443627953 0 16.676063443627953 -16.415782305253742 0 0 0 0 -12.468035617710456 19.146050284867343 0 19.146050284867343 -4.8295342319360559 0 0 0 0 -13.804585196357948 26.188365720625939 0 26.188365720625939 10.628746475184926 0 0 0 0 -23.642559229308972 25.854016087406762 0 25.854016087406762 13.442912076600578 0 0 0 0 31.737510981503874 30.378977319950536 0 30.378977319950536 -100.48994838616159 0 0 0 0 0.77569390285188433 19.405075139211018 0 19.405075139211018 -5.6343152979163573 0 0 0 0 29.402185236249352 49.36309483997502 0 49.36309483997502 -35.166470562222003 0 0 0 0 6.9979586300323717 29.753492401981759 0 29.753492401981759 -27.999233647495203 0 0 0 0 0.4642756714602001 29.606172030560629 0 29.606172030560629 -23.838705132557635 0 0 0 0 -2.0997640380228404 41.803851086054095 0 41.803851086054095 -16.483294326177202 0 0 0 0 5.324674203293398 28.986214624681679 0 28.986214624681679 -27.906033813666681 0 0 0 0 25.436160533950897 40.873589222120771 0 40.873589222120771 -29.546713155397043 0 0 0 0 24.888263717846712 54.513090502188007 0 54.513090502188007 -20.039825961047391 0 0 0 0 -4.5892878041922813 51.641221644134724 0 51.641221644134724 29.986101859101041 0 0 0 0 -6.009838884594501 82.332396317467214 0 82.332396317467214 12.225846858811209 0 0 0 0 -116.96519219805487 26.843152858589804 0 26.843152858589804 14.143655654717122 0 0 0 0 44.918139947330928 75.196244427003307 0 75.196244427003307 12.848071949172606 0 0 0 0 37.610196427733172 64.739789837218041 0 64.739789837218041 -19.30338384521383 0 0 0 0 28.682465532037895 49.186619113958557 0 49.186619113958557 -21.998832461558322 0 0 0 0 75.504005104819953 59.73250819307691 0 59.73250819307691 -21.940509325793073 0 0 0 0 20.435808025971994 20.440064322936706 0 20.440064322936706 4.5623583037365414 0 0 0 0 -18.586649310978828 37.63921016348695 0 37.63921016348695 -16.383192969087304 0 0 0 0 33.315821685449919 30.255171183429184 0 30.255171183429184 21.537784699366568 0 0 0 0 59.563920380736818 54.460898973357359 0 54.460898973357359 -57.940410536318268 0 0 0 0 4.4569480777718127 92.493500363891144 0 92.493500363891144 -45.309303697333917 0 0 0 0 28.672451938161316 11.907605941989289 0 11.907605941989289 -0.014601410887660649 0 0 0 0 21.932119871242321 48.355247877956742 0 48.355247877956742 -31.63962957658714 0 0 0 0 77.985430681612343 63.6086567039697 0 63.6086567039697 -67.711997951209014 0 0 0 0 -109.89021338589373 240.75619137359212 0 240.75619137359212 106.04672075593078 0 0 0 0 46.175741855574046 30.166221486246513 0 30.166221486246513 5.2618172990968137 0 0 0 0 31.049363504396752 84.228271901112748 0 84.228271901112748 -20.221481131826295 0 0 0 0 47.411099593198742 80.715477344531791 0 80.715477344531791 -17.698312932899171 0 0 0 0 -19.235514244548227 4.8041666705545509 0 4.8041666705545509 11.226165457590968 0 0 0 0 71.51929345667304 131.3268615195899 0 131.3268615195899 -182.29822280056652 0 0 0 0 48.509210378779244 60.348277846978675 0 60.348277846978675 -20.648546577813249 0 0 0 0 50.042300426735892 63.904834419699682 0 63.904834419699682 -29.996795185275687 0 0 0 0 37.380848556989804 69.063291471432194 0 69.063291471432194 -16.316180601244014 0 0 0 0 21.338679912645603 78.819382748311909 0 78.819382748311909 -15.417779807951774 0 0 0 0 19.018763256040984 63.242849129778335 0 63.242849129778335 -16.952272929954233 0 0 0 0 69.444649084834964 55.377375549857561 0 55.377375549857561 -30.01368417056915 0 0 0 0 36.49604555577389 47.927909398514089 0 47.927909398514089 -28.501786024320154 0 0 0 0 53.816200433589984 34.970504573481549 0 34.970504573481549 -32.61148637468068 0 0 0 0 69.610177215520878 31.268407576170198 0 31.268407576170198 -36.498074721195508 0 0 0 0 0.70278447520465193 9.5193598622409326 0 9.5193598622409326 -32.769298956785178 0 0 0 0 23.064642501529306 4.9569097420285289 0 4.9569097420285289 -76.602733049738163 0 0 0 0 80.281052270169312 17.094355105443924 0 17.094355105443924 6.4454253471491256 0 0 0 0 -66.464195959561039 105.01505883217686 0 105.01505883217686 -95.525083252177865 0 0 0 0 -0.9210833602755244 4.0496974246207742 0 4.0496974246207742 -19.267406916618054 0 0 0 0 121.31869689928135 34.812197599488357 0 34.812197599488357 -36.647368246273871 0 0 0 0 79.064353140020103 66.405019072785166 0 66.405019072785166 -13.74119471239419 0 0 0 0 212.72876990617078 122.41785409114971 0 122.41785409114971 57.59469981129655 0 0 0 0 1.1888485430417575 -1.0477313904339951 0 -1.0477313904339951 -0.94990295043656148 0 0 0 0 308.98890528015909 174.8723618986603 0 174.8723618986603 25.214150892403239 0 0 0 0 213.13693674995375 22.945662605295112 0 22.945662605295112 -51.939863920095831 0 0 0 0 82.591614746695996 16.01123018575737 0 16.01123018575737 159.14678389473193 0 0 0 0 -241.50154580592061 78.773186715214479 0 78.773186715214479 -29.359195657729288 0 0 0 0 -0.7594489918195606 2.1385546793547974 0 2.1385546793547974 -5.8092384021925998 0 0 0 0 -736.54541969712591 357.47519142766498 0 357.47519142766498 171.37697725881867 0 0 0 0 8.3588572136856101 3.7604813301783118 0 3.7604813301783118 -4.5588005889750569 0 0 0 0 -774.64422026190732 426.94997191520156 0 426.94997191520156 353.32829438419071 0 0 0 0 399.02011811727425 570.17653247345311 0 570.17653247345311 -365.09211536048315 0 0 0 0 -2.5366018281235085 3.8242002509726518 0 3.8242002509726518 3.59838740550728 0 0 0 0 430.60261984762474 86.66615231593687 0 86.66615231593687 53.914027786469887 0 0 0 0 258.97179514614982 -48.843378783448316 0 -48.843378783448316 150.38956492200128 0 0 0 0 66.513172353341588 40.747209921502545 0 40.747209921502545 142.37536759538466 0 0 0 0 0.04381638094491791 94.960234996358082 0 94.960234996358082 160.11222879907541 0 0 0 0 64.803185217779173 200.58349773148885 0 200.58349773148885 276.12444780646001 0 0 0 0 0.36806399046241722 -1.9538480140314274 0 -1.9538480140314274 1.0628523218654156 0 0 0 0 -31.064134027285036 16.168601493615142 0 16.168601493615142 668.50192385583 0 0 0 0 320.68185821815678 -188.19557954347624 0 -188.19557954347624 227.62205819519841 0 0 0 0 45.289228663619724 212.98272691551983 0 212.98272691551983 -41.647721284815816 0 0 0 0 127.85944401637244 -10.631641443229 0 -10.631641443229 142.90242811809298 0 0 0 0 33.264456870499998 152.88307796655681 0 152.88307796655681 -29.362757100141607 0 0 0 0 -19.387728480345686 107.66375834918017 0 107.66375834918017 -68.023051171490351 0 0 0 0 -21.86080816827598 123.65142891584628 0 123.65142891584628 -91.044923780036243 0 0 0 0 80.101811077121965 46.198107106310545 0 46.198107106310545 -2.0343630584138737 0 0 0 0 43.539147961972049 147.02954011325642 0 147.02954011325642 -199.95031860962081 0 0 0 0 -0.044311139106866904 152.28679953966139 0 152.28679953966139 -89.046825959911985 0 0 0 0 5.2409329791435084 7.156704644565167 0 7.156704644565167 -303.12859191513417 0 0 0 0 7.5927070641482715 33.940251700873432 0 33.940251700873432 -42.935545444594482 0 0 0 0 -2.1988570558751519 -0.91826362782556714 0 -0.91826362782556714 1.6357828860138746 0 0 0 0 -61.743265130397049 83.219671761442441 0 83.219671761442441 192.71520793325908 0 0 0 0 7.219055031579046 93.839553452944983 0 93.839553452944983 87.955112563427974 0 0 0 0 0.17198891496082069 106.08280773159368 0 106.08280773159368 71.490018684671668 0 0 0 0 65.51006546523422 103.86159996003789 0 103.86159996003789 38.432278308659079 0 0 0 0 8.9497479589044815 68.356113834478492 0 68.356113834478492 33.60018588911953 0 0 0 0 -0.21203032109042397 112.77795059173695 0 112.77795059173695 -52.01214601398533 0 0 0 0 1.4369068865707959 111.64942391572777 0 111.64942391572777 60.813555058317434 0 0 0 0 50.271214336855337 103.29759675016066 0 103.29759675016066 22.762730867380014 0 0 0 0 78.1038908460323 103.19860630237508 0 103.19860630237508 -55.5285773280375 0 0 0 0 60.276294304261683 92.822338802819104 0 92.822338802819104 -39.259163378143057 0 0 0 0 59.804927044533542 63.400978893035244 0 63.400978893035244 49.349427037870555 0 0 0 0 153.22692946204916 -10.259979022276639 0 -10.259979022276639 -207.34432050109262 0 0 0 0 33.307798782319878 147.85080057069194 0 147.85080057069194 173.25150037501226 0 0 0 0 -2.1965555984841387 -1.3833072660765708 0 -1.3833072660765708 1.6802209213922996 0 0 0 0 0.28623583793864782 0.56145754101862622 0 0.56145754101862622 -4.2997472984216003 0 0 0 0 -19.403734042934957 58.93868834799332 0 58.93868834799332 6.2380924530880293 0 0 0 0 32.257323060533963 -5.9774604938229459 0 -5.9774604938229459 -24.965301374526007 0 0 0 0 1.2600090231414072 3.4007888111309086 0 3.4007888111309086 -2.2791565735918873 0 0 0 0 23.217761193343904 35.239722407963654 0 35.239722407963654 -11.942633382950589 0 0 0 0 52.105370278244663 33.384070975100997 0 33.384070975100997 -33.998794421726416 0 0 0 0 30.703727300909691 17.630292612860167 0 17.630292612860167 -26.877233698301463 0 0 0 0 2.763995547804889 16.002433877239255 0 16.002433877239255 -9.1942870772398351 0 0 0 0 29.447528858796431 28.341996784508581 0 28.341996784508581 -13.478062224337918 0 0 0 0 14.465594312957563 24.954968265766851 0 24.954968265766851 -21.013941108801916 0 0 0 0 2.0842072429457517 19.478248830933268 0 19.478248830933268 -18.340654388551403 0 0 0 0 6.4162834944145288 35.489675317894353 0 35.489675317894353 -22.962886778920392 0 0 0 0 68.773205243225675 81.437797311358736 0 81.437797311358736 28.769484447790092 0 0 0 0 52.187828420195729 38.059162478214603 0 38.059162478214603 -16.919126868913736 0 0 0 0 67.337413367400586 85.819050772884566 0 85.819050772884566 17.528438158529752 0 0 0 0 76.261445710246335 68.788161215850778 0 68.788161215850778 22.031433897625902 0 0 0 0 75.802609481586842 71.37406819539865 0 71.37406819539865 8.3940215672810155 0 0 0 0 103.44010023860756 33.890221141603888 0 33.890221141603888 -45.522922714249944 0 0 0 0 212.78210794088955 -17.43668656213049 0 -17.43668656213049 -48.473651311363369 0 0 0 0 133.9388256433449 73.42893069484353 0 73.42893069484353 -67.895551913927193 0 0 0 0 16.476767699245556 22.146538928262821 0 22.146538928262821 -14.991711639191147 0 0 0 0 -51.513879159796488 83.067472123883647 0 83.067472123883647 -62.602213459908398 0 0 0 0 -12.761731168022379 61.644889939256046 0 61.644889939256046 -64.003807650916571 0 0 0 0 -36.930432617235056 59.171160178590469 0 59.171160178590469 -26.927280520883244 0 0 0 0 11.900760342580213 21.252186616165979 0 21.252186616165979 -8.1904354164881301 0 0 0 0 -58.184115941357959 43.701855640068288 0 43.701855640068288 -95.092739354706282 0 0 0 0 11.101510157219167 43.924420674272454 0 43.924420674272454 -49.082444243026146 0 0 0 0 26.977297167829676 10.135778011451757 0 10.135778011451757 -12.16413660216182 0 0 0 0 165.84278524047113 78.989851040209032 0 78.989851040209032 -104.47333884561704 0 0 0 0 171.6958428105354 93.93613603235417 0 93.93613603235417 -104.30600405941004 0 0 0 0 -9.6273943628892766 9.7121414297280779 0 9.7121414297280779 -7.4648598103891288 0 0 0 0 -25.368375036543512 -68.295267887356999 0 -68.295267887356999 -159.73488460704903 0 0 0 0 -34.500875841840752 26.868709504344224 0 26.868709504344224 -27.328846840564438 0 0 0 0 -9.7667081160325324 -2.4318997027057776 0 -2.4318997027057776 -88.653007053017063 0 0 0 0 -1.4027194612548897 0.44844272286951536 0 0.44844272286951536 -2.4121740792698816 0 0 0 0 0.006900705091538839 6.7600954032423033 0 6.7600954032423033 -20.995154866501252 0 0 0 0 14.589865579255274 -10.773466128094697 0 -10.773466128094697 -44.743898727239866 0 0 0 0 -14.414428384356142 22.875734231938623 0 22.875734231938623 24.682189073069821 0 0 0 0 -2.6742675298345659 -0.42142043871093904 0 -0.42142043871093904 1.5830520854000909 0 0 0 0 -40.392943101511264 -127.57968262847248 0 -127.57968262847248 -342.95478483337865 0 0 0 0 34.364853997863975 78.543035121007961 0 78.543035121007961 -244.47781876918452 0 0 0 0 9.8936479383701226 107.51156665438657 0 107.51156665438657 -42.974481298540923 0 0 0 0 58.660754273063503 92.649976920886729 0 92.649976920886729 -57.047268295778849 0 0 0 0 60.660846470345859 53.781785476216101 0 53.781785476216101 -184.96056813364157 0 0 0 0 -59.375079281315266 56.916203803117241 0 56.916203803117241 26.937352558536077 0 0 0 0 -57.154659305349924 17.182034631536226 0 17.182034631536226 60.948470261519105 0 0 0 0 -47.719666844870517 102.84950514428056 0 102.84950514428056 121.63199236455512 0 0 0 0 -6.4278329863918771 2.9573295277368743 0 2.9573295277368743 85.274080814799163 0 0 0 0 -4.5010860670140431 -0.39812149279728715 0 -0.39812149279728715 2.3432568131900524 0 0 0 0 -156.16942441109495 -59.767036445515259 0 -59.767036445515259 -12.626646071643336 0 0 0 0 -235.52557520572373 81.365680480641458 0 81.365680480641458 23.32904250048523 0 0 0 0 -76.339940588746686 68.608813790440763 0 68.608813790440763 24.107145839807345 0 0 0 0 -125.7052188707994 -18.558681926908321 0 -18.558681926908321 44.803249473043252 0 0 0 0 -33.884191535136779 -24.341223496376188 0 -24.341223496376188 -4.3561645738027437 0 0 0 0 48.191782039682948 -8.6676196037842601 0 -8.6676196037842601 10.134897368821839 0 0 0 0 -19.138917651900556 17.204198988853022 0 17.204198988853022 10.110356369143119 0 0 0 0 -4.0535051128352038 3.4933048598686298 0 3.4933048598686298 1.484747948912684 0 0 0 0 -8.9801144999310054 4.2454468097239442 0 4.2454468097239442 11.405822353000985 0 0 0 0 19.709250872670054 38.129745564539917 0 38.129745564539917 -6.38640427160135 0 0 0 0 -4.0899295425861055 17.296319056495122 0 17.296319056495122 15.321993499746895 0 0 0 0 196.71726121958272 687.36888139737493 0 687.36888139737493 622.70184376002726 0 0 0 0 -1.4294282584906384 5.8680971147448417 0 5.8680971147448417 -1.7360650680286369 0 0 0 0 5.9391298435449613 9.1624514643488002 0 9.1624514643488002 9.0649024997769061 0 0 0 0 8.7715352156514435 14.81096260805594 0 14.81096260805594 1.2693484199753868 0 0 0 0 -15.30453857952125 19.836414518678794 0 19.836414518678794 3.7933151136057859 0 0 0 0 8.4008778748105044 -0.56543519123026442 0 -0.56543519123026442 2.1319239575785502 0 0 0 0 1277.5371784990421 554.41394741284239 0 554.41394741284239 -360.17972168314736 0 0 0 0 -16.568882534913428 14.765355173120042 0 14.765355173120042 10.155551626736724 0 0 0 0 9.6297708069887449 11.591766429821291 0 11.591766429821291 -2.8895668499171734 0 0 0 0 17.114204843883776 21.369580841715567 0 21.369580841715567 -0.78277603891547187 0 0 0 0 -15.329251700495661 22.154609463566885 0 22.154609463566885 7.2227239036365063 0 0 0 0 -40.575376715776656 8.627454688110447 0 8.627454688110447 11.258389034523134 0 0 0 0 -27.483566635546595 20.269404229900829 0 20.269404229900829 7.890513902726525 0 0 0 0 -1.7048495230155822 17.362034018286067 0 17.362034018286067 -19.263728504147366 0 0 0 0 -23.253622522319347 31.547789231824936 0 31.547789231824936 -3.8541407880402403 0 0 0 0 6.9060884449465441 11.443654263448213 0 11.443654263448213 -6.8219927975541168 0 0 0 0 27.395781660503417 11.172223786825271 0 11.172223786825271 -11.231369062843441 0 0 0 0 -14.795477456209483 33.191933726153366 0 33.191933726153366 -4.1601230678206775 0 0 0 0 14.723668340739096 26.308769587618372 0 26.308769587618372 -22.323213999916334 0 0 0 0 3.0663665047339776 3.0028550169581436 0 3.0028550169581436 1.3643316011913669 0 0 0 0 8.6686957391357282 34.586279666915289 0 34.586279666915289 -0.19235319691506447 0 0 0 0 -15.56775838609078 16.375798762218103 0 16.375798762218103 9.9601347449253552 0 0 0 0 10.389664592990812 36.9387788768272 0 36.9387788768272 -15.394217667540943 0 0 0 0 30.942879346804148 94.190122386688017 0 94.190122386688017 247.78439959809839 0 0 0 0 12.999112714505827 25.718765553574485 0 25.718765553574485 -9.9276226055444567 0 0 0 0 31.963561126616696 116.98917335507576 0 116.98917335507576 11.024329505729838 0 0 0 0 6.2526142687329411 21.54896080969047 0 21.54896080969047 -69.631065439745726 0 0 0 0 -19.290367969690124 15.706745317322202 0 15.706745317322202 50.169863179937238 0 0 0 0 0.69971893173346444 1.5740100256051104 0 1.5740100256051104 -1.2464511980574855 0 0 0 0 33.451494044798892 44.879497191512201 0 44.879497191512201 105.57474086046568 0 0 0 0 1.4556620748590774 -1.5317184005215836 0 -1.5317184005215836 -1.4738074014853026 0 0 0 0 18.641777753600763 140.80808092276857 0 140.80808092276857 215.63381994769225 0 0 0 0 82.9704941982327 91.663189409769984 0 91.663189409769984 46.468397559125151 0 0 0 0 14.393773750667606 55.078673938525753 0 55.078673938525753 -28.749578636292426 0 0 0 0 -19.288713708052001 41.720224835487898 0 41.720224835487898 1.4415592289442429 0 0 0 0 107.09476839528179 138.21374856921284 0 138.21374856921284 -51.800485618645325 0 0 0 0 27.867995744473774 9.7114333449458172 0 9.7114333449458172 -196.57681684369891 0 0 0 0 39.869579201302258 154.45377775076486 0 154.45377775076486 287.99439420066847 0 0 0 0 -0.88681737270040628 -2.5336309914330144 0 -2.5336309914330144 1.6623404695679156 0 0 0 0 97.161877662070765 71.844520923594246 0 71.844520923594246 -19.99097491898101 0 0 0 0 8.703122649712336 32.02844380443598 0 32.02844380443598 21.357613710883754 0 0 0 0 -19.979345842748899 56.028342640453047 0 56.028342640453047 -7.4718900449915964 0 0 0 0 6.450045361430222 40.320838366239293 0 40.320838366239293 -6.7687257101702158 0 0 0 0 101.22012191361227 92.001577752067533 0 92.001577752067533 -70.533128267874417 0 0 0 0 -58.850880843867344 82.64258324196453 0 82.64258324196453 55.678185288365057 0 0 0 0 12.132574097485303 59.113237043087793 0 59.113237043087793 10.449502425646642 0 0 0 0 2.1580821131638004 51.480364922486842 0 51.480364922486842 21.795524826786277 0 0 0 0 1.2968758238394003 47.686150016881584 0 47.686150016881584 11.393237130963826 0 0 0 0 2.3964443688082611 44.486646794752232 0 44.486646794752232 -2.9972468010018929 0 0 0 0 -22.67250157487274 35.955502563156188 0 35.955502563156188 168.82768056501664 0 0 0 0 19.657154336592768 29.538333015410373 0 29.538333015410373 19.489435143125064 0 0 0 0 -16.717167291799797 219.99051153116307 0 219.99051153116307 49.132396660417726 0 0 0 0 34.088666723733127 -4.8248626486565627 0 -4.8248626486565627 -260.88674051372436 0 0 0 0 -3.6116197461185071 1.7332109691759001 0 1.7332109691759001 -0.77670149595534355 0 0 0 0 158.57021921727119 37.819173546253296 0 37.819173546253296 -493.04112783971505 0 0 0 0 -68.983063222659894 31.363976723900123 0 31.363976723900123 136.39423334133971 0 0 0 0 -158.50321468999093 -201.18669842307281 0 -201.18669842307281 135.61105072638748 0 0 0 0 80.400152699223099 279.65675163034393 0 279.65675163034393 -288.58393588764739 0 0 0 0 -122.70804410324865 78.185625545964285 0 78.185625545964285 113.84437635049107 0 0 0 0 -32.374771260634589 51.134445776966459 0 51.134445776966459 112.69930625966003 0 0 0 0 -30.098143850292445 53.918206452872255 0 53.918206452872255 71.606227978525567 0 0 0 0 25.617695539455212 25.27261372504654 0 25.27261372504654 86.309033199882833 0 0 0 0 -6.2630157338250001 9.8395079206516129 0 9.8395079206516129 2.5560929318778776 0 0 0 0 -32.382427852528053 97.211167926765484 0 97.211167926765484 155.12481956593911 0 0 0 0 1.2113797579617014 216.12891969652082 0 216.12891969652082 -86.707403647720639 0 0 0 0 2.635695664494075 46.694821489454554 0 46.694821489454554 30.296488496578064 0 0 0 0 166.31826272299514 69.843209857186594 0 69.843209857186594 9.7297471515703364 0 0 0 0 -22.837444996442059 116.42629237441361 0 116.42629237441361 28.54473254145887 0 0 0 0 57.711711944335548 70.105196320582763 0 70.105196320582763 -16.58649472575371 0 0 0 0 118.73283277265455 152.98302675137256 0 152.98302675137256 -19.966063379393745 0 0 0 0 132.35607600598212 76.833743432368806 0 76.833743432368806 -58.557492940053635 0 0 0 0 3.1152438180646662 42.586171009895828 0 42.586171009895828 21.32902971135897 0 0 0 0 39.389745818742398 77.529720448583248 0 77.529720448583248 28.998686887454824 0 0 0 0 -20.290819370997056 47.873864406226858 0 47.873864406226858 32.118946677219355 0 0 0 0 -17.553659922138081 52.331275134336465 0 52.331275134336465 17.965560284887033 0 0 0 0 3.2876028502608285 42.841537864896331 0 42.841537864896331 12.780390504815358 0 0 0 0 47.77601726233479 11.353248740640993 0 11.353248740640993 30.451810584003397 0 0 0 0 112.13822284757043 -4.5751765195891494 0 -4.5751765195891494 -7.2275377331534401 0 0 0 0 -5.323775730262696 40.280324799132359 0 40.280324799132359 64.079167859830704 0 0 0 0 -19.774285552298807 55.197970701432496 0 55.197970701432496 56.063433795690798 0 0 0 0 -37.86872219046694 74.623700649884995 0 74.623700649884995 68.961387867901067 0 0 0 0 -15.703753715172752 60.827259632089408 0 60.827259632089408 34.72535850454733 0 0 0 0 -14.246063824357179 59.495363466359777 0 59.495363466359777 36.183571149864292 0 0 0 0 -11.652031593719585 57.070184720920224 0 57.070184720920224 35.241917890229161 0 0 0 0 -6.3585040032279494 69.517164832343042 0 69.517164832343042 9.9928941661928548 0 0 0 0 -31.92819740942079 55.045037538540782 0 55.045037538540782 33.397035905945813 0 0 0 0 -22.846817919885893 72.857684943734057 0 72.857684943734057 17.411261214783735 0 0 0 0 -9.9185773019867156 59.775861128346151 0 59.775861128346151 -4.1748811953802942 0 0 0 0 -26.208280687231991 45.944576297888489 0 45.944576297888489 20.060751857607102 0 0 0 0 0.48464491582490155 74.424783304537414 0 74.424783304537414 13.377021978223638 0 0 0 0 8.3323552984237494 8.6495655020817424 0 8.6495655020817424 2.1766091952926843 0 0 0 0 19.244468861901623 21.490949763894605 0 21.490949763894605 -25.85644999066426 0 0 0 0 54.364714152181477 14.912833249625692 0 14.912833249625692 37.365033934962412 0 0 0 0 4.6484682979875096 11.725774012366713 0 11.725774012366713 1.6788973650602657 0 0 0 0 -27.448506772988253 49.383183993239072 0 49.383183993239072 39.106488313076625 0 0 0 0 -12.991042927009557 71.702913917699334 0 71.702913917699334 -22.792593530248269 0 0 0 0 38.534960706047904 29.068659713502711 0 29.068659713502711 2.4133374216871744 0 0 0 0 -18.907849105901278 76.809047368218899 0 76.809047368218899 83.466464108598302 0 0 0 0 3.5512457674811531 38.806334387211905 0 38.806334387211905 3.2849445289046173 0 0 0 0 -14.339411289107375 21.253005444312294 0 21.253005444312294 215.86563460883553 0 0 0 0 157.25605302166696 209.27773224038901 0 209.27773224038901 120.84767856210237 0 0 0 0 -58.181727886951194 257.3675790066809 0 257.3675790066809 151.14868358005333 0 0 0 0 3.8091673405057023 1.3808897224438041 0 1.3808897224438041 -1.1513449269333478 0 0 0 0 165.62195233065358 140.98845296647778 0 140.98845296647778 76.442789384956995 0 0 0 0 0.18630385105343805 -3.0275591333900991 0 -3.0275591333900991 1.1602841251695608 0 0 0 0 46.025255010950787 179.84974139751284 0 179.84974139751284 144.98150157583586 0 0 0 0 145.38777512914385 217.22131371715659 0 217.22131371715659 158.39993711599527 0 0 0 0 233.4003559134544 158.20641839054952 0 158.20641839054952 80.477659506417695 0 0 0 0 40.033793309343309 37.650676415785711 0 37.650676415785711 -46.599600230974829 0 0 0 0 11.529661839831533 -31.424207180980375 0 -31.424207180980375 -4.2756297242376604 0 0 0 0 -160.41100661603923 101.83043926546088 0 101.83043926546088 -77.846633495157675 0 0 0 0 -30.742934816607885 -5.4727405139856273 0 -5.4727405139856273 91.325153319992751 0 0 0 0 44.562018948141485 -54.508110646544083 0 -54.508110646544083 -55.723774445752497 0 0 0 0 107.65007494286056 135.12364817712296 0 135.12364817712296 -325.74539036559872 0 0 0 0 -181.47253076231573 225.11013372389425 0 225.11013372389425 -128.18499168426206 0 0 0 0 -60.39879558076791 58.837428928025474 0 58.837428928025474 -98.459245529767941 0 0 0 0 -116.45699508130565 175.08569890811486 0 175.08569890811486 -107.69015510144527 0 0 0 0 -144.87868963826622 160.28391946910415 0 160.28391946910415 -114.6946874008263 0 0 0 0 40.67472049735261 126.61834206287313 0 126.61834206287313 -176.72181172570708 0 0 0 0 -44.263219585223851 -30.253791895698669 0 -30.253791895698669 -96.910724948698771 0 0 0 0 40.309744651804067 -21.356320471335493 0 -21.356320471335493 20.225385573425228 0 0 0 0 -36.94418109932576 8.9260865958312934 0 8.9260865958312934 210.57857690499077 0 0 0 0 23.029886902620092 9.5846888828350529 0 9.5846888828350529 110.44880472133809 0 0 0 0 -2.2270333585518003 2.2735762170273546 0 2.2735762170273546 -0.32249243300333319 0 0 0 0 -229.61142029588882 124.0279653736834 0 124.0279653736834 -46.397295895301795 0 0 0 0 -105.44191579575272 51.094108391807822 0 51.094108391807822 -3.9102826308480871 0 0 0 0 6.7326647686277283 -48.234845552651677 0 -48.234845552651677 -14.37080146415974 0 0 0 0 33.713997268641378 69.712270075924607 0 69.712270075924607 -50.026285238011042 0 0 0 0 -218.16197724161248 236.62548288721518 0 236.62548288721518 -206.59288571240904 0 0 0 0 54.590340735463542 196.81880832219031 0 196.81880832219031 -238.04648598637141 0 0 0 0 21.867928095293792 169.40923198367818 0 169.40923198367818 -9.6877237863227492 0 0 0 0 7.0667531781928119 146.26776293601142 0 146.26776293601142 175.24844554223819 0 0 0 0 85.200690852227126 263.81808903556885 0 263.81808903556885 319.91845632699551 0 0 0 0 198.25723715839558 253.32253010099521 0 253.32253010099521 49.827025417725963 0 0 0 0 24.489482746383146 246.7487328253992 0 246.7487328253992 78.885985227978381 0 0 0 0 75.806363573243289 182.10175185001572 0 182.10175185001572 126.12699060866726 0 0 0 0 -73.256541691807797 258.16110769013176 0 258.16110769013176 517.88739859732596 0 0 0 0 -0.51414880506277427 -0.52280131087235304 0 -0.52280131087235304 0.60823709306934859 0 0 0 0 33.624068747657475 287.87752247759636 0 287.87752247759636 261.33536815481784 0 0 0 0 -54.901298261414922 117.30501095166983 0 117.30501095166983 230.65579943390912 0 0 0 0 10.986814887774017 105.88886916228057 0 105.88886916228057 334.35132693417836 0 0 0 0 11.925006666493573 205.88706165946496 0 205.88706165946496 193.13925959700282 0 0 0 0 -12.870434285674492 16.859043260807084 0 16.859043260807084 -107.65866989661117 0 0 0 0 -134.78979735318262 95.945301081326761 0 95.945301081326761 144.56673147331458 0 0 0 0 28.865541433033286 125.64027471630834 0 125.64027471630834 58.801111221779138 0 0 0 0 -3.7657773924911453 97.716648317429645 0 97.716648317429645 61.370025752657966 0 0 0 0 26.589701645882997 -0.66728240438715147 0 -0.66728240438715147 -59.38382557121804 0 0 0 0 48.873272557695145 -6.1078838140274456 0 -6.1078838140274456 -50.116220080235507 0 0 0 0 25.589678717975403 32.290541424859839 0 32.290541424859839 3.3815337776904926 0 0 0 0 72.491244652502246 16.710977065373299 0 16.710977065373299 3.3168390584323788 0 0 0 0 156.50567429522471 60.984909142773176 0 60.984909142773176 -5.2437218861959991 0 0 0 0 2.508968275191819 -86.56171839270246 0 -86.56171839270246 30.283336153748678 0 0 0 0 89.790348046536565 -0.24792686865112046 0 -0.24792686865112046 -12.857504507977865 0 0 0 0 1.0412266321782226 -21.493028964214318 0 -21.493028964214318 -12.296098102172664 0 0 0 0 -5.3418135734050338 -5.3843997362146183 0 -5.3843997362146183 -34.037816745694727 0 0 0 0 -101.19765114304982 -39.053391303410535 0 -39.053391303410535 34.242344282021804 0 0 0 0 80.293855330954102 36.113475137823116 0 36.113475137823116 -53.883978072706668 0 0 0 0 6.7322541686648627 15.027870434403305 0 15.027870434403305 -9.1807216495633384 0 0 0 0 -23.171721689663173 82.117719727728399 0 82.117719727728399 -21.336214680035482 0 0 0 0 10.367724742393962 56.476020805711109 0 56.476020805711109 7.6066907797917906 0 0 0 0 16.625848242500069 96.745591483704629 0 96.745591483704629 28.260849294078071 0 0 0 0 -2.0515324567641073 76.525513819051412 0 76.525513819051412 -11.911031939729583 0 0 0 0 6.784420182931008 30.47835586890724 0 30.47835586890724 30.892603462992639 0 0 0 0 2.8234724661888322 200.98676033188531 0 200.98676033188531 137.9956250062969 0 0 0 0 -13.055143947545442 49.094915564166079 0 49.094915564166079 10.274275875212197 0 0 0 0 -31.287528649274464 30.828946282235847 0 30.828946282235847 40.059461279866809 0 0 0 0 56.31394047019603 82.07795670921405 0 82.07795670921405 -21.747543716905056 0 0 0 0 -51.429475175074913 86.635475214075996 0 86.635475214075996 9.0900242634961614 0 0 0 0 17.446670116499881 26.415287213345703 0 26.415287213345703 20.888414653711322 0 0 0 0 13.857395349048403 5.5665116225291129 0 5.5665116225291129 -1.6286848120137449 0 0 0 0 41.121259091558841 56.598033593772925 0 56.598033593772925 7.1048673644108931 0 0 0 0 -135.59590939727786 46.289421538116585 0 46.289421538116585 24.758193343732273 0 0 0 0 22.899115746977223 26.301588011339685 0 26.301588011339685 5.8331788306621775 0 0 0 0 -31.784807561849448 97.46299358809847 0 97.46299358809847 -31.303527385389316 0 0 0 0 8.8229783962015063 28.72878083971591 0 28.72878083971591 -43.257693772625316 0 0 0 0 -30.419253404386836 72.935179299813171 0 72.935179299813171 59.67059766282182 0 0 0 0 12.863037568400614 11.205666429326811 0 11.205666429326811 -5.886225469323108 0 0 0 0 -16.30009333687039 48.863640043925585 0 48.863640043925585 14.900336557868627 0 0 0 0 72.853389575175242 64.309549580746534 0 64.309549580746534 -10.576238642359385 0 0 0 0 9.8354690076375846 34.368676879039413 0 34.368676879039413 -75.236489161965437 0 0 0 0 9.2087430141509685 54.562406937511696 0 54.562406937511696 47.53645474303994 0 0 0 0 17.276142698480925 15.172307253903796 0 15.172307253903796 -0.1443937369305246 0 0 0 0 -335.01650347904069 76.883518508184352 0 76.883518508184352 100.83127116099786 0 0 0 0 144.86241931427912 43.218591544833998 0 43.218591544833998 -43.833015723903372 0 0 0 0 0.42776694069628629 -0.25916112742793018 0 -0.25916112742793018 -0.76740618919427561 0 0 0 0 -20.493027565524244 53.035926892815041 0 53.035926892815041 -17.309175916048844 0 0 0 0 38.663760754465329 326.03462050304734 0 326.03462050304734 -94.267303889702816 0 0 0 0 831.98727294191667 -63.756176961989695 0 -63.756176961989695 -259.24666385213277 0 0 0 0 552.1249853268946 324.11739416865021 0 324.11739416865021 -151.76350754538362 0 0 0 0 3.098874022161592 4.0729374475648648 0 4.0729374475648648 2.6796434911846347 0 0 0 0 170.80226594883788 -142.74273907533643 0 -142.74273907533643 -209.10924825060647 0 0 0 0 495.93024895169765 29.535775467786152 0 29.535775467786152 -14.215653955503512 0 0 0 0 257.60500107266944 349.09043219836531 0 349.09043219836531 159.5888308458816 0 0 0 0 -44.516697846341231 -130.63063008859899 0 -130.63063008859899 350.39859148390678 0 0 0 0 -206.23511238057654 144.87683861653932 0 144.87683861653932 76.611839911217885 0 0 0 0 99.769671541289426 84.970533612144209 0 84.970533612144209 42.248013030686593 0 0 0 0 88.16303122350655 102.88373220013455 0 102.88373220013455 41.603466997235955 0 0 0 0 85.982057469445863 96.010274759467848 0 96.010274759467848 32.100231789831014 0 0 0 0 41.397429422671848 107.80004148604712 0 107.80004148604712 43.105625713871632 0 0 0 0 90.48864856162254 106.58099104824214 0 106.58099104824214 36.468925098879481 0 0 0 0 4.2044545992685016 92.485845447627071 0 92.485845447627071 49.701173456651304 0 0 0 0 36.385414152910016 90.926772369014543 0 90.926772369014543 31.319229971850291 0 0 0 0 19.176223804141046 101.7837771155173 0 101.7837771155173 42.282247417686449 0 0 0 0 17.555463428936491 94.86384413298947 0 94.86384413298947 30.704160362380208 0 0 0 0 6.1504209422928398 69.888851505147613 0 69.888851505147613 16.288674531053402 0 0 0 0 -35.75853023027048 78.173903319072451 0 78.173903319072451 37.890001020939962 0 0 0 0 -58.160404458169069 37.163124356196477 0 37.163124356196477 23.437008601344132 0 0 0 0 -18.522165828348079 44.772058492384531 0 44.772058492384531 24.608263162308504 0 0 0 0 -20.600340197623154 77.439989116594006 0 77.439989116594006 50.658465305008576 0 0 0 0 -9.2869357294039219 76.059215829845925 0 76.059215829845925 77.483009252384363 0 0 0 0 20.977587041430525 72.078716649721173 0 72.078716649721173 17.361023055458645 0 0 0 0 25.331004298828702 100.21412935068656 0 100.21412935068656 68.440642091558402 0 0 0 0 48.246454970401828 76.629301411074266 0 76.629301411074266 51.527653495879349 0 0 0 0 97.523208567239635 131.7639936543892 0 131.7639936543892 86.042738854488562 0 0 0 0 11.629601263237419 20.813648806215497 0 20.813648806215497 -94.741245565914141 0 0 0 0 24.468653240939602 105.57171074111466 0 105.57171074111466 94.083573905687444 0 0 0 0 0.3989710253625276 4.2034868536036782 0 4.2034868536036782 -1.938120327559119 0 0 0 0 32.753479105158476 29.346422472863196 0 29.346422472863196 17.35976590833161 0 0 0 0 28.278986106059165 8.7764371255107108 0 8.7764371255107108 87.628175029953127 0 0 0 0 81.450943751087834 89.316661759811723 0 89.316661759811723 92.090908702841261 0 0 0 0 16.430114577524364 80.250540394801646 0 80.250540394801646 108.08116241216339 0 0 0 0 -6.5048483421414858 76.076605444468441 0 76.076605444468441 111.44967075207751 0 0 0 0 -32.84554481378197 11.81916795042882 0 11.81916795042882 -2.8272297854976216 0 0 0 0 -12.984669026661322 27.226348066388709 0 27.226348066388709 60.298778691718326 0 0 0 0 30.819160582062977 67.851135936521132 0 67.851135936521132 51.301186489068641 0 0 0 0 20.804500834391547 11.62471200065561 0 11.62471200065561 2.5546706084657558 0 0 0 0 -40.951966849475866 56.700584336220345 0 56.700584336220345 5.1230344753621466 0 0 0 0 6.8964071608061204 77.471530380735203 0 77.471530380735203 87.058494767406955 0 0 0 0 -19.176898704077757 56.759470476488787 0 56.759470476488787 4.7872156222992999 0 0 0 0 -15.851067121602682 39.568160333647029 0 39.568160333647029 0.35227945144288242 0 0 0 0 -40.67060863122606 30.775791519408813 0 30.775791519408813 2.7927610658080084 0 0 0 0 -10.483526297415665 39.211032890132628 0 39.211032890132628 -0.26755339052760974 0 0 0 0 -23.590094566810876 37.190315503632519 0 37.190315503632519 51.250685299099132 0 0 0 0 -34.421888189666348 24.159355359508709 0 24.159355359508709 0.27779025985944372 0 0 0 0 -19.463652123577592 23.127270889119686 0 23.127270889119686 31.28703224205168 0 0 0 0 -14.733838493244548 45.863686464072089 0 45.863686464072089 46.265959222204401 0 0 0 0 -21.04830502832192 47.052770068483369 0 47.052770068483369 54.735422464786097 0 0 0 0 46.258413699242283 79.06441314395488 0 79.06441314395488 -36.114042088971473 0 0 0 0 -4.3933404512432084 40.743130107434048 0 40.743130107434048 -0.8953390266147494 0 0 0 0 24.745999164464592 52.023591575329192 0 52.023591575329192 -10.709931685021729 0 0 0 0 34.126121580542531 56.164510705311841 0 56.164510705311841 -31.687013568674047 0 0 0 0 -16.360247827324201 38.739348428247467 0 38.739348428247467 34.076513757179782 0 0 0 0 2.9766927762629507 17.1336995846398 0 17.1336995846398 2.3628047299959061 0 0 0 0 37.353274376408081 27.787180048311711 0 27.787180048311711 -15.743720397436846 0 0 0 0 -14.05142865396374 37.011172285576322 0 37.011172285576322 -17.334397239639657 0 0 0 0 10.302674062261069 27.712462673287646 0 27.712462673287646 -23.24422028545753 0 0 0 0 20.866027430821305 93.641624305244022 0 93.641624305244022 -46.597808166989125 0 0 0 0 25.108780123129691 39.628630826858171 0 39.628630826858171 -2.7334221489727497 0 0 0 0 4.1781671267053753 31.565609004635917 0 31.565609004635917 -23.746396882710542 0 0 0 0 43.768765668297419 85.461440245679114 0 85.461440245679114 46.692607675096951 0 0 0 0 -15.588702741892973 8.6943972115680843 0 8.6943972115680843 6.5144803251127996 0 0 0 0 19.17507278044603 38.659710845006472 0 38.659710845006472 -6.3100878108811003 0 0 0 0 12.643759739754909 31.67434267965578 0 31.67434267965578 -1.941215674403324 0 0 0 0 32.578260091842822 38.083497988747695 0 38.083497988747695 -17.830816936100746 0 0 0 0 13.977274940669304 47.685792873780883 0 47.685792873780883 20.219202841248261 0 0 0 0 -35.562641635957334 54.625388614872691 0 54.625388614872691 -44.702191752017825 0 0 0 0 -18.050880125658296 61.601688469696455 0 61.601688469696455 -45.419071078780689 0 0 0 0 35.283874754646455 67.198926605627335 0 67.198926605627335 -47.430352955758636 0 0 0 0 -9.5374162205196171 56.255106379645646 0 56.255106379645646 -42.415160868668117 0 0 0 0 7.4368514071393292 59.548633858561516 0 59.548633858561516 18.160321590301464 0 0 0 0 -5.0276228308158011 47.523343959707091 0 47.523343959707091 -35.047225179980771 0 0 0 0 23.594154800463002 56.399390663922532 0 56.399390663922532 2.0378487319248961 0 0 0 0 -13.61941170098941 38.751179867450261 0 38.751179867450261 20.038632494995866 0 0 0 0 32.304956320283324 29.311190537962219 0 29.311190537962219 -19.232277549181632 0 0 0 0 8.6650103151770139 61.460085473507434 0 61.460085473507434 23.02039506283414 0 0 0 0 -7.356180929072508 45.723373718607661 0 45.723373718607661 -16.596912864431168 0 0 0 0 -11.203836585853423 92.809798866119309 0 92.809798866119309 -65.164082323673938 0 0 0 0 19.441958684329933 21.831798457581247 0 21.831798457581247 -6.1269806092498982 0 0 0 0 -3.690229354130679 50.773656972764456 0 50.773656972764456 -36.38152878171968 0 0 0 0 -17.32090368563513 18.472070878357044 0 18.472070878357044 -7.309910563944868 0 0 0 0 23.783720173287293 38.884283125278671 0 38.884283125278671 -96.296754074806813 0 0 0 0 10.721234605065547 44.735475060988392 0 44.735475060988392 -79.037802278056915 0 0 0 0 35.46179915524408 57.468553312628501 0 57.468553312628501 -78.48373575176447 0 0 0 0 7.9014085565837604 41.454371001798769 0 41.454371001798769 13.768848655255338 0 0 0 0 3.6190282694078633 90.327537157245388 0 90.327537157245388 24.903243764838408 0 0 0 0 -3.0384475394457695 48.830889251135886 0 48.830889251135886 -31.89960759558744 0 0 0 0 46.767427202685212 89.665605750560644 0 89.665605750560644 -68.627120849841958 0 0 0 0 22.655788013927946 62.818463229716151 0 62.818463229716151 25.937931353005531 0 0 0 0 32.527901312416361 31.121550928350189 0 31.121550928350189 -89.960576352132193 0 0 0 0 73.894406305487792 129.09855843580954 0 129.09855843580954 332.35454899512479 0 0 0 0 49.499409092917631 183.98326515702502 0 183.98326515702502 254.1222569419333 0 0 0 0 25.064080106254551 324.20109383518866 0 324.20109383518866 146.0396695174968 0 0 0 0 464.61050887663441 -278.61836446794769 0 -278.61836446794769 -360.05639926844015 0 0 0 0 -14.056913207889011 32.831373220273235 0 32.831373220273235 -4.4376071799051715 0 0 0 0 -94.200619170747814 206.14610419517703 0 206.14610419517703 466.72131949741743 0 0 0 0 -76.342724389120121 291.91281596571207 0 291.91281596571207 386.05900330876466 0 0 0 0 1.788621742023679 18.484014429952367 0 18.484014429952367 589.13695438997092 0 0 0 0 85.138939127762569 88.242988737976702 0 88.242988737976702 355.80124129022715 0 0 0 0 142.14857171027143 -158.86375167721872 0 -158.86375167721872 -161.06387458810059 0 0 0 0 6.0171214425347799 3.7206091731146103 0 3.7206091731146103 -7.2817362036859823 0 0 0 0 157.80937987633661 -178.9660344847216 0 -178.9660344847216 -135.28350840283383 0 0 0 0 59.695098163869261 507.8135293224841 0 507.8135293224841 1174.1620153513941 0 0 0 0 199.89651717148601 -171.82663028856615 0 -171.82663028856615 -180.71736682360643 0 0 0 0 -31.769313020013215 49.30618611097816 0 49.30618611097816 10.032477055367053 0 0 0 0 -26.709954174151285 14.921239942785348 0 14.921239942785348 -1.9066344200188237 0 0 0 0 -15.342097342760098 41.873020263192302 0 41.873020263192302 -3.6774747237068368 0 0 0 0 21.043860745350333 16.346819774190521 0 16.346819774190521 -11.426164392895828 0 0 0 0 -59.415534092237067 0.05883952970179962 0 0.05883952970179962 31.998463377356529 0 0 0 0 -42.761946258400712 60.383590183439082 0 60.383590183439082 -0.16960283920707298 0 0 0 0 -28.148063767268468 30.061902197194286 0 30.061902197194286 59.738278831908247 0 0 0 0 11.524700632919576 35.762647169965931 0 35.762647169965931 11.520978082015063 0 0 0 0 -29.827017258587766 21.377143287866218 0 21.377143287866218 1.567229678416016 0 0 0 0 -94.038038633978431 114.83682897789913 0 114.83682897789913 132.14513105697097 0 0 0 0 -20.337779237001087 51.563637163118983 0 51.563637163118983 44.379403237493534 0 0 0 0 -48.624951712008624 -11.667227049925714 0 -11.667227049925714 206.54251134429796 0 0 0 0 -9.5795429510144459 37.301865591418391 0 37.301865591418391 113.62208848547743 0 0 0 0 -16.930508760004159 -193.36811094821678 0 -193.36811094821678 84.153471045203332 0 0 0 0 0.5149336156248765 -0.85331900194273658 0 -0.85331900194273658 1.4372632366099509 0 0 0 0 -315.8737899442458 207.49225334810762 0 207.49225334810762 141.50848332707574 0 0 0 0 -245.7318944491708 677.66565977584833 0 677.66565977584833 487.37459206067433 0 0 0 0 -70.614368320368158 231.65494386329738 0 231.65494386329738 -162.98729290241317 0 0 0 0 -0.46907841456808796 9.6494838176220128 0 9.6494838176220128 13.98176819857602 0 0 0 0 10.026462953497685 68.394633595708001 0 68.394633595708001 -172.8708663661123 0 0 0 0 344.07674743803 51.277849782618432 0 51.277849782618432 -83.988074785498611 0 0 0 0 12.056308841240998 5.4636037695351689 0 5.4636037695351689 2.0224487547275487 0 0 0 0 -29.652044376400227 106.37121365482744 0 106.37121365482744 -58.701567082236579 0 0 0 0 81.257212194817839 38.326704591068847 0 38.326704591068847 4.9298011470891652 0 0 0 0 -28.292308855128795 142.08050637130509 0 142.08050637130509 17.744282861405736 0 0 0 0 21.556714264366747 8.9652648986520944 0 8.9652648986520944 15.886688176098687 0 0 0 0 19.982865104165953 34.457786555816888 0 34.457786555816888 3.1084098575675796 0 0 0 0 41.300600174958163 50.546228650845478 0 50.546228650845478 12.896436291135615 0 0 0 0 7.9116500635609555 94.562424777808701 0 94.562424777808701 -72.864614208885541 0 0 0 0 1.6034425215275263 45.120251722139557 0 45.120251722139557 -19.093527478423262 0 0 0 0 -129.56637244187368 -154.87538140681863 0 -154.87538140681863 -266.34546054118164 0 0 0 0 -60.846069730054296 85.67384793569363 0 85.67384793569363 -298.59160209765651 0 0 0 0 23.509057812315493 46.301074537927448 0 46.301074537927448 40.52520440766115 0 0 0 0 21.206007013141061 319.03534562450659 0 319.03534562450659 171.58720010692196 0 0 0 0 7.8978112461663841 96.600390518568247 0 96.600390518568247 -51.845087031832009 0 0 0 0 -77.234173014061525 39.973707133569405 0 39.973707133569405 -168.05025940222549 0 0 0 0 82.61212625562257 25.368500402619247 0 25.368500402619247 -78.086550491994785 0 0 0 0 18.47259872082941 128.29516390031858 0 128.29516390031858 -158.85525215223788 0 0 0 0 -10.313550956532708 94.202225681452546 0 94.202225681452546 -193.11067077266489 0 0 0 0 4.692653414713277 93.280924248952942 0 93.280924248952942 -96.060399884918297 0 0 0 0 2.37205217590963 79.362713995913509 0 79.362713995913509 -179.27207768455628 0 0 0 0 18.992925500351703 131.41698264903243 0 131.41698264903243 -140.60949163975602 0 0 0 0 158.5432674298454 -60.063332304300275 0 -60.063332304300275 -37.14519208297861 0 0 0 0 291.27896590705018 -98.087634301683465 0 -98.087634301683465 -53.670765981994919 0 0 0 0 192.21383234232053 76.2638843286868 0 76.2638843286868 -129.535646749835 0 0 0 0 319.42396605457179 165.00671338670509 0 165.00671338670509 -33.971026418752444 0 0 0 0 -64.419057108628294 88.130848966879057 0 88.130848966879057 -138.03122012852691 0 0 0 0 -35.783924552204553 62.352190017118119 0 62.352190017118119 -57.613033920482849 0 0 0 0 -24.441825403206167 8.4329629061467131 0 8.4329629061467131 -187.39594375064917 0 0 0 0 5.3830020251910824 -1.7725448624674414 0 -1.7725448624674414 -0.046840483419032353 0 0 0 0 360.77581639121854 40.651796781632584 0 40.651796781632584 37.17784722549186 0 0 0 0 -295.66741082082444 -102.32063672732329 0 -102.32063672732329 73.904567520607088 0 0 0 0 324.48683465525755 244.39192392039695 0 244.39192392039695 72.576526126618774 0 0 0 0 339.45385226812505 -74.809470684776898 0 -74.809470684776898 -243.63178454406443 0 0 0 0 -319.23426423579804 190.40469541662878 0 190.40469541662878 323.53243329768884 0 0 0 0 -8.2367093162756646 34.585698720136861 0 34.585698720136861 -6.994656110953656 0 0 0 0 -4.894411585166381 24.464395235576376 0 24.464395235576376 13.66944519621029 0 0 0 0 7.6342692647158401 -7.7349954102246556 0 -7.7349954102246556 11.889907088803739 0 0 0 0 -13.999812670335814 38.967245950792858 0 38.967245950792858 -9.2771079619342345 0 0 0 0 20.661390008521266 -1.8104781562360586 0 -1.8104781562360586 -25.357138914321695 0 0 0 0 44.755261533937301 36.9229292124528 0 36.9229292124528 -62.754919211785818 0 0 0 0 -21.783453237101639 11.488450315504451 0 11.488450315504451 10.172385230413056 0 0 0 0 2.5039526442646718 1.3418883829130195 0 1.3418883829130195 0.039497794876794501 0 0 0 0 11.670236046153569 5.9618862530878758 0 5.9618862530878758 -15.033064893948918 0 0 0 0 29.100426185573703 46.718173013388359 0 46.718173013388359 -8.6046192541760149 0 0 0 0 14.77791955858811 -77.295883943901345 0 -77.295883943901345 -137.55910160138046 0 0 0 0 -5.3242702227144036 -28.147842576246603 0 -28.147842576246603 -118.69815099860079 0 0 0 0 35.376400709068548 -62.083679412953643 0 -62.083679412953643 -274.57894982792368 0 0 0 0 447.30172319776102 324.57007128671694 0 324.57007128671694 -243.5304274094733 0 0 0 0 -85.075957848483085 -106.91958618500303 0 -106.91958618500303 128.47694306787275 0 0 0 0 6.2504160298672673 0.73122101180856447 0 0.73122101180856447 0.48299643906434087 0 0 0 0 17.887058481786113 6.4670451411892111 0 6.4670451411892111 -1.7876353016841646 0 0 0 0 26.097091035160702 24.948660276743794 0 24.948660276743794 93.696836136275124 0 0 0 0 -98.021945907044937 -88.640792902180237 0 -88.640792902180237 106.80962871337579 0 0 0 0 218.17774538920639 32.933048964170212 0 32.933048964170212 -406.95054668101693 0 0 0 0 31.994937354480498 48.122734763780045 0 48.122734763780045 93.839107683546089 0 0 0 0 -24.34585908336885 235.44780008892667 0 235.44780008892667 -409.25692575117012 0 0 0 0 60.607063505985934 41.380164369151771 0 41.380164369151771 -524.89164556056676 0 0 0 0 5.7888491267962081 -1.5662051288042846 0 -1.5662051288042846 -15.576955967996886 0 0 0 0 30.66187226650149 47.780227286102843 0 47.780227286102843 34.53719264996699 0 0 0 0 -0.43109682067105837 3.115261850715104 0 3.115261850715104 11.255847218116589 0 0 0 0 101.15789564697479 -72.694426140830274 0 -72.694426140830274 -155.8700461323487 0 0 0 0 -70.714338226396649 79.000030394038731 0 79.000030394038731 36.002780716620691 0 0 0 0 29.717117676664202 124.34008192536021 0 124.34008192536021 -157.13722112271353 0 0 0 0 -22.074150568536425 162.56903837425853 0 162.56903837425853 -68.759143528201321 0 0 0 0 27.374569428753006 6.1351321199593514 0 6.1351321199593514 -11.921361522443204 0 0 0 0 -89.844715797564277 201.48655818922271 0 201.48655818922271 -116.06966250352707 0 0 0 0 -11.938520366533339 42.795394703504371 0 42.795394703504371 -44.724684692284427 0 0 0 0 39.924630000194156 93.312159290770978 0 93.312159290770978 -73.160162011607667 0 0 0 0 -0.87090006919606822 61.868142058241119 0 61.868142058241119 -24.137432260766218 0 0 0 0 23.098398778922267 26.185611120075119 0 26.185611120075119 -18.431165181639045 0 0 0 0 -0.91148770117433742 28.816355125461996 0 28.816355125461996 -40.55775442904087 0 0 0 0 0.12182734815590379 13.476959898042798 0 13.476959898042798 5.1723517389810034 0 0 0 0 -8.1220466346094327 29.929068949882321 0 29.929068949882321 9.0745802430506046 0 0 0 0 16.878752831587917 39.102514542145855 0 39.102514542145855 -15.294424907094367 0 0 0 0 11.200361849107139 57.519197319875275 0 57.519197319875275 52.055918830222254 0 0 0 0 -17.625071580878284 40.433057389594751 0 40.433057389594751 71.137056711735113 0 0 0 0 6.2524096102920197 0.18531311484596813 0 0.18531311484596813 -7.7516152104997964 0 0 0 0 8.1337281370870187 56.391670494185064 0 56.391670494185064 149.86646212669166 0 0 0 0 13.807746174177737 106.03135318383329 0 106.03135318383329 99.21845860855251 0 0 0 0 24.12565069412085 139.31485285310509 0 139.31485285310509 40.297957440073674 0 0 0 0 7.4320920023055805 90.353049468102483 0 90.353049468102483 66.464535409420023 0 0 0 0 29.285844174774866 165.17899517933409 0 165.17899517933409 130.39091605963722 0 0 0 0 3.9327702180453343 105.50897980865875 0 105.50897980865875 109.23725135801806 0 0 0 0 37.679861080097908 75.272321026307964 0 75.272321026307964 6.9988798389477012 0 0 0 0 21.961173233068621 65.351164464657131 0 65.351164464657131 12.272024657012253 0 0 0 0 85.425703623930531 112.41971124946909 0 112.41971124946909 -43.824239722303901 0 0 0 0 91.380873914838276 189.96481174894683 0 189.96481174894683 77.369142301853117 0 0 0 0 49.90579950936808 179.33711560574693 0 179.33711560574693 104.60953659608822 0 0 0 0 26.336248557920044 199.34626128826244 0 199.34626128826244 100.11932643298769 0 0 0 0 7.2285178226738935 156.9719088983361 0 156.9719088983361 93.115043982142197 0 0 0 0 36.684719618708186 139.64211139338545 0 139.64211139338545 96.472690381698385 0 0 0 0 102.51953575451989 154.99721974776594 0 154.99721974776594 61.721102779587227 0 0 0 0 89.502018582628807 59.952455109434595 0 59.952455109434595 15.105032860204346 0 0 0 0 180.15840386283162 118.91608221158958 0 118.91608221158958 53.436630793347376 0 0 0 0 146.6587369284025 113.51329693560683 0 113.51329693560683 67.756727481142434 0 0 0 0 24.113931616280752 129.94444551636661 0 129.94444551636661 622.98211072224444 0 0 0 0 439.24547585618848 380.10439880778227 0 380.10439880778227 253.09630173872574 0 0 0 0 5.5648396202850563 25.340858196641193 0 25.340858196641193 197.5239382831719 0 0 0 0 8.0368284108335502 115.07887956534819 0 115.07887956534819 127.5643160570279 0 0 0 0 -3.428439220522705 130.41108129824647 0 130.41108129824647 281.03385342107572 0 0 0 0 168.83055027265027 226.11445623824267 0 226.11445623824267 150.94949363563546 0 0 0 0 36.738769859373861 114.63845097032913 0 114.63845097032913 60.872250516026327 0 0 0 0 0.9006039284165297 4.3024156154772424 0 4.3024156154772424 22.441576944746931 0 0 0 0 5.4225828749040375 42.12985439754209 0 42.12985439754209 38.893040631239046 0 0 0 0 26.844264173640113 64.035786748346084 0 64.035786748346084 -55.38517850496055 0 0 0 0 42.4623336126715 73.863493961626091 0 73.863493961626091 13.396570374889279 0 0 0 0 18.514105602527138 33.708924353950529 0 33.708924353950529 5.7452658338075135 0 0 0 0 -1.6006506478588562 35.628776070136155 0 35.628776070136155 16.986334663075013 0 0 0 0 4.7257584001126816 35.811930684268646 0 35.811930684268646 29.879647645613971 0 0 0 0 -17.865674801451178 8.0499746877006473 0 8.0499746877006473 -3.2676111586673016 0 0 0 0 10.870191501519002 45.019202927622018 0 45.019202927622018 27.08167659346509 0 0 0 0 -19.042874767643099 17.010507021729403 0 17.010507021729403 2.9958816092885354 0 0 0 0 6.4636909793262021 49.232477279133491 0 49.232477279133491 30.102412195007563 0 0 0 0 16.99878691075719 49.102182129241555 0 49.102182129241555 20.424579467227886 0 0 0 0 7.9493618840097042 47.313446033980483 0 47.313446033980483 25.280078114344292 0 0 0 0 38.460963566292776 112.24049395290785 0 112.24049395290785 29.388628200958919 0 0 0 0 13.519566971453912 43.451361708445525 0 43.451361708445525 3.249828370833689 0 0 0 0 -1.2277056647385223 17.784340159226293 0 17.784340159226293 8.4390039720798313 0 0 0 0 -2.7564980003226083 41.995871368400458 0 41.995871368400458 1.6469663294155907 0 0 0 0 -2.3058897065209294 30.728429539271502 0 30.728429539271502 4.7095654811957175 0 0 0 0 -7.1680201446870342 44.552205012492777 0 44.552205012492777 52.750183443694368 0 0 0 0 -5.0217099012435398 31.479906465113814 0 31.479906465113814 -0.25924531885717528 0 0 0 0 8.0393203797502792 55.752356758099722 0 55.752356758099722 -18.106000641886567 0 0 0 0 -18.948340307229955 37.22589603236338 0 37.22589603236338 3.2241562969174993 0 0 0 0 99.777659589948598 40.409828992564144 0 40.409828992564144 -14.959871617946192 0 0 0 0 47.454806867404841 85.6053841291141 0 85.6053841291141 85.520543630525935 0 0 0 0 -0.021890289184021583 10.843585162123873 0 10.843585162123873 2.7340181303475504 0 0 0 0 0.79692138903556042 25.489964865622369 0 25.489964865622369 -29.81402888157163 0 0 0 0 -12.874450525976748 27.01554321503987 0 27.01554321503987 6.8980381438136256 0 0 0 0 -32.399676981973244 -1.6965370972033611 0 -1.6965370972033611 -18.888587879072475 0 0 0 0 51.104343881086606 35.994217523947043 0 35.994217523947043 -39.824796829281468 0 0 0 0 20.277386066158215 68.786617432086473 0 68.786617432086473 -80.234759326867788 0 0 0 0 -19.039840467520662 24.219264177660236 0 24.219264177660236 0.37242182341412011 0 0 0 0 -95.073862717839802 -55.390227647919687 0 -55.390227647919687 24.569648373548262 0 0 0 0 10.436643277829717 39.716451050486569 0 39.716451050486569 6.041482250522904 0 0 0 0 6.4125598222726694 29.448738176804625 0 29.448738176804625 12.491897448855752 0 0 0 0 5.4383475163194817 39.27925356828554 0 39.27925356828554 21.453485485689612 0 0 0 0 10.057678360539285 27.836138784534228 0 27.836138784534228 -4.5193256318007116 0 0 0 0 4.670883693612268 27.87896735547065 0 27.87896735547065 4.9648219289495046 0 0 0 0 4.2801301262152265 25.238279864779315 0 25.238279864779315 14.503718429058495 0 0 0 0 -293.51527897734923 159.8512693320049 0 159.8512693320049 -67.624099985842122 0 0 0 0 -299.5990477749292 -66.474792970511771 0 -66.474792970511771 -38.235216367476824 0 0 0 0 -432.99195802127724 543.62235459365934 0 543.62235459365934 -675.91862426966782 0 0 0 0 143.52993228588457 106.09665216057783 0 106.09665216057783 -142.16119528465015 0 0 0 0 13.280745007439691 30.288889082931064 0 30.288889082931064 -5.9444622637743123 0 0 0 0 21.108412441089058 18.817068553291918 0 18.817068553291918 10.007808927466325 0 0 0 0 707.50905796431471 -422.65413297359191 0 -422.65413297359191 402.91429280553689 0 0 0 0 -126.95237664233355 -394.29076024519463 0 -394.29076024519463 417.65404159244304 0 0 0 0 12.931579961906635 3.0097298523602518 0 3.0097298523602518 1.8767385876784042 0 0 0 0 -482.24832629247976 30.151198000772865 0 30.151198000772865 484.28021930854266 0 0 0 0 611.80558556968754 219.85842605573907 0 219.85842605573907 -264.42644420479792 0 0 0 0 230.6396273903847 -224.30609207187649 0 -224.30609207187649 459.45829071651724 0 0 0 0 83.098969063779037 42.822390291753578 0 42.822390291753578 5.9424909702066984 0 0 0 0 -48.67693773575229 260.52834014834616 0 260.52834014834616 -124.52992930979417 0 0 0 0 -4.2762884956077585 31.369887880585971 0 31.369887880585971 -3.836100886859156 0 0 0 0 -166.3918090160405 -49.476391671161139 0 -49.476391671161139 199.4464261577009 0 0 0 0 167.4470709240486 -137.70511418045601 0 -137.70511418045601 143.49151473172014 0 0 0 0 500.13473770757992 387.83067417702978 0 387.83067417702978 229.47547126417163 0 0 0 0 -93.340802242975769 26.605868474183751 0 26.605868474183751 147.56856344502864 0 0 0 0 260.71191960532269 -154.13356582967373 0 -154.13356582967373 -11.416854465242068 0 0 0 0 103.82815142135587 48.813557631756055 0 48.813557631756055 11.780150294006711 0 0 0 0 305.58994196650019 296.37625766807008 0 296.37625766807008 -341.39625662190019 0 0 0 0 30.120835097986856 184.33579837829529 0 184.33579837829529 -65.74972448691733 0 0 0 0 83.773071947693097 64.347508894368275 0 64.347508894368275 -410.0074641771098 0 0 0 0 -120.7574955955206 376.26447340200684 0 376.26447340200684 -308.31255908761977 0 0 0 0 104.17049985012272 156.98661131940025 0 156.98661131940025 -225.42095702284905 0 0 0 0 213.10901008338078 230.36453266989236 0 230.36453266989236 -176.07401307783766 0 0 0 0 82.272837407741463 1.5433058251874172 0 1.5433058251874172 115.52357094379659 0 0 0 0 508.52158428748953 -491.96899449715966 0 -491.96899449715966 56.152372615312743 0 0 0 0 -152.46808368852362 554.22517073808558 0 554.22517073808558 -531.20187819248986 0 0 0 0 410.41270666025957 137.98058729896366 0 137.98058729896366 -802.85945811844886 0 0 0 0 -1082.8465276878123 546.04201409946609 0 546.04201409946609 -275.50552838130716 0 0 0 0 -428.55308098265959 -229.6591231834027 0 -229.6591231834027 -457.4299030556549 0 0 0 0 -149.07442573372828 381.24294631738485 0 381.24294631738485 -415.70942418995537 0 0 0 0 135.77450079885148 379.05115030232423 0 379.05115030232423 -435.59511334330273 0 0 0 0 -137.19733661886858 345.9968891326198 0 345.9968891326198 -325.04731729350806 0 0 0 0 -320.92691034203017 433.34108152196495 0 433.34108152196495 -337.28454646805039 0 0 0 0 -4.7126098970671251 1.0419739984387029 0 1.0419739984387029 4.6353708338073432 0 0 0 0 -459.85743353595899 269.92098060807075 0 269.92098060807075 785.38588006111786 0 0 0 0 -322.53834109089803 154.76964361494083 0 154.76964361494083 -52.327325975902568 0 0 0 0 -572.01839199761162 796.19192723696597 0 796.19192723696597 -78.274887698402381 0 0 0 0 14.880607617291389 -332.12230790875037 0 -332.12230790875037 -70.005682876188075 0 0 0 0 -9.5386943708979288 3.9892963263286632 0 3.9892963263286632 -1.7306898702564073 0 0 0 0 70.258302920788992 132.84856948092283 0 132.84856948092283 -1470.769344077205 0 0 0 0 -649.55530376705428 934.06235164864779 0 934.06235164864779 -860.24969299459099 0 0 0 0 -28.548276399636961 32.80534638735412 0 32.80534638735412 -125.31934732670788 0 0 0 0 -13.092589877049249 82.629051682541558 0 82.629051682541558 -33.010638917992765 0 0 0 0 25.904131912777302 42.91648728683964 0 42.91648728683964 -79.954489087633647 0 0 0 0 33.227394245190226 64.395753400967919 0 64.395753400967919 -44.846959896233329 0 0 0 0 54.417231510714373 77.221637892972282 0 77.221637892972282 7.4387913259110974 0 0 0 0 54.301752429113549 51.061905577275866 0 51.061905577275866 -38.17149858336461 0 0 0 0 32.616309254539374 102.24667362645664 0 102.24667362645664 22.368375862492258 0 0 0 0 22.153049619817466 102.83299566688203 0 102.83299566688203 22.778365908683554 0 0 0 0 -3.8025316424827906 62.316480358543686 0 62.316480358543686 -28.408470978204605 0 0 0 0 9.5010456920063007 167.01332790563379 0 167.01332790563379 84.740043782728662 0 0 0 0 3.9126577097777044 153.35164931195754 0 153.35164931195754 65.77572074674481 0 0 0 0 -33.806457036436768 183.7737976729577 0 183.7737976729577 96.21824333226391 0 0 0 0 -55.225520639891329 128.79483986769606 0 128.79483986769606 75.951718972981212 0 0 0 0 88.079312023477542 296.50914245598608 0 296.50914245598608 139.08338768912199 0 0 0 0 308.16565690338757 206.92144659334122 0 206.92144659334122 -3.7704027422372519 0 0 0 0 -113.39725850991817 114.56420334405084 0 114.56420334405084 83.124795642438585 0 0 0 0 2.9094137712543784 2.5810265717653138 0 2.5810265717653138 2.2979229437282704 0 0 0 0 684.46191435557012 -311.89704343535192 0 -311.89704343535192 -83.517387684703067 0 0 0 0 -101.32226859439106 216.37944278032319 0 216.37944278032319 169.33998642424876 0 0 0 0 -32.854904268824612 97.667471533152366 0 97.667471533152366 9.9666407856275328 0 0 0 0 -50.164008084531815 130.70550083904118 0 130.70550083904118 -120.90941936168019 0 0 0 0 -160.13842905815545 101.18790073013611 0 101.18790073013611 11.784448683472533 0 0 0 0 6.0818492534362756 3.2090248067672889 0 3.2090248067672889 -0.79879812225161828 0 0 0 0 31.231748705125938 35.505745738908672 0 35.505745738908672 -118.50347858058694 0 0 0 0 -195.18557049370293 117.86721921105283 0 117.86721921105283 -33.447051339726841 0 0 0 0 8.981600707558087 8.2307307883738616 0 8.2307307883738616 7.3384296920939125 0 0 0 0 115.20659187796991 12.709184174416237 0 12.709184174416237 130.20399811530064 0 0 0 0 246.75745576018562 -114.43967267367341 0 -114.43967267367341 -66.342632797353644 0 0 0 0 107.25637069212573 65.693490128837425 0 65.693490128837425 15.97835884966749 0 0 0 0 198.47235772997374 27.216198391464786 0 27.216198391464786 -86.433412026122824 0 0 0 0 148.98885220709781 101.03252283371808 0 101.03252283371808 -93.709170987189168 0 0 0 0 241.35398668721245 109.50138437853457 0 109.50138437853457 -263.42231786322372 0 0 0 0 -47.612364009008161 73.027030575723074 0 73.027030575723074 -12.454677925933765 0 0 0 0 34.151006485486974 12.107424346142253 0 12.107424346142253 -10.157563739775252 0 0 0 0 21.671781765362539 63.198631864590425 0 63.198631864590425 1.9806949015328428 0 0 0 0 18.255757247693779 21.231570628856886 0 21.231570628856886 20.655915051173494 0 0 0 0 -79.436198324750876 67.06388815434093 0 67.06388815434093 -13.501914844703151 0 0 0 0 -54.554146879716427 77.0313040613878 0 77.0313040613878 2.0960351195060412 0 0 0 0 -6.6456594131977909 62.786506319316118 0 62.786506319316118 -63.312890935406813 0 0 0 0 -55.242872026145051 129.14589289053788 0 129.14589289053788 -133.11870262841745 0 0 0 0 -48.19081635803559 107.44236272271479 0 107.44236272271479 -47.851901333352998 0 0 0 0 15.647770998526539 61.857611495641322 0 61.857611495641322 -39.61063764261462 0 0 0 0 12.719916229085356 47.753306022312529 0 47.753306022312529 -30.879152064567734 0 0 0 0 8.1634309041983215 63.458925164690072 0 63.458925164690072 -84.746504309567229 0 0 0 0 -6.2402594651503023 80.021177356750059 0 80.021177356750059 -29.929235380693171 0 0 0 0 30.514349665992995 82.583469225039494 0 82.583469225039494 -3.2507135617033782 0 0 0 0 -6.1377819743938744 91.94106587414467 0 91.94106587414467 6.7943485041898839 0 0 0 0 60.334923855036322 139.11210563364284 0 139.11210563364284 27.81927491106206 0 0 0 0 20.319737044919748 89.824813716605377 0 89.824813716605377 25.873157985921353 0 0 0 0 -11.384108190334288 39.670179312554865 0 39.670179312554865 -62.008240334256364 0 0 0 0 -5.6837283469176327 74.368030657656163 0 74.368030657656163 -7.3382385890646447 0 0 0 0 -12.711807445079103 62.109585548011637 0 62.109585548011637 -9.3425906176219087 0 0 0 0 93.050205570776598 99.502646886741786 0 99.502646886741786 8.6909093261742782 0 0 0 0 6.4311970939961611 147.8668747716049 0 147.8668747716049 21.261905864029188 0 0 0 0 68.804898752570807 172.93088831426832 0 172.93088831426832 2.4289001078104775 0 0 0 0 -38.664880285239235 40.179293777424036 0 40.179293777424036 -21.239824900673689 0 0 0 0 -66.84027649188647 79.21306252299371 0 79.21306252299371 5.1727774390343768 0 0 0 0 -4.4639014007043443 90.519363433692888 0 90.519363433692888 38.917568860470055 0 0 0 0 26.761770816177886 119.04756919162469 0 119.04756919162469 10.599395576116422 0 0 0 0 -49.364784352288552 44.406983206466293 0 44.406983206466293 10.596979285319321 0 0 0 0 -100.98626176756443 56.960645013004068 0 56.960645013004068 7.6134357243709019 0 0 0 0 -50.080156935458945 63.667458609100322 0 63.667458609100322 -5.0599008437141038 0 0 0 0 -33.635948909197396 71.898533142290034 0 71.898533142290034 -6.4287323929180502 0 0 0 0 -19.411736171916345 66.851662777947695 0 66.851662777947695 7.6441009243674216 0 0 0 0 -12.985940986685819 54.840083832065375 0 54.840083832065375 4.7493419152688148 0 0 0 0 -24.99533821465684 46.319088844113367 0 46.319088844113367 10.035705606207557 0 0 0 0 -49.401959085349517 46.073260546873826 0 46.073260546873826 12.458571197499623 0 0 0 0 -41.259502100736427 40.478983774222343 0 40.478983774222343 10.648289179544122 0 0 0 0 28.985142999717937 118.1704316925792 0 118.1704316925792 30.844556662234936 0 0 0 0 -34.72776185273635 29.817509843969983 0 29.817509843969983 -22.27111274248368 0 0 0 0 49.881924965280632 34.269971170979034 0 34.269971170979034 -90.834780799987357 0 0 0 0 -13.948454122088151 128.78827787357375 0 128.78827787357375 173.76256049186395 0 0 0 0 61.524107412255944 115.36642133042693 0 115.36642133042693 84.200221299834084 0 0 0 0 -35.871400558063634 22.693106071599672 0 22.693106071599672 -11.931890564092642 0 0 0 0 -31.01908588002334 38.706561260103399 0 38.706561260103399 10.897614241290285 0 0 0 0 -0.50455919398699223 4.3720743064588916 0 4.3720743064588916 -3.7034656669065527 0 0 0 0 -19.041894235426298 7.302390393302062 0 7.302390393302062 -77.416198135606237 0 0 0 0 47.050151707127952 34.960761443790233 0 34.960761443790233 -104.8946094150333 0 0 0 0 61.144275820382973 0.099284241512307858 0 0.099284241512307858 -201.06653997231479 0 0 0 0 -1.1238082635680513 0.56991310314650079 0 0.56991310314650079 -0.082120657552932297 0 0 0 0 -52.86402437549259 69.595219211179483 0 69.595219211179483 231.47571236850922 0 0 0 0 -21.009243819673429 55.042551613630849 0 55.042551613630849 79.540830125544289 0 0 0 0 24.245130995839645 -4.9441007452405756 0 -4.9441007452405756 141.66490951783862 0 0 0 0 -28.287483773565327 -11.402938379211264 0 -11.402938379211264 74.894456414365322 0 0 0 0 62.576134930658554 -2.6706516021789781 0 -2.6706516021789781 47.873471214769324 0 0 0 0 -10.010423289266328 78.619088606994183 0 78.619088606994183 129.02072787837051 0 0 0 0 -10.110162655721069 72.869277254325993 0 72.869277254325993 -24.516765296002632 0 0 0 0 -43.959505574210198 -47.478397637855096 0 -47.478397637855096 31.455721879827024 0 0 0 0 -59.910971294610135 14.445292570778804 0 14.445292570778804 56.936962757221863 0 0 0 0 207.44675430321058 -77.220164032715843 0 -77.220164032715843 -16.515304183026728 0 0 0 0 382.95281870488907 -98.689436891744123 0 -98.689436891744123 -84.382240831152103 0 0 0 0 -230.36310601811419 381.48939071105497 0 381.48939071105497 361.29724675702937 0 0 0 0 -116.59670245965026 -122.55931058775445 0 -122.55931058775445 27.261158114348063 0 0 0 0 -3.4914084473844014 0.16853409056243862 0 0.16853409056243862 0.041176417327526638 0 0 0 0 -40.796099340390356 -16.35047783652135 0 -16.35047783652135 -1.1933650945418321 0 0 0 0 -1.6362581362409401 51.029629772415774 0 51.029629772415774 -364.1464548408635 0 0 0 0 -274.33902539956762 141.12029796692315 0 141.12029796692315 -37.119321445057722 0 0 0 0 -36.743560940944008 -4.3604669433848358 0 -4.3604669433848358 9.1003273998852592 0 0 0 0 -89.817149947104554 19.580122000892288 0 19.580122000892288 69.205880392087693 0 0 0 0 -19.393714171490501 117.07593386676245 0 117.07593386676245 -31.621936081116928 0 0 0 0 -13.744045840634499 56.962648246852041 0 56.962648246852041 72.476945446680361 0 0 0 0 18.71172006836423 74.319801764140948 0 74.319801764140948 -86.641161610188192 0 0 0 0 -2.9734535406387295 34.374045656878252 0 34.374045656878252 -88.644676719906101 0 0 0 0 -27.016873010437848 57.240157086012914 0 57.240157086012914 25.387546954777918 0 0 0 0 82.196043392930733 138.84289126074918 0 138.84289126074918 72.940134185884745 0 0 0 0 9.8843317890132312 107.87036564235416 0 107.87036564235416 19.70096426629334 0 0 0 0 11.037606038618833 46.35438115527927 0 46.35438115527927 125.4713047512281 0 0 0 0 0.82074258587817894 48.105158132892711 0 48.105158132892711 3.0223309945567962 0 0 0 0 37.006156434004879 61.267168602186416 0 61.267168602186416 -98.514460097560914 0 0 0 0 4.9398304597252718 85.192749354605553 0 85.192749354605553 -105.39229672490501 0 0 0 0 -11.352835965688428 50.57540511764546 0 50.57540511764546 -38.269260694892637 0 0 0 0 9.7343657502919143 13.470959637349704 0 13.470959637349704 7.5363151094302383 0 0 0 0 7.9855898442225595 21.544116836153343 0 21.544116836153343 13.376062471823694 0 0 0 0 2.6126927888326463 52.304087070702735 0 52.304087070702735 -50.691230266831553 0 0 0 0 9.4185487718568766 28.617381866688788 0 28.617381866688788 -170.42025437436951 0 0 0 0 -9.2548509739287113 4.0132267193550195 0 4.0132267193550195 5.1272544364258765 0 0 0 0 -1.249115050319233 7.4349385256045935 0 7.4349385256045935 -3.5165347154636493 0 0 0 0 -12.298705894754676 54.183928138757437 0 54.183928138757437 -106.89386468773728 0 0 0 0 -20.653971896110306 30.372478765643734 0 30.372478765643734 -103.15264147641938 0 0 0 0 -365.33709675881255 -148.56627429634773 0 -148.56627429634773 204.97235060844469 0 0 0 0 2.0556459096245021 2.7208090313091269 0 2.7208090313091269 2.7002713657893906 0 0 0 0 89.502092144619382 8.7997236630701536 0 8.7997236630701536 80.497496185931368 0 0 0 0 23.2980149050357 112.53703134424842 0 112.53703134424842 -33.573868423187378 0 0 0 0 9.8420375394489383 46.018008737944911 0 46.018008737944911 10.42531987835946 0 0 0 0 35.617362559863054 46.80337956045355 0 46.80337956045355 42.065463386447448 0 0 0 0 -11.166949546220323 18.614850503516998 0 18.614850503516998 40.407432504056104 0 0 0 0 45.014482000355201 28.984026077185263 0 28.984026077185263 21.606453774491456 0 0 0 0 7.336133189026441 148.47685014098533 0 148.47685014098533 25.969097966677509 0 0 0 0 46.006545921557418 55.506936969664949 0 55.506936969664949 38.461583155181927 0 0 0 0 475.35614258336136 379.43205443807346 0 379.43205443807346 -98.581904803758334 0 0 0 0 -56.50136976471731 99.360471296993637 0 99.360471296993637 101.09080524941965 0 0 0 0 13.978932757985604 220.91897548642669 0 220.91897548642669 46.483806407648444 0 0 0 0 -6.2738350355466537 202.50509213028181 0 202.50509213028181 81.520356334391181 0 0 0 0 32.698087324057269 -8.9409862329243879 0 -8.9409862329243879 -195.90914912081826 0 0 0 0 -21.013472719685524 323.78651811722875 0 323.78651811722875 -20.925705267962485 0 0 0 0 176.89061995057273 545.25200168950016 0 545.25200168950016 215.34846822347163 0 0 0 0 -282.83776745332625 51.90064624512803 0 51.90064624512803 110.54029261092091 0 0 0 0 -40.896115430625287 309.61159525774497 0 309.61159525774497 122.10501161550746 0 0 0 0 101.63941376152798 198.4764960895327 0 198.4764960895327 147.35426544470897 0 0 0 0 57.789264681475288 55.547048200409336 0 55.547048200409336 -64.447815681443899 0 0 0 0 2.8611533915973268 58.382776148839184 0 58.382776148839184 3.9518270414755534 0 0 0 0 -3.1815974886637228 25.892595493096508 0 25.892595493096508 -15.722032253380011 0 0 0 0 9.523007425331798 67.297861117971479 0 67.297861117971479 -74.781875140201009 0 0 0 0 -1.9549874011828496 5.0418208654604015 0 5.0418208654604015 10.126646957034986 0 0 0 0 -44.639155405234305 27.677372261260189 0 27.677372261260189 60.16121960284363 0 0 0 0 53.93190453772695 64.050146330999269 0 64.050146330999269 2.8852740007287139 0 0 0 0 -16.832535898914902 33.879796713401632 0 33.879796713401632 -21.287693251707935 0 0 0 0 29.406447202344303 27.322799195924368 0 27.322799195924368 -28.424825664272952 0 0 0 0 -4.9374281941106855 31.18015295398072 0 31.18015295398072 -14.794924989421389 0 0 0 0 29.216907815018203 55.8174827249386 0 55.8174827249386 24.617129095899145 0 0 0 0 -1.882879822634095 50.077388384600454 0 50.077388384600454 0.8752421156532364 0 0 0 0 -18.800753989420002 29.66193827864122 0 29.66193827864122 21.402296459216188 0 0 0 0 9.1535877987562344 53.61126481145584 0 53.61126481145584 1.1703927936032414 0 0 0 0 6.2552001508074682 57.513527960141801 0 57.513527960141801 2.203852525104594 0 0 0 0 4.8648965846532519 57.823080262187432 0 57.823080262187432 4.9802262243320001 0 0 0 0 7.9507615843654094 53.761247337055465 0 53.761247337055465 -0.053533039037574781 0 0 0 0 4.3273608497474925 58.083978572705746 0 58.083978572705746 22.324631511248299 0 0 0 0 -0.96938258364513574 42.416728886212375 0 42.416728886212375 4.7724620904259325 0 0 0 0 -67.971774651559826 37.916250771020714 0 37.916250771020714 27.718333459759378 0 0 0 0 -14.879534237785187 32.455620570492506 0 32.455620570492506 3.6018658963257568 0 0 0 0 29.77906556199423 30.861441514449268 0 30.861441514449268 -34.167965553511749 0 0 0 0 -1.4669901168354613 37.251751388357661 0 37.251751388357661 -12.547236347034325 0 0 0 0 -3.7305731499845933 69.051549403162426 0 69.051549403162426 -13.407921824932146 0 0 0 0 0.99867880788276264 33.188218699419032 0 33.188218699419032 -7.5547852553628161 0 0 0 0 -11.502268496227771 54.420001941141891 0 54.420001941141891 -34.120778650441935 0 0 0 0 -13.400695714668473 47.750768333105043 0 47.750768333105043 -7.3044866055242892 0 0 0 0 -16.661207666955306 40.85610407315653 0 40.85610407315653 29.279006872213358 0 0 0 0 3.3596420162884897 46.088046669345204 0 46.088046669345204 -7.3416290430759545 0 0 0 0 -35.372599844922661 68.844698113970935 0 68.844698113970935 -53.114654637411149 0 0 0 0 -1.6649410096370332 19.732469222842894 0 19.732469222842894 10.554327622404418 0 0 0 0 -61.638677427134098 39.651740328658889 0 39.651740328658889 35.853730053007439 0 0 0 0 15.168322142218699 25.376108191827235 0 25.376108191827235 11.464463500156853 0 0 0 0 -14.565572829652865 113.44237403198008 0 113.44237403198008 -21.412507929030653 0 0 0 0 -27.28244647361862 65.19522231998053 0 65.19522231998053 -57.352772871490743 0 0 0 0 -35.114074948010966 48.579471837350411 0 48.579471837350411 35.746004436252406 0 0 0 0 -10.453543216675826 53.777679194110533 0 53.777679194110533 -11.743975510733435 0 0 0 0 4.4875872628420979 28.223452488991292 0 28.223452488991292 7.9591698109238704 0 0 0 0 -37.288307872782752 54.010219901922937 0 54.010219901922937 0.23341133942358283 0 0 0 0 -3.0227252208726441 48.313223107188506 0 48.313223107188506 -46.974027521170228 0 0 0 0 30.113687170009335 39.353054395230487 0 39.353054395230487 -26.562760723452914 0 0 0 0 9.4475328405789973 12.95267998825291 0 12.95267998825291 -5.0843096803762213 0 0 0 0 6.4514862081089177 39.660267826034612 0 39.660267826034612 -2.1770021417635546 0 0 0 0 49.95829210060424 41.340791716847178 0 41.340791716847178 -45.292321223956606 0 0 0 0 -235.61968722258462 -61.847695606427806 0 -61.847695606427806 -41.357511971404165 0 0 0 0 -9.9182184188604836 8.7958547415226747 0 8.7958547415226747 -0.065251512168883252 0 0 0 0 -173.16475528781757 236.89657185678072 0 236.89657185678072 150.42027383714958 0 0 0 0 16.9430172887769 120.94071741812428 0 120.94071741812428 -3.3870182213915996 0 0 0 0 -249.40073856386152 -53.807652373365727 0 -53.807652373365727 -34.641253680385489 0 0 0 0 28.924803929886366 52.959939642916538 0 52.959939642916538 -20.980788527755976 0 0 0 0 -8.8970794710912742 65.33579630977016 0 65.33579630977016 4.6629806474201132 0 0 0 0 -17.456464241027945 32.61472629961186 0 32.61472629961186 -25.40001165259093 0 0 0 0 -2.6835497606639365 68.242371566335351 0 68.242371566335351 -4.7261664324905723 0 0 0 0 -39.482967384727999 48.602313063402107 0 48.602313063402107 15.14261034768424 0 0 0 0 -20.139387836171409 31.645010559206639 0 31.645010559206639 -45.753550774960786 0 0 0 0 11.992073229042944 44.146132709805102 0 44.146132709805102 -12.771211225651314 0 0 0 0 44.57000480669376 73.201972695865834 0 73.201972695865834 -8.2566531173897317 0 0 0 0 40.567794900230183 74.909833253700924 0 74.909833253700924 6.3939196401231584 0 0 0 0 -32.275793994523156 81.644096795178825 0 81.644096795178825 6.8777402017736335 0 0 0 0 105.48980021569332 28.649152406451094 0 28.649152406451094 -11.98100885872509 0 0 0 0 55.384105248309424 163.81649015318479 0 163.81649015318479 25.08265428703362 0 0 0 0 127.23680878169216 50.484327001945644 0 50.484327001945644 -27.710513601699233 0 0 0 0 -56.151854345666834 41.94923080896524 0 41.94923080896524 50.203176710998832 0 0 0 0 -22.833672915145282 3.368691938520886 0 3.368691938520886 2.2019328473063404 0 0 0 0 -25.796875261461398 35.690439836251684 0 35.690439836251684 1.7522569581240908 0 0 0 0 -24.485311246876336 66.213327192431734 0 66.213327192431734 67.199127507969251 0 0 0 0 -9.8929398284999372 9.4475320674494228 0 9.4475320674494228 -2.973002854619498 0 0 0 0 -2.5511163287246745 73.271644827443652 0 73.271644827443652 -6.8398977913452654 0 0 0 0 75.098856651449296 81.969739779337885 0 81.969739779337885 8.9323159428554391 0 0 0 0 22.503649661766758 72.202988355818889 0 72.202988355818889 7.1229770695972547 0 0 0 0 -18.119422713841875 9.8498217394534393 0 9.8498217394534393 -8.5024595127663432 0 0 0 0 37.397989440077254 47.578417609860026 0 47.578417609860026 1.4790963022769574 0 0 0 0 132.93044585922871 77.975495659555008 0 77.975495659555008 -1.2271216688695858 0 0 0 0 -306.3153170332007 -27.940349040924048 0 -27.940349040924048 -38.238187404520431 0 0 0 0 -19.815868801010307 34.37784177153334 0 34.37784177153334 1.2989744739251652 0 0 0 0 -30.921127971712551 20.762968497490085 0 20.762968497490085 -4.8487193208697992 0 0 0 0 -18.291619031205641 29.451777646917478 0 29.451777646917478 7.7168171495886781 0 0 0 0 -30.118568000774758 38.401601672297147 0 38.401601672297147 6.866353302002608 0 0 0 0 -7.2401900912071966 0.10670709374544174 0 0.10670709374544174 5.675615686632657 0 0 0 0 -1.337452204688816 48.566261590379327 0 48.566261590379327 -3.3173183159551627 0 0 0 0 -3.0012084802279855 22.224796753266233 0 22.224796753266233 9.9349460925175279 0 0 0 0 -77.080388122837576 40.57978074473283 0 40.57978074473283 25.32444196483857 0 0 0 0 -70.325108088014531 45.223123737925903 0 45.223123737925903 16.413616540150258 0 0 0 0 -75.956815243651363 75.735741542554706 0 75.735741542554706 7.0229814876427099 0 0 0 0 -6.260029954862083 20.849050761225342 0 20.849050761225342 7.6444089004851072 0 0 0 0 -17.448352891404284 44.187541377193611 0 44.187541377193611 12.578108169106486 0 0 0 0 -37.564091469087543 -1.8296003600657968 0 -1.8296003600657968 1.5910929865513026 0 0 0 0 -36.896641621635354 32.34374669731551 0 32.34374669731551 7.8142975297288189 0 0 0 0 -59.051675742124644 24.568508271987412 0 24.568508271987412 8.4887855950973972 0 0 0 0 -39.243189078866635 31.29977461886665 0 31.29977461886665 10.773416430939506 0 0 0 0 -10.881464443080118 36.720975304052317 0 36.720975304052317 3.0383654806257532 0 0 0 0 13.625358726823308 7.3417343887344266 0 7.3417343887344266 -0.36054035854174415 0 0 0 0 7.8959274726239528 59.495495773569019 0 59.495495773569019 14.690936102380874 0 0 0 0 -4.233659514474498 52.14996667403593 0 52.14996667403593 10.385451385363357 0 0 0 0 142.98999907271718 41.304578994846906 0 41.304578994846906 5.3988991151418304 0 0 0 0 -49.310409314355638 24.879713251094472 0 24.879713251094472 6.3924121400796139 0 0 0 0 -74.70777345490751 11.541102023990788 0 11.541102023990788 9.62997933324732 0 0 0 0 249.81860374056851 54.346922790217832 0 54.346922790217832 -16.525198308238032 0 0 0 0 205.94268557430769 59.283713825856466 0 59.283713825856466 -0.22054620733979391 0 0 0 0 195.6788479774259 68.607906117158564 0 68.607906117158564 -2.8223320922606945 0 0 0 0 146.15317339725334 50.602293730503106 0 50.602293730503106 32.23880306022329 0 0 0 0 219.39150279725072 28.910540720991776 0 28.910540720991776 10.674582278359594 0 0 0 0 179.62291886845196 35.948902449646994 0 35.948902449646994 29.020538671582472 0 0 0 0 128.12939114497567 60.975668069640051 0 60.975668069640051 23.371905077667179 0 0 0 0 25.741720603480644 66.890726292741419 0 66.890726292741419 6.8179773144707951 0 0 0 0 46.427533603142365 63.419066550586194 0 63.419066550586194 7.1974764791566486 0 0 0 0 -24.218300555086856 36.310074206379539 0 36.310074206379539 -0.4873785822430392 0 0 0 0 43.735668699811868 62.944490239784045 0 62.944490239784045 2.0199940546399375 0 0 0 0 -260.81118071491073 -84.133493488524437 0 -84.133493488524437 10.078171017683871 0 0 0 0 214.04721121444163 91.120270504066866 0 91.120270504066866 61.848285648935416 0 0 0 0 -1.7133293159645504 8.6079368097046043 0 8.6079368097046043 -5.6461293442436187 0 0 0 0 -272.65320519165425 19.938772104740792 0 19.938772104740792 -76.1751554784787 0 0 0 0 228.44981404605824 104.11429214918826 0 104.11429214918826 36.340941255119105 0 0 0 0 256.79508320368041 92.696727956887571 0 92.696727956887571 -9.240140664500359 0 0 0 0 169.73432333391975 90.669309944001725 0 90.669309944001725 9.0795121751798433 0 0 0 0 226.14695028518327 92.462790826428318 0 92.462790826428318 -8.7125219450099394 0 0 0 0 207.34655289570219 88.138739497855568 0 88.138739497855568 2.0079190137239493 0 0 0 0 206.96063132568088 90.59143835516079 0 90.59143835516079 1.6925275562989555 0 0 0 0 206.09086847843719 101.42889052393912 0 101.42889052393912 15.601214014968718 0 0 0 0 229.02518790955219 103.8990714178999 0 103.8990714178999 2.1726790118809731 0 0 0 0 212.61021539143985 84.082764898241294 0 84.082764898241294 40.179715077403671 0 0 0 0 -2.5774036863069369 6.2223733827042693 0 6.2223733827042693 -2.3938929032175196 0 0 0 0 163.29733392214257 85.409814460552298 0 85.409814460552298 46.908120664289527 0 0 0 0 240.48553544163588 91.012513434868197 0 91.012513434868197 10.271298846764694 0 0 0 0 374.69599984547858 99.931477915136838 0 99.931477915136838 -19.969649907636267 0 0 0 0 192.76505285284657 74.07122315000106 0 74.07122315000106 28.226214076923497 0 0 0 0 309.95919903915637 115.14191359813231 0 115.14191359813231 -0.70991611867793836 0 0 0 0 285.87007412242747 29.009391721112479 0 29.009391721112479 54.041568828492018 0 0 0 0 -292.74065672531287 -128.28169481381065 0 -128.28169481381065 94.322721299778095 0 0 0 0 29.444041066931277 60.162118318453395 0 60.162118318453395 7.0616776504272138 0 0 0 0 21.866243356898849 51.985078793789398 0 51.985078793789398 8.2214926859860498 0 0 0 0 -236.11025981840066 95.55602641695441 0 95.55602641695441 -138.78532127652215 0 0 0 0 -26.766146781667519 36.85941508899073 0 36.85941508899073 -1.7066277383138768 0 0 0 0 303.96290381024301 147.40062398432201 0 147.40062398432201 28.375013910081179 0 0 0 0 264.42921936892526 36.760685864395782 0 36.760685864395782 92.016828352130005 0 0 0 0 256.30723480809138 65.51852987310258 0 65.51852987310258 -9.4043739444714447 0 0 0 0 177.92729696128663 100.23107923886892 0 100.23107923886892 51.296950400981586 0 0 0 0 244.64385133175529 77.757063026700052 0 77.757063026700052 7.7637132885683968 0 0 0 0 268.36707658192609 133.64820130489352 0 133.64820130489352 82.598975926548064 0 0 0 0 -217.50756705381355 10.106522998062246 0 10.106522998062246 12.664061922400833 0 0 0 0 106.90806864219121 33.652388265796617 0 33.652388265796617 21.108597085108158 0 0 0 0 -2.8137805969476268 2.1119061034278026 0 2.1119061034278026 0.73547567495047872 0 0 0 0 95.640209332592349 99.081927749793067 0 99.081927749793067 -67.968091740601267 0 0 0 0 6.7782452487789806 52.118943504435705 0 52.118943504435705 7.747952947208411 0 0 0 0 24.011542796774279 53.321902173976923 0 53.321902173976923 5.3760269412050548 0 0 0 0 -15.270071459306564 93.842437278881334 0 93.842437278881334 -9.6235826072343116 0 0 0 0 -85.341599699797825 75.60520423417006 0 75.60520423417006 37.813459124481597 0 0 0 0 39.261226903447437 47.015378116145541 0 47.015378116145541 6.170886948119005 0 0 0 0 -14.353092161655479 52.729981786477424 0 52.729981786477424 5.9378635474496591 0 0 0 0 -7.6026278767360864 40.017797911862104 0 40.017797911862104 0.42168594764331147 0 0 0 0 -25.779043270432794 120.00303575893383 0 120.00303575893383 17.606396153867536 0 0 0 0 102.02451155943163 -3.4722027974984826 0 -3.4722027974984826 62.895374910742248 0 0 0 0 2.6354752810676678 84.560952878172813 0 84.560952878172813 6.5585753394583293 0 0 0 0 -192.58659597673591 40.629919789750261 0 40.629919789750261 50.929217277160205 0 0 0 0 -248.0761112938053 1192.148022603149 0 1192.148022603149 -448.92959596438959 0 0 0 0 -30.629861210958914 48.618699772546044 0 48.618699772546044 18.469149210439763 0 0 0 0 359.04333479168417 56.945808010081237 0 56.945808010081237 -386.32515069264628 0 0 0 0 3.6955098212428013 3.9266817688789502 0 3.9266817688789502 3.9451641081817428 0 0 0 0 -86.401387886673547 67.466895130512967 0 67.466895130512967 100.54429743926084 0 0 0 0 245.78285482479259 208.74667429904002 0 208.74667429904002 1.2707343949805363 0 0 0 0 260.63110670660353 34.756103325802087 0 34.756103325802087 -45.806947089069581 0 0 0 0 156.50049016615958 50.79675628323821 0 50.79675628323821 34.367648523681055 0 0 0 0 463.67672843382024 107.47665089202019 0 107.47665089202019 -57.417089241420399 0 0 0 0 -1.1391132642895982 2.8862493111922944 0 2.8862493111922944 -0.26134820599135367 0 0 0 0 -430.55277589780599 -184.63894747922041 0 -184.63894747922041 231.60248949828474 0 0 0 0 9.3486600218675449 147.34655844744884 0 147.34655844744884 9.3676196088497363 0 0 0 0 -104.35758368321331 237.1779313641905 0 237.1779313641905 -140.48577070615647 0 0 0 0 -62.93986994127772 66.53989495962378 0 66.53989495962378 49.717648271314829 0 0 0 0 88.103556934354856 21.238070334347867 0 21.238070334347867 -82.654435540209306 0 0 0 0 100.99385322594389 59.942557125405074 0 59.942557125405074 -15.371128243568819 0 0 0 0 80.516745005654229 38.684313962871784 0 38.684313962871784 -103.75906252677487 0 0 0 0 -5.6815226878052272 -0.16817978597487127 0 -0.16817978597487127 121.17839614494915 0 0 0 0 8.5077188848163132 -1.8438883847631544 0 -1.8438883847631544 -0.80384197717397399 0 0 0 0 5.6389117948019702 51.282314561724888 0 51.282314561724888 67.368653512362471 0 0 0 0 -113.42307118743702 93.849893014185909 0 93.849893014185909 40.911770102756691 0 0 0 0 -72.507429266082909 23.344328014823077 0 23.344328014823077 19.323097805827274 0 0 0 0 -97.135904223272519 56.690292777009745 0 56.690292777009745 46.596165070612187 0 0 0 0 -0.37974042639275751 21.133390103103075 0 21.133390103103075 1.9875434423324521 0 0 0 0 -18.244358245323383 56.692833856674497 0 56.692833856674497 17.715505265859974 0 0 0 0 9.5370159059609776 35.707630408133895 0 35.707630408133895 -7.0086005144253534 0 0 0 0 -4.7464575968145848 53.36078422836303 0 53.36078422836303 8.0370641880331988 0 0 0 0 118.41192117369798 71.405499084184157 0 71.405499084184157 8.9485556486470159 0 0 0 0 68.034173725493019 -126.69036174336907 0 -126.69036174336907 157.96579560248574 0 0 0 0 -141.76365750023979 32.769860695846546 0 32.769860695846546 55.710049613509909 0 0 0 0 -14.383609339636678 143.41529281972271 0 143.41529281972271 96.655760266225116 0 0 0 0 65.879262018435838 131.29280130498228 0 131.29280130498228 -10.405083151199506 0 0 0 0 -130.33687134039792 206.800935346404 0 206.800935346404 7.221567063761313 0 0 0 0 -0.4453808948933613 34.931353895060198 0 34.931353895060198 46.585059194305181 0 0 0 0 -33.011564405625904 65.071285807750428 0 65.071285807750428 -37.949631938993662 0 0 0 0 -16.803199566183281 40.095405315769447 0 40.095405315769447 -13.803229260372831 0 0 0 0 -19.658328917104427 100.80690163730833 0 100.80690163730833 -5.0931184247710917 0 0 0 0 77.48101655556917 72.849684791723121 0 72.849684791723121 -16.201635135541437 0 0 0 0 58.222175480506138 24.635933465815469 0 24.635933465815469 -22.355293261749466 0 0 0 0 -43.488686553686648 140.13473333440197 0 140.13473333440197 45.808111294776609 0 0 0 0 3.7031867860186134 52.045234424429395 0 52.045234424429395 15.441182278987711 0 0 0 0 204.00301378024736 -15.205363198283294 0 -15.205363198283294 26.722510402818443 0 0 0 0 -18.697198964247452 9.9712618041976881 0 9.9712618041976881 8.8784233101381815 0 0 0 0 273.69280341073181 377.30981185978635 0 377.30981185978635 -195.92091121427075 0 0 0 0 -12.114910219363313 33.938934865215202 0 33.938934865215202 37.897147856332879 0 0 0 0 -84.206650081998987 0.36679186552282772 0 0.36679186552282772 73.203542581311922 0 0 0 0 -61.269756599234825 -45.238413039114675 0 -45.238413039114675 26.344915363923519 0 0 0 0 -24.50908554200214 332.7044456924923 0 332.7044456924923 -55.719857084906835 0 0 0 0 -16.403206287630496 -1.37626169293533 0 -1.37626169293533 12.424672579681882 0 0 0 0 -38.528820098872529 405.69711289583938 0 405.69711289583938 -594.05178739039548 0 0 0 0 -352.96979857972474 123.04403635095514 0 123.04403635095514 -754.57526261755265 0 0 0 0 -177.94545503202971 -3.1959044683280808 0 -3.1959044683280808 160.65323598081886 0 0 0 0 19.475003683670366 31.45775273592244 0 31.45775273592244 11.945105981918459 0 0 0 0 -178.58457438237383 -4.7122479653771734 0 -4.7122479653771734 399.85697145015001 0 0 0 0 -5.6344961598106309 13.217363382885594 0 13.217363382885594 10.269883426878863 0 0 0 0 32.351940795577036 36.012483268159734 0 36.012483268159734 18.303215078521333 0 0 0 0 0.87133762336870291 4.7277767415320824 0 4.7277767415320824 3.9174929213372565 0 0 0 0 -475.22299935124465 192.90542577793531 0 192.90542577793531 103.2851139226841 0 0 0 0 2.1306089612667733 3.3329430568567933 0 3.3329430568567933 1.8418031595674336 0 0 0 0 -322.37471743585775 -220.51032490000216 0 -220.51032490000216 76.052410619377042 0 0 0 0 -41.603746062941354 93.627484762077074 0 93.627484762077074 -7.7836837964532606 0 0 0 0 31.220209985301672 -212.97420425953169 0 -212.97420425953169 134.53263095910734 0 0 0 0 -0.59934720561012966 158.97213290119362 0 158.97213290119362 39.646699876489947 0 0 0 0 -105.21331827428298 47.266964786200333 0 47.266964786200333 18.902590943369432 0 0 0 0 8.2073543812319656 52.76484419194292 0 52.76484419194292 18.968619084323137 0 0 0 0 -31.484315441221042 110.46770311323507 0 110.46770311323507 -49.352158761408646 0 0 0 0 -50.490154938648629 105.53647622643985 0 105.53647622643985 29.424357565450919 0 0 0 0 -31.817718955640885 107.80387384430287 0 107.80387384430287 0.63886919832657441 0 0 0 0 -40.885359077423345 108.34483663007268 0 108.34483663007268 2.0248636567048379 0 0 0 0 15.976884828665789 125.38737515045068 0 125.38737515045068 1.5522737301434972 0 0 0 0 -32.459199575476759 102.52947290952261 0 102.52947290952261 50.862634078886913 0 0 0 0 -1.1140493275488552 92.746713631237071 0 92.746713631237071 45.821524655793837 0 0 0 0 -48.063879683870255 77.626300439629631 0 77.626300439629631 101.40040974718795 0 0 0 0 -49.523284601411433 67.210766023439646 0 67.210766023439646 27.092821401587571 0 0 0 0 -58.960675707836344 -2.3336169339218031 0 -2.3336169339218031 -5.4032534940924961 0 0 0 0 -36.80692759903468 60.687403993903899 0 60.687403993903899 -62.797775788189028 0 0 0 0 28.947586521382618 -65.01984205107874 0 -65.01984205107874 -80.369175517618714 0 0 0 0 189.60440749296686 -15.563984516338678 0 -15.563984516338678 -139.08657792917074 0 0 0 0 118.25153505007984 9.9793202410473896 0 9.9793202410473896 -30.904540745737904 0 0 0 0 50.308332476819487 -23.62580295231237 0 -23.62580295231237 24.062762865331024 0 0 0 0 60.839819353153871 1.9842426379327662 0 1.9842426379327662 -15.261752053382224 0 0 0 0 -51.84057801311792 -1.6172616288549762 0 -1.6172616288549762 135.85789000649675 0 0 0 0 -66.823278873907839 -54.514533140307321 0 -54.514533140307321 21.509290307825722 0 0 0 0 -48.935259249636147 202.01106480908129 0 202.01106480908129 626.01936204787125 0 0 0 0 -231.80447442928562 -508.00196020744625 0 -508.00196020744625 130.94401987288438 0 0 0 0 -252.33916158192551 202.14647931472246 0 202.14647931472246 -405.49179398427077 0 0 0 0 7.0771043522772743 8.814071414960182 0 8.814071414960182 5.7538608147866839 0 0 0 0 175.38160390350095 627.229966958359 0 627.229966958359 -212.339311255354 0 0 0 0 -11.657804676651722 -178.13463712163139 0 -178.13463712163139 -244.51108714377915 0 0 0 0 -13.888122436997946 -93.472106177134265 0 -93.472106177134265 -131.0135401835505 0 0 0 0 -23.022019548676326 -19.669641056658293 0 -19.669641056658293 433.24725557499187 0 0 0 0 155.82940296272136 979.77038788119535 0 979.77038788119535 578.61929348299418 0 0 0 0 -139.10152430624294 -47.117054264454055 0 -47.117054264454055 479.84135630858145 0 0 0 0 28.505354721057302 -39.944181373675974 0 -39.944181373675974 -42.894309107781737 0 0 0 0 1.0659842343547439 1.6295817130737333 0 1.6295817130737333 2.1340316428129782 0 0 0 0 -40.645212785217154 178.15979581406282 0 178.15979581406282 -427.35047960173324 0 0 0 0 118.65616968302493 -28.213167859474197 0 -28.213167859474197 -607.02194176690682 0 0 0 0 8.3960480432938311 7.1322007048289748 0 7.1322007048289748 4.491414246844208 0 0 0 0 -104.28463879196352 213.21831354492315 0 213.21831354492315 231.78586800293124 0 0 0 0 92.772755229358154 98.421460835583275 0 98.421460835583275 -60.423518855692237 0 0 0 0 -54.607648156234063 -24.420112661606254 0 -24.420112661606254 186.36306110983833 0 0 0 0 22.700352210591518 7.7146372001006966 0 7.7146372001006966 -147.14286418711708 0 0 0 0 -29.45260508559295 207.56846019043769 0 207.56846019043769 202.35814632393885 0 0 0 0 -232.80533460034712 195.70538622795357 0 195.70538622795357 275.60484510527021 0 0 0 0 -219.02369812523102 29.225586944856332 0 29.225586944856332 51.576138641234138 0 0 0 0 -50.501466801812057 70.179647892287903 0 70.179647892287903 52.094548589771875 0 0 0 0 -51.785766454810073 84.166094030753811 0 84.166094030753811 2.8127640584270921 0 0 0 0 12.802593261531953 33.717746930209827 0 33.717746930209827 47.541976153192557 0 0 0 0 -148.61976905966003 327.3408738410908 0 327.3408738410908 -171.2044982492655 0 0 0 0 -55.294603243932215 52.594589234562591 0 52.594589234562591 30.601177068499965 0 0 0 0 55.260153155013541 59.325110395193406 0 59.325110395193406 -116.56509127307436 0 0 0 0 -205.66488503234905 137.13704817238477 0 137.13704817238477 140.58500584827561 0 0 0 0 -4.7646101603131683 -25.206181548081076 0 -25.206181548081076 76.368035866544233 0 0 0 0 -50.688120845492449 -77.318331555672557 0 -77.318331555672557 517.31761998467118 0 0 0 0 2.8090148375406443 2.5606481468777247 0 2.5606481468777247 2.113428840450311 0 0 0 0 151.09149299178171 257.53128373455911 0 257.53128373455911 164.67651693812877 0 0 0 0 64.220021017345061 12.881779952832858 0 12.881779952832858 -98.411205115480698 0 0 0 0 -37.81276219719075 275.04815530355336 0 275.04815530355336 -172.87863293602186 0 0 0 0 15.235235664692865 34.627191000729987 0 34.627191000729987 47.847535784450088 0 0 0 0 3.7570802648242534 48.154852617182769 0 48.154852617182769 -16.582240263622225 0 0 0 0 55.665650042439665 54.387260898905879 0 54.387260898905879 -19.62058682060524 0 0 0 0 32.750126057435409 98.06015133614892 0 98.06015133614892 40.513670895526957 0 0 0 0 -5.7435287750304269 44.181143462413274 0 44.181143462413274 78.539542660266306 0 0 0 0 -70.196306599549644 35.525025550508872 0 35.525025550508872 4.5079103975695034 0 0 0 0 1.0252624952991027 59.531982303382392 0 59.531982303382392 -2.7294662318436167 0 0 0 0 -85.102618481680111 41.813796239663134 0 41.813796239663134 14.101387831382453 0 0 0 0 -91.911708638728669 102.71210758919642 0 102.71210758919642 -43.646106235391926 0 0 0 0 10.123891806000856 11.483352112968127 0 11.483352112968127 12.125802912469091 0 0 0 0 -70.766978376824682 35.370568163777079 0 35.370568163777079 -8.9273379138539894 0 0 0 0 -37.662945364083498 81.975034572188633 0 81.975034572188633 -62.650625310146097 0 0 0 0 -129.2760171249538 173.28200011787521 0 173.28200011787521 29.626698532370938 0 0 0 0 16.958928927797576 17.756863320083664 0 17.756863320083664 20.812623562079011 0 0 0 0 -1.0066341061465209 37.515658224642721 0 37.515658224642721 -44.630046798878539 0 0 0 0 -22.756815945838753 32.252941331320471 0 32.252941331320471 -22.535362396170967 0 0 0 0 -14.51936005627681 73.290068147078216 0 73.290068147078216 -21.772723671194399 0 0 0 0 -145.13531318751757 101.30370862072914 0 101.30370862072914 -19.326552012495085 0 0 0 0 -50.083972023088791 62.539465509392357 0 62.539465509392357 -20.896337013984521 0 0 0 0 -7.9700557921764243 82.623288456330698 0 82.623288456330698 40.251431803415471 0 0 0 0 1.4374023387502461 8.4910326906728066 0 8.4910326906728066 -11.016828286433851 0 0 0 0 -5.9424339285214955 96.230860423933336 0 96.230860423933336 219.78954204294496 0 0 0 0 0.87627166140147494 -0.063866813973540104 0 -0.063866813973540104 -0.44132710498356609 0 0 0 0 30.616106020115694 38.829380941089767 0 38.829380941089767 -171.56216988060987 0 0 0 0 -10.9348293473995 107.68945383451137 0 107.68945383451137 -107.01991727135464 0 0 0 0 15.487821517071445 32.334439229943428 0 32.334439229943428 19.838048035033438 0 0 0 0 59.443771848948018 83.111980551962915 0 83.111980551962915 -106.04209571702813 0 0 0 0 -11.338797457543933 95.194643600873206 0 95.194643600873206 -27.981495755426295 0 0 0 0 3.6484154800891702 18.94579445511954 0 18.94579445511954 -81.95503712838763 0 0 0 0 -14.703422452264462 41.762597634140342 0 41.762597634140342 -52.693781830307636 0 0 0 0 25.595930621976549 68.315850044667513 0 68.315850044667513 -77.418646776201058 0 0 0 0 -1.4473155105079059 80.262935534514156 0 80.262935534514156 3.7845887734270036 0 0 0 0 16.292932624852256 108.73219008967931 0 108.73219008967931 6.9249121736452253 0 0 0 0 -18.598497102633701 41.028539868737425 0 41.028539868737425 68.677858510087844 0 0 0 0 5.5679738199760322 45.652788208008133 0 45.652788208008133 -7.9492057886818657 0 0 0 0 7.086113628318401 43.699865279571981 0 43.699865279571981 -2.0400622704017843 0 0 0 0 9.3815146031556651 44.102469088145881 0 44.102469088145881 -7.760848519668798 0 0 0 0 -8.3105824176859358 33.792749939889738 0 33.792749939889738 18.524367071566097 0 0 0 0 34.761607628402999 39.228332999849954 0 39.228332999849954 15.997328835524968 0 0 0 0 -15.004564632529551 65.136439759161334 0 65.136439759161334 14.705093539914088 0 0 0 0 7.8785457501083727 11.691022173103505 0 11.691022173103505 -19.23007660820025 0 0 0 0 3.4251274083653698 75.395928975027346 0 75.395928975027346 -24.323021900123877 0 0 0 0 -6.1278628647560254 80.412520098028835 0 80.412520098028835 27.310733500329661 0 0 0 0 -5.3888489879027475 72.626552868408908 0 72.626552868408908 37.974607898020622 0 0 0 0 20.08858496619672 38.810834030812678 0 38.810834030812678 6.2681491884066105 0 0 0 0 -30.823892740067095 74.384482488007052 0 74.384482488007052 -54.901932860928355 0 0 0 0 -0.43713815901719499 82.97865712724888 0 82.97865712724888 13.464708486129211 0 0 0 0 18.39789676240342 27.434058451664839 0 27.434058451664839 -22.176823523313942 0 0 0 0 -25.433515123854903 42.285035898572239 0 42.285035898572239 47.443869124132476 0 0 0 0 -5.8607653097787988 66.745164041055432 0 66.745164041055432 -17.819177728854243 0 0 0 0 21.368748685016122 37.027715912240765 0 37.027715912240765 24.915691679706658 0 0 0 0 -11.651050739788843 91.694954115271685 0 91.694954115271685 0.8847299836993443 0 0 0 0 22.009976465871603 29.886859056754581 0 29.886859056754581 11.493896592725783 0 0 0 0 16.349214697424031 53.058967770804884 0 53.058967770804884 -8.4418202866509091 0 0 0 0 -21.116550901151641 52.609057175102407 0 52.609057175102407 2.7450529551442742 0 0 0 0 37.516066047377535 140.1586159468261 0 140.1586159468261 124.73693970477325 0 0 0 0 25.287966087510739 61.428789816108235 0 61.428789816108235 1.2541384783163281 0 0 0 0 -5.1112508630467346 262.34931772544951 0 262.34931772544951 370.31821570407556 0 0 0 0 192.99660421567387 159.1258241130563 0 159.1258241130563 -196.43484615628768 0 0 0 0 170.09421331697376 196.34907194445987 0 196.34907194445987 -62.813502176358725 0 0 0 0 150.99741064224509 439.17887557935319 0 439.17887557935319 -617.42854258292937 0 0 0 0 92.113987343022018 538.73565170022448 0 538.73565170022448 -40.764176568671246 0 0 0 0 -65.931690342389629 442.62858833083556 0 442.62858833083556 -630.99576447832442 0 0 0 0 -3.1751387354976544 17.836906108061168 0 17.836906108061168 -4.0396905764879047 0 0 0 0 -186.01579132046027 814.50976384223577 0 814.50976384223577 417.31142701869248 0 0 0 0 -15.765006695160992 745.6621716752561 0 745.6621716752561 -441.11161065803753 0 0 0 0 286.65956223765534 581.24762628024109 0 581.24762628024109 363.92438650238182 0 0 0 0 52.559946649926133 51.864102005296445 0 51.864102005296445 54.851658875035355 0 0 0 0 -448.981829113407 142.96642426266953 0 142.96642426266953 57.202938262791577 0 0 0 0 -8.9341300578695666 39.666677485068377 0 39.666677485068377 11.973739882011451 0 0 0 0 -6.1497075074640932 56.231525234039765 0 56.231525234039765 -13.125068677380327 0 0 0 0 -43.750868143852131 67.625054979597735 0 67.625054979597735 8.8128241983795306 0 0 0 0 37.988018797412224 55.45667932325523 0 55.45667932325523 -7.4220041165772273 0 0 0 0 -348.57591135230905 303.23072184274315 0 303.23072184274315 245.24998192436033 0 0 0 0 -175.82252512748528 59.397540417550772 0 59.397540417550772 -103.51075645104356 0 0 0 0 -178.18554202824839 232.81036159958123 0 232.81036159958123 274.03748433730652 0 0 0 0 -569.75134001077822 -84.439454325738552 0 -84.439454325738552 158.89366655792401 0 0 0 0 -336.87094397219334 16.482549741288494 0 16.482549741288494 -49.406873815714789 0 0 0 0 -21.20527402157991 40.640842668858568 0 40.640842668858568 -21.659405751346654 0 0 0 0 28.866559566169599 100.88449924266024 0 100.88449924266024 26.894551152119675 0 0 0 0 -18.445736009198576 53.593539258178083 0 53.593539258178083 11.023986663922372 0 0 0 0 7.0744336370116798 29.279680092542549 0 29.279680092542549 -55.323890822651265 0 0 0 0 10.135400796009122 39.329608300426898 0 39.329608300426898 42.220909604328916 0 0 0 0 -84.772292589303106 144.92469156047446 0 144.92469156047446 -67.276170487282798 0 0 0 0 3.4205322775269451 110.39169752926682 0 110.39169752926682 -162.12041060269621 0 0 0 0 -3.3658526370381878 59.210472687767833 0 59.210472687767833 -41.24335594839431 0 0 0 0 -35.846184782023641 42.111428834534763 0 42.111428834534763 -18.905650518840346 0 0 0 0 -0.9677971847831941 57.360745580924231 0 57.360745580924231 -39.847327418141504 0 0 0 0 26.336454247008078 113.09608995199596 0 113.09608995199596 14.029668858587684 0 0 0 0 10.958431831539201 16.091230918047586 0 16.091230918047586 -17.485720886925264 0 0 0 0 9.0635714983982325 8.197873859388892 0 8.197873859388892 -17.002133588841389 0 0 0 0 10.790868431358831 13.757170420075454 0 13.757170420075454 -13.456596761523542 0 0 0 0 9.9151431635400513 16.389658256641269 0 16.389658256641269 -15.641280803851259 0 0 0 0 15.663958768841411 7.5106928305237162 0 7.5106928305237162 -0.74638724539809331 0 0 0 0 2.6579263508974691 2.3599023948627291 0 2.3599023948627291 -22.902116146953631 0 0 0 0 11.392895486735512 4.8468733412864751 0 4.8468733412864751 1.4513843141732821 0 0 0 0 -5.9795069607789628 -0.3785622917348519 0 -0.3785622917348519 -20.408256363818509 0 0 0 0 13.612358375328768 11.032019111020418 0 11.032019111020418 -23.468408349632227 0 0 0 0 -3.8231222947797505 10.748599050682969 0 10.748599050682969 -20.264545701098541 0 0 0 0 -2.669248680286131 -2.5537770154082082 0 -2.5537770154082082 2.5419690146908422 0 0 0 0 86.275240739341825 -43.706955235733403 0 -43.706955235733403 -57.228124834644404 0 0 0 0 -196.7940765703388 475.09968219180701 0 475.09968219180701 -575.85852781589165 0 0 0 0 24.258786022648565 364.9950730950377 0 364.9950730950377 -541.54217463794521 0 0 0 0 -100.48890168575235 11.0962541922122 0 11.0962541922122 -978.0590988285403 0 0 0 0 8.9897353916603606 326.57688752326067 0 326.57688752326067 -471.25665559457047 0 0 0 0 94.251060340429831 183.04672039578327 0 183.04672039578327 -508.56018890326959 0 0 0 0 21.681757817656035 257.20116567514924 0 257.20116567514924 -234.1480349822732 0 0 0 0 138.51219584431965 514.98741484457423 0 514.98741484457423 -873.68958458542329 0 0 0 0 40.790696315001696 759.93511369583575 0 759.93511369583575 -758.09616406320856 0 0 0 0 -87.512313071027165 208.02613327312429 0 208.02613327312429 877.77998142717843 0 0 0 0 257.54000084422296 591.41677769633679 0 591.41677769633679 -1181.2938885762705 0 0 0 0 6.4690294570056039 -0.44931062233642649 0 -0.44931062233642649 -1.6314251784603222 0 0 0 0 196.16043185431045 422.244266265021 0 422.244266265021 490.27918230339856 0 0 0 0 72.950477889186004 573.96152072956829 0 573.96152072956829 761.1392947150016 0 0 0 0 0.59498681446711998 286.20090206576788 0 286.20090206576788 247.06822111568181 0 0 0 0 14.380495460265593 478.5340910752825 0 478.5340910752825 459.88489384148124 0 0 0 0 150.66428357118275 500.70034134806701 0 500.70034134806701 411.39562671694875 0 0 0 0 82.736821416037856 247.3550438154416 0 247.3550438154416 154.16976233533933 0 0 0 0 229.71940829418236 518.92846425666994 0 518.92846425666994 347.04434571797174 0 0 0 0 -375.73330094516859 2.7335399183903064 0 2.7335399183903064 292.73780373079808 0 0 0 0 2.9536713887137012 308.18927102391172 0 308.18927102391172 166.14406501465055 0 0 0 0 230.00440006047211 626.69309024300401 0 626.69309024300401 455.49361899268843 0 0 0 0 212.08843430061825 528.24228304872031 0 528.24228304872031 397.29357911515035 0 0 0 0 28.313476263683242 254.88647150307293 0 254.88647150307293 920.23583398920164 0 0 0 0 13.667304574079935 117.93032629688173 0 117.93032629688173 18.470998118827993 0 0 0 0 -2.8163225878637377 0.52801433826831889 0 0.52801433826831889 2.4515329286091756 0 0 0 0 435.60252174412017 530.6368782667887 0 530.6368782667887 348.50077039168355 0 0 0 0 511.612657938349 60.290411793206658 0 60.290411793206658 5.0113626870752341 0 0 0 0 9.298884568954378 8.1799996259093177 0 8.1799996259093177 0.8357973878323719 0 0 0 0 8.8359950396770728 10.421367679109608 0 10.421367679109608 -24.955134970030485 0 0 0 0 20.816047581520252 132.16799068247929 0 132.16799068247929 30.75343855220126 0 0 0 0 -24.697889352848051 441.57318295225718 0 441.57318295225718 701.44142343310523 0 0 0 0 527.97203337641122 -203.16530321543394 0 -203.16530321543394 161.17528453554405 0 0 0 0 572.31257102370728 602.55520362815696 0 602.55520362815696 421.10492942452038 0 0 0 0 -84.509225792024154 -180.7797286245227 0 -180.7797286245227 -164.45825222220446 0 0 0 0 -126.67684229221777 148.26771893725527 0 148.26771893725527 -21.839313116366611 0 0 0 0 151.88505301689293 -174.20598408393198 0 -174.20598408393198 -240.14878242182021 0 0 0 0 -263.45223088785133 213.94569236569441 0 213.94569236569441 872.27001338308582 0 0 0 0 -579.92183119013498 -73.401274975705746 0 -73.401274975705746 341.4963222860606 0 0 0 0 -120.12657411070541 168.54322913246324 0 168.54322913246324 119.89757902905694 0 0 0 0 -391.75552332111693 -150.04586002885844 0 -150.04586002885844 -198.66470567311626 0 0 0 0 -887.3981111892499 82.821415236103348 0 82.821415236103348 -144.09275277405686 0 0 0 0 -862.42882454773167 -606.96916677094509 0 -606.96916677094509 -227.90055119428871 0 0 0 0 -9.6221317359914735 3.690631626414401 0 3.690631626414401 0.078122042304727302 0 0 0 0 26.205436864926014 178.85106927462039 0 178.85106927462039 -228.99657180607755 0 0 0 0 -647.71606135511047 -499.52324782697724 0 -499.52324782697724 -53.411193992273184 0 0 0 0 -159.28448421786015 182.5495838628558 0 182.5495838628558 166.30745272376225 0 0 0 0 -501.02942640887886 446.01387670415124 0 446.01387670415124 -10.423226034719846 0 0 0 0 -0.5010828080002625 0.28563196406838642 0 0.28563196406838642 4.240815972261629 0 0 0 0 -326.78521965388791 125.80708606046755 0 125.80708606046755 162.73697598655417 0 0 0 0 -464.9446592348213 -105.98827379222166 0 -105.98827379222166 100.61581542319618 0 0 0 0 26.081956520232779 87.573242655544163 0 87.573242655544163 106.63575024817692 0 0 0 0 -130.39253074165026 -198.64503407374104 0 -198.64503407374104 -122.11233824315423 0 0 0 0 -214.04243724003027 33.913050607938203 0 33.913050607938203 271.62950280997757 0 0 0 0 -91.4107178774575 -41.244061237444839 0 -41.244061237444839 -704.29013203374052 0 0 0 0 -93.892525503365505 -72.067678799212672 0 -72.067678799212672 -150.84570957369579 0 0 0 0 245.36372259498785 82.506525618001888 0 82.506525618001888 -101.18182350598727 0 0 0 0 35.911006963990076 -41.70529661155706 0 -41.70529661155706 25.886813715176686 0 0 0 0 20.608931334703811 1.7668726607917051 0 1.7668726607917051 -97.562723877774829 0 0 0 0 -444.24307885316375 128.86034027949245 0 128.86034027949245 33.383324453170644 0 0 0 0 4.0634103404880051 5.2566803670544573 0 5.2566803670544573 6.1678996794682064 0 0 0 0 -66.083809057048711 27.479846634315209 0 27.479846634315209 95.250155050925969 0 0 0 0 -228.46371575386001 54.587091313274868 0 54.587091313274868 130.84310470698438 0 0 0 0 -73.116237438323878 -8.7738819440310181 0 -8.7738819440310181 272.68253707627173 0 0 0 0 -1.9769573960020352 25.790689626761377 0 25.790689626761377 -4.8275679714570288 0 0 0 0 258.31606276747925 -94.320386428484198 0 -94.320386428484198 41.372440880033537 0 0 0 0 -26.185077750463279 -4.58713023074597 0 -4.58713023074597 7.2148546256285044 0 0 0 0 -122.98114677506965 77.867653260833322 0 77.867653260833322 51.365961286541278 0 0 0 0 -507.80362022438203 -259.57275926803413 0 -259.57275926803413 -35.053894190795063 0 0 0 0 8.2420585173668144 23.602445314045028 0 23.602445314045028 -6.8924742153411671 0 0 0 0 -15.218397057113943 65.346948570586676 0 65.346948570586676 15.832874298529248 0 0 0 0 128.58502059207967 58.414530610676593 0 58.414530610676593 24.728742543542467 0 0 0 0 30.908669765813102 29.287249694338243 0 29.287249694338243 81.405539407773176 0 0 0 0 -86.456780056716525 111.19587396143106 0 111.19587396143106 71.579267342731328 0 0 0 0 64.130345543948124 73.27963676752529 0 73.27963676752529 -97.011356347677065 0 0 0 0 -200.46684735751842 162.7440405226298 0 162.7440405226298 49.478106880516862 0 0 0 0 43.545526344270911 166.93411965979249 0 166.93411965979249 -93.060513803662616 0 0 0 0 -22.72972436996789 60.298236274159379 0 60.298236274159379 21.744797877453578 0 0 0 0 -202.72851679568703 15.642818810556491 0 15.642818810556491 91.460550207583765 0 0 0 0 -101.3312149229605 46.635993929045071 0 46.635993929045071 82.449919649559888 0 0 0 0 8.9817874827145943 7.0487543162913866 0 7.0487543162913866 -0.90039806143198575 0 0 0 0 -160.63407550124975 68.100494311645889 0 68.100494311645889 75.077911963199767 0 0 0 0 -182.66180619579245 148.18456384582896 0 148.18456384582896 71.068527611850641 0 0 0 0 -56.2547655846829 201.71639447764028 0 201.71639447764028 -49.319422252177901 0 0 0 0 -20.068700433526828 63.770513597772151 0 63.770513597772151 -85.651997447141184 0 0 0 0 55.105555485984951 205.20262672245372 0 205.20262672245372 180.34389695275968 0 0 0 0 272.1922967208875 132.93635779102442 0 132.93635779102442 -69.204922094766516 0 0 0 0 -52.75571557731746 113.11811944913279 0 113.11811944913279 24.688690917928398 0 0 0 0 67.073424015678029 81.050852862434112 0 81.050852862434112 -51.674938623065827 0 0 0 0 46.294871538091684 95.809689124867873 0 95.809689124867873 23.405519453753413 0 0 0 0 -1.1956756035033322 61.754240056454364 0 61.754240056454364 75.38619012624622 0 0 0 0 -72.190122651074034 75.596802218386983 0 75.596802218386983 89.769609370479884 0 0 0 0 -39.482430362688319 90.740922638104166 0 90.740922638104166 69.714585477187939 0 0 0 0 -71.682538323132576 77.666403502811136 0 77.666403502811136 78.289183239685372 0 0 0 0 -64.597807976795593 56.838958420881681 0 56.838958420881681 24.002455067711708 0 0 0 0 -103.25495418168066 56.807828058572341 0 56.807828058572341 88.757342523924308 0 0 0 0 -90.897512686613481 70.146355461209168 0 70.146355461209168 79.129615494509835 0 0 0 0 -83.190208279747822 69.714264071568323 0 69.714264071568323 25.244089774430904 0 0 0 0 -104.36283734961034 81.402963628219368 0 81.402963628219368 130.20335059108766 0 0 0 0 -68.955898262734991 118.986502381641 0 118.986502381641 116.11980450196643 0 0 0 0 -74.626218789191626 138.80023915273341 0 138.80023915273341 71.857467944787459 0 0 0 0 118.80331874620242 170.37812184635732 0 170.37812184635732 116.13477805535513 0 0 0 0 -81.433296338720538 59.249153182256123 0 59.249153182256123 76.039324707752712 0 0 0 0 -17.183763176891464 -0.69232370922086517 0 -0.69232370922086517 1.4466295135460712 0 0 0 0 -123.67464214765641 146.9748510021127 0 146.9748510021127 76.197552198705125 0 0 0 0 -80.582598437564201 43.74067904032637 0 43.74067904032637 18.696508389230019 0 0 0 0 -116.1327392545254 22.781717370252409 0 22.781717370252409 111.62536974088289 0 0 0 0 54.868047403011587 141.64627396015021 0 141.64627396015021 -7.1342895999041502 0 0 0 0 -21.693809966382105 169.40080990152819 0 169.40080990152819 132.51714101115795 0 0 0 0 -89.623881982359308 94.838047466868375 0 94.838047466868375 53.834303421012009 0 0 0 0 -78.695816285438923 47.452746258095431 0 47.452746258095431 182.44461749406219 0 0 0 0 -148.89838100194538 84.267364001039823 0 84.267364001039823 55.113475869919057 0 0 0 0 -71.294881513658311 67.978947464252315 0 67.978947464252315 -65.445280253945384 0 0 0 0 2.5530678137583891 138.59506570134545 0 138.59506570134545 -151.54696112246893 0 0 0 0 -62.759022841375554 131.28488398332411 0 131.28488398332411 -2.921383326907744 0 0 0 0 -83.170249807575146 171.91424654480306 0 171.91424654480306 -59.259098363079829 0 0 0 0 22.807438014242507 98.150698291348817 0 98.150698291348817 -94.71960778938228 0 0 0 0 10.670195876915386 73.120278991424129 0 73.120278991424129 40.524519042410247 0 0 0 0 4.3871025773605936 5.7208933546654386 0 5.7208933546654386 4.1180569931422326 0 0 0 0 29.501135989448812 25.070562951430475 0 25.070562951430475 -122.74896949753293 0 0 0 0 -16.793538601123146 121.98422978550661 0 121.98422978550661 -45.734990345983533 0 0 0 0 7.8404705942957662 67.372863292261172 0 67.372863292261172 -61.394422814180871 0 0 0 0 -168.10515310704068 163.93581254022865 0 163.93581254022865 -126.36424220699337 0 0 0 0 -22.692472099151928 179.11743023067902 0 179.11743023067902 -167.80959860828443 0 0 0 0 -131.88992309728201 159.7238620751159 0 159.7238620751159 -104.14365833336342 0 0 0 0 -82.437427121731162 91.033328691875795 0 91.033328691875795 -169.51720261538867 0 0 0 0 -85.582806800328399 102.95837020474573 0 102.95837020474573 -51.704030797867745 0 0 0 0 -55.131127030581411 96.071918753805221 0 96.071918753805221 -89.542670231105149 0 0 0 0 -61.935119238618427 101.39441504498245 0 101.39441504498245 -43.453040600921668 0 0 0 0 -33.120474784012913 54.936472734751078 0 54.936472734751078 -22.249388548239949 0 0 0 0 -68.012092732857127 80.026733536655229 0 80.026733536655229 18.909999116316612 0 0 0 0 -113.14819243227976 70.327289800505241 0 70.327289800505241 25.932735888933166 0 0 0 0 -103.09141648826335 67.016406132261181 0 67.016406132261181 -51.501556434304803 0 0 0 0 -177.8780736725862 50.524156953824331 0 50.524156953824331 -54.933652008294303 0 0 0 0 -70.838334335232503 58.174451413233328 0 58.174451413233328 -65.969517177836678 0 0 0 0 -114.15610151199508 -36.489424501800386 0 -36.489424501800386 -12.025104122236371 0 0 0 0 -125.4278151522376 -52.559561556321569 0 -52.559561556321569 9.0785858770104824 0 0 0 0 -127.34798422795029 -32.630034685217652 0 -32.630034685217652 43.125698155228747 0 0 0 0 -61.636888882509083 27.567431616213071 0 27.567431616213071 6.6757761851404211 0 0 0 0 -2.3472093895365163 3.3857909994180204 0 3.3857909994180204 6.2442890241774762 0 0 0 0 -144.95490174473525 5.9837351060778019 0 5.9837351060778019 8.7842198434736929 0 0 0 0 -218.58856075573567 2.9773126587097067 0 2.9773126587097067 74.921859547474014 0 0 0 0 -97.840053218329558 13.540500135684852 0 13.540500135684852 2.1902819979150081 0 0 0 0 -6.7789062118118579 -0.56908683431221618 0 -0.56908683431221618 11.061906792296696 0 0 0 0 -21.590148275252432 -11.987698294327856 0 -11.987698294327856 12.627355716434977 0 0 0 0 -22.789635075496335 -7.7194072047532245 0 -7.7194072047532245 12.987018912914209 0 0 0 0 -69.721519636761514 -50.401888731255895 0 -50.401888731255895 -102.37648524050746 0 0 0 0 -26.92414650828141 139.33567296694491 0 139.33567296694491 13.263962465731311 0 0 0 0 -23.213014112421661 125.38394234218504 0 125.38394234218504 63.078693542913243 0 0 0 0 -84.26346313773638 34.897341701736785 0 34.897341701736785 22.836456079010347 0 0 0 0 9.6172632418783905 81.660289960480441 0 81.660289960480441 -31.374626014599926 0 0 0 0 21.236601946112387 113.57735163404209 0 113.57735163404209 21.797199132219248 0 0 0 0 -6.8695880867744563 39.451561789275729 0 39.451561789275729 -0.61019676149589941 0 0 0 0 26.036882790904201 7.5050384251371725 0 7.5050384251371725 -22.162065484604682 0 0 0 0 19.601223106926426 24.741370171967077 0 24.741370171967077 15.971111616829035 0 0 0 0 -19.292134719245951 33.841516350541497 0 33.841516350541497 22.180114311493526 0 0 0 0 -18.105508152621042 33.205241122814186 0 33.205241122814186 17.206104805631185 0 0 0 0 -20.015650263034331 29.739074707089458 0 29.739074707089458 24.196059961344872 0 0 0 0 -3.4123591096542043 20.926124351680826 0 20.926124351680826 15.08165737619337 0 0 0 0 -18.139986606111052 29.086231794062769 0 29.086231794062769 21.424843168249936 0 0 0 0 -48.995289020022028 34.209877634784789 0 34.209877634784789 27.614038130494009 0 0 0 0 5.8357130898712057 72.238403028934044 0 72.238403028934044 43.285414448851952 0 0 0 0 -0.11892307876573227 32.744490293698107 0 32.744490293698107 32.328971076359039 0 0 0 0 -33.247425756067969 1.7545173407634138 0 1.7545173407634138 15.33717942162184 0 0 0 0 -73.449974012300359 -7.0247827802961069 0 -7.0247827802961069 19.299811162572297 0 0 0 0 -22.25917936496262 21.523726351162622 0 21.523726351162622 5.328021355700912 0 0 0 0 -23.480590712591578 5.1971023014995126 0 5.1971023014995126 15.234512556481576 0 0 0 0 -14.07485680828043 25.27137684885885 0 25.27137684885885 13.668498603644139 0 0 0 0 -35.180845825583674 25.008036105777137 0 25.008036105777137 6.8418114357427839 0 0 0 0 -62.809914622077486 22.89944894175278 0 22.89944894175278 21.37532294288394 0 0 0 0 -58.822021464451609 -8.0622342623901204 0 -8.0622342623901204 36.037437806342496 0 0 0 0 -38.484674255960272 2.9824322674467112 0 2.9824322674467112 29.427305355697172 0 0 0 0 -31.388738436129643 -9.7704116382174107 0 -9.7704116382174107 28.996660585820791 0 0 0 0 -47.821412420213164 12.393827486230293 0 12.393827486230293 23.480978576815687 0 0 0 0 -11.961511324960156 11.787804415704159 0 11.787804415704159 18.06958094460424 0 0 0 0 -17.854556152001493 10.679241264912491 0 10.679241264912491 13.311247364301551 0 0 0 0 -18.753418436948806 5.9012699036959688 0 5.9012699036959688 18.399271821705781 0 0 0 0 -25.130189937874093 18.76556791481562 0 18.76556791481562 15.219582284600619 0 0 0 0 -17.876646498267661 3.5193628485524471 0 3.5193628485524471 15.369217670069247 0 0 0 0 -3.9956718025044751 17.624733091320458 0 17.624733091320458 6.7368567880290016 0 0 0 0 -14.130394760809622 11.929185044064781 0 11.929185044064781 19.127619059937871 0 0 0 0 -30.224377979480778 32.490214274490427 0 32.490214274490427 -1.2250559523672564 0 0 0 0 -5.9631976746587441 1.5972065540886859 0 1.5972065540886859 0.48070377427534083 0 0 0 0 -22.370017121257547 12.534937060847188 0 12.534937060847188 -1.8187958026215654 0 0 0 0 -8.4195211176729288 1.5629121085781037 0 1.5629121085781037 0.53925538236956072 0 0 0 0 -36.889236193543184 27.247617571731098 0 27.247617571731098 3.7566242155153304 0 0 0 0 -45.046911645476939 6.0520703168222099 0 6.0520703168222099 27.189761524718051 0 0 0 0 -50.847955852186715 11.132502233573177 0 11.132502233573177 -6.9659989409847185 0 0 0 0 -1.5370077925181249 -2.4100105942270602 0 -2.4100105942270602 18.664669542435149 0 0 0 0 -46.399993186612846 -0.024070612678769976 0 -0.024070612678769976 4.6513827752496582 0 0 0 0 -85.375337248420692 -49.993175049636193 0 -49.993175049636193 -4.7139027770754183 0 0 0 0 -25.878299920186691 7.8471163432113826 0 7.8471163432113826 14.703204473393271 0 0 0 0 -44.74317692636032 22.893581382420962 0 22.893581382420962 42.322943203078466 0 0 0 0 -61.041950020793593 -0.95680351414193865 0 -0.95680351414193865 33.871409851037242 0 0 0 0 9.5042601225504768 30.323521041253116 0 30.323521041253116 26.305253759026527 0 0 0 0 -26.40830064547481 9.9946068514764193 0 9.9946068514764193 36.05489386235422 0 0 0 0 -35.105516563802666 37.072905671149783 0 37.072905671149783 30.117571608308936 0 0 0 0 -71.648464844634873 21.153620116019738 0 21.153620116019738 39.565131056999235 0 0 0 0 -20.432202573036193 21.746976048474608 0 21.746976048474608 -6.7687326962332008 0 0 0 0 0.39844162806527095 14.060220736224338 0 14.060220736224338 21.111455055496606 0 0 0 0 -19.763492780311935 30.847799325490996 0 30.847799325490996 16.496082674857462 0 0 0 0 -13.205804253551833 18.407907367366533 0 18.407907367366533 19.094428795484419 0 0 0 0 -7.3438576754779206 31.224284324423934 0 31.224284324423934 30.341099764402315 0 0 0 0 -1.0252389451875743 5.0875624625300873 0 5.0875624625300873 4.023109492888409 0 0 0 0 13.503514340918628 28.949626969437304 0 28.949626969437304 3.9482870969513897 0 0 0 0 -53.901047368170111 20.786436015783693 0 20.786436015783693 42.266925820818869 0 0 0 0 -53.229247996263439 13.171093700904748 0 13.171093700904748 21.323756373632932 0 0 0 0 -56.662704672606196 -6.0251219485799083 0 -6.0251219485799083 16.821774087022277 0 0 0 0 1.275488326100259 7.3695748451191392 0 7.3695748451191392 2.810427168742649 0 0 0 0 11.103702856307791 32.33429677017557 0 32.33429677017557 18.220667400950333 0 0 0 0 -4.4561667284142459 30.401624651429302 0 30.401624651429302 18.441016707907693 0 0 0 0 8.2199036162104875 20.89415900871316 0 20.89415900871316 15.549289576201602 0 0 0 0 -8.2839336824668521 15.043105922518961 0 15.043105922518961 1.5243726226767649 0 0 0 0 2.8101372443015862 30.367581464954128 0 30.367581464954128 25.146455625093949 0 0 0 0 -4.6732157376318781 10.529115970854043 0 10.529115970854043 9.1131149879507944 0 0 0 0 18.018374050079728 38.779762434824079 0 38.779762434824079 28.126810642574128 0 0 0 0 19.522342911055603 34.19440676508566 0 34.19440676508566 21.411673479451565 0 0 0 0 43.36739795745234 3.592417128442321 0 3.592417128442321 64.681492589486879 0 0 0 0 5.7461761286249384 20.881122721606516 0 20.881122721606516 -3.3565868617588421 0 0 0 0 15.744142889062346 42.427286033218628 0 42.427286033218628 22.986087418350991 0 0 0 0 18.157260242324682 23.277635811729112 0 23.277635811729112 9.8752044293194672 0 0 0 0 11.35362432723187 23.774322262867429 0 23.774322262867429 12.448935296767097 0 0 0 0 19.156429329648745 33.089754035643637 0 33.089754035643637 25.846736009174492 0 0 0 0 19.495122556891147 31.631074056778743 0 31.631074056778743 19.036248051779694 0 0 0 0 23.959664415999896 36.768912493971811 0 36.768912493971811 15.410334765125299 0 0 0 0 17.679927690587647 27.866748603511951 0 27.866748603511951 13.07746534459875 0 0 0 0 10.584075569087872 33.255430946839624 0 33.255430946839624 26.455461445952096 0 0 0 0 17.703766456892481 26.909217461245134 0 26.909217461245134 3.0543410242826212 0 0 0 0 23.873761416347406 34.27668860203994 0 34.27668860203994 11.52909562062905 0 0 0 0 21.608105037164933 28.082033007620339 0 28.082033007620339 3.1554907398094656 0 0 0 0 1.4039524807638628 5.8416367489724443 0 5.8416367489724443 -17.563929865613915 0 0 0 0 18.677155925961415 112.24360260319736 0 112.24360260319736 197.37790143721213 0 0 0 0 77.431605266625411 176.17518652463332 0 176.17518652463332 110.81716249726014 0 0 0 0 70.699158837844152 141.72692362467933 0 141.72692362467933 105.27903868119029 0 0 0 0 91.06774226082598 165.9722816783069 0 165.9722816783069 84.71703434723895 0 0 0 0 92.157162720628548 169.49129906017333 0 169.49129906017333 135.91662739143067 0 0 0 0 137.95298438091413 128.08485232417297 0 128.08485232417297 87.195466967070388 0 0 0 0 -0.9446862271816201 6.0734088261092012 0 6.0734088261092012 -2.8247001054593284 0 0 0 0 100.40190489231463 128.31523379894134 0 128.31523379894134 87.722636956998031 0 0 0 0 113.10604640642123 130.17352334703173 0 130.17352334703173 80.232638420251533 0 0 0 0 9.3665771124688035 53.384352593834592 0 53.384352593834592 75.190983404580038 0 0 0 0 0.63494552351767197 8.0924714078864781 0 8.0924714078864781 -1.3744684244775272 0 0 0 0 15.43330227478873 20.348253293777816 0 20.348253293777816 2.2966078127083165 0 0 0 0 8.2525607558772265 8.2207329619290448 0 8.2207329619290448 -5.0104068436663454 0 0 0 0 79.951366814886569 -49.940729324978747 0 -49.940729324978747 107.51264766110398 0 0 0 0 -5.3855629157738747 6.3918680293639909 0 6.3918680293639909 5.5701792674830131 0 0 0 0 -13.602543297485681 30.438126180790277 0 30.438126180790277 21.906189238725347 0 0 0 0 9.8869658508013032 19.062175066235881 0 19.062175066235881 9.0727975098340039 0 0 0 0 8.7822023343906039 28.284650938663617 0 28.284650938663617 5.9154082243330777 0 0 0 0 17.207324782975775 29.242637832548098 0 29.242637832548098 5.7039775325538358 0 0 0 0 24.106917898316169 28.442081116350892 0 28.442081116350892 3.3140716147536295 0 0 0 0 18.036957978139981 17.140126324833545 0 17.140126324833545 -15.517653961052247 0 0 0 0 11.281526652273897 65.490807643189328 0 65.490807643189328 46.827943875097844 0 0 0 0 -20.005359468594946 12.735323925031636 0 12.735323925031636 -1.0696805884664187 0 0 0 0 -88.619364812435379 58.153727104807331 0 58.153727104807331 89.015616186523403 0 0 0 0 41.096568865039444 62.074036984959093 0 62.074036984959093 -14.44974588797777 0 0 0 0 -15.219861227143269 8.7029112333123351 0 8.7029112333123351 -3.8861876350866282 0 0 0 0 -111.92777235223548 80.361539374425774 0 80.361539374425774 138.24994859592334 0 0 0 0 35.121140189032303 41.159187464880233 0 41.159187464880233 -51.618843826465309 0 0 0 0 -200.4199477313814 -42.62787790279981 0 -42.62787790279981 21.516050984260801 0 0 0 0 20.535510175599484 0.34614123255596496 0 0.34614123255596496 -58.212233315290177 0 0 0 0 -1.2036834820895876 0.74316015501329957 0 0.74316015501329957 -0.71502572449956858 0 0 0 0 -19.236958371755463 -30.319442274667381 0 -30.319442274667381 239.77997410021635 0 0 0 0 -18.61445648821973 -16.980168427628087 0 -16.980168427628087 277.34577501406238 0 0 0 0 -5.6792137097404662 0.059456384742787804 0 0.059456384742787804 0.64489157217965243 0 0 0 0 -82.349072550205165 151.67449365169159 0 151.67449365169159 -150.37072424486178 0 0 0 0 -117.44569735092318 143.09478729653983 0 143.09478729653983 -91.167224216304021 0 0 0 0 -102.31951181785007 101.21049724836485 0 101.21049724836485 -136.14470883225295 0 0 0 0 -100.92257376945054 122.2603816532901 0 122.2603816532901 -70.766616692224488 0 0 0 0 -96.843812196553699 129.36378018556752 0 129.36378018556752 -77.906860619717918 0 0 0 0 -40.151837356865144 103.3861298908887 0 103.3861298908887 -102.88691438539536 0 0 0 0 -181.84299107967763 62.529378957858171 0 62.529378957858171 -11.302276281210652 0 0 0 0 -11.085415137889868 1.2058132259765273 0 1.2058132259765273 3.4513414594630021 0 0 0 0 -99.597667147321772 1.7617525313280566 0 1.7617525313280566 20.322490719852794 0 0 0 0 -1.1018178984258782 2.6204146553012748 0 2.6204146553012748 1.3558976255988426 0 0 0 0 6.283753693831386 26.036123152476648 0 26.036123152476648 12.692353009511862 0 0 0 0 15.442454079245728 21.861668758196657 0 21.861668758196657 16.339291419780665 0 0 0 0 18.298187256063102 4.2953071149204334 0 4.2953071149204334 70.783357581167365 0 0 0 0 10.588298937162307 19.108725197244311 0 19.108725197244311 15.767375077286665 0 0 0 0 28.856757021545491 5.0061679781174462 0 5.0061679781174462 27.711448450432727 0 0 0 0 -83.180263741942326 73.605325037104194 0 73.605325037104194 82.818172675384631 0 0 0 0 -1.3941343997569362 23.722037847454128 0 23.722037847454128 27.699733696838337 0 0 0 0 -11.891045903477789 23.997605857046437 0 23.997605857046437 57.552836158734863 0 0 0 0 -47.24603344022762 8.4675587891106261 0 8.4675587891106261 128.71476187998996 0 0 0 0 -25.098041492805351 35.124212672082649 0 35.124212672082649 95.635811466923769 0 0 0 0 -64.58468803478172 158.57019931334798 0 158.57019931334798 54.560395465065085 0 0 0 0 -55.099555704107843 26.288088739665909 0 26.288088739665909 101.69870415687183 0 0 0 0 5.7630328723759447 16.445944109100537 0 16.445944109100537 -14.498850512935007 0 0 0 0 22.917708469754338 44.080543244111794 0 44.080543244111794 58.831441329506902 0 0 0 0 20.73043726067408 38.9883122690444 0 38.9883122690444 -6.7866487809806131 0 0 0 0 4.0544765839367756 169.64495744854503 0 169.64495744854503 11.071384659575415 0 0 0 0 131.23776165007439 200.70117026542721 0 200.70117026542721 16.429432074466604 0 0 0 0 225.550589795821 0.16260993785544997 0 0.16260993785544997 -16.758959604718257 0 0 0 0 51.875845234048029 106.83119199595785 0 106.83119199595785 -9.9296501111093676 0 0 0 0 -3.2197522459670012 4.6477960477005809 0 4.6477960477005809 13.141605334004893 0 0 0 0 88.752699394121009 163.55391798364872 0 163.55391798364872 67.105450899834977 0 0 0 0 65.383070700612734 105.66139718733029 0 105.66139718733029 26.617337520227011 0 0 0 0 29.05202376091917 38.379870279801679 0 38.379870279801679 51.540256373295819 0 0 0 0 -8.687646415506606 172.38282105332473 0 172.38282105332473 55.849406347086187 0 0 0 0 -9.4480181616381742 44.469516895362176 0 44.469516895362176 4.6762171809223219 0 0 0 0 -99.58536480276598 21.982226774751325 0 21.982226774751325 250.92079266358996 0 0 0 0 -342.30222438079363 7.2408554268768057 0 7.2408554268768057 -179.17596048143628 0 0 0 0 3.1450464620720595 229.54507622016536 0 229.54507622016536 -181.35953214047242 0 0 0 0 4.5347017595505577 10.272279544791516 0 10.272279544791516 16.708766378388134 0 0 0 0 -81.157135813868081 338.63671377478022 0 338.63671377478022 95.081011700902309 0 0 0 0 -55.532952170971839 109.61424265779351 0 109.61424265779351 206.44103661880581 0 0 0 0 -65.909342296030445 92.760070224164338 0 92.760070224164338 184.97292405633198 0 0 0 0 9.9979216628380527 -24.886215072616324 0 -24.886215072616324 273.51788935602235 0 0 0 0 9.0638969327078485 -28.671703473353318 0 -28.671703473353318 566.26284609708819 0 0 0 0 -46.456638037299854 22.572552558212919 0 22.572552558212919 423.55302662238682 0 0 0 0 -65.291505825196509 182.32408469399888 0 182.32408469399888 619.65433208666946 0 0 0 0 197.45190787523461 428.52292137221957 0 428.52292137221957 -603.02386596941506 0 0 0 0 -3.7575590885392529 2.2408085221647767 0 2.2408085221647767 -0.85431482838313855 0 0 0 0 109.60872327285688 3.9481187297860743 0 3.9481187297860743 -836.73610385962638 0 0 0 0 -85.576927837943458 295.29562628007966 0 295.29562628007966 382.40638896072051 0 0 0 0 -72.078910945863754 -61.773844922092394 0 -61.773844922092394 -415.35170987820402 0 0 0 0 -59.115168938746137 -14.380668636857081 0 -14.380668636857081 -244.08436123110005 0 0 0 0 -40.742590430112614 57.240607243315026 0 57.240607243315026 -230.13454598320095 0 0 0 0 -1.4404017902014772 -0.38725967329482813 0 -0.38725967329482813 3.0252696269552359 0 0 0 0 7.9400843527546385 -41.413993227135506 0 -41.413993227135506 -336.81381724585299 0 0 0 0 -25.918263583938824 58.836149764138099 0 58.836149764138099 -272.99684710596921 0 0 0 0 -8.3607086306619749 21.192308454439626 0 21.192308454439626 -201.90597471616638 0 0 0 0 -78.290486165697075 11.119657174966051 0 11.119657174966051 -272.66574457412935 0 0 0 0 74.301310023332917 164.35843754710004 0 164.35843754710004 230.4800152197804 0 0 0 0 -76.844721802568529 311.10497247650164 0 311.10497247650164 400.24330066257244 0 0 0 0 -9.485599360182519 7.5292785969319098 0 7.5292785969319098 -3.3009270025657855 0 0 0 0 73.66296647877607 36.426301978608535 0 36.426301978608535 479.49560936811395 0 0 0 0 81.895271108372981 67.548110740681295 0 67.548110740681295 567.81697983432241 0 0 0 0 14.711808657109941 -1.0872815034890664 0 -1.0872815034890664 632.1095927419592 0 0 0 0 -72.623065378240426 300.78122577119939 0 300.78122577119939 -414.63854367390377 0 0 0 0 -170.96752563769587 274.55863750155186 0 274.55863750155186 -25.771373763360316 0 0 0 0 -1.6993622150825018 0.17506783368413892 0 0.17506783368413892 0.33218810568169488 0 0 0 0 64.97966965012165 125.64183733104073 0 125.64183733104073 21.777977776466287 0 0 0 0 -99.20312451252903 113.26378626534643 0 113.26378626534643 285.60116618861684 0 0 0 0 30.115618863379495 -23.442860386447137 0 -23.442860386447137 118.47883926790382 0 0 0 0 6.2533819899472292 42.357184030475764 0 42.357184030475764 -37.957308681390714 0 0 0 0 -135.33311510027852 110.14543211212731 0 110.14543211212731 -27.777780379808974 0 0 0 0 -72.55698956904962 5.8338244227888936 0 5.8338244227888936 6.5628105303849225 0 0 0 0 -70.206472336056322 -1.2325764469596834 0 -1.2325764469596834 -81.424181975817191 0 0 0 0 -31.654707523161051 95.675140206698416 0 95.675140206698416 152.91317019563576 0 0 0 0 208.78215033045853 260.15276403739335 0 260.15276403739335 243.80078084508932 0 0 0 0 147.38457106694477 -4.1490142338498117 0 -4.1490142338498117 -60.111069773112831 0 0 0 0 108.58303800777503 28.227914572042209 0 28.227914572042209 46.515483258563108 0 0 0 0 167.4237617254912 70.898176271197372 0 70.898176271197372 -91.565854587614012 0 0 0 0 333.40113846348686 21.35005703735078 0 21.35005703735078 40.514745414031495 0 0 0 0 83.810820467735539 33.51489497953753 0 33.51489497953753 447.654728008034 0 0 0 0 -152.3030355412302 123.59265607678026 0 123.59265607678026 561.39916380092109 0 0 0 0 67.818733139371034 -4.6149689706053323 0 -4.6149689706053323 2.7471537704841467 0 0 0 0 2.6541855111936314 3.1348817206058186 0 3.1348817206058186 -0.016967104092351804 0 0 0 0 1.0067778660013573 7.3819591233768733 0 7.3819591233768733 26.070152907410375 0 0 0 0 -8.5175193355171359 23.976246927908505 0 23.976246927908505 39.747014919918001 0 0 0 0 -9.6360845040459537 6.8752758439813491 0 6.8752758439813491 -0.41241799658580192 0 0 0 0 153.30041493913814 257.62487129393776 0 257.62487129393776 245.06088881682444 0 0 0 0 235.26029183873834 164.9370332886956 0 164.9370332886956 42.448942180504673 0 0 0 0 -5.2971092593158176 7.1297694205786186 0 7.1297694205786186 -4.0046399453356045 0 0 0 0 25.750126398808789 22.56001674910658 0 22.56001674910658 -133.27708828755385 0 0 0 0 -10.073924836552123 3.9489437825438358 0 3.9489437825438358 2.0567501255730818 0 0 0 0 20.259448839664401 67.677216864645743 0 67.677216864645743 -89.084018455549085 0 0 0 0 -22.602063941849337 -35.888347166974199 0 -35.888347166974199 -190.29802110427408 0 0 0 0 44.536134593370662 71.47472187866515 0 71.47472187866515 -206.09094807194288 0 0 0 0 46.78583960791002 15.494075596569019 0 15.494075596569019 -148.0041008957196 0 0 0 0 45.746950375162157 68.047906759068042 0 68.047906759068042 -61.120212306865142 0 0 0 0 12.346403513784026 118.750511084545 0 118.750511084545 -130.10333517383697 0 0 0 0 -82.043768878142146 99.323680711029738 0 99.323680711029738 -3.2581197028921451 0 0 0 0 25.56776007802182 78.695012172396673 0 78.695012172396673 -295.36657122545876 0 0 0 0 0.45512669615892065 29.188195420796351 0 29.188195420796351 -9.363537078088342 0 0 0 0 14.083713278974756 96.940666078167851 0 96.940666078167851 0.26477056719886605 0 0 0 0 -14.116772456298349 25.935349389532348 0 25.935349389532348 -118.25204794045749 0 0 0 0 2.5514405134053959 29.423592878265481 0 29.423592878265481 7.470402830553212 0 0 0 0 8.2142930188252166 22.885192275484414 0 22.885192275484414 7.6520926359505594 0 0 0 0 -20.063792841784746 19.957931882924143 0 19.957931882924143 6.6345279660992276 0 0 0 0 -47.39355551931294 12.353384617214033 0 12.353384617214033 112.23117805754737 0 0 0 0 5.4934637412058116 25.680039657473586 0 25.680039657473586 13.781422184983057 0 0 0 0 -13.012019916634017 76.142601935007406 0 76.142601935007406 -17.435700368998369 0 0 0 0 -8.8167570323675335 6.9252970112387544 0 6.9252970112387544 1.3471575444576445 0 0 0 0 -6.5839210663398262 13.073289093794301 0 13.073289093794301 21.821258590513025 0 0 0 0 0.24028679464073832 9.8954941337968876 0 9.8954941337968876 -2.4800625889357093 0 0 0 0 10.027502967361215 50.706929406620475 0 50.706929406620475 -9.7940843301867062 0 0 0 0 37.782953098552724 96.041711147888918 0 96.041711147888918 -32.894608164773672 0 0 0 0 40.254290060303902 44.597505369507417 0 44.597505369507417 -53.358760828603408 0 0 0 0 38.465535389505902 31.173864309065323 0 31.173864309065323 9.9690817560464637 0 0 0 0 33.298175301200899 49.031841620118939 0 49.031841620118939 0.36499236329109408 0 0 0 0 56.880287253588904 46.932331791300385 0 46.932331791300385 -64.912102224639966 0 0 0 0 131.4547052187263 86.791836493270239 0 86.791836493270239 -103.40509985235985 0 0 0 0 12.550965561767043 30.299121792129881 0 30.299121792129881 -8.5536199115722411 0 0 0 0 6.1169112397257059 16.675256366539525 0 16.675256366539525 -22.664215030689917 0 0 0 0 4.9947851486055779 13.337924156769212 0 13.337924156769212 11.165057604485611 0 0 0 0 28.300796538625946 9.5075160207343288 0 9.5075160207343288 -82.780143821760248 0 0 0 0 85.983823906251928 68.452704331837595 0 68.452704331837595 -79.902307238459116 0 0 0 0 55.131587972474335 86.721392409239343 0 86.721392409239343 51.423474444876774 0 0 0 0 35.181539632983913 68.247300554990943 0 68.247300554990943 -6.7905817080845736 0 0 0 0 14.248817791738785 33.79424296553173 0 33.79424296553173 -1.2233210466749256 0 0 0 0 -4.6755764870613348 44.993716241573566 0 44.993716241573566 53.872902206858271 0 0 0 0 -5.6360918923655845 54.371549805582617 0 54.371549805582617 79.425463264429709 0 0 0 0 16.931133949567084 46.68453231350577 0 46.68453231350577 1.5971584419239662 0 0 0 0 32.085729515152707 79.538823839990073 0 79.538823839990073 52.957229462102987 0 0 0 0 45.765983094406693 65.607101512723602 0 65.607101512723602 9.4728707472386304 0 0 0 0 -6.2193645357074274 43.412297258328181 0 43.412297258328181 2.2957156364282127 0 0 0 0 11.958852401684101 57.383807575444585 0 57.383807575444585 8.5218259461821617 0 0 0 0 46.027266429779957 56.085581538631232 0 56.085581538631232 3.6820057769014056 0 0 0 0 16.127500254072697 12.56207560419351 0 12.56207560419351 -4.5034318562472038 0 0 0 0 3.6410873962114279 22.168277470175308 0 22.168277470175308 -2.1449755854709309 0 0 0 0 47.414069651606326 41.798865623099118 0 41.798865623099118 -1.0108057147590443 0 0 0 0 179.19619606028755 98.200202818450634 0 98.200202818450634 47.048510311113205 0 0 0 0 57.474751662168273 34.35498467036814 0 34.35498467036814 7.3012300882401178 0 0 0 0 25.594355054305296 31.694005574249559 0 31.694005574249559 9.9430055267071538 0 0 0 0 20.383274549596763 33.703751700068096 0 33.703751700068096 2.1573244354949566 0 0 0 0 42.747754989502937 116.01162779960214 0 116.01162779960214 9.4098592629597988 0 0 0 0 10.118562456995278 44.22043333651709 0 44.22043333651709 0.94570276274680509 0 0 0 0 27.909188312492915 35.020802727427508 0 35.020802727427508 -6.0853688260831404 0 0 0 0 61.775401071754459 37.196903634387127 0 37.196903634387127 10.117044386322959 0 0 0 0 36.148009178624179 25.22234389230983 0 25.22234389230983 -1.0320766808553543 0 0 0 0 0.32519396666248923 49.786129351958067 0 49.786129351958067 0.36275492691154909 0 0 0 0 63.328535273918533 36.260063746245578 0 36.260063746245578 10.303492635255679 0 0 0 0 39.795649831386712 29.542482233355955 0 29.542482233355955 3.6053145617165399 0 0 0 0 -2.9576672966420645 40.980880758397511 0 40.980880758397511 0.77502650669251238 0 0 0 0 27.899532797030247 34.759456629590204 0 34.759456629590204 -8.632362442149315 0 0 0 0 27.230358638255783 40.484759815032291 0 40.484759815032291 9.1264859578463273 0 0 0 0 25.086825703513568 -41.749336847016821 0 -41.749336847016821 51.637970207141734 0 0 0 0 17.133297339547426 81.865577559732628 0 81.865577559732628 92.519870139221894 0 0 0 0 3.7563799017352864 9.231193474677049 0 9.231193474677049 0.67819157266757202 0 0 0 0 56.428107216837816 90.004472246512478 0 90.004472246512478 -57.522754770590836 0 0 0 0 60.845014050772171 46.297901223690275 0 46.297901223690275 -36.297056456471296 0 0 0 0 43.576766667567426 13.540784935306874 0 13.540784935306874 -77.495043435854313 0 0 0 0 -76.591460799682181 229.63509647796491 0 229.63509647796491 498.71658894322172 0 0 0 0 16.201207610180518 105.601529384071 0 105.601529384071 120.10551630448208 0 0 0 0 40.841506013563432 43.445045793661876 0 43.445045793661876 -16.550838226772033 0 0 0 0 29.268025639656116 29.92413794897584 0 29.92413794897584 -13.110900908308395 0 0 0 0 1449.6277736257762 -318.66089504003139 0 -318.66089504003139 -1804.7197304004585 0 0 0 0 -883.99121292949712 -642.77925337497436 0 -642.77925337497436 1260.8807629089797 0 0 0 0 278.73349412723474 371.05670893964088 0 371.05670893964088 61.57725186386233 0 0 0 0 482.76843241853567 540.29143626063524 0 540.29143626063524 158.64640548497846 0 0 0 0 -121.20116420736304 772.82257221703185 0 772.82257221703185 1308.3516045392171 0 0 0 0 -423.86856307672133 138.18713525413477 0 138.18713525413477 279.46579423020012 0 0 0 0 -216.31704276315577 -7.6178397174717247 0 -7.6178397174717247 -168.17834315554501 0 0 0 0 -136.43561282546216 216.33573811582028 0 216.33573811582028 181.04591477529902 0 0 0 0 -151.59540553774241 180.03962462513937 0 180.03962462513937 94.446463844207756 0 0 0 0 -247.27765290820389 402.38427227957072 0 402.38427227957072 499.5643481387815 0 0 0 0 143.54401303819759 92.949479292139586 0 92.949479292139586 12.999903552627075 0 0 0 0 197.67501109051955 -28.926307351037394 0 -28.926307351037394 29.810806587222032 0 0 0 0 21.022725385554793 7.600509611129695 0 7.600509611129695 1.1286432884369901 0 0 0 0 -582.66551413555862 -1191.2162066289166 0 -1191.2162066289166 -501.52896599915948 0 0 0 0 18.519699739651983 39.378073788196602 0 39.378073788196602 -13.761557314490648 0 0 0 0 6.1824899670036473 31.388485244731946 0 31.388485244731946 -4.9888332731703002 0 0 0 0 24.282168151214137 29.901256588465913 0 29.901256588465913 0.54271751070336904 0 0 0 0 29.324747276674316 28.843102924860432 0 28.843102924860432 -5.154612776203976 0 0 0 0 5.9599665475128134 34.877354618145588 0 34.877354618145588 0.39117561132673018 0 0 0 0 343.84763831141754 -26.747648833799758 0 -26.747648833799758 369.24522929753584 0 0 0 0 -156.79381733069022 61.62576337768769 0 61.62576337768769 305.09188595464911 0 0 0 0 -6.1114203045108297 4.758108042380627 0 4.758108042380627 -2.5358449904579174 0 0 0 0 -3.3119750131289294 1.9928022895562876 0 1.9928022895562876 1.7836345976771142 0 0 0 0 -184.4715189047165 176.11804156565768 0 176.11804156565768 311.52738844705164 0 0 0 0 -114.26282557485683 7.5471754646932823 0 7.5471754646932823 48.016806574680231 0 0 0 0 260.91205895243547 427.46598250397074 0 427.46598250397074 87.175261542184671 0 0 0 0 -147.81119927280815 -36.483512935272302 0 -36.483512935272302 36.342576419730904 0 0 0 0 56.730893838423071 128.30693200389214 0 128.30693200389214 15.223571714392165 0 0 0 0 18.933912608924558 58.270163276235166 0 58.270163276235166 8.5535789238330437 0 0 0 0 20.229917641016229 23.858860540211509 0 23.858860540211509 0.51221369665941552 0 0 0 0 -309.42326713568764 54.424796311126556 0 54.424796311126556 368.63038992584916 0 0 0 0 7.2885891564536207 57.177001987590366 0 57.177001987590366 78.981905288481926 0 0 0 0 -110.5978098611813 54.726402090225747 0 54.726402090225747 40.024351504169317 0 0 0 0 -117.37696558159223 175.33836141281608 0 175.33836141281608 154.44764910369122 0 0 0 0 468.72300473734776 48.11806320364667 0 48.11806320364667 -41.459493519854732 0 0 0 0 0.46716013043143789 1.2790710241973073 0 1.2790710241973073 2.61647632946611 0 0 0 0 -319.80456575478092 53.905789106818702 0 53.905789106818702 316.51317686192851 0 0 0 0 -330.59581780055669 138.18090510481488 0 138.18090510481488 338.57323828194785 0 0 0 0 5.4819616506865714 42.15442305081524 0 42.15442305081524 29.990275187556108 0 0 0 0 4.0151863230822542 5.9762853585142892 0 5.9762853585142892 3.7045543827695724 0 0 0 0 83.102718330323114 2.8032846429487108 0 2.8032846429487108 46.815052224614192 0 0 0 0 47.896086582135467 107.78263550196789 0 107.78263550196789 -21.440249175138888 0 0 0 0 114.65121110249765 75.594930403083708 0 75.594930403083708 -11.638688901155547 0 0 0 0 4.1609160547400421 37.804580023359691 0 37.804580023359691 35.512340663219206 0 0 0 0 -11.659982254887382 36.961754401527742 0 36.961754401527742 -3.55678606546644 0 0 0 0 -71.534172717456386 47.932448919455055 0 47.932448919455055 24.805043279317033 0 0 0 0 9.7202466708295621 53.954316894142934 0 53.954316894142934 19.43619121191881 0 0 0 0 -150.83908364298986 76.288902032734768 0 76.288902032734768 136.97610370101029 0 0 0 0 39.121250968799359 16.514724520601703 0 16.514724520601703 -15.901423799245094 0 0 0 0 11.515744302308761 17.23711268030484 0 17.23711268030484 22.642720948683056 0 0 0 0 -15.167443666548934 31.728055012124059 0 31.728055012124059 23.705165378458332 0 0 0 0 159.80717054701381 268.18734287746156 0 268.18734287746156 11.302445069486566 0 0 0 0 87.096298917582317 201.2649755940638 0 201.2649755940638 -36.021180429495871 0 0 0 0 139.74871628962501 292.40971920186894 0 292.40971920186894 24.708294124502572 0 0 0 0 258.35985737651572 265.84892809604025 0 265.84892809604025 -17.607158359125606 0 0 0 0 172.26860727944768 254.23907472058636 0 254.23907472058636 4.2013478780936566 0 0 0 0 317.69072158284689 171.53652215233524 0 171.53652215233524 -30.860041102820105 0 0 0 0 168.11435384785727 101.78244600228936 0 101.78244600228936 -55.960926897469108 0 0 0 0 -38.461570921244856 53.977724622727692 0 53.977724622727692 -13.018612933239638 0 0 0 0 -5.5953451633416691 22.002384639624083 0 22.002384639624083 19.647168652584369 0 0 0 0 -50.84779694203587 49.401756160341222 0 49.401756160341222 -47.570518836335395 0 0 0 0 -50.455463297532333 37.926560609605076 0 37.926560609605076 212.99966419622615 0 0 0 0 136.44630670572587 148.2001117133841 0 148.2001117133841 24.95558803854874 0 0 0 0 124.08346089894258 182.14976587073943 0 182.14976587073943 23.668454517888676 0 0 0 0 42.684074230674014 177.75446631262821 0 177.75446631262821 234.18700419755442 0 0 0 0 94.534296216304938 245.08798985301655 0 245.08798985301655 270.37241638821433 0 0 0 0 18.575801590748597 38.826111567552289 0 38.826111567552289 321.62875123487174 0 0 0 0 40.754891177981335 4.5076308791071824 0 4.5076308791071824 -22.981388160820643 0 0 0 0 -15.591621121860953 37.412493246734812 0 37.412493246734812 -33.13277626884701 0 0 0 0 -1.9508324663825931 -0.29112464029287644 0 -0.29112464029287644 2.7371078834373037 0 0 0 0 -25.299132292784634 130.77062873553768 0 130.77062873553768 -57.841006478734926 0 0 0 0 -46.249799829452968 151.81204452952352 0 151.81204452952352 -49.837638843942841 0 0 0 0 -20.454984544347099 48.881435118004447 0 48.881435118004447 -21.824045489047421 0 0 0 0 25.862494700829146 28.955330308493139 0 28.955330308493139 13.900846728260369 0 0 0 0 -17.376168959024039 4.4745017823606812 0 4.4745017823606812 7.2041801226326925 0 0 0 0 -47.322892273356047 139.48729800768024 0 139.48729800768024 -23.295935713671497 0 0 0 0 37.79391423879315 43.115640755134336 0 43.115640755134336 -131.62391170991395 0 0 0 0 -87.190757714739448 119.53790262961593 0 119.53790262961593 -13.541748484407435 0 0 0 0 -35.155399604722334 101.24855444959167 0 101.24855444959167 -9.09199473672561 0 0 0 0 -7.7211022203264292 31.969003061194599 0 31.969003061194599 18.607690812528745 0 0 0 0 -27.164254570150661 52.376027136186167 0 52.376027136186167 28.627547177922679 0 0 0 0 -27.121509240018895 54.404460320894941 0 54.404460320894941 64.619881851933314 0 0 0 0 -167.39161831193815 -36.853024127362005 0 -36.853024127362005 -16.945858662853425 0 0 0 0 -48.574112172060268 69.052919496745744 0 69.052919496745744 19.849441737746019 0 0 0 0 -113.38140383086102 24.942569758695754 0 24.942569758695754 50.79022943167729 0 0 0 0 14.224502588763984 51.100077334082322 0 51.100077334082322 17.794731890858159 0 0 0 0 173.04771159681695 27.821095957646321 0 27.821095957646321 -286.76189216657076 0 0 0 0 32.978151482999237 214.26558492983713 0 214.26558492983713 163.68634315258532 0 0 0 0 56.497003415048688 43.997502693373939 0 43.997502693373939 -16.148207871504781 0 0 0 0 2.6684675742525723 47.518188644587525 0 47.518188644587525 23.164221918190705 0 0 0 0 -54.296639065234139 38.142523916951902 0 38.142523916951902 39.101029789542032 0 0 0 0 198.12117948685773 1185.2863918203511 0 1185.2863918203511 1261.1457025082782 0 0 0 0 -78.293553648716625 84.251608472390217 0 84.251608472390217 -11.253128993412247 0 0 0 0 545.59866159444209 544.15718304719485 0 544.15718304719485 -328.12673214510232 0 0 0 0 28.969795537705068 456.21712483407464 0 456.21712483407464 354.52183602139121 0 0 0 0 -134.86400322472036 201.76966583832836 0 201.76966583832836 464.24822186142046 0 0 0 0 -177.67460944769846 39.471223073225701 0 39.471223073225701 255.6453898593827 0 0 0 0 -132.30755410850543 92.06924665231054 0 92.06924665231054 274.72643900569528 0 0 0 0 1.2093115109855717 164.70871880013146 0 164.70871880013146 115.55394618232094 0 0 0 0 -31.25801865390531 32.358588798815617 0 32.358588798815617 126.31976579953198 0 0 0 0 -114.33857551331312 13.446044342981622 0 13.446044342981622 124.24293516961916 0 0 0 0 -135.65076608158415 -33.010843341777218 0 -33.010843341777218 188.75126839915174 0 0 0 0 -132.17574476595149 29.278356017346375 0 29.278356017346375 199.79523216799134 0 0 0 0 -152.8856133051595 -13.721591192268534 0 -13.721591192268534 179.3947185704892 0 0 0 0 -230.96803359586193 -117.75503656407091 0 -117.75503656407091 134.26291750700329 0 0 0 0 -0.31014052381250679 0.65075400617455159 0 0.65075400617455159 9.5066247193921072 0 0 0 0 -53.616801954602124 -59.476103273678746 0 -59.476103273678746 148.41644234377054 0 0 0 0 106.40822855164879 -164.47821642322742 0 -164.47821642322742 93.708000417689618 0 0 0 0 -31.796529153521988 23.972344900241296 0 23.972344900241296 49.634293442897615 0 0 0 0 17.19616956851678 -22.297289970932979 0 -22.297289970932979 80.902251509731286 0 0 0 0 0.49902350653179894 2.3450290661624109 0 2.3450290661624109 6.2601680807152604 0 0 0 0 -7.6104429108345357 28.514174928212014 0 28.514174928212014 48.038866239807248 0 0 0 0 1.7531377560272148 7.9976966443241082 0 7.9976966443241082 23.377801445271118 0 0 0 0 -16.308712958241813 13.118033789512992 0 13.118033789512992 54.330397953526699 0 0 0 0 1.7185657681114463 0.49427497311026514 0 0.49427497311026514 -0.18461459255576074 0 0 0 0 136.93724993067735 27.010341017299652 0 27.010341017299652 -78.331992065923259 0 0 0 0 -19.781536130958557 26.639234572798159 0 26.639234572798159 -49.064444656632986 0 0 0 0 25.187366328649659 9.9923216630159004 0 9.9923216630159004 6.2681872365646996 0 0 0 0 261.59184449089116 224.01861035823549 0 224.01861035823549 175.21747656144726 0 0 0 0 83.078204784553236 133.63266343292889 0 133.63266343292889 251.42096786339971 0 0 0 0 -3.6109135662845802 1.22907674149792 0 1.22907674149792 169.29978362436668 0 0 0 0 177.34664167115989 116.95821782577877 0 116.95821782577877 160.47482073864376 0 0 0 0 -8.3163797891320428 46.383325623763085 0 46.383325623763085 82.721794364038942 0 0 0 0 -15.006897963987285 70.795392231759251 0 70.795392231759251 35.599119687271013 0 0 0 0 15.203633713586896 133.65807541459071 0 133.65807541459071 163.25125482120507 0 0 0 0 167.90906984110552 141.0718129756242 0 141.0718129756242 -15.192775131647068 0 0 0 0 89.39405303941021 50.679054295858805 0 50.679054295858805 -54.530948198866099 0 0 0 0 48.826579255182878 54.670096647212631 0 54.670096647212631 -33.50762977596878 0 0 0 0 42.121648278895009 30.047709117858176 0 30.047709117858176 -62.199047150434126 0 0 0 0 -9.8770341146737337 90.480230518347526 0 90.480230518347526 26.697453391372619 0 0 0 0 54.185677198831399 60.065961858545052 0 60.065961858545052 -41.837214472463529 0 0 0 0 24.811476076189138 61.429460671799461 0 61.429460671799461 -40.321697772993502 0 0 0 0 -36.250665775794914 46.156620974797988 0 46.156620974797988 -24.095877139421646 0 0 0 0 -28.91037958618108 61.829454206210357 0 61.829454206210357 -50.553365218074759 0 0 0 0 75.137207696745463 13.188932844394003 0 13.188932844394003 -53.973540985545696 0 0 0 0 -14.484432120040765 6.6883054493473537 0 6.6883054493473537 -7.7375832953039207 0 0 0 0 41.515007609301392 94.887431834908057 0 94.887431834908057 -108.0442475061318 0 0 0 0 71.858488866745574 22.174253509057053 0 22.174253509057053 -68.531202888749249 0 0 0 0 -145.04038681630846 169.97006671536292 0 169.97006671536292 -65.62087190330567 0 0 0 0 14.276666075253161 62.700662187995476 0 62.700662187995476 -68.082332449350361 0 0 0 0 6.1171111381117953 156.46861156355226 0 156.46861156355226 -149.98568476477158 0 0 0 0 -70.712483568393509 55.184334217067772 0 55.184334217067772 -52.925114285179006 0 0 0 0 -18.010138702808035 70.224904036163935 0 70.224904036163935 -67.311306395426072 0 0 0 0 64.987644454227848 15.077140137995229 0 15.077140137995229 -75.185347187427396 0 0 0 0 88.36430122952288 33.217640453004492 0 33.217640453004492 -86.712205069037736 0 0 0 0 -241.10933804362139 -124.4699392450093 0 -124.4699392450093 -46.233525822099182 0 0 0 0 101.95083017311481 -254.75432852804397 0 -254.75432852804397 -284.1330699024038 0 0 0 0 -1.3160557257157848 7.6022344078550788 0 7.6022344078550788 -35.372874992274689 0 0 0 0 -0.0059255171872791834 58.11692239322565 0 58.11692239322565 -28.180356831941026 0 0 0 0 68.946648127697699 -327.07449773143253 0 -327.07449773143253 -314.04841428592772 0 0 0 0 66.021283088324708 23.249898838274021 0 23.249898838274021 -27.407794251899759 0 0 0 0 -66.949792085317313 -177.33350780968613 0 -177.33350780968613 -389.32703714202216 0 0 0 0 24.918561982747633 36.296643633162603 0 36.296643633162603 -9.3193379229478523 0 0 0 0 -1153.7403995349014 -569.50665592391306 0 -569.50665592391306 120.20192415987549 0 0 0 0 -706.69928036621423 -7.2088807934997021 0 -7.2088807934997021 11.769905592886062 0 0 0 0 332.11869141795614 -259.50106009150841 0 -259.50106009150841 -337.68265653464914 0 0 0 0 224.72823810779664 -504.61122167194844 0 -504.61122167194844 -178.25491783906182 0 0 0 0 653.55294996239536 1471.9817549978434 0 1471.9817549978434 329.57158123192494 0 0 0 0 -349.99422166371369 -422.92685450387944 0 -422.92685450387944 344.06551808961376 0 0 0 0 -0.91932942508852022 12.63285332194684 0 12.63285332194684 -35.422278671831748 0 0 0 0 262.86682984832441 -0.37771811595303006 0 -0.37771811595303006 74.552282000957348 0 0 0 0 -387.4469248035457 -112.35036407200096 0 -112.35036407200096 51.018754324630208 0 0 0 0 -368.67495999620587 53.561813299620553 0 53.561813299620553 -24.805326127090666 0 0 0 0 -288.14265105451341 217.5846567359913 0 217.5846567359913 225.05701192887136 0 0 0 0 -189.79014419711893 286.37891663120536 0 286.37891663120536 75.568720308183401 0 0 0 0 -330.22388188941841 54.451325993288265 0 54.451325993288265 -76.957962212181883 0 0 0 0 -224.52263617476274 278.32656459472491 0 278.32656459472491 156.50666680583527 0 0 0 0 -149.34269339745515 272.35038724309197 0 272.35038724309197 -3.8685287603584584 0 0 0 0 -20.91505437908927 413.04494992189211 0 413.04494992189211 202.03930102933828 0 0 0 0 -500.98749060909176 -693.1579438900917 0 -693.1579438900917 -421.9211589362676 0 0 0 0 -66.128653338862932 667.5836280364565 0 667.5836280364565 399.59458277232352 0 0 0 0 -1.2967208406293764 4.6209680398385018 0 4.6209680398385018 -12.691189075811863 0 0 0 0 -165.9881364292487 168.37540091172741 0 168.37540091172741 655.2931459827887 0 0 0 0 -873.01437996657114 605.91072645369331 0 605.91072645369331 188.22900559690606 0 0 0 0 256.6271730409353 -280.67510852024498 0 -280.67510852024498 -794.37263058928875 0 0 0 0 -28.957753223938198 625.4130617408664 0 625.4130617408664 -254.5251006933031 0 0 0 0 0.91643568506752615 0.7332463982399986 0 0.7332463982399986 0.86565952783310252 0 0 0 0 348.41263226876617 -392.47592184737368 0 -392.47592184737368 -336.05839267034025 0 0 0 0 210.11961032620457 -662.16583179159352 0 -662.16583179159352 -708.77450517286888 0 0 0 0 -220.24867979811097 -83.407873038413527 0 -83.407873038413527 646.79970226216756 0 0 0 0 -7.9781745253977761 27.86898338023834 0 27.86898338023834 -20.072624971318863 0 0 0 0 -5.700563660779153 -10.929898324848182 0 -10.929898324848182 68.330913217614579 0 0 0 0 -387.56778206626768 -89.199150809869025 0 -89.199150809869025 647.81363069733925 0 0 0 0 107.98941072085108 612.99766725597556 0 612.99766725597556 188.27969761692293 0 0 0 0 4.9974195058289581 27.164334420106453 0 27.164334420106453 -31.872078939419744 0 0 0 0 27.176857098012988 36.981169360510648 0 36.981169360510648 -10.241113351792592 0 0 0 0 -12.266896451135011 21.912616218620116 0 21.912616218620116 -13.047765659436863 0 0 0 0 690.83057290925353 265.3778300318636 0 265.3778300318636 -479.83752332125005 0 0 0 0 -3.0252672568683323 22.091894000498641 0 22.091894000498641 -53.365102527251139 0 0 0 0 0.22150932573339333 -0.29103391268448675 0 -0.29103391268448675 -5.5762408036172388 0 0 0 0 65.723784355221142 1.1870986047183578 0 1.1870986047183578 -130.29749896941212 0 0 0 0 0.0067353471458773129 34.551446245436182 0 34.551446245436182 -8.2206002862944842 0 0 0 0 -1.4013032054426731 33.622021162484089 0 33.622021162484089 -8.8229583539159648 0 0 0 0 1.2573377413282287 33.581212466172246 0 33.581212466172246 -9.011501869787935 0 0 0 0 -0.0061362988053588197 34.478661301423699 0 34.478661301423699 -9.2064407716229653 0 0 0 0 0.036648616500315256 41.404313501827204 0 41.404313501827204 -11.162800778394626 0 0 0 0 9.1996973790955963 34.56089221525167 0 34.56089221525167 -9.3737942632677118 0 0 0 0 -7.9650996145901445 43.321209026490919 0 43.321209026490919 -7.5101931442595742 0 0 0 0 2.6353257250593742 24.988230509291725 0 24.988230509291725 -20.988514321212733 0 0 0 0 19.81663068990747 26.496221232664766 0 26.496221232664766 -148.07156731200652 0 0 0 0 12.83542252542702 95.104603952343737 0 95.104603952343737 101.31429057654236 0 0 0 0 11.325644302228739 71.15724801551579 0 71.15724801551579 -37.039914694179515 0 0 0 0 -42.888542882581532 -6.0371027448051109 0 -6.0371027448051109 98.204863474742524 0 0 0 0 -21.559566640862613 87.995371418256923 0 87.995371418256923 25.097718981916842 0 0 0 0 -13.325201635962756 24.518587782498287 0 24.518587782498287 -23.251757973840377 0 0 0 0 11.419114475414972 -3.9803746855122881 0 -3.9803746855122881 145.08822041655185 0 0 0 0 19.96673923212802 18.553156718581249 0 18.553156718581249 -29.3552746248522 0 0 0 0 36.98782508050499 38.358852072857189 0 38.358852072857189 -49.272900229854258 0 0 0 0 22.810115274143755 44.522319600781429 0 44.522319600781429 -50.237532856456539 0 0 0 0 -5.5386268902220763 27.900674308251723 0 27.900674308251723 -32.184531477043492 0 0 0 0 -8.754736632690765 13.701891789256479 0 13.701891789256479 -114.87826807139027 0 0 0 0 -42.973370375169907 80.287431780026964 0 80.287431780026964 -4.7700911093634204 0 0 0 0 23.766297854788718 16.903540505510136 0 16.903540505510136 7.927579201215849 0 0 0 0 -1.0099566415741492 -0.21652397710217031 0 -0.21652397710217031 0.41065265956440911 0 0 0 0 0.61103504487979876 0.15453921258878722 0 0.15453921258878722 -1.2353887630877551 0 0 0 0 5.8932528816658305 9.1439861228082009 0 9.1439861228082009 -144.20434032248431 0 0 0 0 -0.02083730322192423 59.050205371973789 0 59.050205371973789 -123.87963723290068 0 0 0 0 -15.822274672638741 70.24429416798921 0 70.24429416798921 -70.859767362508137 0 0 0 0 -6.4472973251977237 36.351131040692962 0 36.351131040692962 -64.850509972191503 0 0 0 0 -28.339945153915323 61.416754756932278 0 61.416754756932278 -31.142868532286229 0 0 0 0 18.139927038930182 41.034948841610912 0 41.034948841610912 -11.319842966746819 0 0 0 0 -13.076882271755892 20.556507479416069 0 20.556507479416069 -20.512136010219411 0 0 0 0 8.4213591604093381 59.139181291327077 0 59.139181291327077 -35.099495399685111 0 0 0 0 -6.5257286563883099 16.684238420229349 0 16.684238420229349 3.8889657233339676 0 0 0 0 -10.470051783850067 32.579690584991113 0 32.579690584991113 -17.206912549669141 0 0 0 0 -12.51056968487228 40.384736623878439 0 40.384736623878439 -3.5714743730313785 0 0 0 0 -38.14269543075352 7.2161558290026733 0 7.2161558290026733 85.425951270670339 0 0 0 0 -7.0795919864758616 47.314594214498356 0 47.314594214498356 -23.939272453152626 0 0 0 0 -11.316782297589924 30.207737696440489 0 30.207737696440489 -25.468086809714688 0 0 0 0 -2.395619085004725 5.0773895890717142 0 5.0773895890717142 6.2675685643854564 0 0 0 0 -4.6125655990181258 37.689877194201472 0 37.689877194201472 -32.181337469345635 0 0 0 0 -3.0411123121157289 39.798775879568439 0 39.798775879568439 -34.014245988631956 0 0 0 0 -1.8463500593605247 25.9733886660634 0 25.9733886660634 -13.647382173309886 0 0 0 0 5.5598567979508857 7.0321778915512283 0 7.0321778915512283 -0.48159425558081992 0 0 0 0 -0.454121632152237 45.093860402628252 0 45.093860402628252 -64.124529820628595 0 0 0 0 -3.847185520662606 48.913263317986093 0 48.913263317986093 -38.379135113573284 0 0 0 0 -3.8476164432213409 34.081018728918934 0 34.081018728918934 -44.639500894526464 0 0 0 0 -1.8039024619392876 6.641387817682471 0 6.641387817682471 -58.127705922835958 0 0 0 0 -2.2242794227640843 9.4029064396700051 0 9.4029064396700051 -1.8551480601172443 0 0 0 0 4.2154411717546054 0.60711592260868485 0 0.60711592260868485 -1.1336525768474353 0 0 0 0 -2.8331314638489857 13.068323373018757 0 13.068323373018757 -6.6503405279472645 0 0 0 0 -1.6785926257980464 8.5118305060263992 0 8.5118305060263992 -2.2812943614117103 0 0 0 0 6.0113087600329891 79.684858567052288 0 79.684858567052288 24.748767739764162 0 0 0 0 20.401040205848403 82.987083508910473 0 82.987083508910473 -5.437372611828323 0 0 0 0 -26.841714361537015 70.965284828388576 0 70.965284828388576 80.168524379810151 0 0 0 0 -5.2571125833573831 2.9692954812630035 0 2.9692954812630035 -1.7937842295795328 0 0 0 0 -28.222268613189954 -11.204800176169783 0 -11.204800176169783 54.40661407285188 0 0 0 0 -4.9237130397136326 2.3591928451101438 0 2.3591928451101438 -0.77885746965553437 0 0 0 0 22.896373143135861 38.459932420030327 0 38.459932420030327 3.6877450346109981 0 0 0 0 31.190154732546944 25.581386148714046 0 25.581386148714046 -6.1965363219346727 0 0 0 0 21.62990816195088 40.592848679525559 0 40.592848679525559 0.51228560278104851 0 0 0 0 18.63247374756611 34.847431830643472 0 34.847431830643472 3.8395525684454697 0 0 0 0 -60.657477747248777 14.807940319391037 0 14.807940319391037 6.2759481581388172 0 0 0 0 -8.4890897495675972 8.9396074915415582 0 8.9396074915415582 -4.2249078980250481 0 0 0 0 -39.250793761537352 40.412761830515592 0 40.412761830515592 1.6988694221618061 0 0 0 0 -10.406769128034796 11.50883186499361 0 11.50883186499361 -1.2233799264666558 0 0 0 0 -1.7917118770565139 15.056294939995496 0 15.056294939995496 4.8533210269160918 0 0 0 0 -2.1250978875436886 12.139969084204239 0 12.139969084204239 -2.703229680053127 0 0 0 0 18.891595264045463 27.741645053087268 0 27.741645053087268 -0.41923598854555166 0 0 0 0 18.985489996601245 26.362155493817227 0 26.362155493817227 -5.0969696304164245 0 0 0 0 2.6475380406227487 37.2022872036423 0 37.2022872036423 3.3553049127194754 0 0 0 0 22.018588339051348 41.920632662700882 0 41.920632662700882 0.17347915727987129 0 0 0 0 12.422604704035621 21.208232297517497 0 21.208232297517497 4.7166226366043702 0 0 0 0 17.337564088578347 37.888503014186 0 37.888503014186 3.319183073750537 0 0 0 0 9.0424950310954273 16.645054127446208 0 16.645054127446208 -11.864133759052624 0 0 0 0 13.925518885590236 20.579901321646702 0 20.579901321646702 -7.1574476543537102 0 0 0 0 0.54764986662866022 16.041939037989906 0 16.041939037989906 -3.5560148466282726 0 0 0 0 4.2932779105613008 26.687860029716376 0 26.687860029716376 1.7622892021063308 0 0 0 0 4.2375953899577326 19.939938172590946 0 19.939938172590946 -5.3823538372727313 0 0 0 0 18.804594856643234 23.570706729557969 0 23.570706729557969 3.5347083209817356 0 0 0 0 13.946953938571681 21.855554460722658 0 21.855554460722658 -4.0955975064288985 0 0 0 0 16.841648205547244 26.48508282565308 0 26.48508282565308 29.020034688401211 0 0 0 0 14.408149599825265 21.142361748032272 0 21.142361748032272 21.667111657523492 0 0 0 0 16.552901953711626 28.489327634203164 0 28.489327634203164 16.177222373109544 0 0 0 0 14.561832016872359 13.403930237129316 0 13.403930237129316 -7.0614655217650579 0 0 0 0 0.99988491609263974 5.9667625220682581 0 5.9667625220682581 1.2993957392589977 0 0 0 0 12.538347334964783 7.0037306890444597 0 7.0037306890444597 -10.95960027631736 0 0 0 0 28.918600976241578 20.07575309818003 0 20.07575309818003 -30.626487559326051 0 0 0 0 -3.4477411698753713 19.376621911949769 0 19.376621911949769 34.907176462167627 0 0 0 0 -20.047476052990532 42.65983396210504 0 42.65983396210504 50.430947596978513 0 0 0 0 -43.013460933798342 87.73881185171922 0 87.73881185171922 -69.239148603432113 0 0 0 0 11.440009840098355 -2.4496919855973829 0 -2.4496919855973829 -84.550253599147254 0 0 0 0 -1.2135540478608391 0.81057668175384379 0 0.81057668175384379 -0.47851447689100723 0 0 0 0 35.27157788585464 159.36804849066539 0 159.36804849066539 -28.857609736376617 0 0 0 0 -66.842489352748089 31.110375387775093 0 31.110375387775093 69.428253875652445 0 0 0 0 -37.763799008214846 -137.45245364472794 0 -137.45245364472794 48.892012341020745 0 0 0 0 43.88240895193303 133.81042923897257 0 133.81042923897257 194.42628859323668 0 0 0 0 49.509897716256091 30.688346183800604 0 30.688346183800604 24.521713670044846 0 0 0 0 -9.3798171879006986 46.643904862993622 0 46.643904862993622 53.873094546142966 0 0 0 0 -4.7056130195851438 25.74483985882398 0 25.74483985882398 -36.675684821384493 0 0 0 0 -89.338436019563233 -51.638993664413647 0 -51.638993664413647 6.4257383960393781 0 0 0 0 10.372193564282497 -17.457093626999267 0 -17.457093626999267 -16.378717376544955 0 0 0 0 -32.398402840524795 -47.730602000912768 0 -47.730602000912768 33.123655594415141 0 0 0 0 -23.951485666431836 -65.445110904973262 0 -65.445110904973262 -33.602113272273527 0 0 0 0 -66.000445232872153 -4.8821279484400293 0 -4.8821279484400293 -16.137910059427668 0 0 0 0 188.54235611507829 25.447979022603249 0 25.447979022603249 -18.930381338876032 0 0 0 0 0.35599157810744941 -0.77042690484768173 0 -0.77042690484768173 0.2030999223754435 0 0 0 0 19.002272605270264 21.023977292286872 0 21.023977292286872 39.383997784403618 0 0 0 0 -149.26705843933451 12.591097877593711 0 12.591097877593711 81.186966918976395 0 0 0 0 131.01600292271178 -99.561324403082835 0 -99.561324403082835 -7.9541327700135298 0 0 0 0 -5.2196750567818526 6.8833493333331717 0 6.8833493333331717 52.233243832471999 0 0 0 0 77.872768011540757 57.509062991128303 0 57.509062991128303 46.618916124269163 0 0 0 0 8.9150038662870372 8.2236120676507838 0 8.2236120676507838 -7.9087268040963679 0 0 0 0 -77.772174123907462 -26.33532687486877 0 -26.33532687486877 -43.44349835347748 0 0 0 0 31.05440778099728 -31.988792099688908 0 -31.988792099688908 57.645775609547854 0 0 0 0 -65.603748802168411 21.441592890390893 0 21.441592890390893 15.283005965302436 0 0 0 0 -73.865416293832823 6.9113862870563025 0 6.9113862870563025 -5.0311921089887619 0 0 0 0 72.786902427178575 136.11985120350437 0 136.11985120350437 50.448923835392634 0 0 0 0 -64.473544304986717 44.127865432426916 0 44.127865432426916 97.295999369089259 0 0 0 0 2.7943677817710437 5.5061530941326566 0 5.5061530941326566 3.392643520602121 0 0 0 0 -391.77963812217786 -60.803004389630587 0 -60.803004389630587 -29.950736074984889 0 0 0 0 -320.41634538066864 180.62101779746081 0 180.62101779746081 25.79242960508418 0 0 0 0 -0.4216118999127616 0.47728971702770906 0 0.47728971702770906 -0.23111137389727787 0 0 0 0 1.6224521301065806 -1.5058847104787958 0 -1.5058847104787958 -11.900836524254032 0 0 0 0 -98.766212110545894 -50.599934803420183 0 -50.599934803420183 -157.60036269239208 0 0 0 0 -3.1252697641430132 -35.192881183329519 0 -35.192881183329519 -58.004984105711628 0 0 0 0 -206.16012440729537 -20.033866601836053 0 -20.033866601836053 17.864012312587874 0 0 0 0 -195.41092119670066 -216.49236717123131 0 -216.49236717123131 -144.80684698827099 0 0 0 0 -29.324051540010259 -128.05339082273531 0 -128.05339082273531 -163.30848364678968 0 0 0 0 -40.394085427833488 -129.01052522716054 0 -129.01052522716054 -95.473117395038571 0 0 0 0 149.82454528214294 -100.41431887249564 0 -100.41431887249564 -214.49233271519915 0 0 0 0 12.097455695140525 -122.74503079508577 0 -122.74503079508577 -164.78171599091002 0 0 0 0 17.955044571876897 -4.1027548565409688 0 -4.1027548565409688 -142.23724565083103 0 0 0 0 -5.2302782745537115 -105.13034424692523 0 -105.13034424692523 -180.52591356990888 0 0 0 0 10.077952739992526 8.8078461807613468 0 8.8078461807613468 -8.0446458350064631 0 0 0 0 -26.078343910543481 -84.65057833330502 0 -84.65057833330502 -131.467408485958 0 0 0 0 1.2431445199035807 -3.7376986519557249 0 -3.7376986519557249 -117.68473270163122 0 0 0 0 83.375316950230626 18.670980677485204 0 18.670980677485204 -150.45347308017153 0 0 0 0 65.173491221747099 66.087719470805496 0 66.087719470805496 -66.083627852327481 0 0 0 0 117.30795251418567 78.146404096391052 0 78.146404096391052 -97.03507297278702 0 0 0 0 153.51919360829925 47.125997562208795 0 47.125997562208795 -105.96620962287852 0 0 0 0 91.114282081456622 -18.201938062067711 0 -18.201938062067711 -154.71314045053441 0 0 0 0 80.529773008856864 82.798018409856013 0 82.798018409856013 -30.511449560064648 0 0 0 0 98.137838658018154 80.670181138897533 0 80.670181138897533 -77.755446626266348 0 0 0 0 69.263242861416074 145.31018977461281 0 145.31018977461281 33.250569921741771 0 0 0 0 80.453113970404956 109.42348997312001 0 109.42348997312001 4.1809950053611828 0 0 0 0 70.247583226970164 112.15656809788925 0 112.15656809788925 3.7788330022158334 0 0 0 0 28.162336120542022 92.497229503384006 0 92.497229503384006 41.531071951016656 0 0 0 0 -45.040702476282263 36.982067396545418 0 36.982067396545418 -29.457843651373537 0 0 0 0 -2.8320302575739333 66.762897913078632 0 66.762897913078632 -35.245601443954001 0 0 0 0 31.681715929167694 62.452872474292235 0 62.452872474292235 -34.918593125672487 0 0 0 0 45.258604214875959 69.751796289074264 0 69.751796289074264 -52.480972490542626 0 0 0 0 64.446852499160741 35.793404530508269 0 35.793404530508269 -120.45750454096924 0 0 0 0 67.365214931531227 79.603692342270733 0 79.603692342270733 -61.110948069181177 0 0 0 0 27.699784162716242 47.967333887852874 0 47.967333887852874 -98.764659574582765 0 0 0 0 47.100006844331801 46.883111947778161 0 46.883111947778161 -99.448620114126243 0 0 0 0 26.930513052270015 9.1091436845526204 0 9.1091436845526204 -4.8977817177921565 0 0 0 0 2.5663918781501707 27.37786798709385 0 27.37786798709385 -15.434866399373277 0 0 0 0 14.74091676545504 32.608788648298287 0 32.608788648298287 -30.094723830206931 0 0 0 0 14.156280787366995 40.024362940307583 0 40.024362940307583 -46.661053449599422 0 0 0 0 12.595972983937827 38.711856991412787 0 38.711856991412787 3.9173232200337225 0 0 0 0 7.3241672248988152 23.010317038282054 0 23.010317038282054 -14.293679828797224 0 0 0 0 7.5097877701124105 21.630798297306967 0 21.630798297306967 -10.805547371973596 0 0 0 0 20.604724407896725 12.373956150874022 0 12.373956150874022 1.4163719061523423 0 0 0 0 17.945031779287092 25.874526369127125 0 25.874526369127125 -18.276555505026408 0 0 0 0 12.671367628250209 12.914052392794023 0 12.914052392794023 -7.1106397298890371 0 0 0 0 45.351000538612425 38.612232754454453 0 38.612232754454453 -117.73724774111906 0 0 0 0 40.302774459491047 10.200233786596073 0 10.200233786596073 -136.86323662952054 0 0 0 0 23.857070870859388 32.012080786222896 0 32.012080786222896 10.403757698259142 0 0 0 0 10.303394221257037 8.6878873534025853 0 8.6878873534025853 -8.6062433041657656 0 0 0 0 43.932455392285192 -54.48072547925949 0 -54.48072547925949 -224.5469621987213 0 0 0 0 17.135583238232357 15.24581022217717 0 15.24581022217717 -13.007135922594898 0 0 0 0 17.898177223099083 12.576008103444167 0 12.576008103444167 6.2556466145993852 0 0 0 0 19.043664914781402 19.393461415547335 0 19.393461415547335 -15.744110224411997 0 0 0 0 20.128768440692511 30.394717890114407 0 30.394717890114407 -10.339898025969887 0 0 0 0 3.0745169699875987 15.622250449407147 0 15.622250449407147 -14.549475889336463 0 0 0 0 20.630243010229606 27.374145608378967 0 27.374145608378967 -36.29343927685477 0 0 0 0 16.414160806827567 29.864460861382213 0 29.864460861382213 11.217699591132259 0 0 0 0 7.0711361215508077 53.275710572090247 0 53.275710572090247 -7.4000595124471147 0 0 0 0 14.372832786655636 32.649276321040816 0 32.649276321040816 -10.921193931537346 0 0 0 0 10.942696947109653 38.889975733100073 0 38.889975733100073 5.1444669609081757 0 0 0 0 6.0851019952233685 12.648932237339109 0 12.648932237339109 -17.06505231919779 0 0 0 0 17.907255255893688 28.171168205732101 0 28.171168205732101 9.1752343439220567 0 0 0 0 19.493901159879897 33.601411149467822 0 33.601411149467822 -2.4791327287857712 0 0 0 0 -2.4269689992677854 11.475861920853859 0 11.475861920853859 -8.3024336685433688 0 0 0 0 10.160919094851124 17.649523104058972 0 17.649523104058972 -7.4013172426748497 0 0 0 0 5.3400351132877404 16.406739574558742 0 16.406739574558742 4.615809233750042 0 0 0 0 18.904844675593267 29.119521486361123 0 29.119521486361123 -0.4972472653753357 0 0 0 0 22.817146867549127 7.994103075929047 0 7.994103075929047 1.123947560434317 0 0 0 0 0.81471466519130331 9.7548054894706482 0 9.7548054894706482 -12.675779787949516 0 0 0 0 9.8932033338205656 26.613295213477613 0 26.613295213477613 1.2504875438926319 0 0 0 0 -4.1156265104582417 38.288136637472235 0 38.288136637472235 -0.66898438765201718 0 0 0 0 37.983876352387597 63.370681584337945 0 63.370681584337945 26.875805520497693 0 0 0 0 79.620655953534879 24.837912297425646 0 24.837912297425646 -4.0210945712460671 0 0 0 0 13.652522896249138 40.002636974021243 0 40.002636974021243 8.7070802788039146 0 0 0 0 22.995683536777506 43.837194837127754 0 43.837194837127754 8.1493850188198849 0 0 0 0 34.481578431295929 37.433418553442607 0 37.433418553442607 -2.4555019430187599 0 0 0 0 4.7680373626126311 19.853040098211036 0 19.853040098211036 -1.3770097458115487 0 0 0 0 6.7919044614973245 37.398527941284328 0 37.398527941284328 4.6555930344275112 0 0 0 0 9.0573490591403356 17.450137362549732 0 17.450137362549732 4.6575769923050228 0 0 0 0 17.477757149550598 15.085380662704665 0 15.085380662704665 -14.351777799103729 0 0 0 0 9.6252120392634737 17.808342315851235 0 17.808342315851235 6.3813144890342812 0 0 0 0 10.923772310801724 24.409082271348325 0 24.409082271348325 -5.4436954902885191 0 0 0 0 13.805532278580358 34.909864802151787 0 34.909864802151787 19.928933673591018 0 0 0 0 17.094876709197706 27.682257585587649 0 27.682257585587649 21.001859355033957 0 0 0 0 12.848514013417471 19.938858446651309 0 19.938858446651309 13.313301663883081 0 0 0 0 8.3743554153997479 16.334165849409022 0 16.334165849409022 -7.9668550420023081 0 0 0 0 11.961388931214969 30.102253465867307 0 30.102253465867307 7.7955783292563865 0 0 0 0 12.33429777091078 29.356067183249252 0 29.356067183249252 1.8153068811707271 0 0 0 0 13.684134281626029 25.485880980184447 0 25.485880980184447 -0.98815583905616222 0 0 0 0 1.4421788550184829 15.47183819070159 0 15.47183819070159 -9.9445323113958253 0 0 0 0 13.841496430017287 37.541403004004678 0 37.541403004004678 25.292873319060163 0 0 0 0 3.8493489500972942 4.1128324198490738 0 4.1128324198490738 1.182613257777092 0 0 0 0 22.766002056850994 13.610062250778356 0 13.610062250778356 -64.343997328665864 0 0 0 0 25.418526701589144 42.172099234939196 0 42.172099234939196 -38.675958414045454 0 0 0 0 17.965783945308431 24.135827248319401 0 24.135827248319401 -34.152753732032579 0 0 0 0 16.223761847807282 15.779183724182602 0 15.779183724182602 -8.5644077099962743 0 0 0 0 18.327956321561942 29.155289301235825 0 29.155289301235825 -22.674075610269938 0 0 0 0 13.991312817081052 33.044965517981836 0 33.044965517981836 -4.5142191866689245 0 0 0 0 13.693835115624097 31.808273576867578 0 31.808273576867578 -29.599235362351465 0 0 0 0 6.0540801966588162 18.27328473224393 0 18.27328473224393 -14.336057128536297 0 0 0 0 12.566746012424119 28.00898989275629 0 28.00898989275629 10.898924029184855 0 0 0 0 15.411514054869258 41.308450303756217 0 41.308450303756217 -1.9411689061016659 0 0 0 0 16.494891100315726 33.687815254888847 0 33.687815254888847 -4.3524610339572973 0 0 0 0 12.558955430016795 25.293980369393466 0 25.293980369393466 3.9986049501767411 0 0 0 0 13.363122468676011 24.569813643745874 0 24.569813643745874 -5.957281259168667 0 0 0 0 4.0880070282668157 10.613677412943954 0 10.613677412943954 -7.3817316127538319 0 0 0 0 15.256246277056562 37.73270486738511 0 37.73270486738511 75.610613324912265 0 0 0 0 17.838827673454944 37.092604999610558 0 37.092604999610558 17.227968594566846 0 0 0 0 29.035029149005595 85.73618834944773 0 85.73618834944773 14.801771429609289 0 0 0 0 121.75699586637847 99.15240529960505 0 99.15240529960505 14.433464404732149 0 0 0 0 47.748545948810261 -56.066918966413368 0 -56.066918966413368 -45.392648557606663 0 0 0 0 153.330611653294 -100.23679629543346 0 -100.23679629543346 50.450565923740214 0 0 0 0 23.691735229196269 20.647612563580608 0 20.647612563580608 0.3260590780128183 0 0 0 0 -16.933117083933894 17.029604230577462 0 17.029604230577462 -3.8205480702486909 0 0 0 0 11.570030166658398 18.669227877454432 0 18.669227877454432 -19.571028362854122 0 0 0 0 34.205494604291744 25.965351701986947 0 25.965351701986947 -72.110003907465853 0 0 0 0 7.32004722254689 13.151773118869368 0 13.151773118869368 -8.1060530999635922 0 0 0 0 13.757156168911024 15.003956541360822 0 15.003956541360822 -17.857971871526388 0 0 0 0 2.0891923064045841 15.558758226803548 0 15.558758226803548 46.538847121316394 0 0 0 0 158.50930882457396 216.03415343609777 0 216.03415343609777 -28.129964977513737 0 0 0 0 -26.822034217169858 21.372867704194505 0 21.372867704194505 -29.576282994190478 0 0 0 0 11.878615043413291 3.6050376224842609 0 3.6050376224842609 -15.992577906635123 0 0 0 0 23.939951855806072 15.657285507360537 0 15.657285507360537 -18.147189885171858 0 0 0 0 28.672868635317172 103.18623982082602 0 103.18623982082602 14.843036090587702 0 0 0 0 40.240052828972694 -21.463944891391293 0 -21.463944891391293 -41.759883985421766 0 0 0 0 4.6430844426205624 -2.3229409423293532 0 -2.3229409423293532 -10.199388441282046 0 0 0 0 7.906366143914056 -29.868479696586292 0 -29.868479696586292 7.4096850302305484 0 0 0 0 17.05274834081618 12.613536108078506 0 12.613536108078506 -3.0651236339680281 0 0 0 0 8.4197691435110755 20.715154132631142 0 20.715154132631142 -18.762740524536639 0 0 0 0 8.1945472016959684 17.18434385763976 0 17.18434385763976 -17.020384757268403 0 0 0 0 9.9436238090298019 4.2561000558367397 0 4.2561000558367397 -7.1123827871467995 0 0 0 0 7.1953258561242421 14.73350232181849 0 14.73350232181849 -9.2154413260363626 0 0 0 0 2.7024889095773688 -19.400244317072065 0 -19.400244317072065 -32.290702744367081 0 0 0 0 -33.801891628725571 8.3372679616095411 0 8.3372679616095411 -15.738308157360734 0 0 0 0 3.0862014497979544 19.938624694423197 0 19.938624694423197 -16.527826268719764 0 0 0 0 101.53546456965705 31.491329508367926 0 31.491329508367926 -19.052283655819338 0 0 0 0 26.387289136990148 3.2127581565891887 0 3.2127581565891887 -47.343661233655439 0 0 0 0 3.9998201749511963 13.869602936134187 0 13.869602936134187 -11.021066103058985 0 0 0 0 39.046812970089377 104.84199563112634 0 104.84199563112634 29.514064009912545 0 0 0 0 -58.48488377261674 118.85457926002709 0 118.85457926002709 184.21579767810181 0 0 0 0 128.50174650063491 33.338189473482998 0 33.338189473482998 -185.00278897787939 0 0 0 0 217.66023851619684 541.03959017022862 0 541.03959017022862 550.60737109798629 0 0 0 0 83.082805952857598 391.73138249027761 0 391.73138249027761 518.62848890256282 0 0 0 0 96.866149902474035 46.976522507065908 0 46.976522507065908 281.03675778290926 0 0 0 0 -3.3309879833021512 1.2608210050886974 0 1.2608210050886974 0.19248278891754467 0 0 0 0 532.80374768732509 210.67954104838827 0 210.67954104838827 192.32877052380354 0 0 0 0 3.1030523890675852 3.9066801935828579 0 3.9066801935828579 2.257094535745523 0 0 0 0 221.21895193697856 750.67397804967914 0 750.67397804967914 170.82132106322388 0 0 0 0 211.23750462077442 730.43182685390639 0 730.43182685390639 491.47583072830821 0 0 0 0 238.42603609427897 30.823007593528018 0 30.823007593528018 76.124282931858033 0 0 0 0 382.07318908037269 545.44786428619409 0 545.44786428619409 252.63505341287237 0 0 0 0 470.5596609251952 623.61238551191855 0 623.61238551191855 305.83002106976346 0 0 0 0 229.0184395923352 710.73948796179138 0 710.73948796179138 335.45170837185287 0 0 0 0 49.415278499131091 536.18324968725938 0 536.18324968725938 626.45340978875538 0 0 0 0 -32.142139403993497 406.33320339016063 0 406.33320339016063 464.59630597923024 0 0 0 0 -21.901726524192782 -6.0186379961669445 0 -6.0186379961669445 -17.94632565993561 0 0 0 0 25.624754816759378 -90.159074732422596 0 -90.159074732422596 -150.22870423902077 0 0 0 0 11.916321136784973 15.790326106674911 0 15.790326106674911 -39.049827243034088 0 0 0 0 25.329084063363553 20.738001138415711 0 20.738001138415711 -37.228204219143663 0 0 0 0 14.785047123943514 22.914267195414141 0 22.914267195414141 -25.213398260399117 0 0 0 0 14.741816729467246 43.633169778557203 0 43.633169778557203 -1.2951025044203561 0 0 0 0 1.3836983703804435 32.92237906274022 0 32.92237906274022 -28.462804024302386 0 0 0 0 16.907719185339701 16.136163652082843 0 16.136163652082843 -13.050611401555088 0 0 0 0 26.973507494272781 20.409806605497579 0 20.409806605497579 -20.268443792214384 0 0 0 0 21.440497787786711 16.423657133288756 0 16.423657133288756 -4.5667849311040598 0 0 0 0 4.5371607091947226 91.494248314885681 0 91.494248314885681 -38.143928467456135 0 0 0 0 6.0069479107478401 46.514628040153184 0 46.514628040153184 -54.259026100246729 0 0 0 0 18.672374593392306 27.431658645615244 0 27.431658645615244 -52.980426456066198 0 0 0 0 2.6160345380340004 32.470504336728482 0 32.470504336728482 -39.975245361463749 0 0 0 0 -0.026002383237937465 29.647598600276979 0 29.647598600276979 -16.881425920342735 0 0 0 0 7.3912108856311534 6.7051355701150896 0 6.7051355701150896 -35.160921523842262 0 0 0 0 -4.5119056875261094 7.437558832219473 0 7.437558832219473 -4.4128182184940101 0 0 0 0 5.8498484885203652 10.617482899164315 0 10.617482899164315 -25.567894037379574 0 0 0 0 8.1631193727810114 13.206362163044147 0 13.206362163044147 -12.98818472860664 0 0 0 0 -14.859290964115644 32.335130599116383 0 32.335130599116383 -35.896308368945029 0 0 0 0 -1.1942808901166302 32.034552304194932 0 32.034552304194932 -28.966030303106294 0 0 0 0 786.82989142894803 213.99838777419063 0 213.99838777419063 -54.966637534649635 0 0 0 0 1081.3216366377601 417.83716509841906 0 417.83716509841906 72.470903180117602 0 0 0 0 -101.68062158982502 -80.523681217324338 0 -80.523681217324338 421.27342046558624 0 0 0 0 1.3632434653693508 11.303535824582298 0 11.303535824582298 1.0285565802041958 0 0 0 0 -9.3398341753224656 7.9397430297322984 0 7.9397430297322984 -10.143838930029929 0 0 0 0 59.312917159797507 4.2811223880489706 0 4.2811223880489706 -47.238211433257675 0 0 0 0 83.475183073722292 296.63446337546338 0 296.63446337546338 410.12964149464096 0 0 0 0 44.782889108799282 320.23809083180458 0 320.23809083180458 664.07450553965464 0 0 0 0 67.170482402725611 360.53183498474391 0 360.53183498474391 588.49121818150161 0 0 0 0 119.26321851753164 596.41050700737105 0 596.41050700737105 1124.8137972094555 0 0 0 0 1062.8930106514599 1325.3168548997201 0 1325.3168548997201 1123.9266379820037 0 0 0 0 -504.92831178208871 756.88394916114339 0 756.88394916114339 2050.8426987283456 0 0 0 0 -219.9868152946583 75.022172022247105 0 75.022172022247105 803.09167605813127 0 0 0 0 86.423271944833687 245.98044288698293 0 245.98044288698293 447.56890917703277 0 0 0 0 23.394467316451482 89.134077121230348 0 89.134077121230348 -37.994718695881602 0 0 0 0 -40.984233911033471 35.915963680479848 0 35.915963680479848 -25.166066643196757 0 0 0 0 217.3760822621407 409.19748513500235 0 409.19748513500235 378.0778536178841 0 0 0 0 253.77762270574749 412.33127493881329 0 412.33127493881329 365.71226271591149 0 0 0 0 165.5062434676729 437.10043393675369 0 437.10043393675369 428.34922931857 0 0 0 0 279.46633935626596 491.48748169375176 0 491.48748169375176 402.67913912993026 0 0 0 0 822.5743870382139 477.44868848922488 0 477.44868848922488 309.5748467494268 0 0 0 0 438.28818441607291 703.96514429696254 0 703.96514429696254 646.4086342056147 0 0 0 0 363.14774563943502 662.83562691292173 0 662.83562691292173 646.89979544427479 0 0 0 0 229.45845130932867 543.38382493361132 0 543.38382493361132 600.73633760315488 0 0 0 0 304.62619466193428 522.79301136610593 0 522.79301136610593 435.23858568485593 0 0 0 0 396.26047827070579 584.29629459600983 0 584.29629459600983 410.53195703050369 0 0 0 0 377.81277067720657 374.01518476669298 0 374.01518476669298 297.93154898015018 0 0 0 0 527.38902560886345 352.20920575290802 0 352.20920575290802 195.5998085840547 0 0 0 0 496.18843876994652 278.81126060845418 0 278.81126060845418 528.44958174998465 0 0 0 0 584.328884957009 256.93120623305003 0 256.93120623305003 259.51129073211996 0 0 0 0 173.4449283794529 84.685536099957972 0 84.685536099957972 504.33500417681353 0 0 0 0 213.91109147686802 51.0464536332438 0 51.0464536332438 195.18641925591874 0 0 0 0 -65.567635451370734 -142.82432930306459 0 -142.82432930306459 -89.668982681010675 0 0 0 0 -340.04834285009565 -151.55709071164529 0 -151.55709071164529 185.99506542345625 0 0 0 0 -235.29149828512163 -6.6071400155160518 0 -6.6071400155160518 245.72380459936903 0 0 0 0 191.01897035395086 80.883239015856816 0 80.883239015856816 63.04488681031944 0 0 0 0 250.8634994126769 442.52419225549966 0 442.52419225549966 -191.66177100737332 0 0 0 0 269.30896817096709 606.03810758546024 0 606.03810758546024 549.67077835445525 0 0 0 0 490.95533234428149 703.89618095804326 0 703.89618095804326 314.36457709545357 0 0 0 0 850.35526143720199 888.08769317674887 0 888.08769317674887 644.28035240231111 0 0 0 0 457.47534683306003 551.00033391007491 0 551.00033391007491 370.65625786346209 0 0 0 0 1553.0090006271093 179.69252567873809 0 179.69252567873809 517.91976842514123 0 0 0 0 486.59790106704168 317.57059785748424 0 317.57059785748424 1151.6183191285672 0 0 0 0 438.30883744105813 516.83038431377645 0 516.83038431377645 336.78478603225085 0 0 0 0 -127.33079769972392 -169.42387811235312 0 -169.42387811235312 -195.96996127593593 0 0 0 0 -70.540723976737354 109.03591601079825 0 109.03591601079825 92.521683416285668 0 0 0 0 -113.37747410062002 112.23741462690668 0 112.23741462690668 8.8485573778270918 0 0 0 0 -36.666845459680189 -74.713680588327406 0 -74.713680588327406 -30.42563423491265 0 0 0 0 -173.16902890961501 -143.16142473725995 0 -143.16142473725995 -45.71927327145022 0 0 0 0 -248.47334977582796 -129.63299624434694 0 -129.63299624434694 106.32123433986999 0 0 0 0 -4.6440138363268488 -69.312243916048374 0 -69.312243916048374 62.111032033142692 0 0 0 0 21.599959155084434 115.66171771329664 0 115.66171771329664 221.02034623270447 0 0 0 0 92.225005226966459 13.781635666375223 0 13.781635666375223 37.494625068822643 0 0 0 0 45.977494078560994 238.90603211840426 0 238.90603211840426 214.62564875728276 0 0 0 0 193.20422577005229 207.47260671437107 0 207.47260671437107 159.91745784737941 0 0 0 0 169.49895776459016 313.71540280485351 0 313.71540280485351 173.0763981774362 0 0 0 0 314.97281471091992 481.42659328982336 0 481.42659328982336 295.96154650056269 0 0 0 0 204.27261511265897 457.44657541025117 0 457.44657541025117 322.5416951115767 0 0 0 0 319.52757602694328 301.45269058584745 0 301.45269058584745 126.54760511859786 0 0 0 0 301.00070788860467 510.06376469217503 0 510.06376469217503 318.39696487213223 0 0 0 0 256.55004924161767 439.40646898304112 0 439.40646898304112 287.97757942087628 0 0 0 0 383.14262478939781 455.13555669177731 0 455.13555669177731 280.75299576875113 0 0 0 0 65.079235765180783 254.82711374161954 0 254.82711374161954 401.59004833610925 0 0 0 0 277.78887000201939 424.11541392279833 0 424.11541392279833 406.98074341431493 0 0 0 0 120.34667670306953 268.67845481371114 0 268.67845481371114 184.43900920740271 0 0 0 0 -24.666316740484035 73.39669326992589 0 73.39669326992589 99.542434389164555 0 0 0 0 -87.473434352476033 4.377294783371326 0 4.377294783371326 169.96178456739881 0 0 0 0 -100.67062961190095 53.17828967922469 0 53.17828967922469 44.635215804650215 0 0 0 0 55.947236867257743 179.24157947590538 0 179.24157947590538 128.44447637216945 0 0 0 0 39.079638680988865 148.16751731137629 0 148.16751731137629 327.57880538678728 0 0 0 0 -83.330173433387245 -47.899608164119854 0 -47.899608164119854 72.15769421199002 0 0 0 0 -87.309307512903615 5.2110329779025051 0 5.2110329779025051 -75.365158949898614 0 0 0 0 -219.30498052452458 -124.32713199647696 0 -124.32713199647696 -39.744503076572073 0 0 0 0 -261.05465860913682 -120.11602512397803 0 -120.11602512397803 61.927157522935886 0 0 0 0 -246.07975390987122 -168.88303656293283 0 -168.88303656293283 -33.382140254807382 0 0 0 0 -257.51993495638453 -171.51437323124992 0 -171.51437323124992 -48.939490170865611 0 0 0 0 -226.53330792205816 -146.99195564210095 0 -146.99195564210095 -108.68964601455809 0 0 0 0 -317.28098944353405 -1.4386168124474352 0 -1.4386168124474352 -25.60643579329917 0 0 0 0 -495.64735547622695 -193.95990535005694 0 -193.95990535005694 74.792850084573729 0 0 0 0 -200.26480000156516 -119.29560904266691 0 -119.29560904266691 3.2796910256147385 0 0 0 0 -72.085639721859479 39.519222291724873 0 39.519222291724873 -223.15019188739825 0 0 0 0 -27.410558465060603 -61.649949544918854 0 -61.649949544918854 -45.765927475076751 0 0 0 0 -36.223615230708674 -74.153589989087777 0 -74.153589989087777 -29.726073768113565 0 0 0 0 -0.95158471344285545 1.1107114843489683 0 1.1107114843489683 -2.2157089224168658 0 0 0 0 0.0001617631118620011 -2.0890189149028089 0 -2.0890189149028089 -1.5685585571602587 0 0 0 0 -100.6667328120966 216.36139152142277 0 216.36139152142277 -143.85841314266145 0 0 0 0 -56.186040961241815 43.571059861649701 0 43.571059861649701 -93.994289500469677 0 0 0 0 -23.684906719150604 -40.437119470188918 0 -40.437119470188918 31.982043826770678 0 0 0 0 -147.18087407047278 -13.423538228897087 0 -13.423538228897087 136.81216163944828 0 0 0 0 -279.63999446794332 222.31234276348187 0 222.31234276348187 145.46138020891522 0 0 0 0 -26.662467304951861 -5.1742432827231823 0 -5.1742432827231823 5.8876906951427372 0 0 0 0 -57.044156717376609 -6.6831792732591566 0 -6.6831792732591566 6.3099424898973666 0 0 0 0 -9.5049688395993144 -21.108501077080291 0 -21.108501077080291 1.7869835496676387 0 0 0 0 0.036518173900311979 0.75748811002162597 0 0.75748811002162597 -7.4569061192258914 0 0 0 0 -27.081000811289414 -2.1870017090950569 0 -2.1870017090950569 -15.396396852091129 0 0 0 0 -254.4111366209072 -162.45543548913884 0 -162.45543548913884 -34.875251570570981 0 0 0 0 -3.0146912871878939 1.4353251222170655 0 1.4353251222170655 -9.8424445706983192 0 0 0 0 -25.936529586797405 -35.614655219849737 0 -35.614655219849737 -230.87630880415963 0 0 0 0 -33.005691701811884 -3.6640539319741947 0 -3.6640539319741947 -11.424107779515907 0 0 0 0 -17.897300881884163 10.162301255095876 0 10.162301255095876 -2.1948937672668194 0 0 0 0 -0.49684375873039244 85.323498013647622 0 85.323498013647622 83.006271489124629 0 0 0 0 -71.131470788372098 28.66714218139532 0 28.66714218139532 85.174669333092197 0 0 0 0 12.499922400311334 64.11084917725384 0 64.11084917725384 -103.13451145327417 0 0 0 0 26.317393883611658 -4.6247390202115639 0 -4.6247390202115639 55.048992392941727 0 0 0 0 82.423931638448266 94.633001624726603 0 94.633001624726603 -0.37891929147008341 0 0 0 0 66.429900467079278 110.90518338494985 0 110.90518338494985 108.418025562205 0 0 0 0 -14.56119163438305 7.1753371302522808 0 7.1753371302522808 -0.93775720179851874 0 0 0 0 18.805937504308531 45.846840076992521 0 45.846840076992521 130.40343396786193 0 0 0 0 155.19579685214558 271.98897736427898 0 271.98897736427898 368.87474678971921 0 0 0 0 -5.1834646803733904 1.9054988425721504 0 1.9054988425721504 2.3498344383838798 0 0 0 0 -55.190062933994341 -112.41091903179404 0 -112.41091903179404 432.17897010617889 0 0 0 0 35.800499716409831 26.193703715856827 0 26.193703715856827 153.08366015621868 0 0 0 0 -9.8246986375706911 -122.52734827830136 0 -122.52734827830136 45.114234822016442 0 0 0 0 10.979947056186575 -148.56113639911291 0 -148.56113639911291 58.291323775294586 0 0 0 0 65.743215656621032 -129.02656206511892 0 -129.02656206511892 -71.207156793963804 0 0 0 0 138.26382230425952 -249.26143079312169 0 -249.26143079312169 8.9866916372848209 0 0 0 0 68.685635640871624 12.725075889697109 0 12.725075889697109 -389.53598389016406 0 0 0 0 -615.02927379302128 463.37139098626358 0 463.37139098626358 -189.32846379481452 0 0 0 0 89.986166805130779 -94.661507447719487 0 -94.661507447719487 -48.917098067197003 0 0 0 0 -356.47647836567921 614.18113827088382 0 614.18113827088382 -1229.0405905583029 0 0 0 0 -6.8962467612869034 4.298171196415538 0 4.298171196415538 -5.04469223017594 0 0 0 0 -662.35488962149248 1196.6175362431459 0 1196.6175362431459 -934.01668205387432 0 0 0 0 -31.864534283144167 -14.59449388095527 0 -14.59449388095527 -38.027848171535879 0 0 0 0 -35.021090304930112 449.65226182230253 0 449.65226182230253 -764.25624669887475 0 0 0 0 -1068.3105018769711 -29.855700304382481 0 -29.855700304382481 -9.7621236305203638 0 0 0 0 -298.81181941655814 -220.75074367463822 0 -220.75074367463822 -14.044122395356908 0 0 0 0 -1054.0247390059869 749.38140798478594 0 749.38140798478594 -488.72899282734579 0 0 0 0 -87.508058330960921 -43.183987359603634 0 -43.183987359603634 -252.10840092143917 0 0 0 0 -748.39259637774376 42.997269524888907 0 42.997269524888907 560.8161834789571 0 0 0 0 -3.0296586695581027 1.2659592159703834 0 1.2659592159703834 0.060030932902048306 0 0 0 0 -551.02044292030041 -111.49462497627974 0 -111.49462497627974 -15.769629776666989 0 0 0 0 -159.98865644398029 28.735410046683683 0 28.735410046683683 -190.1657787577933 0 0 0 0 -245.05760613500024 -160.39224850890605 0 -160.39224850890605 -41.36933603034413 0 0 0 0 -540.72247736564896 -107.79302057919267 0 -107.79302057919267 12.409067712800606 0 0 0 0 -396.1619448196725 91.232533343687464 0 91.232533343687464 -96.508345298090717 0 0 0 0 -234.94966730579472 -163.35036780687733 0 -163.35036780687733 -41.174212240061024 0 0 0 0 -70.791328582341521 202.28028642229401 0 202.28028642229401 -678.25859624707664 0 0 0 0 -551.99373384070304 151.44111345787906 0 151.44111345787906 -38.812691888328118 0 0 0 0 -32.626646006116061 -10.398839957302698 0 -10.398839957302698 -149.85615608035732 0 0 0 0 94.434450898093928 210.98522588702326 0 210.98522588702326 -320.70885829307599 0 0 0 0 49.352097621357643 40.002255323703139 0 40.002255323703139 55.531518730909738 0 0 0 0 -341.78236134971667 319.48608601646265 0 319.48608601646265 -65.749374779486971 0 0 0 0 -4.6270330116142304 4.346739937185248 0 4.346739937185248 0.14587440593711243 0 0 0 0 2.1058931065786055 571.97279261032008 0 571.97279261032008 -800.95314383764344 0 0 0 0 -361.44232001637283 638.07629724005892 0 638.07629724005892 -761.67109881169199 0 0 0 0 -428.31098457016196 1067.5015366929729 0 1067.5015366929729 -1385.501431030073 0 0 0 0 -167.58607890534768 619.24897347900696 0 619.24897347900696 -1335.6043930502929 0 0 0 0 -310.21244457143621 810.44982783816522 0 810.44982783816522 -1186.8530536633552 0 0 0 0 2293.8297503524227 -526.06596030354922 0 -526.06596030354922 -646.73533512750873 0 0 0 0 818.07059603936796 761.46732191993215 0 761.46732191993215 -1452.5923864334145 0 0 0 0 -511.60084915717744 1317.5406582083597 0 1317.5406582083597 -1836.454657932758 0 0 0 0 -2069.2976726714405 1833.6257259176964 0 1833.6257259176964 -1231.3740131892919 0 0 0 0 2.5200417504422177 2.9877181419238639 0 2.9877181419238639 -7.4961751595894555 0 0 0 0 -28.558245326006727 588.58649819009588 0 588.58649819009588 -1182.2859394559273 0 0 0 0 -55.584201988463974 771.48385931537769 0 771.48385931537769 -1202.8940125659792 0 0 0 0 339.74239314372244 757.05708007146495 0 757.05708007146495 -1248.5959240917218 0 0 0 0 -1.6710385304610327 3.581896976113697 0 3.581896976113697 -0.29200279795907491 0 0 0 0 -67.096391280778334 613.74895529315836 0 613.74895529315836 -1161.2911783985292 0 0 0 0 53.369381883738242 587.66439555753641 0 587.66439555753641 -1233.9970920548076 0 0 0 0 -22.068612650582509 304.89010071352823 0 304.89010071352823 268.06083358152682 0 0 0 0 265.80862556763168 416.95561483614438 0 416.95561483614438 234.29862333211759 0 0 0 0 186.48062492051395 459.47608704456434 0 459.47608704456434 637.82339581356791 0 0 0 0 260.80393817964796 417.90907533259451 0 417.90907533259451 366.08731844833528 0 0 0 0 314.7096270082402 654.0790192161885 0 654.0790192161885 616.72430879608874 0 0 0 0 52.379168420491624 210.35853426920221 0 210.35853426920221 -14.943361558202014 0 0 0 0 -36.228645838406152 38.477738721214294 0 38.477738721214294 -33.250153733889192 0 0 0 0 386.07841232427018 529.00752488154467 0 529.00752488154467 529.97115675685927 0 0 0 0 301.60929185016721 440.16319815261522 0 440.16319815261522 709.43103658370092 0 0 0 0 234.54665751788707 531.79315721790044 0 531.79315721790044 559.36805935771554 0 0 0 0 298.37892214885869 402.24728769096419 0 402.24728769096419 408.0293552698713 0 0 0 0 107.99105691781733 430.76507915556067 0 430.76507915556067 422.0619911043832 0 0 0 0 289.1308356722875 467.44756692978626 0 467.44756692978626 275.44451088793721 0 0 0 0 217.70083404638717 304.0530317669436 0 304.0530317669436 15.377927294603523 0 0 0 0 65.833474404355911 341.22416855113352 0 341.22416855113352 359.40973907492298 0 0 0 0 116.3011223962676 98.906898672896205 0 98.906898672896205 150.97021961931023 0 0 0 0 -76.184151879571232 256.32249495551264 0 256.32249495551264 22.747693007760972 0 0 0 0 248.73996156017529 341.89100503103691 0 341.89100503103691 260.36472628169759 0 0 0 0 184.88002378313831 315.24206416872767 0 315.24206416872767 554.26364083217049 0 0 0 0 345.06165709321795 420.80997340923204 0 420.80997340923204 331.8963297171922 0 0 0 0 211.22249175048273 422.06304291742526 0 422.06304291742526 642.22350661926612 0 0 0 0 286.31550561648328 559.12640914003714 0 559.12640914003714 492.11265105121493 0 0 0 0 189.39724989325623 252.02665167747955 0 252.02665167747955 -174.02745708181465 0 0 0 0 294.13353660399298 597.94112637980288 0 597.94112637980288 808.73935546231951 0 0 0 0 427.42080009734491 481.16783906468481 0 481.16783906468481 631.99006344912414 0 0 0 0 429.49621059559286 516.91298084816663 0 516.91298084816663 522.65881940399959 0 0 0 0 271.34319345573749 401.3493481098194 0 401.3493481098194 1024.4152153781033 0 0 0 0 214.78094099690497 378.82433468718227 0 378.82433468718227 705.45840948988916 0 0 0 0 275.92206513722886 479.50959529419379 0 479.50959529419379 -170.51832493107941 0 0 0 0 0.39306006914290492 0.50385586806501692 0 0.50385586806501692 1.2140068687146481 0 0 0 0 305.30479505109543 926.71342916849244 0 926.71342916849244 1281.7699476859889 0 0 0 0 631.50274219080165 786.01721366002312 0 786.01721366002312 556.72802503645653 0 0 0 0 47.873525619201246 -369.2374761989704 0 -369.2374761989704 -130.57019066417706 0 0 0 0 109.66510043188464 200.84610024467838 0 200.84610024467838 90.199789195673475 0 0 0 0 167.11625615091179 185.44370023709416 0 185.44370023709416 35.522412412516132 0 0 0 0 132.02284956052608 126.22781532064255 0 126.22781532064255 -46.462518768144946 0 0 0 0 78.103471389753395 150.98951610858057 0 150.98951610858057 99.438903167436365 0 0 0 0 158.91129423111124 130.53035151686709 0 130.53035151686709 11.77321341446077 0 0 0 0 268.51705812131695 107.65100659341988 0 107.65100659341988 -145.70183094238746 0 0 0 0 275.63971795995894 245.8740663286153 0 245.8740663286153 55.425012476640404 0 0 0 0 248.78559901830886 182.74782495198451 0 182.74782495198451 131.38618458852579 0 0 0 0 168.34395997777756 289.92580903617454 0 289.92580903617454 290.10270518611651 0 0 0 0 13.095901747581394 8.2344286545019543 0 8.2344286545019543 -16.47672388719397 0 0 0 0 11.620126126550304 9.1789718310540493 0 9.1789718310540493 -14.654376856902971 0 0 0 0 117.65979405406688 182.60076517650305 0 182.60076517650305 72.084402182605118 0 0 0 0 -43.430112346607331 37.947209558448385 0 37.947209558448385 -28.440000067695195 0 0 0 0 210.91743634402519 -1.1657686045145965 0 -1.1657686045145965 -81.897254250899095 0 0 0 0 402.77341703462298 312.59823271664209 0 312.59823271664209 -160.20605881759002 0 0 0 0 379.09191617266333 199.55951402729079 0 199.55951402729079 -111.77263172890525 0 0 0 0 96.162370088350144 -26.944032330840855 0 -26.944032330840855 -136.71775923311361 0 0 0 0 218.69097459841578 10.476522559049045 0 10.476522559049045 -217.51568124375262 0 0 0 0 -6.1463125659502111 -197.00513771273836 0 -197.00513771273836 -255.29173936912412 0 0 0 0 157.4539067411024 117.58248903245658 0 117.58248903245658 -329.51585567740403 0 0 0 0 -19.291626830236055 -162.98546675860234 0 -162.98546675860234 -245.09107631904772 0 0 0 0 -0.46856141029488185 -1.0131518321363444 0 -1.0131518321363444 -4.2770227796652733 0 0 0 0 -502.12233033990196 -229.60238026501975 0 -229.60238026501975 -76.849147612687375 0 0 0 0 -198.51982730001328 -398.22335181075323 0 -398.22335181075323 -532.54775584693562 0 0 0 0 -194.00718473983579 165.15656593003587 0 165.15656593003587 -119.523147865591 0 0 0 0 -130.3222214990019 274.0531313855663 0 274.0531313855663 -783.55039174028207 0 0 0 0 -292.26895570768102 233.51866356309074 0 233.51866356309074 -327.01737766899896 0 0 0 0 -398.4699422394624 -1.8687279625919473 0 -1.8687279625919473 -833.83167838039981 0 0 0 0 113.5062213589008 -13.930028410622981 0 -13.930028410622981 -713.30422941989673 0 0 0 0 -518.10357004724938 178.69931663521129 0 178.69931663521129 -170.85381046581824 0 0 0 0 -576.10622004616016 168.22106598568462 0 168.22106598568462 76.432444896752713 0 0 0 0 -216.1704411568644 325.9964824385097 0 325.9964824385097 -216.57116657908227 0 0 0 0 -683.01562295408075 389.21333283166314 0 389.21333283166314 -352.10780199651344 0 0 0 0 -639.92208606556233 822.58910400384593 0 822.58910400384593 -890.07051426001271 0 0 0 0 -621.07428470926243 716.59644382766783 0 716.59644382766783 -314.91196733013203 0 0 0 0 -781.1013779186469 647.73244016649915 0 647.73244016649915 -107.93190005765064 0 0 0 0 -298.9083249784162 26.337405823405788 0 26.337405823405788 397.16575415871921 0 0 0 0 418.5591371039045 550.17725234461068 0 550.17725234461068 118.19509153994068 0 0 0 0 404.0935913641224 328.25855816795774 0 328.25855816795774 -172.97620476411248 0 0 0 0 -24.238756623628433 78.828100570608512 0 78.828100570608512 82.006247936660657 0 0 0 0 15.985949929563503 342.79982699039192 0 342.79982699039192 96.445482536437339 0 0 0 0 -0.88750249513145718 -1.3597212607448981 0 -1.3597212607448981 1.6134014663597327 0 0 0 0 474.9134176341322 607.30816882589352 0 607.30816882589352 590.6512949661992 0 0 0 0 231.47588445727888 176.10391119647102 0 176.10391119647102 202.60509408390499 0 0 0 0 595.56582371954573 187.8824010660428 0 187.8824010660428 -96.13563881340815 0 0 0 0 473.89629767158476 -44.519795011874521 0 -44.519795011874521 -652.35413070549475 0 0 0 0 558.38710771760088 645.63499921642142 0 645.63499921642142 232.25560162321926 0 0 0 0 358.87294654145808 531.71218717072406 0 531.71218717072406 423.9455265709621 0 0 0 0 -28.87176413794225 30.266146650805211 0 30.266146650805211 -28.73927750233301 0 0 0 0 77.561904726306238 737.60718706666557 0 737.60718706666557 216.49117172666593 0 0 0 0 557.00964957231918 122.32043202183195 0 122.32043202183195 -593.27955952796765 0 0 0 0 576.04767198969807 422.46410587844673 0 422.46410587844673 -1933.5648374548327 0 0 0 0 299.78826990279049 784.51160050512772 0 784.51160050512772 -1048.6818362847935 0 0 0 0 242.00817483244464 780.1871415870919 0 780.1871415870919 -1009.250193586704 0 0 0 0 185.55919275080669 383.77023307094714 0 383.77023307094714 -1013.8038399189059 0 0 0 0 245.43736510619487 864.55378380850118 0 864.55378380850118 -535.92374332017789 0 0 0 0 196.09782921880105 472.08701725435503 0 472.08701725435503 -651.94682339736755 0 0 0 0 -2.5416841126338738 -2.3604116863899094 0 -2.3604116863899094 -7.8052112328728924 0 0 0 0 514.52474658525534 326.27613476800798 0 326.27613476800798 -1315.1269042228814 0 0 0 0 -419.01574893415091 1327.7278795705133 0 1327.7278795705133 -1223.4781868446771 0 0 0 0 -336.39302548998603 1124.6188279256912 0 1124.6188279256912 -1643.7091905161578 0 0 0 0 -946.92096824836335 1573.4695171059102 0 1573.4695171059102 -1455.2181477103563 0 0 0 0 -436.41249588557548 942.35562193704754 0 942.35562193704754 -1369.1777909342782 0 0 0 0 -338.45112643922039 713.32743772938557 0 713.32743772938557 -1154.0384104362383 0 0 0 0 -143.09192880409682 855.38485367644716 0 855.38485367644716 -1671.7759588049303 0 0 0 0 -132.68035022962431 710.13784212557584 0 710.13784212557584 -1414.5643597763192 0 0 0 0 -0.33216488077596296 776.85835723901982 0 776.85835723901982 -1382.2134403813179 0 0 0 0 -78.974059880783898 535.55041822378917 0 535.55041822378917 -1243.4985620858733 0 0 0 0 -1520.9421407038608 -457.80179821939964 0 -457.80179821939964 -1877.2072623333661 0 0 0 0 -201.06633749849425 1717.8398163899183 0 1717.8398163899183 -1547.7167842834897 0 0 0 0 -2.8827516067163685 -6.783241414975322 0 -6.783241414975322 -16.968501205005992 0 0 0 0 -1390.2332959558407 820.8177861467484 0 820.8177861467484 423.88614402941312 0 0 0 0 -11.992634275179995 12.360824306526819 0 12.360824306526819 -12.073531465210607 0 0 0 0 -775.69323028823419 1302.8141949128876 0 1302.8141949128876 -213.78055172954919 0 0 0 0 -769.97115379630304 1321.6041578482454 0 1321.6041578482454 -694.95794854873384 0 0 0 0 -1187.9109349767241 1687.2651296737422 0 1687.2651296737422 -491.9100887056702 0 0 0 0 -1.5908672862773017 -3.6021746932759982 0 -3.6021746932759982 -9.614713300850326 0 0 0 0 -275.7623254551072 -248.92237628435396 0 -248.92237628435396 -322.00153584811051 0 0 0 0 -196.22896909540941 -312.07298923470626 0 -312.07298923470626 562.87978980302432 0 0 0 0 -236.3205557666297 237.13423938709275 0 237.13423938709275 -946.96554214366552 0 0 0 0 691.55625379297999 -580.51786338098827 0 -580.51786338098827 -1690.6773629783911 0 0 0 0 -73.307504083873937 837.96540107130386 0 837.96540107130386 -1329.6327026845756 0 0 0 0 -155.76355995069025 806.20439062359583 0 806.20439062359583 -1341.6308174484257 0 0 0 0 -32.977761846010253 767.18611550868809 0 767.18611550868809 -1874.4806947680845 0 0 0 0 0.30534767327150991 10.218953680982736 0 10.218953680982736 -16.900492869002562 0 0 0 0 -3349.0588193878502 2298.1210964206894 0 2298.1210964206894 -1254.8516215775162 0 0 0 0 -459.00945241791851 1921.4803944132182 0 1921.4803944132182 -3937.7901507136412 0 0 0 0 -1601.0558473331184 869.92330990111259 0 869.92330990111259 -206.95084148562819 0 0 0 0 -623.50353507055115 1787.7869376343442 0 1787.7869376343442 -2180.9288127616692 0 0 0 0 1.7899744106507569 1217.5363267966268 0 1217.5363267966268 -3125.8895890637868 0 0 0 0 610.18721030990855 643.55676359629069 0 643.55676359629069 -581.88766949385354 0 0 0 0 542.11295475677616 820.757638340021 0 820.757638340021 667.52482301842974 0 0 0 0 3805.05382303752 79.813287341389071 0 79.813287341389071 -1484.0877432932102 0 0 0 0 703.22577498930332 2870.1498714127192 0 2870.1498714127192 -3693.036450825377 0 0 0 0 109.97976914959145 -32.323333034097232 0 -32.323333034097232 -164.12684064667883 0 0 0 0 -679.02415338350147 2108.2977113855604 0 2108.2977113855604 -438.80534310318035 0 0 0 0 -0.38810031702418257 8.5965681126622542 0 8.5965681126622542 -25.692648009820758 0 0 0 0 2321.3930774254841 -150.9359098520581 0 -150.9359098520581 -2438.2572975098701 0 0 0 0 176.96082121771178 1634.7560742462729 0 1634.7560742462729 -3916.1786839608249 0 0 0 0 642.94181525599561 409.67379944260028 0 409.67379944260028 248.72864307392501 0 0 0 0 -5.2437211447977461 1185.8691376534471 0 1185.8691376534471 -626.50381439206103 0 0 0 0 989.03810433672334 -318.08613716711989 0 -318.08613716711989 -3367.847455828758 0 0 0 0 -0.57445629382813479 3.7599714616256676 0 3.7599714616256676 -18.300591121677698 0 0 0 0 -744.94581173194456 -2192.5858613500423 0 -2192.5858613500423 -1589.8986954966513 0 0 0 0 854.11456844412169 488.65190372086647 0 488.65190372086647 318.59884423257245 0 0 0 0 -0.66208715860973655 16.505649048153927 0 16.505649048153927 -49.835344479002359 0 0 0 0 2428.8742651125867 1268.7971993742813 0 1268.7971993742813 -1133.5766034963308 0 0 0 0 1490.4288071453557 1014.5708537483406 0 1014.5708537483406 -484.3671490074903 0 0 0 0 -627.7328575092688 419.16270462434659 0 419.16270462434659 -446.19162221713486 0 0 0 0 -747.87507658275717 577.69361747799212 0 577.69361747799212 -425.09488645894453 0 0 0 0 -770.83140907595953 670.42105641882063 0 670.42105641882063 790.60991901918896 0 0 0 0 -267.35183395460626 1178.2921332443402 0 1178.2921332443402 -435.8405457871886 0 0 0 0 -103.10947498868336 950.87586625682434 0 950.87586625682434 -2494.517147405204 0 0 0 0 1509.8779361581364 -723.90467436957351 0 -723.90467436957351 -1969.0110950819071 0 0 0 0 -0.19818067607014456 6.489463618564173 0 6.489463618564173 -24.833225594511532 0 0 0 0 -144.27577897884476 643.14406478278397 0 643.14406478278397 -428.16870404554049 0 0 0 0 -318.46499559721997 363.00915341480504 0 363.00915341480504 -808.83314436096407 0 0 0 0 -147.71327125907192 107.37328841374074 0 107.37328841374074 -904.29178913193027 0 0 0 0 -336.26853982399916 -175.00331502150948 0 -175.00331502150948 -221.26587922344697 0 0 0 0 -973.07287462161912 -796.25195516836538 0 -796.25195516836538 -696.03399928141152 0 0 0 0 -176.87028840153653 217.19646380673566 0 217.19646380673566 80.851201376404788 0 0 0 0 -425.12610474720896 1415.0191337198753 0 1415.0191337198753 -1755.4095657503349 0 0 0 0 1396.150324887587 693.29315800417635 0 693.29315800417635 -1580.7757834418226 0 0 0 0 1151.3210977176932 -306.66528124903198 0 -306.66528124903198 123.69222251218889 0 0 0 0 0.82766774714569635 12.768071490616578 0 12.768071490616578 -40.221465661921613 0 0 0 0 1232.6937441684713 725.36964673375951 0 725.36964673375951 -1038.3331539260289 0 0 0 0 -1.0956569981246105 1.9964444216357009 0 1.9964444216357009 -10.861321379162469 0 0 0 0 57.690306897929986 414.84670891266796 0 414.84670891266796 234.28601147683958 0 0 0 0 0.21364864318456966 -383.42554248147917 0 -383.42554248147917 -1326.2420919968863 0 0 0 0 -1106.5363242132371 -1061.7621703722332 0 -1061.7621703722332 -352.425698701074 0 0 0 0 421.17076923593413 -73.007088551777997 0 -73.007088551777997 -733.03747773906798 0 0 0 0 -638.73317846274949 1148.7159024932762 0 1148.7159024932762 -1673.2414616277165 0 0 0 0 86.073928501340561 -947.48317343415329 0 -947.48317343415329 -1892.3860627409958 0 0 0 0 -0.51613048952173335 651.75229433946038 0 651.75229433946038 663.93811946916685 0 0 0 0 793.47138813647325 -395.20234779770908 0 -395.20234779770908 -847.56162675266569 0 0 0 0 1193.1766476374833 -1155.9909265317601 0 -1155.9909265317601 -1196.0133742965136 0 0 0 0 375.83877053414471 -327.60533872985252 0 -327.60533872985252 -384.96005990719277 0 0 0 0 -1.0928196391378151 534.12107825631392 0 534.12107825631392 108.68631496757735 0 0 0 0 22.023249669648067 385.68671660252494 0 385.68671660252494 -301.87234004867059 0 0 0 0 -195.12136067606116 219.94042327912393 0 219.94042327912393 -268.64354285703666 0 0 0 0 -90.644007899987628 53.215694305297802 0 53.215694305297802 -14.767254216265428 0 0 0 0 31.923270909770508 271.14265366586915 0 271.14265366586915 19.856086469729689 0 0 0 0 -10.67749619690585 17.954595753690228 0 17.954595753690228 0.74449627918511396 0 0 0 0 -26.244336193541244 24.05073773460153 0 24.05073773460153 -21.346382297196342 0 0 0 0 -35.920783305884612 40.412268744155931 0 40.412268744155931 -23.940833831661195 0 0 0 0 88.813783933961531 766.29897665589669 0 766.29897665589669 170.89667713808012 0 0 0 0 104.40073966448472 112.1612200086347 0 112.1612200086347 -109.04593307938921 0 0 0 0 770.65757412883977 769.08230964816175 0 769.08230964816175 -947.22006155546842 0 0 0 0 -141.97382797527825 -328.70385638939115 0 -328.70385638939115 -998.55600470407808 0 0 0 0 36.757610301749082 132.83166027321568 0 132.83166027321568 -113.65066239489352 0 0 0 0 -65.723958894610405 -206.57255336362869 0 -206.57255336362869 -1531.1262730613817 0 0 0 0 30.670301860570476 15.732218078696377 0 15.732218078696377 -7.0541779513596197 0 0 0 0 3006.920929693224 376.71654200531702 0 376.71654200531702 -1176.4445815043146 0 0 0 0 0.18734973480868788 6.9683006666879663 0 6.9683006666879663 -10.340096888693239 0 0 0 0 203.28674024831707 1009.5473342520345 0 1009.5473342520345 -940.84276205513015 0 0 0 0 -158.83613401389448 7.8761887438813574 0 7.8761887438813574 -587.91559687889821 0 0 0 0 766.30138494710081 261.26036261925947 0 261.26036261925947 -4.2431246339328936 0 0 0 0 887.82038681188999 679.21267045188551 0 679.21267045188551 -209.56480826496409 0 0 0 0 780.57597641704524 332.5380098687283 0 332.5380098687283 337.55490004288004 0 0 0 0 888.39423027435259 737.23197329952382 0 737.23197329952382 329.90319435537219 0 0 0 0 171.13797056928161 1279.8502811941325 0 1279.8502811941325 -206.26919946918042 0 0 0 0 -960.17049559430234 507.82234221366889 0 507.82234221366889 -201.20106123955702 0 0 0 0 -1872.4676233724676 850.0039202636035 0 850.0039202636035 127.80785936304164 0 0 0 0 9.5832301544779455 1.2718408442051583 0 1.2718408442051583 0.89131896458084015 0 0 0 0 -2753.6622932138507 895.8877457051974 0 895.8877457051974 512.69409692609042 0 0 0 0 1032.9480206088047 1982.9729915345997 0 1982.9729915345997 -1413.3088328524914 0 0 0 0 -693.20899219910643 685.34165803088217 0 685.34165803088217 -90.991800938096276 0 0 0 0 187.77882435467473 581.16080540815346 0 581.16080540815346 -93.757613047881023 0 0 0 0 296.05517448687533 468.9225685063584 0 468.9225685063584 22.243103792265174 0 0 0 0 -0.334198215378604 787.66675847285785 0 787.66675847285785 245.08230135824124 0 0 0 0 1636.1906331888968 788.42487328618154 0 788.42487328618154 -123.23564521159278 0 0 0 0 -506.43195726230169 1120.1490615504013 0 1120.1490615504013 -493.31774366851459 0 0 0 0 0.85645787646700366 22.796259276013686 0 22.796259276013686 -34.690364323335757 0 0 0 0 -167.25570773752406 523.76897777928025 0 523.76897777928025 -431.49919868272991 0 0 0 0 789.0330387233771 256.79223956901842 0 256.79223956901842 -161.06172164468717 0 0 0 0 -406.34214152769709 453.33615767653464 0 453.33615767653464 -50.117997314329841 0 0 0 0 26.060003291675457 585.34326223291919 0 585.34326223291919 85.769853041605529 0 0 0 0 0.57908597092088421 24.177802193211917 0 24.177802193211917 -33.126904088409617 0 0 0 0 0.67368389250091409 19.441839331791854 0 19.441839331791854 -25.658449078087642 0 0 0 0 1881.6556636311298 557.32070121289007 0 557.32070121289007 -134.0100398860377 0 0 0 0 753.76073169629672 313.34989774761198 0 313.34989774761198 143.08389253352652 0 0 0 0 -4.5724256605244591 722.96136336869858 0 722.96136336869858 334.00813006219687 0 0 0 0 -13.834246397003881 660.3963195527067 0 660.3963195527067 58.611027439786994 0 0 0 0 143.93403641420446 827.82946207749046 0 827.82946207749046 -29.11379012296311 0 0 0 0 -216.65252743613928 1020.1140275957449 0 1020.1140275957449 -131.52047702434356 0 0 0 0 199.98094892927475 740.09323648788813 0 740.09323648788813 -153.4453373465949 0 0 0 0 -200.89431147605501 675.75085829178352 0 675.75085829178352 120.15642617801495 0 0 0 0 -480.78097763900587 753.05735823199575 0 753.05735823199575 -76.485705663410045 0 0 0 0 -230.02767086488711 1077.2166311850497 0 1077.2166311850497 -595.5130830411581 0 0 0 0 -483.08197017793282 928.4247086828691 0 928.4247086828691 -152.25001835050716 0 0 0 0 -606.6300724274588 1109.6562139133011 0 1109.6562139133011 -580.75287298024341 0 0 0 0 -440.02665606841765 955.90534710861539 0 955.90534710861539 -1425.0881994669176 0 0 0 0 -358.61567972962075 881.34365408328813 0 881.34365408328813 -995.37889305671524 0 0 0 0 -217.40645302478151 1150.6262861581108 0 1150.6262861581108 -652.60371793794184 0 0 0 0 -624.77870890048143 878.39376816688855 0 878.39376816688855 -319.85418592280621 0 0 0 0 -488.06625435817841 1260.3655915153104 0 1260.3655915153104 -523.13163403658109 0 0 0 0 -808.32850417307054 1220.8327814456497 0 1220.8327814456497 -327.27673305082271 0 0 0 0 -349.07887860648407 714.28580507385595 0 714.28580507385595 83.540898331993958 0 0 0 0 -1158.5188096160018 1268.4979452942607 0 1268.4979452942607 -105.68615122019401 0 0 0 0 -600.22618580181006 1542.7007367507504 0 1542.7007367507504 -839.06856155997957 0 0 0 0 1052.6866712625706 -425.96974358632542 0 -425.96974358632542 47.732319604700024 0 0 0 0 3.87078441854446 5.4186396140308091 0 5.4186396140308091 -2.6781176568507021 0 0 0 0 -1616.6062568142152 1281.6404563052638 0 1281.6404563052638 -904.82063481827208 0 0 0 0 -1408.7231652998489 1013.8675432792297 0 1013.8675432792297 -578.56682357368118 0 0 0 0 -730.32248462607822 725.11492761385307 0 725.11492761385307 -612.00242808090843 0 0 0 0 12.444143689103484 16.526002396234929 0 16.526002396234929 1.9426898351987063 0 0 0 0 601.07641062058246 194.18362490134132 0 194.18362490134132 -1408.5918738118562 0 0 0 0 754.58403514552447 -287.4143435470578 0 -287.4143435470578 -601.60047429025144 0 0 0 0 -704.61824957767385 156.07584325590142 0 156.07584325590142 76.184401488998674 0 0 0 0 -29.725361554774281 661.60322182456184 0 661.60322182456184 83.326257295382675 0 0 0 0 -324.46150614245562 322.76875974846917 0 322.76875974846917 79.634865404886796 0 0 0 0 -224.27355990745127 -812.63425644891686 0 -812.63425644891686 -2851.7924803208662 0 0 0 0 92.813242472890124 -68.100522942855605 0 -68.100522942855605 -1223.6427119288564 0 0 0 0 -561.2073660278329 1289.6850948582287 0 1289.6850948582287 -1589.0154396398357 0 0 0 0 -10.545167052679517 6.1094665624158537 0 6.1094665624158537 -4.4749045329472921 0 0 0 0 92.179913016087085 1954.5007409427199 0 1954.5007409427199 1010.9356101601006 0 0 0 0 -587.37211461272091 1542.9647640257899 0 1542.9647640257899 -1021.972327348738 0 0 0 0 -950.62565306739634 1737.341188647255 0 1737.341188647255 1006.2663079742924 0 0 0 0 -320.14014618421425 702.80838362567374 0 702.80838362567374 290.74104619982245 0 0 0 0 11.755535934251157 16.427458973342439 0 16.427458973342439 -11.034937330924009 0 0 0 0 762.23365753048711 -61.112841693022347 0 -61.112841693022347 -28.309528991114348 0 0 0 0 -2.6756495593872387 -518.96849961820772 0 -518.96849961820772 -1581.1399035725626 0 0 0 0 1313.44266511155 1095.7511693524284 0 1095.7511693524284 360.4312090921303 0 0 0 0 -17.440926298464746 29.312905407624889 0 29.312905407624889 -16.564879817541623 0 0 0 0 79.832243894951262 694.59701099660106 0 694.59701099660106 2182.8774105918274 0 0 0 0 873.45748835934501 1912.153531675478 0 1912.153531675478 106.6262072212412 0 0 0 0 675.97321717298473 52.540226788136351 0 52.540226788136351 -697.66356569845084 0 0 0 0 -1433.7829944611149 902.91305943465704 0 902.91305943465704 1769.3185260935097 0 0 0 0 -1423.8151425501492 58.667169682899839 0 58.667169682899839 420.64837884873123 0 0 0 0 -153.45247371452569 214.3651123440668 0 214.3651123440668 63.908582135009055 0 0 0 0 19.50003863917135 28.230062487271042 0 28.230062487271042 22.764490294729484 0 0 0 0 -180.19038872873352 821.58212582963824 0 821.58212582963824 148.85868462128565 0 0 0 0 -344.44450611007414 463.6095098531714 0 463.6095098531714 515.86234375500499 0 0 0 0 -364.85100891016918 313.25479124642152 0 313.25479124642152 -388.44010143236574 0 0 0 0 -260.54918476255989 416.27704427367462 0 416.27704427367462 -295.38095239771064 0 0 0 0 -261.85860135340045 118.09098469926539 0 118.09098469926539 -21.956158820757992 0 0 0 0 -471.36557044089204 615.31431624793549 0 615.31431624793549 -351.70266302927485 0 0 0 0 -189.9377804382093 398.24693819979439 0 398.24693819979439 -494.74401172906073 0 0 0 0 -172.3121195772037 784.39517137236908 0 784.39517137236908 -859.89265307106689 0 0 0 0 -277.44459199520497 753.44312110869942 0 753.44312110869942 -777.79692847517776 0 0 0 0 -331.82249514558407 872.99910266686038 0 872.99910266686038 -889.15764585767465 0 0 0 0 -382.76867076873168 901.35693159388757 0 901.35693159388757 -751.19096257078058 0 0 0 0 -195.32456375901165 747.10254822442948 0 747.10254822442948 -853.97474510088068 0 0 0 0 -292.55622774811491 724.6432917327038 0 724.6432917327038 -853.83948737396349 0 0 0 0 -631.47584683183231 1130.8951428515247 0 1130.8951428515247 -1001.1123667978754 0 0 0 0 1.4727100488661193 1.8863911308213659 0 1.8863911308213659 -3.3398175466587361 0 0 0 0 201.50150596108142 750.5674474829284 0 750.5674474829284 -757.87068638794881 0 0 0 0 -33.416175224563631 186.76490394845678 0 186.76490394845678 49.846975368534913 0 0 0 0 1237.1608529927798 -8.0698790534497675 0 -8.0698790534497675 -443.35026260260202 0 0 0 0 -1476.0554882769829 1171.1082736440949 0 1171.1082736440949 -695.40526859529928 0 0 0 0 -625.62506291885802 656.14607612500185 0 656.14607612500185 -398.63402484748076 0 0 0 0 -455.90006295204512 873.09002604962006 0 873.09002604962006 -969.72928978826531 0 0 0 0 -803.20772523547203 716.91988603655773 0 716.91988603655773 -425.75880043072357 0 0 0 0 -416.38748820848195 879.30233741856318 0 879.30233741856318 -969.56738882776699 0 0 0 0 -7.034185520367771 3.2827948585059801 0 3.2827948585059801 -0.99048649862911908 0 0 0 0 -456.83049039212347 1236.8387660756853 0 1236.8387660756853 -2240.2273493216999 0 0 0 0 -420.32662255384275 536.42710906727007 0 536.42710906727007 -678.06780760891706 0 0 0 0 -234.72967438081832 625.40986597575466 0 625.40986597575466 -774.02700801702304 0 0 0 0 -17.668114595242685 11.07578492025452 0 11.07578492025452 -3.6576193554729599 0 0 0 0 69.009117332905589 397.98946964346032 0 397.98946964346032 -175.40204379376519 0 0 0 0 211.59271626264672 197.98355435588564 0 197.98355435588564 104.85353900704649 0 0 0 0 -137.37877421067242 250.17777114098499 0 250.17777114098499 743.66032428111362 0 0 0 0 977.47498489640566 63.135359867603256 0 63.135359867603256 -148.95721014390506 0 0 0 0 7.5722540762415278 7.5963794699107012 0 7.5963794699107012 -16.649312415746181 0 0 0 0 -617.61867251542208 705.63507046772429 0 705.63507046772429 -727.24057181716489 0 0 0 0 375.26555715715585 469.46165845440373 0 469.46165845440373 -13.497894686945074 0 0 0 0 433.91096159660083 590.47396229530568 0 590.47396229530568 -431.45482966920463 0 0 0 0 -339.67305347808724 837.63348458444307 0 837.63348458444307 -1135.1652893561622 0 0 0 0 -640.22996135861467 674.54936140563223 0 674.54936140563223 -950.79672348451641 0 0 0 0 -1026.8135423090389 872.67519781332703 0 872.67519781332703 -667.57653437751287 0 0 0 0 -602.81366748673463 527.98404144077358 0 527.98404144077358 -310.61751254685078 0 0 0 0 -450.81797802648907 787.59025497284529 0 787.59025497284529 -884.3501376166605 0 0 0 0 -740.87515046893532 701.58781311454732 0 701.58781311454732 -634.98052705985174 0 0 0 0 -21.210737882647663 405.3097069090054 0 405.3097069090054 -915.52085674455157 0 0 0 0 -504.43119932436821 902.98371391572073 0 902.98371391572073 -1394.6873017757316 0 0 0 0 -4.227536049329558 1.7010219543651317 0 1.7010219543651317 -0.52559515622066666 0 0 0 0 5.559171614007667 11.858453406516759 0 11.858453406516759 -17.284943977251999 0 0 0 0 -299.04567581575975 213.41703657248036 0 213.41703657248036 -169.26644452843902 0 0 0 0 -9.1925884710771584 8.3085518193616394 0 8.3085518193616394 -4.2781481902666449 0 0 0 0 -91.052468327383394 143.2185824238295 0 143.2185824238295 -449.623386667663 0 0 0 0 245.87978073965132 135.64074654108299 0 135.64074654108299 35.8603918387671 0 0 0 0 0.49270057124100219 7.9120358259605723 0 7.9120358259605723 -7.9184172352893825 0 0 0 0 -333.09836359651672 434.3316893865267 0 434.3316893865267 -573.85312974835688 0 0 0 0 99.04294381490763 329.8097528059352 0 329.8097528059352 -58.774984482508444 0 0 0 0 -439.85799348831642 117.1519451698623 0 117.1519451698623 563.9409510584228 0 0 0 0 -892.15187295389478 782.21361044863443 0 782.21361044863443 -45.940790215343441 0 0 0 0 -760.89027355305006 802.67629610511722 0 802.67629610511722 -553.9542484083504 0 0 0 0 -862.71950941628893 793.00369871267321 0 793.00369871267321 -182.82572827730201 0 0 0 0 -800.44889702904038 657.3353947277792 0 657.3353947277792 -165.83197163695058 0 0 0 0 -760.71119428442762 772.54789016800351 0 772.54789016800351 -462.09385199968528 0 0 0 0 -817.76590332837804 690.67496791059966 0 690.67496791059966 -454.02636037448246 0 0 0 0 -804.57035996722698 724.48936634575875 0 724.48936634575875 -633.1659622687439 0 0 0 0 -1006.26970229375 594.03773065608402 0 594.03773065608402 -554.13623045979523 0 0 0 0 -1162.015395939532 801.75760650732263 0 801.75760650732263 -727.41553222452785 0 0 0 0 -738.81058498939683 719.40117515005204 0 719.40117515005204 -713.07731389778201 0 0 0 0 -933.77608760550356 562.21105289218394 0 562.21105289218394 -839.61417842541414 0 0 0 0 -775.49241875442385 722.30903102110824 0 722.30903102110824 -777.35970530265331 0 0 0 0 -976.31463618046109 640.93465137405656 0 640.93465137405656 -627.12430473544146 0 0 0 0 -938.69441979202566 885.88664003788745 0 885.88664003788745 -1249.5894654964213 0 0 0 0 -959.93947142287652 596.07879673747084 0 596.07879673747084 -812.09294904704439 0 0 0 0 -636.67926826003736 737.34426927484606 0 737.34426927484606 -903.35045516878745 0 0 0 0 -1060.1110073456221 505.1211546257 0 505.1211546257 -1012.9886004486289 0 0 0 0 -63.517584271990927 200.15102605490392 0 200.15102605490392 -849.15468588383374 0 0 0 0 -83.046387191304348 162.95574297807798 0 162.95574297807798 -272.78889483378589 0 0 0 0 -328.4777388579605 680.29734477089369 0 680.29734477089369 -1621.7236898977244 0 0 0 0 -5.5166185514262338 4.2188674567444764 0 4.2188674567444764 -2.4076348098026159 0 0 0 0 -275.20946775806806 103.4855608603757 0 103.4855608603757 163.86447066756955 0 0 0 0 -578.87065675137274 822.57215294629714 0 822.57215294629714 -790.35538020879312 0 0 0 0 -736.14789353912056 617.29347133602278 0 617.29347133602278 -595.20463071286213 0 0 0 0 -179.39977089838794 546.76338594375193 0 546.76338594375193 -609.23198391409824 0 0 0 0 -537.30029989015384 723.43849565578785 0 723.43849565578785 -513.53504973009694 0 0 0 0 -366.20961860012903 664.2131420071164 0 664.2131420071164 -495.27857485203276 0 0 0 0 -690.97188223729609 757.85852591133153 0 757.85852591133153 -585.0619841947655 0 0 0 0 -618.47366229822364 657.23674435338035 0 657.23674435338035 -446.14006312756101 0 0 0 0 -754.33304906590638 729.06410373591461 0 729.06410373591461 -290.05905918862845 0 0 0 0 -655.58918640061165 727.85924914826319 0 727.85924914826319 -444.37221372025692 0 0 0 0 -740.38551715022913 694.06366415844241 0 694.06366415844241 -279.10496450772371 0 0 0 0 -710.02304176990583 623.88454162406197 0 623.88454162406197 -280.70524059749732 0 0 0 0 -610.54814222211644 659.61609478875835 0 659.61609478875835 -361.2877485591307 0 0 0 0 -512.34025321913941 640.03153250672767 0 640.03153250672767 -357.80819778508521 0 0 0 0 -509.63575078908548 539.08071822125964 0 539.08071822125964 -399.44347724317049 0 0 0 0 -662.33800404447993 605.03245121987493 0 605.03245121987493 -274.35726713930489 0 0 0 0 -811.66326826489239 568.68838115352264 0 568.68838115352264 -301.82318794857929 0 0 0 0 -714.03384083904166 430.74643602242395 0 430.74643602242395 -345.81383350594842 0 0 0 0 -938.77373091129994 641.6957143359723 0 641.6957143359723 -319.47883340467888 0 0 0 0 -806.69755103509669 537.25487658253041 0 537.25487658253041 -283.826813916221 0 0 0 0 -818.61444197059154 635.74126316236698 0 635.74126316236698 -177.22258885431802 0 0 0 0 -812.74642694283102 691.78778645636703 0 691.78778645636703 -205.82114732010086 0 0 0 0 -724.75310947754042 710.02658027951475 0 710.02658027951475 -142.07957124755194 0 0 0 0 -654.03903783615533 392.66306199711835 0 392.66306199711835 130.45713575386435 0 0 0 0 -106.38384215658607 601.26766228868337 0 601.26766228868337 -174.39467781144776 0 0 0 0 -505.85622116142622 605.99487364816196 0 605.99487364816196 -420.01945963907201 0 0 0 0 -428.16643399507302 433.45403320940386 0 433.45403320940386 -121.33651348655985 0 0 0 0 -796.32228318803391 584.52353961606786 0 584.52353961606786 -300.64566963011748 0 0 0 0 -798.83139513422793 572.41744598783043 0 572.41744598783043 -85.272716650106304 0 0 0 0 -742.91764618329762 639.72785032543834 0 639.72785032543834 -572.86566240630054 0 0 0 0 -1106.0406590436833 799.51940556235058 0 799.51940556235058 -594.15908429408591 0 0 0 0 -779.21004539238493 681.79833456769848 0 681.79833456769848 -428.37306756793487 0 0 0 0 -319.49974330794066 830.73729508054384 0 830.73729508054384 -792.59436733417533 0 0 0 0 -857.41000762643671 949.05157557291386 0 949.05157557291386 -789.32433975490733 0 0 0 0 -286.84334642623435 1087.0151820141618 0 1087.0151820141618 -1304.3203867680932 0 0 0 0 -791.85229664646704 780.63524779558156 0 780.63524779558156 -942.12294752508024 0 0 0 0 -1837.46418364079 1026.3494129774335 0 1026.3494129774335 -990.04636514183949 0 0 0 0 -988.74687592387636 438.81301012699987 0 438.81301012699987 -745.25041287389831 0 0 0 0 -698.8421284529104 804.42221011854417 0 804.42221011854417 -979.24336688932817 0 0 0 0 -745.52346753939491 856.36895236680903 0 856.36895236680903 -572.74236309203843 0 0 0 0 -833.86663402078193 579.84940969282979 0 579.84940969282979 -391.30049878066347 0 0 0 0 -879.47915586088493 480.73681231574665 0 480.73681231574665 -415.34360466190992 0 0 0 0 -795.73567679113148 627.16254226040655 0 627.16254226040655 -588.44461070427496 0 0 0 0 -241.59694573300658 1330.2194315320958 0 1330.2194315320958 -650.26547032850067 0 0 0 0 -643.44928904752305 1398.0286687322441 0 1398.0286687322441 -661.26174478424946 0 0 0 0 -954.46731711220491 1448.7905949313972 0 1448.7905949313972 -511.54102445338503 0 0 0 0 -557.73849119029546 1722.9611727175306 0 1722.9611727175306 -343.3936065378366 0 0 0 0 -563.70233330564224 1383.1609119536697 0 1383.1609119536697 -999.71890419569536 0 0 0 0 -705.00697467457758 838.233193949216 0 838.233193949216 -1088.6662744795249 0 0 0 0 -1076.8433559479017 272.09938596064967 0 272.09938596064967 -1728.8905522650748 0 0 0 0 -388.47902900165718 1517.7479687138839 0 1517.7479687138839 -1949.5503360939838 0 0 0 0 -11.309994491548565 7.867492744960785 0 7.867492744960785 -5.5206429622139979 0 0 0 0 -285.23495759246362 1015.3852605367319 0 1015.3852605367319 -2907.7401609253793 0 0 0 0 3.4169714382223901 338.63597237613067 0 338.63597237613067 -1362.4036740322026 0 0 0 0 31.970003561784324 73.176738846503213 0 73.176738846503213 104.60191258614941 0 0 0 0 -14.631162664441945 204.06904187718101 0 204.06904187718101 -70.232476115699683 0 0 0 0 -1644.1686957637357 939.24195915102791 0 939.24195915102791 235.27499516576063 0 0 0 0 251.79585457345092 372.45116201924975 0 372.45116201924975 -71.551350025338252 0 0 0 0 126.22257617169089 272.38694448296519 0 272.38694448296519 220.82543473289115 0 0 0 0 78.049731749808416 -134.82236589263266 0 -134.82236589263266 -47.929645642201649 0 0 0 0 499.32387609370198 202.79609747746872 0 202.79609747746872 -72.340056527790694 0 0 0 0 15.851363742118878 10.656895350385213 0 10.656895350385213 10.280382707957656 0 0 0 0 -135.88216619076411 359.82052975927945 0 359.82052975927945 2614.0876488008616 0 0 0 0 901.36340384927462 1031.8288158623036 0 1031.8288158623036 3010.5219124809278 0 0 0 0 612.97741654394304 251.43832250406012 0 251.43832250406012 -159.80544488968735 0 0 0 0 104.95992604680214 1276.7541630655396 0 1276.7541630655396 2040.3935196181264 0 0 0 0 1234.4845751868561 1117.3208419104485 0 1117.3208419104485 549.11022658581714 0 0 0 0 127.81273202329248 444.13458542624358 0 444.13458542624358 961.64932518989372 0 0 0 0 -1013.8845595081548 975.66734300991084 0 975.66734300991084 -43.35400463341648 0 0 0 0 691.16645225960747 841.91933419957786 0 841.91933419957786 -75.869082674893434 0 0 0 0 -1540.2875093846706 1613.1453872210586 0 1613.1453872210586 101.82377913974778 0 0 0 0 -15.71497900416351 4.3184618798845946 0 4.3184618798845946 -0.17140564122549051 0 0 0 0 -129.64633020528163 1795.6067987147835 0 1795.6067987147835 -14.904560811854026 0 0 0 0 -1769.5827329354579 45.055220990376256 0 45.055220990376256 304.55613291359623 0 0 0 0 -583.66584747620072 889.76948624085708 0 889.76948624085708 -203.47360368459886 0 0 0 0 -513.73021108363355 479.54236766447139 0 479.54236766447139 -0.74350702363335586 0 0 0 0 -108.05863038422649 -0.13109004151010595 0 -0.13109004151010595 -10.330084698551218 0 0 0 0 83.375830476086776 202.02569184112144 0 202.02569184112144 -63.732351889426354 0 0 0 0 81.796709469756024 175.29798918491906 0 175.29798918491906 87.466490022517974 0 0 0 0 181.76868478500182 -154.90501402751397 0 -154.90501402751397 -44.328653672047949 0 0 0 0 146.76486145246236 83.015015783670606 0 83.015015783670606 -178.85041753255791 0 0 0 0 -247.58023324987153 364.96154829784791 0 364.96154829784791 -274.67809216212481 0 0 0 0 -81.35532420988784 362.15319310533414 0 362.15319310533414 -239.62684067978989 0 0 0 0 15.453079401303498 13.388921382192166 0 13.388921382192166 10.593201734654912 0 0 0 0 5.198538356235872 4.45917689263635 0 4.45917689263635 3.3517916251931865 0 0 0 0 1037.0212776452972 -283.33464110683053 0 -283.33464110683053 121.61377051012823 0 0 0 0 -67.196239575168875 277.01973954695859 0 277.01973954695859 -439.71513690085703 0 0 0 0 -36.251239702578459 171.24283436199039 0 171.24283436199039 -355.74058958929527 0 0 0 0 -38.739792161708465 186.39965527965978 0 186.39965527965978 -336.70226741609804 0 0 0 0 149.28434989441848 46.877509586904125 0 46.877509586904125 25.689189632641501 0 0 0 0 19.035807965461871 26.317687006840487 0 26.317687006840487 17.699630811293787 0 0 0 0 -25.795233115000883 128.47256248652411 0 128.47256248652411 -299.31031694099829 0 0 0 0 -31.789765206094273 13.624160549946609 0 13.624160549946609 4.1333636416050297 0 0 0 0 140.4245911660546 -244.04102025397879 0 -244.04102025397879 2519.0201617507118 0 0 0 0 -582.19798624001487 1950.1740719854843 0 1950.1740719854843 2989.9624366132193 0 0 0 0 -0.71669250288334752 18.580719651449968 0 18.580719651449968 -5.9800011344566855 0 0 0 0 1502.4751379368245 952.57898804101569 0 952.57898804101569 649.88318903621985 0 0 0 0 533.5214168697712 1485.090566749408 0 1485.090566749408 1661.2001631370367 0 0 0 0 -4.5486539329467348 6.4453601988150524 0 6.4453601988150524 1.3488612281182952 0 0 0 0 2358.5631185180246 1479.8823769002483 0 1479.8823769002483 773.95835967524545 0 0 0 0 1193.5715947269055 2006.376883155528 0 2006.376883155528 1986.6587704580161 0 0 0 0 278.55077898675154 1025.6007395057186 0 1025.6007395057186 1322.9950534649834 0 0 0 0 -682.62057217923575 1163.6285709041331 0 1163.6285709041331 -0.70018421870554448 0 0 0 0 -656.96392150702013 590.68716493698594 0 590.68716493698594 1763.7989053753845 0 0 0 0 -622.90054854280606 756.25436345144408 0 756.25436345144408 528.74343752732921 0 0 0 0 -594.53981495798507 781.71720777179144 0 781.71720777179144 525.67553560959641 0 0 0 0 -866.08038592585945 1509.1445235984647 0 1509.1445235984647 591.64302290169871 0 0 0 0 -609.74794209092215 1858.7028008575289 0 1858.7028008575289 -119.24666126076772 0 0 0 0 -562.36448689433018 1370.5368130986863 0 1370.5368130986863 -533.84479762120827 0 0 0 0 -1.4732684459610539 6.3741410227564472 0 6.3741410227564472 -4.5239070890293789 0 0 0 0 -93.63278568124224 634.5553783670257 0 634.5553783670257 -2064.5963323385367 0 0 0 0 -635.64711380145309 1749.0064846940586 0 1749.0064846940586 2260.7599737322016 0 0 0 0 -774.09888311358554 1020.8617714763232 0 1020.8617714763232 -214.55418492734316 0 0 0 0 -859.9685911814795 1301.2096116022803 0 1301.2096116022803 -787.15490256079647 0 0 0 0 -544.6534278267718 1307.5697670083173 0 1307.5697670083173 -32.521368100235122 0 0 0 0 -731.33122537466988 1222.4218012159545 0 1222.4218012159545 -53.430997065886913 0 0 0 0 -653.95656793337548 1308.0036894311197 0 1308.0036894311197 -143.84232190134207 0 0 0 0 -717.14298443662847 1332.9404056582207 0 1332.9404056582207 -141.22285385076248 0 0 0 0 -863.4179998342006 1456.113545397995 0 1456.113545397995 -116.68036342101004 0 0 0 0 -857.48179756295576 1356.5993653669066 0 1356.5993653669066 48.52182457773597 0 0 0 0 -870.7922469011246 1162.0806583279991 0 1162.0806583279991 -395.60338414880971 0 0 0 0 -892.81090310285799 1030.6079407123761 0 1030.6079407123761 -8.2300864911103417 0 0 0 0 -766.99709953987986 1095.9240873169329 0 1095.9240873169329 -175.03416436802945 0 0 0 0 -723.89126562989622 881.94784192114093 0 881.94784192114093 -635.40708098093455 0 0 0 0 -873.38409866565098 1176.5499659355273 0 1176.5499659355273 -219.65769227813871 0 0 0 0 -1033.9162158697145 1107.4988715066211 0 1107.4988715066211 -153.61149983300857 0 0 0 0 -795.40051256531297 956.31914019549731 0 956.31914019549731 -662.92765662901365 0 0 0 0 -957.84950691990525 890.31631764226404 0 890.31631764226404 -1115.5663426988176 0 0 0 0 -1758.3620946755254 799.59766230949026 0 799.59766230949026 -1068.3626771477866 0 0 0 0 -1050.2615936625407 626.13725698972848 0 626.13725698972848 -1067.6153355676215 0 0 0 0 -862.61229904304491 1122.0503662869378 0 1122.0503662869378 -1123.917836051909 0 0 0 0 -920.39545231578813 1032.6045166234544 0 1032.6045166234544 -888.71973430695652 0 0 0 0 -697.66933446743496 951.53073568858963 0 951.53073568858963 -958.83119663009711 0 0 0 0 -935.58769052468415 763.38899446619325 0 763.38899446619325 -1907.4720421354286 0 0 0 0 -2353.4113987853052 1356.3248013843113 0 1356.3248013843113 7.8511578993347939 0 0 0 0 -479.32469035776739 368.21562202128553 0 368.21562202128553 -427.61295794945181 0 0 0 0 -17.394037107071199 31.586342202259402 0 31.586342202259402 5.6583809345211193 0 0 0 0 6.9852672193272269 28.342501214906754 0 28.342501214906754 3.4762106360595055 0 0 0 0 -10.015078522060946 12.897813380287005 0 12.897813380287005 12.226948613559443 0 0 0 0 -601.4092414281331 1241.0525502467499 0 1241.0525502467499 -2503.6031744337815 0 0 0 0 -1.2743682539216366 3.7085555825507299 0 3.7085555825507299 1.1229307809784501 0 0 0 0 1.5450466810747798 3.9856637261799222 0 3.9856637261799222 -5.6625645070415942 0 0 0 0 -7.5309529204132559 -7.0790006741881371 0 -7.0790006741881371 -46.933365402655909 0 0 0 0 137.31753881266923 227.025928352763 0 227.025928352763 -931.47810561273764 0 0 0 0 -690.09352210561337 695.0506521530624 0 695.0506521530624 -638.24682836880675 0 0 0 0 -398.86012645461597 727.19325196311547 0 727.19325196311547 -826.02241378823237 0 0 0 0 -1401.0860568930111 1616.3877695560259 0 1616.3877695560259 -1944.0867877833371 0 0 0 0 -722.75170252195676 865.21876385860378 0 865.21876385860378 -1419.0201653346012 0 0 0 0 -1308.9618197047967 1165.653245926791 0 1165.653245926791 -640.8970437348471 0 0 0 0 -1047.2035876220471 917.73973947021295 0 917.73973947021295 -442.98890672087146 0 0 0 0 -619.1460737537418 761.77229598818303 0 761.77229598818303 -47.51455322781112 0 0 0 0 -746.73522155523824 1066.5437510714837 0 1066.5437510714837 -746.30230990640848 0 0 0 0 -140.33296849367798 289.9946399761393 0 289.9946399761393 -334.89063156834163 0 0 0 0 -47.896495046486962 398.2342230566428 0 398.2342230566428 -552.38942968673655 0 0 0 0 -262.65705913840429 -175.69590834359769 0 -175.69590834359769 804.1068790795689 0 0 0 0 -136.07708098534204 -60.903394799082889 0 -60.903394799082889 -13.755255885509541 0 0 0 0 -158.4968793318767 -9.2468516995068057 0 -9.2468516995068057 70.227785153358127 0 0 0 0 -68.607804139704967 162.39929340700837 0 162.39929340700837 -26.009982377403503 0 0 0 0 -34.44458593064337 38.896128865235369 0 38.896128865235369 -358.03081207236028 0 0 0 0 38.376509501053675 33.274842725384417 0 33.274842725384417 12.091956924979755 0 0 0 0 -86.66698052653237 177.27089364967946 0 177.27089364967946 43.012082320616173 0 0 0 0 -45.373467491507228 33.312451467897901 0 33.312451467897901 -4.6815403272991034 0 0 0 0 -40.205168472894002 9.7207109816190496 0 9.7207109816190496 -152.14200924789839 0 0 0 0 -32.328345304736757 19.49044764119985 0 19.49044764119985 -12.318369481821549 0 0 0 0 8.1258496791269863 263.42451636063925 0 263.42451636063925 -609.18575258838246 0 0 0 0 7.6562304071412655 305.58481123447564 0 305.58481123447564 -789.34104467022348 0 0 0 0 -177.15283961914611 332.93465299507079 0 332.93465299507079 -531.0904257552902 0 0 0 0 -159.45382279128899 379.2657865719284 0 379.2657865719284 -425.36787241796264 0 0 0 0 -90.825676966771425 153.88330043912265 0 153.88330043912265 -222.32646196472342 0 0 0 0 38.324501649192825 21.307628607370134 0 21.307628607370134 -139.71991406430789 0 0 0 0 -218.02630528231748 70.4339843464968 0 70.4339843464968 232.53155969308864 0 0 0 0 19.015442820663836 41.936623401673131 0 41.936623401673131 49.586881472399853 0 0 0 0 -42.422515286142982 -12.531366566096921 0 -12.531366566096921 5.0362122814941586 0 0 0 0 -62.945315784937065 -18.960576202973016 0 -18.960576202973016 125.20210628898349 0 0 0 0 -8.2313486413821124 31.57071076812079 0 31.57071076812079 27.612849512747417 0 0 0 0 -111.92849043077149 218.60891299864306 0 218.60891299864306 -77.587195445699763 0 0 0 0 -714.11992253389326 894.55824489834049 0 894.55824489834049 -1055.6711204396888 0 0 0 0 -718.54576906618604 890.79352603055304 0 890.79352603055304 -1274.8457907595002 0 0 0 0 -1101.8053209802974 946.49451500830492 0 946.49451500830492 -1056.8662223517458 0 0 0 0 -593.15764876584581 603.40467299772718 0 603.40467299772718 -790.96262527936688 0 0 0 0 -814.2542628080846 915.7303811402162 0 915.7303811402162 -790.62757673842839 0 0 0 0 -13.641781053360319 58.233458252059791 0 58.233458252059791 -95.531556254598399 0 0 0 0 -230.96086349000143 -264.24628716065672 0 -264.24628716065672 387.63755024756392 0 0 0 0 -11.890963548082709 -5.300243562112513 0 -5.300243562112513 -5.1281768091678686 0 0 0 0 -1353.3695231656238 1351.3379648434275 0 1351.3379648434275 -1407.7299097906798 0 0 0 0 -1791.5171991534626 437.146973780189 0 437.146973780189 -647.63853340949572 0 0 0 0 -45.993202434120576 1457.3795589708716 0 1457.3795589708716 -1680.6636460371956 0 0 0 0 826.46141756412544 665.54672813420257 0 665.54672813420257 -1239.6837684374441 0 0 0 0 -1848.389698668052 1649.859422178557 0 1649.859422178557 -1341.4313073557678 0 0 0 0 -507.45056379553716 284.38261259857973 0 284.38261259857973 -1047.5576204394565 0 0 0 0 -1068.3972006998242 549.7830840150898 0 549.7830840150898 -1172.9524527365866 0 0 0 0 -1045.6677218324403 980.75852363735612 0 980.75852363735612 -959.74995663106165 0 0 0 0 -577.2231956389769 909.93890452872074 0 909.93890452872074 -1029.7064516623723 0 0 0 0 -820.36547947351937 698.7495262670127 0 698.7495262670127 -1105.6589088832297 0 0 0 0 7.8231699645579056 6.7844337406765476 0 6.7844337406765476 -8.8814741243216986 0 0 0 0 -951.30059238075773 877.07612522123418 0 877.07612522123418 -863.85518247704022 0 0 0 0 -843.43575442806832 700.60551198448593 0 700.60551198448593 -573.43395679962123 0 0 0 0 -637.54462809750839 816.85348078567768 0 816.85348078567768 -898.59660382381844 0 0 0 0 -748.41399250945688 801.03165730940964 0 801.03165730940964 -894.15203663147986 0 0 0 0 -967.68694715563106 890.06097435660013 0 890.06097435660013 -930.05748732280335 0 0 0 0 -718.2809844381045 880.47753976732201 0 880.47753976732201 -985.01056149211945 0 0 0 0 -661.49888213371742 925.94520586814906 0 925.94520586814906 -995.68804801035367 0 0 0 0 -692.32274559695361 952.81840466182803 0 952.81840466182803 -1007.6298549193889 0 0 0 0 -589.65561473899288 788.91378808270383 0 788.91378808270383 -974.25456584127096 0 0 0 0 -702.78979926543252 794.46335184997224 0 794.46335184997224 -685.32884916124749 0 0 0 0 -331.0376634514032 752.0368974196972 0 752.0368974196972 -685.83288157727338 0 0 0 0 -599.16626779802027 1077.6366096090387 0 1077.6366096090387 -355.70481454146648 0 0 0 0 -659.79751927199322 610.39177327391189 0 610.39177327391189 -420.51548177779478 0 0 0 0 2.5213137401121202 4.6002067345919215 0 4.6002067345919215 -0.54942112937067122 0 0 0 0 356.11615754712693 488.74506143615145 0 488.74506143615145 -421.47909121198319 0 0 0 0 -1904.768297053095 1817.7547252302029 0 1817.7547252302029 -177.60312410521146 0 0 0 0 -612.64255450629935 1022.8534856136312 0 1022.8534856136312 -323.16440379928099 0 0 0 0 37.240682724557701 1277.0255758865787 0 1277.0255758865787 -246.39021735662391 0 0 0 0 -546.1632997587003 1154.0216965957407 0 1154.0216965957407 -28.519707907292968 0 0 0 0 -855.4766866842765 1494.4427786287433 0 1494.4427786287433 -226.45194295608235 0 0 0 0 -909.67774471763551 1377.9007078430695 0 1377.9007078430695 -296.54581701393909 0 0 0 0 1.1730652135454278 4.2659641295049653 0 4.2659641295049653 -2.4970549394010391 0 0 0 0 645.28268982968802 687.20768772037445 0 687.20768772037445 -643.69277195123141 0 0 0 0 -1095.138070848976 491.90050103400245 0 491.90050103400245 -400.25900519100105 0 0 0 0 8.055381454293979 8.4117982986629727 0 8.4117982986629727 -4.5446808982671598 0 0 0 0 -666.21783227426931 659.76505078776972 0 659.76505078776972 -605.14271741287303 0 0 0 0 -1257.1930506457538 1273.1751242363389 0 1273.1751242363389 -801.89863796188001 0 0 0 0 -891.16996522924819 951.83890942442486 0 951.83890942442486 -881.107775283519 0 0 0 0 -1377.2923927284537 1470.2577490210078 0 1470.2577490210078 0.068281495732662734 0 0 0 0 -1715.4801211345257 1919.7290516800522 0 1919.7290516800522 -134.72996691956723 0 0 0 0 -501.28572631288262 1980.7695245053837 0 1980.7695245053837 -619.76449157194656 0 0 0 0 0.090104643464655965 1874.5949649711793 0 1874.5949649711793 -1063.364268205487 0 0 0 0 4.5801387153426134 9.6360527470561976 0 9.6360527470561976 -4.7370823206460102 0 0 0 0 1828.1969551626244 2123.2543204388976 0 2123.2543204388976 -2294.3496636037307 0 0 0 0 1.8863710449114137 6.0068848444391278 0 6.0068848444391278 -2.5066681808722819 0 0 0 0 -2181.2785704303787 2079.6134835185676 0 2079.6134835185676 -804.10076181702607 0 0 0 0 1492.5449092948074 1562.0929375757314 0 1562.0929375757314 -1715.6707361758017 0 0 0 0 2.6631962346585993 2.8844157189172108 0 2.8844157189172108 -4.9356354820663455 0 0 0 0 2051.0893432199664 805.17158368061428 0 805.17158368061428 -1061.2782389477898 0 0 0 0 433.53145952525665 808.84559321455527 0 808.84559321455527 166.89246127323349 0 0 0 0 638.88653376174625 398.90166977013905 0 398.90166977013905 -998.21044355015329 0 0 0 0 620.66362326607123 575.05836196693781 0 575.05836196693781 -1830.2727954333532 0 0 0 0 -8.3290740181373621 8.5761574036583959 0 8.5761574036583959 -10.339043000169539 0 0 0 0 1147.7423641888745 757.04303928847185 0 757.04303928847185 -3593.8396988474269 0 0 0 0 64.340666976568173 -1026.2772403095696 0 -1026.2772403095696 -3464.0447808678218 0 0 0 0 -214.37527328981741 -34.728144399334269 0 -34.728144399334269 190.72353109648975 0 0 0 0 -847.78337593673496 861.72667245529738 0 861.72667245529738 -2166.9589723024401 0 0 0 0 -2097.7308929690917 2281.9555926155081 0 2281.9555926155081 -1951.6773088411428 0 0 0 0 -40.055442829564242 72.344526414614506 0 72.344526414614506 -17.420447874021193 0 0 0 0 -39.120188584342031 59.191063650334399 0 59.191063650334399 -5.5674114489520434 0 0 0 0 -70.431742954765468 142.5123093284451 0 142.5123093284451 78.712683837380609 0 0 0 0 -56.667228409556628 66.038957333315921 0 66.038957333315921 -7.2287407947806059 0 0 0 0 -113.68751987254541 52.28934563990515 0 52.28934563990515 16.208023899089312 0 0 0 0 -27.162674240140404 64.100622097146697 0 64.100622097146697 -7.2754510263694101 0 0 0 0 -99.792471189960452 -13.18341404341345 0 -13.18341404341345 5.8452142485039076 0 0 0 0 -23.649757980276263 56.565266948437056 0 56.565266948437056 -2.7510561850758677 0 0 0 0 -36.623574663439285 88.923494925222258 0 88.923494925222258 5.950368838122813 0 0 0 0 -28.512400815665316 39.900994216267776 0 39.900994216267776 -8.1507951229663931 0 0 0 0 -132.24898548878627 244.99321327596499 0 244.99321327596499 -106.62919315340696 0 0 0 0 38.377005334628329 37.358874901282832 0 37.358874901282832 3.0115109483216997 0 0 0 0 9.5117206077970593 16.40656363755771 0 16.40656363755771 3.1599110123053507 0 0 0 0 -86.434841492297892 85.041025674000593 0 85.041025674000593 -120.09617162918585 0 0 0 0 -132.82332914222025 215.40852181172522 0 215.40852181172522 -332.79501521278144 0 0 0 0 42.589265252879514 36.32865078023238 0 36.32865078023238 12.901369966638953 0 0 0 0 -253.41203470991968 197.03858298219347 0 197.03858298219347 -52.251924962409248 0 0 0 0 -221.93251967574633 290.73909526671559 0 290.73909526671559 -296.08905829999276 0 0 0 0 -260.49965409359356 227.83756684347645 0 227.83756684347645 -413.26701604924165 0 0 0 0 -160.67002312144541 345.29698458917119 0 345.29698458917119 -290.95208399089825 0 0 0 0 34.188455634099356 50.866032170413291 0 50.866032170413291 9.6662905154947225 0 0 0 0 -58.150620549780797 87.184282948199325 0 87.184282948199325 26.149299584605615 0 0 0 0 -61.431183879529272 99.121291129638848 0 99.121291129638848 -14.653185145139105 0 0 0 0 10.023077043284275 125.69950477014982 0 125.69950477014982 -2.9951454134716187 0 0 0 0 112.34737176330964 143.36643754202669 0 143.36643754202669 -3.2071265761805989 0 0 0 0 5.6946542400874023 97.306051564231893 0 97.306051564231893 -30.053872312892054 0 0 0 0 6.7249527914063947 119.04424038649086 0 119.04424038649086 -21.089567018198068 0 0 0 0 12.313935611722627 104.79238348494619 0 104.79238348494619 -22.054977670315566 0 0 0 0 69.039021269483783 103.72752763400058 0 103.72752763400058 -27.804526990275917 0 0 0 0 -5.7460491099856306 43.417181453969633 0 43.417181453969633 -59.908149587518281 0 0 0 0 -3.742601252575696 91.134200132772094 0 91.134200132772094 1.3927309998907731 0 0 0 0 1.369247289122729 6.6608402317445581 0 6.6608402317445581 -23.530763181162897 0 0 0 0 49.877687358604817 63.513550832387409 0 63.513550832387409 -62.969572391724796 0 0 0 0 115.05068477590612 -63.327335472422419 0 -63.327335472422419 -190.83301417526673 0 0 0 0 94.435269985663581 -74.211149905360799 0 -74.211149905360799 72.56244958814932 0 0 0 0 33.523860434550443 198.18648818887596 0 198.18648818887596 -217.46089495268643 0 0 0 0 84.078055108693661 90.128979864879511 0 90.128979864879511 42.799901782447705 0 0 0 0 111.55428100049176 61.921801172240521 0 61.921801172240521 -114.5070088369248 0 0 0 0 164.13292913687837 105.88132824234344 0 105.88132824234344 -57.18027763234204 0 0 0 0 47.749270362764946 56.42234927861864 0 56.42234927861864 -27.766641597190755 0 0 0 0 99.986787089736481 77.484283775486801 0 77.484283775486801 118.44616140186554 0 0 0 0 -3.408684530002013 21.43687171606966 0 21.43687171606966 -18.992287450714144 0 0 0 0 -19.474066942151921 15.466108928678295 0 15.466108928678295 -15.971524922897515 0 0 0 0 -16.438031507233973 70.599665882662521 0 70.599665882662521 -13.207247950835153 0 0 0 0 -2.6627515797770798 26.584071295796022 0 26.584071295796022 11.491869909994648 0 0 0 0 -29.903920582863066 41.722884346439969 0 41.722884346439969 -12.878825157095434 0 0 0 0 -5.372687555612174 28.330186490875349 0 28.330186490875349 -26.307904739514925 0 0 0 0 -9.3891338542294562 28.710085130202884 0 28.710085130202884 -29.497187759716724 0 0 0 0 -213.01382274617936 249.40483204607517 0 249.40483204607517 -127.18567572881875 0 0 0 0 -5.1269049422016906 36.890360565672381 0 36.890360565672381 -1.9726966140733566 0 0 0 0 -1.217790129850755 34.863587431758788 0 34.863587431758788 -25.001003403172945 0 0 0 0 2.2873452469709719 36.341037085257994 0 36.341037085257994 -49.864927055925364 0 0 0 0 -35.858187435147556 23.269060195569182 0 23.269060195569182 -50.52691628006869 0 0 0 0 -0.54615454128088459 25.244152732848306 0 25.244152732848306 -30.430713405268762 0 0 0 0 -6.9362934053974445 28.071537371824718 0 28.071537371824718 -34.724732019043344 0 0 0 0 4.4126587082913318 7.4782922324021257 0 7.4782922324021257 -25.377885470265284 0 0 0 0 29.271063785730803 55.738985351417796 0 55.738985351417796 50.389561551135557 0 0 0 0 40.858570762240561 54.888458220710163 0 54.888458220710163 -7.4729152277213871 0 0 0 0 -1.0695687116612618 2.0066700847065277 0 2.0066700847065277 -2.2848524588062986 0 0 0 0 83.508684660073413 -112.8632313772905 0 -112.8632313772905 -45.376808074301152 0 0 0 0 0.99923583918608117 0.84900232685082244 0 0.84900232685082244 -5.2453471953377857 0 0 0 0 -73.274441605066386 2.9196960121043958 0 2.9196960121043958 18.909983614328667 0 0 0 0 -147.68990209164349 155.47553238825276 0 155.47553238825276 26.923841570329387 0 0 0 0 5.3878106915435637 28.528810809715651 0 28.528810809715651 23.609976837033173 0 0 0 0 -25.151175801725003 76.440578484860453 0 76.440578484860453 78.130594998743618 0 0 0 0 32.300173495315903 64.779038402943115 0 64.779038402943115 71.586948082607705 0 0 0 0 44.615471743436501 106.66690122671571 0 106.66690122671571 81.598087406746345 0 0 0 0 14.278511660526419 62.300971612476133 0 62.300971612476133 76.771320716681657 0 0 0 0 45.082760917450287 84.344342027899984 0 84.344342027899984 91.154341043817112 0 0 0 0 96.858527567615965 96.639530222731992 0 96.639530222731992 77.108275223275996 0 0 0 0 47.504543536699202 84.45324042494758 0 84.45324042494758 84.398980731653864 0 0 0 0 37.686118135795368 58.100336174235053 0 58.100336174235053 79.710397570670466 0 0 0 0 34.462275450914603 69.367512970027747 0 69.367512970027747 50.643401695728244 0 0 0 0 -9.7152687353538969 11.824248394174433 0 11.824248394174433 -12.191764172265721 0 0 0 0 0.347034762583462 24.894420105305471 0 24.894420105305471 -5.5149795048837404 0 0 0 0 30.569787986340771 70.4893320901474 0 70.4893320901474 64.496390006563161 0 0 0 0 -276.36559876402407 31.524434907463728 0 31.524434907463728 57.951737495335692 0 0 0 0 488.77899536280893 273.34399142673647 0 273.34399142673647 -3.7769713636589586 0 0 0 0 0.31764385879411172 -0.20383121503720147 0 -0.20383121503720147 1.2998274944211516 0 0 0 0 167.4635029129895 278.39246543701302 0 278.39246543701302 159.47407920893056 0 0 0 0 229.58978578432652 189.00331560678751 0 189.00331560678751 -1.3418811150331749 0 0 0 0 -26.35167647725757 83.008790548141405 0 83.008790548141405 57.886065669008531 0 0 0 0 97.846908666178933 83.308551672133035 0 83.308551672133035 -13.18133578740526 0 0 0 0 63.319587026220688 191.22632916797011 0 191.22632916797011 -34.376802984736059 0 0 0 0 41.186240639523021 117.49480297381524 0 117.49480297381524 60.002289168006428 0 0 0 0 55.210897945606121 102.02686211468972 0 102.02686211468972 76.491710430476815 0 0 0 0 114.90135268937956 119.44818817412306 0 119.44818817412306 59.799980605574092 0 0 0 0 120.09027833446089 191.2527483755257 0 191.2527483755257 79.074308620885859 0 0 0 0 222.23061532125212 175.54827431532613 0 175.54827431532613 46.902420782746049 0 0 0 0 137.17199046852511 106.17643807365675 0 106.17643807365675 95.788587737188209 0 0 0 0 59.032816395270856 95.79453271170496 0 95.79453271170496 85.992170453289873 0 0 0 0 111.10912024920617 141.75826842211245 0 141.75826842211245 81.683968791572624 0 0 0 0 82.373959030392143 118.38485273688275 0 118.38485273688275 96.966377421718789 0 0 0 0 134.50623225476738 144.33608517271932 0 144.33608517271932 96.270343988212858 0 0 0 0 98.751371304282657 116.98307979412493 0 116.98307979412493 88.69730587041704 0 0 0 0 124.32336495754498 118.76319363740913 0 118.76319363740913 80.701451319517219 0 0 0 0 165.4389831430708 122.11399627494393 0 122.11399627494393 97.553818855029022 0 0 0 0 166.68855172601161 127.50494757560773 0 127.50494757560773 75.371800463937689 0 0 0 0 279.37106289463281 67.747573425036535 0 67.747573425036535 77.881169388245326 0 0 0 0 -1.1406715782748549 1.3944332149194718 0 1.3944332149194718 5.2884282450211515 0 0 0 0 -49.194467528911446 2.0746014215465038 0 2.0746014215465038 22.262262564414414 0 0 0 0 160.98076781617601 128.36764989049698 0 128.36764989049698 89.454309194668895 0 0 0 0 -27.051997141068568 86.494749964138464 0 86.494749964138464 8.3907467593994625 0 0 0 0 -7.4671824086911052 2.7608226343795153 0 2.7608226343795153 5.5467358802437445 0 0 0 0 148.85229990073185 129.16622290635678 0 129.16622290635678 78.081022655911511 0 0 0 0 145.31653118171198 137.20919057783613 0 137.20919057783613 91.938693747848447 0 0 0 0 122.04803222291957 94.650535168184433 0 94.650535168184433 65.544496478134533 0 0 0 0 157.50965510135393 122.63154988576935 0 122.63154988576935 109.08570522890659 0 0 0 0 2.9557739920185604 1.3208306584900242 0 1.3208306584900242 -0.075501645974618725 0 0 0 0 -1.9738611655957357 63.373964277663617 0 63.373964277663617 -101.61222880536297 0 0 0 0 146.40435868650638 160.55444958653243 0 160.55444958653243 147.54631594668172 0 0 0 0 -17.863787761621062 20.683609779802964 0 20.683609779802964 -14.508357467389885 0 0 0 0 -5.4479553156543261 20.010627378254867 0 20.010627378254867 -5.3671690699829924 0 0 0 0 -113.4550687261617 -13.926696813101444 0 -13.926696813101444 29.566849838214694 0 0 0 0 -15.479208294084629 19.981058223113383 0 19.981058223113383 -20.128117616645596 0 0 0 0 -5.5920163336036026 16.35835704106816 0 16.35835704106816 -19.208319751017328 0 0 0 0 18.18979586673322 94.321186378348102 0 94.321186378348102 57.748420415315195 0 0 0 0 -33.958029290731702 157.66655187989636 0 157.66655187989636 28.301416673522908 0 0 0 0 59.255057693080744 106.64936089093317 0 106.64936089093317 55.915922979889729 0 0 0 0 22.752693688171348 80.705025931842101 0 80.705025931842101 88.176125116273397 0 0 0 0 1.8918585564115347 77.601821999844105 0 77.601821999844105 85.68482687247888 0 0 0 0 59.231515268428666 65.228370639095374 0 65.228370639095374 89.546044816059293 0 0 0 0 55.887348246531474 77.087078528471466 0 77.087078528471466 72.686289427416341 0 0 0 0 104.05659567535258 110.13446608089725 0 110.13446608089725 86.33185214871628 0 0 0 0 302.69927487141467 236.6068917145858 0 236.6068917145858 -300.18575550105379 0 0 0 0 178.35523652792108 154.69590579109354 0 154.69590579109354 99.881959314152482 0 0 0 0 182.16469302493169 92.222760187956737 0 92.222760187956737 38.770410978992004 0 0 0 0 38.020323085289419 -23.94340989009288 0 -23.94340989009288 8.0600881931604818 0 0 0 0 -139.5512512940586 -51.24460813119731 0 -51.24460813119731 -105.87942417704471 0 0 0 0 -6.0801707555556277 105.95226643616206 0 105.95226643616206 55.358269045158522 0 0 0 0 -152.3312241795505 205.25700740454135 0 205.25700740454135 74.601179525343468 0 0 0 0 182.54396894611091 -34.396774828739581 0 -34.396774828739581 -509.96223213538906 0 0 0 0 27.139085118635194 304.32792819692986 0 304.32792819692986 349.43092125952899 0 0 0 0 0.77393933586935049 -0.3668941303107971 0 -0.3668941303107971 -0.94135012402234963 0 0 0 0 17.618858474072113 44.637933142119437 0 44.637933142119437 226.88128116722874 0 0 0 0 148.97779699249077 129.66886983430595 0 129.66886983430595 92.619690551444364 0 0 0 0 41.617762311188926 82.880948806629021 0 82.880948806629021 77.199113930255407 0 0 0 0 60.771990516314645 91.835547346142448 0 91.835547346142448 54.947249688775628 0 0 0 0 68.446913404360203 30.412733618093625 0 30.412733618093625 97.712856174293847 0 0 0 0 65.758951797002737 105.6327413004019 0 105.6327413004019 19.910295947236591 0 0 0 0 18.341261648984073 -20.839390001445281 0 -20.839390001445281 5.9748631131060392 0 0 0 0 -19.367337182591655 45.2093686775479 0 45.2093686775479 -4.5171267888363218 0 0 0 0 287.13419509963751 71.664228600420756 0 71.664228600420756 -96.584970666503068 0 0 0 0 -14.61907756502076 30.317560385785058 0 30.317560385785058 -38.454352155069699 0 0 0 0 -152.11024773048484 -20.27300960062712 0 -20.27300960062712 152.05335589847527 0 0 0 0 -6.9966167493863161 2.6845920058540536 0 2.6845920058540536 1.0139129097704824 0 0 0 0 -32.883365838188183 111.65809146028187 0 111.65809146028187 -123.4106542511646 0 0 0 0 -2.2107375255309307 94.538146856386447 0 94.538146856386447 -26.774760927888565 0 0 0 0 -7.5411999535310397 8.3552391585682102 0 8.3552391585682102 -0.94218966360085687 0 0 0 0 -0.39233639127958497 0.78801231986507148 0 0.78801231986507148 -0.98982565333841421 0 0 0 0 -87.415662392424565 55.252537830187975 0 55.252537830187975 39.423874736319704 0 0 0 0 99.727779025924974 119.89854392777852 0 119.89854392777852 -130.20604800220917 0 0 0 0 57.927002172731591 47.889675077916763 0 47.889675077916763 92.646651677641785 0 0 0 0 40.761129568480101 118.05566932013244 0 118.05566932013244 -121.05013917333417 0 0 0 0 -10.477604378351316 94.718678558601823 0 94.718678558601823 131.65213068758749 0 0 0 0 31.977141583543016 47.896016063547904 0 47.896016063547904 131.26633959499304 0 0 0 0 13.945972215459051 133.35316444741443 0 133.35316444741443 39.447420171090926 0 0 0 0 -1.0111556161591579 1.603316934879043 0 1.603316934879043 -1.7228231733415669 0 0 0 0 22.227867369816522 107.34630361055315 0 107.34630361055315 65.823348437290406 0 0 0 0 2.7740179930260638 -25.480037310286207 0 -25.480037310286207 -171.81579118948139 0 0 0 0 -54.4001163857356 -34.617150902475259 0 -34.617150902475259 98.047484363109106 0 0 0 0 -0.1442330065252122 0.72628708781776297 0 0.72628708781776297 -1.2348738998591671 0 0 0 0 101.22877521807186 90.673710477251007 0 90.673710477251007 -162.22830562527088 0 0 0 0 70.660711877600988 90.924760842099204 0 90.924760842099204 -72.05861187246046 0 0 0 0 -48.349607403937625 86.463882517857201 0 86.463882517857201 80.943127392602037 0 0 0 0 -35.297459504095613 30.562743946406094 0 30.562743946406094 -16.172972533973301 0 0 0 0 -129.91870800415381 0.95278098216658691 0 0.95278098216658691 89.672475863648287 0 0 0 0 -35.39909413403268 32.395766288819118 0 32.395766288819118 -18.979981031470942 0 0 0 0 17.883832085518051 37.037393152565855 0 37.037393152565855 43.995422059594574 0 0 0 0 -19.860021584238439 129.81339266343934 0 129.81339266343934 -31.315072671859525 0 0 0 0 -13.721639750289796 94.601847676881789 0 94.601847676881789 -75.5303621096391 0 0 0 0 -162.71954345575796 88.230780825098918 0 88.230780825098918 26.985037139951601 0 0 0 0 -14.157877512392588 115.20564526864473 0 115.20564526864473 -29.839996585666086 0 0 0 0 -32.413060029386543 144.29678553544727 0 144.29678553544727 -42.191657123017649 0 0 0 0 -61.808802221825317 98.714542767644161 0 98.714542767644161 -28.909920221572975 0 0 0 0 -227.07277931613498 -46.275007798714796 0 -46.275007798714796 -96.363517480102018 0 0 0 0 -16.426815029306454 127.19410237607372 0 127.19410237607372 -91.019878818903408 0 0 0 0 64.748801123198064 32.565292796545691 0 32.565292796545691 58.471944098572749 0 0 0 0 -33.047501726345217 140.71615067691891 0 140.71615067691891 -17.748178834017381 0 0 0 0 -71.878174584362569 24.40053865439404 0 24.40053865439404 64.331772396188171 0 0 0 0 13.291054874143811 110.53357922502892 0 110.53357922502892 -51.639352154074004 0 0 0 0 -0.13766530163047719 60.960195631956594 0 60.960195631956594 75.343636865702138 0 0 0 0 -10.456857778590347 -83.82359357687892 0 -83.82359357687892 408.93357762698724 0 0 0 0 10.072577221179017 49.964639264105699 0 49.964639264105699 86.588222554091772 0 0 0 0 0.15625250344886865 1.6808276914008502 0 1.6808276914008502 1.4989790257848483 0 0 0 0 -0.73211617698325426 144.74372603963639 0 144.74372603963639 184.42040140439713 0 0 0 0 -13.750779397661972 128.41169957489547 0 128.41169957489547 -253.11346460986533 0 0 0 0 -6.9836762840823212 166.73702546853747 0 166.73702546853747 -146.93714472732972 0 0 0 0 -39.043109104306495 109.04752433440444 0 109.04752433440444 -257.68613020101475 0 0 0 0 -16.40883087493421 121.71279143597712 0 121.71279143597712 -403.25422295595445 0 0 0 0 -46.865785992857127 -35.555038452286681 0 -35.555038452286681 252.71777519713214 0 0 0 0 3.9315181582316825 3.079141592937404 0 3.079141592937404 1.0310426537319657 0 0 0 0 21.458242534950841 -33.913004389414709 0 -33.913004389414709 -12.225166081610951 0 0 0 0 -85.487705283871037 73.219238643596327 0 73.219238643596327 -374.92940994955279 0 0 0 0 20.98508340227847 30.801494205011849 0 30.801494205011849 46.694510344033375 0 0 0 0 -113.55349145151922 166.64759185236471 0 166.64759185236471 68.873078339440326 0 0 0 0 -105.36783460133302 48.158102983052231 0 48.158102983052231 139.5020931192048 0 0 0 0 -39.310718790839019 81.592561241563089 0 81.592561241563089 11.618503669234997 0 0 0 0 21.180586725212471 29.550415739226864 0 29.550415739226864 41.821647287030146 0 0 0 0 -76.149327533927135 55.388448198296828 0 55.388448198296828 117.54386900273312 0 0 0 0 -32.234706240880769 49.771197847047006 0 49.771197847047006 12.317295021028258 0 0 0 0 -33.467214612075622 54.247838313371176 0 54.247838313371176 -2.1401216218218906 0 0 0 0 -9.2922933919689967 63.693448703525064 0 63.693448703525064 -1.981481183640426 0 0 0 0 50.718221222508873 70.093756783084245 0 70.093756783084245 27.924084556361777 0 0 0 0 25.371119765703043 77.929630451348203 0 77.929630451348203 73.242390121871722 0 0 0 0 28.725748204444244 54.824164715857478 0 54.824164715857478 -5.6050128467613831 0 0 0 0 33.441258679173188 22.192387707145826 0 22.192387707145826 22.770979202905437 0 0 0 0 20.996671158814934 70.701021528311685 0 70.701021528311685 -71.35543255059747 0 0 0 0 11.061282864313398 44.419421071219404 0 44.419421071219404 -16.25487362174681 0 0 0 0 80.837131640524603 48.215926573786419 0 48.215926573786419 -154.48058121262147 0 0 0 0 -10.874825681821676 89.744995963348629 0 89.744995963348629 -87.59744302638137 0 0 0 0 16.745810351461841 124.68732298754549 0 124.68732298754549 -67.412780070495501 0 0 0 0 9.1003828943212284 126.61846029698427 0 126.61846029698427 -153.18880689987418 0 0 0 0 33.669701530434395 108.07708044840729 0 108.07708044840729 -179.53672987010214 0 0 0 0 20.35653100271702 156.09599185755724 0 156.09599185755724 -192.96512010005972 0 0 0 0 44.508530150378647 177.65249579118972 0 177.65249579118972 -175.33271344449463 0 0 0 0 33.691581620892975 217.0677411366305 0 217.0677411366305 -110.65100604053441 0 0 0 0 -130.47134036251737 181.02498182528143 0 181.02498182528143 -59.515637576892914 0 0 0 0 -99.10148853609644 140.69944762817249 0 140.69944762817249 -9.0488455743980012 0 0 0 0 -53.44246283603934 107.74826812718311 0 107.74826812718311 -36.520442712542717 0 0 0 0 -48.671018833956623 184.1915014987062 0 184.1915014987062 -120.47253366580117 0 0 0 0 334.82705037625146 -66.341121865244077 0 -66.341121865244077 -332.08581221094209 0 0 0 0 8.1010025215873611 187.51358427766536 0 187.51358427766536 -214.21593025130824 0 0 0 0 -242.36196520818339 518.47682957181678 0 518.47682957181678 -427.1530212029611 0 0 0 0 251.01109029824875 257.53038495220244 0 257.53038495220244 -573.73573574114926 0 0 0 0 8.2163724404963432 135.8067384937749 0 135.8067384937749 -321.70322640923041 0 0 0 0 -371.97649782685767 526.66085388300417 0 526.66085388300417 -340.78472236093876 0 0 0 0 55.810412555580115 69.248286049967646 0 69.248286049967646 -242.29061274825654 0 0 0 0 -214.5051914430951 82.812793580698781 0 82.812793580698781 102.96952582028098 0 0 0 0 -219.35343075824858 121.01453577565371 0 121.01453577565371 -148.72913931576477 0 0 0 0 0.2482400547819168 0.92268023606609972 0 0.92268023606609972 0.35055540258485962 0 0 0 0 -149.07141607108133 383.21848727941688 0 383.21848727941688 -416.78647913037639 0 0 0 0 -144.10477184153933 164.34354257269297 0 164.34354257269297 -171.52137668152136 0 0 0 0 -30.948309507177328 269.32112775192945 0 269.32112775192945 -41.692164518419304 0 0 0 0 -63.880035997615778 -10.018451147061569 0 -10.018451147061569 20.670489488169551 0 0 0 0 1.401538933016127 50.344855911054765 0 50.344855911054765 72.857851605476753 0 0 0 0 57.030153334686474 -94.001964111092093 0 -94.001964111092093 446.63561293896055 0 0 0 0 -0.88482276897457979 1.3925399757483206 0 1.3925399757483206 0.30975583980503529 0 0 0 0 329.24310202922061 226.55641816014395 0 226.55641816014395 23.989652764852508 0 0 0 0 -5.8734618377129664 54.460946863709978 0 54.460946863709978 -55.706786566748633 0 0 0 0 109.37751944604679 3.6439599648365402 0 3.6439599648365402 19.395499148129602 0 0 0 0 331.66543697148882 282.37372149928342 0 282.37372149928342 201.53122667904245 0 0 0 0 128.97703274383093 -70.591346559369413 0 -70.591346559369413 277.11136907801847 0 0 0 0 27.32349140747101 50.577334112502285 0 50.577334112502285 170.9123133223402 0 0 0 0 80.945317473786417 75.268092367739882 0 75.268092367739882 -43.705446252861293 0 0 0 0 35.384989423379011 32.90647910793632 0 32.90647910793632 -66.665012450557697 0 0 0 0 148.77742771232442 142.05722062406494 0 142.05722062406494 -243.93535606972728 0 0 0 0 22.260757096810266 109.39127676446515 0 109.39127676446515 -261.46699321562483 0 0 0 0 -43.220862124951964 226.81009764864029 0 226.81009764864029 -257.51798034545209 0 0 0 0 -267.35438480960511 343.48649925299469 0 343.48649925299469 -418.47041673220519 0 0 0 0 2.809053372433425 2.2750561408293493 0 2.2750561408293493 -0.83197532144572506 0 0 0 0 -265.330923792666 330.94707229123742 0 330.94707229123742 -393.53985825194104 0 0 0 0 2.5871443469524991 2.1886356498281714 0 2.1886356498281714 -0.70809861462510071 0 0 0 0 -127.20927324677541 351.9798577507172 0 351.9798577507172 -397.12661327337264 0 0 0 0 -157.62666458603417 210.70576210155195 0 210.70576210155195 -268.65853043532115 0 0 0 0 -375.43116816834663 404.13448923541728 0 404.13448923541728 -375.32155631071782 0 0 0 0 -191.37269259541063 451.34858422816615 0 451.34858422816615 -414.82230433177483 0 0 0 0 -225.77282875652236 431.31816518801861 0 431.31816518801861 -378.36272237361845 0 0 0 0 -454.26683109320948 341.06202385941015 0 341.06202385941015 -319.03284698785137 0 0 0 0 -642.15876089385711 486.31507650057029 0 486.31507650057029 -334.59650048104231 0 0 0 0 -350.21083046189233 460.30208118345763 0 460.30208118345763 -377.61987607184346 0 0 0 0 -612.5169893186403 449.39293578807155 0 449.39293578807155 -317.60792395049066 0 0 0 0 -258.59547393546381 319.57713440536827 0 319.57713440536827 -400.29744049918008 0 0 0 0 -269.96715825250067 324.58251214504344 0 324.58251214504344 -402.25851022903225 0 0 0 0 -457.20240103916876 336.26894004937276 0 336.26894004937276 -288.57307252730971 0 0 0 0 -267.99893594145215 351.80244717542791 0 351.80244717542791 -340.08075597597781 0 0 0 0 -132.55411790116341 351.72246905205975 0 351.72246905205975 -342.71425320360868 0 0 0 0 -295.08350917388816 313.37015921410057 0 313.37015921410057 -391.65858017270148 0 0 0 0 0.83294924721593588 1.112744905533134 0 1.112744905533134 -0.24357528534349626 0 0 0 0 -326.38101995399393 575.7786599415831 0 575.7786599415831 -430.74841935766017 0 0 0 0 -117.60401607711174 432.28089442687087 0 432.28089442687087 -326.20441739550733 0 0 0 0 -166.04941653093738 334.54752228697907 0 334.54752228697907 -226.47993160394253 0 0 0 0 -87.838157325015345 325.07230652993894 0 325.07230652993894 -228.72337388779852 0 0 0 0 -109.50355752376345 320.01599812419954 0 320.01599812419954 -169.59932452275825 0 0 0 0 -17.300334568113612 351.41249412167235 0 351.41249412167235 -273.38796898681176 0 0 0 0 -51.668689917871234 131.4443458214846 0 131.4443458214846 -60.559537421839195 0 0 0 0 -87.184571579680778 206.85879549620586 0 206.85879549620586 -172.43447873527475 0 0 0 0 -133.98314670391846 186.16572073016505 0 186.16572073016505 0.28905682975891978 0 0 0 0 -87.159326848508499 135.08114641175052 0 135.08114641175052 47.301763059746008 0 0 0 0 -874.67210963938851 950.42267879180145 0 950.42267879180145 -1027.3794205742888 0 0 0 0 -61.591207773504721 -179.14174986382568 0 -179.14174986382568 420.56283258046915 0 0 0 0 -20.725744010902417 117.27480320497853 0 117.27480320497853 -14.378389298370166 0 0 0 0 -48.170048817730276 143.98361954078428 0 143.98361954078428 -27.858944382547634 0 0 0 0 -123.10508991574534 291.63537662748422 0 291.63537662748422 -162.11786233981547 0 0 0 0 -172.8791580894831 322.17547133490734 0 322.17547133490734 -10.934815147147674 0 0 0 0 -260.09194610122358 324.81780650996734 0 324.81780650996734 -170.05421895578911 0 0 0 0 -527.10696257964446 447.1504458730451 0 447.1504458730451 -351.40639156653197 0 0 0 0 -530.15899005690881 466.42143016081172 0 466.42143016081172 -41.03002990036839 0 0 0 0 -229.24334033872583 272.04604842092522 0 272.04604842092522 -286.01523839646688 0 0 0 0 -390.33977800453795 232.58881761601515 0 232.58881761601515 332.90326559291134 0 0 0 0 -986.18668640672786 1006.1873990749518 0 1006.1873990749518 -829.28625125221151 0 0 0 0 -1024.7928365709522 900.05818811567588 0 900.05818811567588 -448.1685925249767 0 0 0 0 -3.3468579601382373 3.040194421959896 0 3.040194421959896 0.60976809832925483 0 0 0 0 -778.90925255550974 597.85308007838466 0 597.85308007838466 -171.15191876948666 0 0 0 0 -789.34117308376881 791.83195443156728 0 791.83195443156728 -630.69217262876919 0 0 0 0 -727.07558425111347 521.18603595475724 0 521.18603595475724 -265.28496865612942 0 0 0 0 -718.53598398647591 487.26349793749614 0 487.26349793749614 -447.18618481275917 0 0 0 0 -236.56910221420549 345.45847656031765 0 345.45847656031765 -274.85026037244097 0 0 0 0 -156.23343508847455 345.17093539441919 0 345.17093539441919 -251.86534555234539 0 0 0 0 -157.63067211877933 249.18459331099075 0 249.18459331099075 -173.53528268615628 0 0 0 0 -175.44701879438071 193.91910420898057 0 193.91910420898057 -125.82589726860169 0 0 0 0 -265.35453616939049 210.72449000863708 0 210.72449000863708 -120.56188252880474 0 0 0 0 -151.63273469046544 168.54057012900921 0 168.54057012900921 -66.880592187415459 0 0 0 0 -214.41621486155782 203.30242733223167 0 203.30242733223167 -77.658469575762865 0 0 0 0 -119.3260233030378 258.86502551683225 0 258.86502551683225 -121.90827948941296 0 0 0 0 -97.789315971360338 223.85116950874726 0 223.85116950874726 -125.19691331192735 0 0 0 0 -171.29250111522015 269.79008101168984 0 269.79008101168984 -150.95993522375647 0 0 0 0 -3.1785166241861589 344.46275781832082 0 344.46275781832082 -221.88529473421659 0 0 0 0 -22.756748645995685 247.76533378547538 0 247.76533378547538 -180.86808447106887 0 0 0 0 342.27448728446325 140.6251047024416 0 140.6251047024416 -200.30926341309168 0 0 0 0 56.195018553786213 293.33423691845746 0 293.33423691845746 -295.55947216803179 0 0 0 0 39.06462865476351 439.32989823034222 0 439.32989823034222 -380.13669970179399 0 0 0 0 -54.773115328267977 361.52816092801527 0 361.52816092801527 -336.9665959180129 0 0 0 0 -52.199523099723592 288.13145363845615 0 288.13145363845615 -330.63264445119057 0 0 0 0 -3.6108192581450567 351.46439894549258 0 351.46439894549258 -387.63950507783738 0 0 0 0 -18.702575923060067 162.29775627407798 0 162.29775627407798 -333.11009421141989 0 0 0 0 -33.057369559039216 238.42026006842389 0 238.42026006842389 -508.05279038324807 0 0 0 0 -97.631193444489327 189.53593569223449 0 189.53593569223449 -488.62232945734195 0 0 0 0 -90.164776781952241 192.47396002328969 0 192.47396002328969 -802.34084374375016 0 0 0 0 -174.24191785982111 278.9304269041977 0 278.9304269041977 -326.44908355636289 0 0 0 0 -158.06815488678694 403.00586315116743 0 403.00586315116743 -451.5744228876647 0 0 0 0 -304.27826795967121 216.32710733665226 0 216.32710733665226 -348.93140027975824 0 0 0 0 -333.10180515617685 465.94316913676448 0 465.94316913676448 -505.01199513182655 0 0 0 0 -481.79521190935338 538.71948036120011 0 538.71948036120011 -546.36467759930019 0 0 0 0 -719.69111810387767 372.48243730157265 0 372.48243730157265 790.89596520717896 0 0 0 0 -1.8499890555218599 3.5339416552454139 0 3.5339416552454139 -0.24076925916673186 0 0 0 0 -74.759437001335755 502.52306034884896 0 502.52306034884896 -1323.5167721932085 0 0 0 0 439.80084894318134 323.58015483342751 0 323.58015483342751 151.66168913321962 0 0 0 0 243.79327595172799 453.16149375589521 0 453.16149375589521 188.69683124660787 0 0 0 0 451.90781498738215 527.02485399939906 0 527.02485399939906 193.5200225662461 0 0 0 0 148.797880262322 282.81047325966756 0 282.81047325966756 180.84575666580349 0 0 0 0 87.709875155407644 72.062714264004171 0 72.062714264004171 44.754799398477189 0 0 0 0 305.80167645477923 64.916558868440916 0 64.916558868440916 -20.098725103809556 0 0 0 0 -5.6577724380615848 7.4505943771405754 0 7.4505943771405754 -0.050739377802153207 0 0 0 0 -40.478273944070679 -9.5679748025831941 0 -9.5679748025831941 21.566915440693265 0 0 0 0 -49.826061086174377 75.240249477552425 0 75.240249477552425 17.584124450397212 0 0 0 0 64.634059413841896 -26.463416585549567 0 -26.463416585549567 14.78127480528201 0 0 0 0 429.80892847868745 483.48057163941485 0 483.48057163941485 504.7717573450791 0 0 0 0 1.5860647054241923 1.0557554636123712 0 1.0557554636123712 -0.021409352857119757 0 0 0 0 587.28831438036286 180.56513672322035 0 180.56513672322035 -59.431393226339424 0 0 0 0 583.31693575701092 578.82916131803131 0 578.82916131803131 469.417277927947 0 0 0 0 -126.71191029913462 624.62446727946372 0 624.62446727946372 244.58979489333433 0 0 0 0 -295.48253151289464 117.41933399369191 0 117.41933399369191 150.25216252756945 0 0 0 0 241.89902692026226 642.44614213804016 0 642.44614213804016 662.28219575005278 0 0 0 0 -34.823192983339652 26.732636019067208 0 26.732636019067208 -10.36326208978744 0 0 0 0 -140.50046924501657 504.01442347343254 0 504.01442347343254 217.23901343051693 0 0 0 0 98.092547346150241 327.05743199846256 0 327.05743199846256 337.44315613107756 0 0 0 0 860.56685401110735 554.67777067155112 0 554.67777067155112 371.33363336364346 0 0 0 0 -328.6916325431539 171.92216619833016 0 171.92216619833016 995.13658490334637 0 0 0 0 265.06450474822304 718.27595375382043 0 718.27595375382043 617.06982127157971 0 0 0 0 589.81793834832933 487.16575003169419 0 487.16575003169419 232.0617332482434 0 0 0 0 -283.3377163402256 -95.802597693516873 0 -95.802597693516873 200.77558531858631 0 0 0 0 -389.50248434873356 115.55566796463972 0 115.55566796463972 409.31153233289842 0 0 0 0 -451.91723297292629 -292.60548201266647 0 -292.60548201266647 171.02357105787996 0 0 0 0 -25.404902991094048 14.829099749205483 0 14.829099749205483 -4.8322582164620371 0 0 0 0 -215.8299675324306 -292.20256355176389 0 -292.20256355176389 349.56512846436817 0 0 0 0 -9.2038243652013279 4.4956314062499487 0 4.4956314062499487 -0.87797003362288706 0 0 0 0 -922.47091217769639 -862.92906011221999 0 -862.92906011221999 -261.50852475647116 0 0 0 0 -447.55411105991516 24.857094535997021 0 24.857094535997021 -38.760493642650545 0 0 0 0 -1172.1489545656805 1006.3298960609609 0 1006.3298960609609 -177.89234706842399 0 0 0 0 -1079.0051077999397 1124.7505232085223 0 1124.7505232085223 -513.99957228149287 0 0 0 0 -914.51227136973466 828.05502636022902 0 828.05502636022902 -562.89808601593541 0 0 0 0 -826.55935462283014 950.94113609128181 0 950.94113609128181 -683.10831053988659 0 0 0 0 -1022.0612259490881 767.94770480865554 0 767.94770480865554 -412.22500898914586 0 0 0 0 -1025.51763768207 748.1253044088844 0 748.1253044088844 -510.15184436080744 0 0 0 0 -1148.036118330223 657.53842322923811 0 657.53842322923811 -279.36266427965893 0 0 0 0 -1285.3144456087248 832.41499850220134 0 832.41499850220134 -354.96601498929158 0 0 0 0 -800.29481505214335 603.98957424924595 0 603.98957424924595 -451.99535770528746 0 0 0 0 -802.00434367755224 632.99752998949407 0 632.99752998949407 -453.97045656752016 0 0 0 0 -621.41305232392733 510.85208785528994 0 510.85208785528994 -507.65119256969774 0 0 0 0 3.0417670902726428 1.7493950555227684 0 1.7493950555227684 -4.5085310764726785 0 0 0 0 -796.35655772412429 658.53823352487234 0 658.53823352487234 -609.68775723464933 0 0 0 0 -747.71943637703953 1000.7828765533632 0 1000.7828765533632 -803.37054557981901 0 0 0 0 -0.12712711311550606 0.4587543860138652 0 0.4587543860138652 0.04134933094964488 0 0 0 0 -25.449437451134145 5.1868059554180945 0 5.1868059554180945 -19.053122927902677 0 0 0 0 -9.5467841906733781 8.0723276746087151 0 8.0723276746087151 0.90737249856756819 0 0 0 0 -98.964793688814098 149.86023938761718 0 149.86023938761718 -19.676363180180488 0 0 0 0 3.2716863948396195 1.4596590595168095 0 1.4596590595168095 -0.97969973366645036 0 0 0 0 -526.77850242253044 487.64309179543488 0 487.64309179543488 -408.01907335146825 0 0 0 0 -456.01633466087151 346.22040902434674 0 346.22040902434674 -331.6626028367682 0 0 0 0 -424.1708818846746 382.40040854992549 0 382.40040854992549 -347.11067798488148 0 0 0 0 -820.43425228935303 282.78526075628542 0 282.78526075628542 272.41006514355831 0 0 0 0 -663.56197719601914 101.07291970678489 0 101.07291970678489 552.58251084381482 0 0 0 0 -285.52436768704501 39.323279218064272 0 39.323279218064272 614.54703184706159 0 0 0 0 -1168.5322048029484 464.54113186527684 0 464.54113186527684 573.67157494604089 0 0 0 0 -1150.0484125695948 503.78302851416083 0 503.78302851416083 589.14410403842339 0 0 0 0 -1356.7963295423979 637.44662420719396 0 637.44662420719396 539.22460217883781 0 0 0 0 -896.63574474840061 476.22811333961363 0 476.22811333961363 131.71351176522148 0 0 0 0 -1296.2305091683229 724.68128452150995 0 724.68128452150995 269.69107935324428 0 0 0 0 -1326.0592115733089 873.92086823800491 0 873.92086823800491 93.443347562031704 0 0 0 0 -1036.9283125094589 571.86297247564289 0 571.86297247564289 -154.60461144628789 0 0 0 0 -924.62738204480593 593.41020708197902 0 593.41020708197902 -216.08279638818931 0 0 0 0 -1330.0633420903341 773.65927332328556 0 773.65927332328556 -633.76849214344111 0 0 0 0 -1067.251370377885 705.0946381153999 0 705.0946381153999 -326.92894825372787 0 0 0 0 -1348.6575662710311 772.36587959825556 0 772.36587959825556 -123.05168887211039 0 0 0 0 -1298.7103649627338 930.44753148817972 0 930.44753148817972 -358.52320781274466 0 0 0 0 -1468.3587700521748 1169.2057848600343 0 1169.2057848600343 128.33479527287273 0 0 0 0 -1491.0300323297342 1329.4874816317533 0 1329.4874816317533 -575.75586106422952 0 0 0 0 -2060.2127334222796 1297.792166154823 0 1297.792166154823 5.0765675165530411 0 0 0 0 -1828.0496781526599 853.62194859797455 0 853.62194859797455 -213.34514318542642 0 0 0 0 90.537249143526424 532.73935708421777 0 532.73935708421777 -127.83666896128125 0 0 0 0 -1278.2694451406933 697.09763992449371 0 697.09763992449371 3.9252289836003911 0 0 0 0 -1139.5524964103097 847.95934942212989 0 847.95934942212989 141.68532546942879 0 0 0 0 -1367.1619481768084 1321.9106324583918 0 1321.9106324583918 -186.45012299265363 0 0 0 0 -1750.0736497136604 1220.2647795511693 0 1220.2647795511693 50.233215269308857 0 0 0 0 -1710.7439546078604 978.4061206049264 0 978.4061206049264 -728.85313767748448 0 0 0 0 -1660.2736554339317 1333.0756019977671 0 1333.0756019977671 0.1071138488186989 0 0 0 0 -1724.3165939810533 1071.4925778389461 0 1071.4925778389461 384.532263574627 0 0 0 0 -1581.6594440765039 997.65829299023608 0 997.65829299023608 333.35669700559083 0 0 0 0 -5.2360827026952705 7.6973664502952275 0 7.6973664502952275 -5.9813265740949362 0 0 0 0 -1933.4245411887541 134.4238780364858 0 134.4238780364858 332.71049860399216 0 0 0 0 -1893.090527089691 957.18256399771053 0 957.18256399771053 545.35219724966737 0 0 0 0 -1613.6075665153912 335.0485465109814 0 335.0485465109814 788.98495262666256 0 0 0 0 -234.43688509351341 138.61933912166569 0 138.61933912166569 321.55242576108139 0 0 0 0 -549.06188746774933 689.66929721993074 0 689.66929721993074 -831.94134420227056 0 0 0 0 -2355.0810238814956 1474.9124125524977 0 1474.9124125524977 96.385207225004706 0 0 0 0 -2860.3364502878426 444.60030797174613 0 444.60030797174613 299.07277426042128 0 0 0 0 -3131.863207723467 1465.8588799062672 0 1465.8588799062672 -0.37375093188893516 0 0 0 0 -4182.6648055773549 886.88931606745973 0 886.88931606745973 552.87349429370806 0 0 0 0 -1887.4263754616723 1489.5689700691219 0 1489.5689700691219 -0.22468577766994713 0 0 0 0 -2245.2144915143963 844.82613766301074 0 844.82613766301074 -39.576819940746645 0 0 0 0 -2854.6072069251245 1032.0996655472327 0 1032.0996655472327 235.16870534351619 0 0 0 0 -877.31237373649492 1262.9167343469453 0 1262.9167343469453 -311.77217068583559 0 0 0 0 -912.10781851843058 757.48443153232074 0 757.48443153232074 -40.19429110045894 0 0 0 0 869.25347077254992 922.62571382185342 0 922.62571382185342 -351.43006771279033 0 0 0 0 -685.9125397825519 1500.7615392428452 0 1500.7615392428452 1.4112683270941488 0 0 0 0 -960.04570297598184 847.21435957841459 0 847.21435957841459 -44.184790600527776 0 0 0 0 -37.142408076782885 474.67741370989825 0 474.67741370989825 -166.0172639962002 0 0 0 0 243.38300656289357 192.43131484168407 0 192.43131484168407 0.24242613121168688 0 0 0 0 89.103341371887836 178.50764500286004 0 178.50764500286004 169.16080167745531 0 0 0 0 32.03358874290825 306.39153281460403 0 306.39153281460403 376.99731587980932 0 0 0 0 -36.408822067201342 24.124347199332163 0 24.124347199332163 -14.283239010971556 0 0 0 0 -339.0935131381284 -41.65278256545389 0 -41.65278256545389 149.80594112054678 0 0 0 0 -236.9575627461345 -17.300770494926837 0 -17.300770494926837 29.583237541199196 0 0 0 0 -171.19833011083392 -79.819031554885441 0 -79.819031554885441 87.540715215407545 0 0 0 0 -247.73139751051372 470.56880579424933 0 470.56880579424933 696.62367632055248 0 0 0 0 -793.06132809381234 -725.04841560128261 0 -725.04841560128261 -176.10820188055732 0 0 0 0 1384.3649865792831 945.80180543403549 0 945.80180543403549 600.65482838516618 0 0 0 0 -12.018030023438932 9.5099402672378517 0 9.5099402672378517 4.5373026650328256 0 0 0 0 257.63556017047085 508.78557737337542 0 508.78557737337542 1119.1722193828609 0 0 0 0 -267.02139843146142 -416.84436027661286 0 -416.84436027661286 689.07492475435697 0 0 0 0 -10.495342136882584 17.963333094197953 0 17.963333094197953 -10.506329055756112 0 0 0 0 1135.1495343984789 444.8872877968206 0 444.8872877968206 -1178.4039754089608 0 0 0 0 662.95338103665199 922.11566432028485 0 922.11566432028485 -1406.8076560257177 0 0 0 0 129.05233592976219 488.48548496551848 0 488.48548496551848 -298.13603671544115 0 0 0 0 -1335.2378413164915 460.19492202681431 0 460.19492202681431 105.01708859698556 0 0 0 0 -13.293977011466723 7.7825836617884505 0 7.7825836617884505 -4.6620613663162089 0 0 0 0 -128.17932036399725 447.50353873423228 0 447.50353873423228 137.93380153995531 0 0 0 0 -527.34540210086561 788.66056995542021 0 788.66056995542021 -115.49574827372635 0 0 0 0 -706.06704961953255 -97.911100034722949 0 -97.911100034722949 534.03363761343644 0 0 0 0 36.442898699056968 269.62712830777309 0 269.62712830777309 0.4957642285808106 0 0 0 0 762.17643724016307 -105.66280368443768 0 -105.66280368443768 83.63546784904247 0 0 0 0 -3.6463617147313343 6.631132310397895 0 6.631132310397895 -8.1537227999166646 0 0 0 0 4.7794233600179723 243.25367237347928 0 243.25367237347928 175.64513749680918 0 0 0 0 -69.604981294529352 357.80722392207826 0 357.80722392207826 0.00063827938720351085 0 0 0 0 -61.000515654110131 235.9677835596267 0 235.9677835596267 116.62292811222142 0 0 0 0 41.449246490767109 356.99614023309914 0 356.99614023309914 6.4142969732056372 0 0 0 0 -74.971450082754927 326.94517849658769 0 326.94517849658769 -35.064658281815355 0 0 0 0 -91.246218195119582 340.66080907057403 0 340.66080907057403 5.5529827319762717 0 0 0 0 -226.19588852846573 333.43386783789902 0 333.43386783789902 -0.12548662946937839 0 0 0 0 -481.12767701792836 191.35455855177133 0 191.35455855177133 -0.012996855562960263 0 0 0 0 -276.0888856567326 250.19205041221721 0 250.19205041221721 -124.53894902081811 0 0 0 0 -530.85681988493161 357.95591202779178 0 357.95591202779178 24.430552702506247 0 0 0 0 -337.79832960108979 -4.8345880074120942 0 -4.8345880074120942 156.59424621467406 0 0 0 0 -564.15617953446406 29.603267359657821 0 29.603267359657821 161.13212763777119 0 0 0 0 -296.50320192551953 268.74079506468843 0 268.74079506468843 104.50954993189589 0 0 0 0 -274.28236474375626 232.24895409792225 0 232.24895409792225 159.88305978817516 0 0 0 0 -101.73430618765633 287.65205226373655 0 287.65205226373655 57.939819481649465 0 0 0 0 -285.00178410211811 323.87691782275215 0 323.87691782275215 51.047998629888752 0 0 0 0 -243.81009211472701 228.34533097916574 0 228.34533097916574 74.842232322815107 0 0 0 0 239.72917898979262 115.64200771257811 0 115.64200771257811 107.43796226384438 0 0 0 0 -45.387150915543316 314.79548802777936 0 314.79548802777936 0.040298398744198494 0 0 0 0 -0.4609611834502374 1.5491556488878615 0 1.5491556488878615 -2.3641664635002826 0 0 0 0 231.54236253590261 363.19547980384959 0 363.19547980384959 40.371268188018803 0 0 0 0 25.804249146724942 325.37533592366526 0 325.37533592366526 214.85013290146708 0 0 0 0 -2.7732014323876015 3.6823205912527612 0 3.6823205912527612 -3.1795455623519047 0 0 0 0 5.2593283451578827 212.54721246784538 0 212.54721246784538 283.15412574080983 0 0 0 0 -93.068068359341851 83.359348374473484 0 83.359348374473484 236.51042767559011 0 0 0 0 239.09601416351916 465.15075662064737 0 465.15075662064737 41.318565820336516 0 0 0 0 -88.191994848666582 198.98411173923887 0 198.98411173923887 163.92892550189481 0 0 0 0 -124.90501920176212 254.77701475730646 0 254.77701475730646 157.57782169003622 0 0 0 0 -199.10403482362199 115.60378290233348 0 115.60378290233348 272.52723795062047 0 0 0 0 -96.914958124451005 50.306763447788398 0 50.306763447788398 161.35513406427344 0 0 0 0 -136.07087826576935 113.78261809478863 0 113.78261809478863 270.90382477092135 0 0 0 0 -51.337234491360697 38.161169610555739 0 38.161169610555739 -25.728764675398338 0 0 0 0 -36.452152643321824 217.81292294447485 0 217.81292294447485 317.72108929674869 0 0 0 0 -996.86349049869136 193.22886771222818 0 193.22886771222818 527.09544139583159 0 0 0 0 -58.908129277071112 873.5458278660285 0 873.5458278660285 562.2746242666617 0 0 0 0 -59.004612816683505 44.892739673007299 0 44.892739673007299 -34.128424378917146 0 0 0 0 -267.91239160810255 73.873151280960883 0 73.873151280960883 214.9936007589713 0 0 0 0 -19.535692877942438 119.80522389284761 0 119.80522389284761 120.73398135050957 0 0 0 0 -126.59521415624931 368.91971850057416 0 368.91971850057416 -285.33234196705598 0 0 0 0 -118.30190107066346 145.55458903736326 0 145.55458903736326 125.21652988104324 0 0 0 0 -351.11895926013312 291.91631958734069 0 291.91631958734069 130.89045483791267 0 0 0 0 -746.20399056248698 588.82463636331522 0 588.82463636331522 -193.70643058256246 0 0 0 0 -53.180394914515446 54.65022000042481 0 54.65022000042481 -36.591091531440838 0 0 0 0 -7.0944100474143479 10.905931518252928 0 10.905931518252928 -12.605461586154746 0 0 0 0 4.0913607414576063 42.826142986777782 0 42.826142986777782 -61.241761751323224 0 0 0 0 -385.31816179749148 511.06166196464983 0 511.06166196464983 -346.19966697166092 0 0 0 0 -57.168987328288495 465.89251201490333 0 465.89251201490333 -376.63075145263792 0 0 0 0 34.015224991417199 320.20553173831286 0 320.20553173831286 -409.51937320470142 0 0 0 0 252.90961123245143 255.36169638981664 0 255.36169638981664 -400.86031133693905 0 0 0 0 -374.10561729209985 95.369753774071796 0 95.369753774071796 -327.80690104288806 0 0 0 0 286.74097860546681 775.63191372068468 0 775.63191372068468 -20.788171362393769 0 0 0 0 -159.95204553573058 386.98736780886065 0 386.98736780886065 -212.66186088116228 0 0 0 0 -71.647947187240788 110.20388085104787 0 110.20388085104787 -30.618845531862462 0 0 0 0 -93.989597754651186 99.863788111564645 0 99.863788111564645 35.599742849317408 0 0 0 0 -18.560981690614199 54.847862427155633 0 54.847862427155633 52.589555226200901 0 0 0 0 -59.937384028721567 54.665913958342571 0 54.665913958342571 87.122270931264211 0 0 0 0 -28.151798316569256 12.176032338006053 0 12.176032338006053 63.715607311169151 0 0 0 0 0.65374375278902441 5.1047985860176937 0 5.1047985860176937 0.17719598230684142 0 0 0 0 -43.052056072610917 45.950548937904045 0 45.950548937904045 73.732080292451428 0 0 0 0 -27.319639181281048 23.87670605151925 0 23.87670605151925 14.176867901172955 0 0 0 0 -47.207162602999233 49.096574241644703 0 49.096574241644703 40.072456751542632 0 0 0 0 -59.605902051078374 55.594908408267656 0 55.594908408267656 51.193473717688903 0 0 0 0 -42.685082898536564 53.895083994660581 0 53.895083994660581 35.660385211929679 0 0 0 0 -81.410590484588283 91.54994867843925 0 91.54994867843925 19.180062574421754 0 0 0 0 -47.670809856010237 55.929720549567719 0 55.929720549567719 7.6047787230345421 0 0 0 0 -25.912041878261334 78.271245715077384 0 78.271245715077384 21.507252649811562 0 0 0 0 -31.038832920423374 88.422489287208009 0 88.422489287208009 1.4904283430321357 0 0 0 0 45.951366075194528 85.992733286722796 0 85.992733286722796 -59.208972977750818 0 0 0 0 50.208757781010718 116.70824261831876 0 116.70824261831876 -6.8129523636089289 0 0 0 0 76.847429296936753 208.53020915191883 0 208.53020915191883 -100.19079856693133 0 0 0 0 207.94710919120371 65.693642332262243 0 65.693642332262243 -73.487681481205072 0 0 0 0 -78.794012011476298 88.162569085379801 0 88.162569085379801 11.100358664618398 0 0 0 0 -91.772741348540876 148.74431300851575 0 148.74431300851575 -11.442215627863334 0 0 0 0 -344.56576466079332 404.80768432079276 0 404.80768432079276 -124.25510324028528 0 0 0 0 -369.05348568312593 410.22856782210692 0 410.22856782210692 39.45338548329164 0 0 0 0 -197.65158613675112 183.1173027128516 0 183.1173027128516 -22.024304028665938 0 0 0 0 -126.85882082459125 121.81632265089684 0 121.81632265089684 38.500154063905939 0 0 0 0 -172.34882603092956 210.35532658572993 0 210.35532658572993 -9.9063201248645782 0 0 0 0 -74.447712482601901 166.91025362562505 0 166.91025362562505 71.720258047949756 0 0 0 0 -83.063480680886641 181.42116996552795 0 181.42116996552795 -23.543392996230978 0 0 0 0 -84.831598857411336 109.98757836474698 0 109.98757836474698 56.901987466742867 0 0 0 0 -103.56651753856897 151.17960056257289 0 151.17960056257289 38.500719007155567 0 0 0 0 -141.65130285957912 132.41207449302965 0 132.41207449302965 117.52940672521072 0 0 0 0 -256.87881266972067 220.11921878998692 0 220.11921878998692 106.2341116710304 0 0 0 0 -240.91415016606152 230.5441613514995 0 230.5441613514995 46.699483478285401 0 0 0 0 -278.11165046479505 204.15727881850762 0 204.15727881850762 161.18248037430749 0 0 0 0 -292.88027185248029 233.32903980326955 0 233.32903980326955 103.5822094805626 0 0 0 0 -319.55335539566249 154.90789867466083 0 154.90789867466083 115.85014043007095 0 0 0 0 -0.85530524042692946 1.8487742424005376 0 1.8487742424005376 -2.320637692556403 0 0 0 0 -722.18152045646139 102.5185466528892 0 102.5185466528892 236.47941049286601 0 0 0 0 -402.28225345210922 408.54832383079702 0 408.54832383079702 -85.273455360715161 0 0 0 0 -522.11591902195232 185.34967002889243 0 185.34967002889243 283.16278771594079 0 0 0 0 -523.38540155132068 195.761745046133 0 195.761745046133 231.11303838562162 0 0 0 0 -266.73878174748643 98.705858383145824 0 98.705858383145824 235.20530994262754 0 0 0 0 -5.2808455337267333 159.72637900184145 0 159.72637900184145 112.04475948832987 0 0 0 0 -250.9918963477985 275.49519159258853 0 275.49519159258853 157.27651582449471 0 0 0 0 -466.74047094974458 397.54445881501852 0 397.54445881501852 0.0060594319002120756 0 0 0 0 -875.26178548694202 -51.048802987115778 0 -51.048802987115778 200.07543870786321 0 0 0 0 -147.30861609092153 139.21621761561983 0 139.21621761561983 155.50387948110546 0 0 0 0 -632.0184885099477 -217.73027302599075 0 -217.73027302599075 55.248990438914916 0 0 0 0 -0.41517570752167554 0.54606604556673233 0 0.54606604556673233 -1.3472937479675409 0 0 0 0 -289.88143223294264 105.6352942288031 0 105.6352942288031 241.85591500619921 0 0 0 0 -182.79320293513683 271.23789632084663 0 271.23789632084663 168.12438626217318 0 0 0 0 -246.53970822614974 443.21347474418872 0 443.21347474418872 -0.79302197304787114 0 0 0 0 -0.11690452637598803 0.46332935714191592 0 0.46332935714191592 -1.6703498962031631 0 0 0 0 -1.2341668502634726 1.3204474502621224 0 1.3204474502621224 -2.6765696432445907 0 0 0 0 -679.01644173898239 -384.50080854051339 0 -384.50080854051339 108.99657000592379 0 0 0 0 39.630510427490378 -22.020714793634397 0 -22.020714793634397 -81.278952916196431 0 0 0 0 -58.249045646661216 170.79147506284062 0 170.79147506284062 0.52483582387503702 0 0 0 0 0.2268195064016254 2.4869308253109921 0 2.4869308253109921 -0.00019944244312127622 0 0 0 0 3.8035272078336675 2.7630620047984848 0 2.7630620047984848 -0.069256539289199281 0 0 0 0 0.88894240958310955 2.2108675931652471 0 2.2108675931652471 -1.4109077797718896 0 0 0 0 2.2869397063117303 -1.3343856377066032 0 -1.3343856377066032 -2.0723208418390868 0 0 0 0 -3.6818239844729099 4.1032180306049781 0 4.1032180306049781 -4.4116108376211116 0 0 0 0 -43.020513478935072 -38.90878123298171 0 -38.90878123298171 51.669837887624453 0 0 0 0 33.074579844168966 37.67031866616162 0 37.67031866616162 -23.5238124587122 0 0 0 0 0.36400533441370531 0.25654185742124014 0 0.25654185742124014 -2.7257611221805575 0 0 0 0 -153.3837271373722 165.7752650264938 0 165.7752650264938 -12.790851307858247 0 0 0 0 60.450945172970023 -3.8348017347889254 0 -3.8348017347889254 -16.451352311589289 0 0 0 0 1.8720948329126141 1.8618646125326563 0 1.8618646125326563 -1.2989107269798268 0 0 0 0 22.11859578401436 -14.864533327532627 0 -14.864533327532627 11.40093280475412 0 0 0 0 61.087319359194225 13.747067451862677 0 13.747067451862677 2.0294920401611307 0 0 0 0 55.125345902543813 31.859771467577957 0 31.859771467577957 0.30436756039125612 0 0 0 0 62.864333163495758 4.6513995853238157 0 4.6513995853238157 34.373232943165931 0 0 0 0 0.11979957935727725 20.947109550237656 0 20.947109550237656 11.490077351219952 0 0 0 0 -5.3698981088782602 9.4553156470210524 0 9.4553156470210524 48.2417209598716 0 0 0 0 554.21107397395826 449.96583898157405 0 449.96583898157405 108.04196332662832 0 0 0 0 132.38513748551122 93.458675486734137 0 93.458675486734137 45.203650920448126 0 0 0 0 -32.32942952954545 29.557661815320898 0 29.557661815320898 42.002333720491151 0 0 0 0 6.0514900555644999 52.622582320487709 0 52.622582320487709 26.750593076041696 0 0 0 0 -47.438124496471573 262.08834063058021 0 262.08834063058021 49.602270324918209 0 0 0 0 -218.64760790969194 151.52379467449646 0 151.52379467449646 81.143511253918405 0 0 0 0 1.1363895024877602 1.3388123533424832 0 1.3388123533424832 4.2875286912932893 0 0 0 0 1568.0496932951592 111.76844091931889 0 111.76844091931889 -256.9805423465732 0 0 0 0 -183.02000097272321 15.152971491013886 0 15.152971491013886 26.204220929765143 0 0 0 0 -47.086384373900728 18.18939755581232 0 18.18939755581232 -18.484085214644438 0 0 0 0 -126.58319437389218 72.989482788543683 0 72.989482788543683 23.794077318394557 0 0 0 0 -140.79061417359844 -18.928198702349619 0 -18.928198702349619 -20.078589019249193 0 0 0 0 -33.453759773985439 9.3244042896840256 0 9.3244042896840256 -79.54136117361486 0 0 0 0 1395.3354973696478 157.945095445888 0 157.945095445888 271.23332058408414 0 0 0 0 1034.521069128059 -344.95244949078187 0 -344.95244949078187 -57.993106667796383 0 0 0 0 30.279422791447359 25.647374681582733 0 25.647374681582733 -13.027407523506554 0 0 0 0 35.33351753320585 40.004583772031765 0 40.004583772031765 0.079982006565842312 0 0 0 0 13.796757667736529 7.2173705167588196 0 7.2173705167588196 -43.218622171974857 0 0 0 0 -46.337845527419631 23.805619122867938 0 23.805619122867938 20.038218822563067 0 0 0 0 -27.17268723538109 33.51430752473243 0 33.51430752473243 -22.614828325349663 0 0 0 0 7.8193062371401538 -10.222765812715807 0 -10.222765812715807 11.911670889137895 0 0 0 0 -56.105914689104793 30.332234140951186 0 30.332234140951186 -5.4713858610703028 0 0 0 0 30.108964655525398 17.187992265565981 0 17.187992265565981 -41.313588545977836 0 0 0 0 2.3937797830152343 4.2814786679666703 0 4.2814786679666703 9.1742530676506817 0 0 0 0 -67.761321532768306 52.32765603873122 0 52.32765603873122 -22.462533996600541 0 0 0 0 308.15909300112435 10.932722532113985 0 10.932722532113985 140.89328901183035 0 0 0 0 503.55643822061029 -280.01540164738253 0 -280.01540164738253 174.66776666973601 0 0 0 0 308.83649952449196 -48.727746338016004 0 -48.727746338016004 -74.353658002060911 0 0 0 0 564.89740458108645 56.184728796186391 0 56.184728796186391 -55.939952467291732 0 0 0 0 -12.698467759564664 37.035339303140063 0 37.035339303140063 10.157719731326097 0 0 0 0 -2.0897607568230612 3.4179445130158399 0 3.4179445130158399 -4.9477573565114881 0 0 0 0 -13.428343359606515 9.5603295958535455 0 9.5603295958535455 21.938965929686674 0 0 0 0 58.304150263501356 107.6225574024138 0 107.6225574024138 43.585495799779892 0 0 0 0 20.644428539452406 18.986843466793289 0 18.986843466793289 -28.874343438146752 0 0 0 0 43.24194117144657 42.71018540444129 0 42.71018540444129 18.803255598817486 0 0 0 0 -179.69670046661599 2.6002504911048163 0 2.6002504911048163 76.820758013695013 0 0 0 0 47.501859378490735 38.321603251948545 0 38.321603251948545 -35.33168614270835 0 0 0 0 -4.1895045623561238 4.7477982874028442 0 4.7477982874028442 -5.3137696011454238 0 0 0 0 -0.0070931536458491706 1.2365022651333959 0 1.2365022651333959 -4.5153046471887706 0 0 0 0 -43.791782084899069 -0.84247311396029545 0 -0.84247311396029545 33.738895062924712 0 0 0 0 9.0025176695477782 5.8130386693172937 0 5.8130386693172937 1.5242062299367518 0 0 0 0 0.043229487729277594 4.6624307137410028 0 4.6624307137410028 0.81877638409821074 0 0 0 0 17.332328732980386 12.952503415097453 0 12.952503415097453 -26.945795752093545 0 0 0 0 -29.538107498105092 17.536507700351649 0 17.536507700351649 22.017928197114088 0 0 0 0 29.150870823930745 52.313661236679764 0 52.313661236679764 -252.05451900885964 0 0 0 0 22.690407680191129 19.582075554579205 0 19.582075554579205 0.029699282895307988 0 0 0 0 26.409143096847401 -5.5947321828789427 0 -5.5947321828789427 -12.566994017834077 0 0 0 0 8.7442603291601699 9.3308201328618452 0 9.3308201328618452 14.403715715379803 0 0 0 0 9.1169266598966487 4.5675937414519012 0 4.5675937414519012 -3.169146396452561 0 0 0 0 12.409067413987941 7.8255704813127522 0 7.8255704813127522 0.0015910045694909059 0 0 0 0 5.840051131654036 5.4240666629339103 0 5.4240666629339103 -3.1234662862175355 0 0 0 0 16.069287385415919 3.1713436418722267 0 3.1713436418722267 -10.016030408303777 0 0 0 0 3.7020128835554615 4.7744718043393277 0 4.7744718043393277 1.1221746189486481 0 0 0 0 3.1076026116497815 5.7641690251039108 0 5.7641690251039108 -3.9694304942731833 0 0 0 0 5.8511235342736185 6.268374583237204 0 6.268374583237204 0.59194380018668546 0 0 0 0 7.3388784542188485 0.43287951181664752 0 0.43287951181664752 -2.5346421851767218 0 0 0 0 0.5114509646039469 -1.4145699372378857 0 -1.4145699372378857 -2.3149197401500032 0 0 0 0 -436.67039726528492 74.226801332837567 0 74.226801332837567 325.0525957288919 0 0 0 0 20.815319892593834 6.283765180480259 0 6.283765180480259 -8.113807977468241 0 0 0 0 -100.90001178789316 284.45532623711188 0 284.45532623711188 221.12317582362448 0 0 0 0 484.39600830601557 441.27173236834642 0 441.27173236834642 170.0987899284155 0 0 0 0 846.60769008803618 264.79315828029939 0 264.79315828029939 25.825743371256976 0 0 0 0 949.66097888219156 119.61689747466335 0 119.61689747466335 -0.35952736475155689 0 0 0 0 1504.2058611813504 351.07235667491659 0 351.07235667491659 -254.65120250664768 0 0 0 0 974.09236396023698 4.2255386097895098 0 4.2255386097895098 -280.2977826501301 0 0 0 0 885.56703653620571 400.8272047144419 0 400.8272047144419 154.11694713294537 0 0 0 0 3.722797378302424 1.7974341466340604 0 1.7974341466340604 -1.5118069747433562 0 0 0 0 744.90626144033558 -169.01845898538886 0 -169.01845898538886 -378.41092387765821 0 0 0 0 1394.972100960651 172.86330999752681 0 172.86330999752681 -323.55576124529034 0 0 0 0 9.1839040449794993 -204.69159862723609 0 -204.69159862723609 -82.56856768365833 0 0 0 0 18.062807379283186 -18.829948775077355 0 -18.829948775077355 26.143145588866901 0 0 0 0 746.69044483763355 256.89708153285028 0 256.89708153285028 -40.202059486648068 0 0 0 0 513.76151268176181 341.59620093019475 0 341.59620093019475 226.51686483873345 0 0 0 0 1187.8834530485856 97.137303646788496 0 97.137303646788496 -13.311888897704193 0 0 0 0 642.53717179773867 91.951895582496945 0 91.951895582496945 151.11575358503615 0 0 0 0 0.17841366469474451 2.2396643136122236 0 2.2396643136122236 1.0321841127194489 0 0 0 0 619.49245506347506 -17.881868277741887 0 -17.881868277741887 18.946260751486989 0 0 0 0 292.1994101307755 220.48631470921828 0 220.48631470921828 -14.606574325196561 0 0 0 0 428.15673423711632 139.5080169368739 0 139.5080169368739 -48.249934254476102 0 0 0 0 96.477879350608418 244.61170535241399 0 244.61170535241399 30.547702102961921 0 0 0 0 287.32350761394264 203.42035818809381 0 203.42035818809381 -19.354376955219777 0 0 0 0 0.87306015827741135 -1.1169470236264303 0 -1.1169470236264303 0.78568718099268153 0 0 0 0 -144.44884743613238 108.46171330658126 0 108.46171330658126 -34.042811233535758 0 0 0 0 -10.384392899144586 63.943411862564972 0 63.943411862564972 -113.07515012014483 0 0 0 0 21.785669822496857 97.697169164079241 0 97.697169164079241 -123.48760716393735 0 0 0 0 54.080724821771582 129.95702864977648 0 129.95702864977648 -98.855381630390184 0 0 0 0 35.474190954719234 108.34161763419615 0 108.34161763419615 -27.570520469525945 0 0 0 0 37.727634760762157 71.85275578765868 0 71.85275578765868 -82.444871174961008 0 0 0 0 79.379568854768877 125.384777743413 0 125.384777743413 -59.152600901517872 0 0 0 0 50.692192584847362 85.945995699446939 0 85.945995699446939 -138.81131879023451 0 0 0 0 5.6301061160374957 59.794036978761142 0 59.794036978761142 -133.40061603857612 0 0 0 0 22.138321209933565 25.672140054246483 0 25.672140054246483 -214.5241618607397 0 0 0 0 122.15646434598239 178.25963841431803 0 178.25963841431803 38.74211042663228 0 0 0 0 137.51091836605337 157.80661678936303 0 157.80661678936303 -6.09304858269752 0 0 0 0 113.65261191138052 115.32760845498888 0 115.32760845498888 -56.82893483612861 0 0 0 0 48.24015560452608 79.85515197793211 0 79.85515197793211 -62.438891219615471 0 0 0 0 72.887487124222389 116.51270348784601 0 116.51270348784601 -36.526346405778895 0 0 0 0 86.695548854476328 156.11570338582169 0 156.11570338582169 6.0278435282380087 0 0 0 0 150.43346109269987 167.19873264162743 0 167.19873264162743 2.1333143525844207 0 0 0 0 97.098860523067287 187.95014911353883 0 187.95014911353883 2.8303959366021445 0 0 0 0 135.80842314373149 209.75467914358887 0 209.75467914358887 26.234176417998242 0 0 0 0 169.19843971912724 172.1628070664301 0 172.1628070664301 65.995652198500466 0 0 0 0 189.01036477148591 201.04523757730931 0 201.04523757730931 10.362894096820582 0 0 0 0 169.68035914227949 228.27886315592787 0 228.27886315592787 -9.4632969756639795 0 0 0 0 255.24278987554499 178.54501596722548 0 178.54501596722548 8.3345918706254452 0 0 0 0 230.75639247015624 137.41998571236036 0 137.41998571236036 -48.262311788406805 0 0 0 0 199.24442901532166 155.9522744994174 0 155.9522744994174 97.544404319378373 0 0 0 0 -17.248881657479835 12.409592014234335 0 12.409592014234335 -4.7414032903614327 0 0 0 0 188.27787581829944 217.50006804344594 0 217.50006804344594 94.857202868719469 0 0 0 0 155.41422190482444 375.97850822651526 0 375.97850822651526 -270.14036840966037 0 0 0 0 42.475555555843016 -20.687202406285905 0 -20.687202406285905 -189.81148362877138 0 0 0 0 172.21258046068306 173.32107760105373 0 173.32107760105373 144.77676163167052 0 0 0 0 142.97300055507912 218.99801728659804 0 218.99801728659804 80.970520779334038 0 0 0 0 100.83175705552276 199.76856237359971 0 199.76856237359971 152.34377629843402 0 0 0 0 138.84405928360565 239.70604980842035 0 239.70604980842035 128.8289508313901 0 0 0 0 138.84087286885187 236.58687253780954 0 236.58687253780954 140.01601286978257 0 0 0 0 174.94613301697609 202.67026915630413 0 202.67026915630413 26.93353939622466 0 0 0 0 135.73056615202222 203.33218413133181 0 203.33218413133181 111.22893059169292 0 0 0 0 38.286141127037581 112.0441760589456 0 112.0441760589456 15.089009868934227 0 0 0 0 34.049165896028171 111.47880171777797 0 111.47880171777797 69.266025479184464 0 0 0 0 142.27934846689658 73.967963914532447 0 73.967963914532447 -6.9197748431906803 0 0 0 0 106.93102695603051 78.255511424147699 0 78.255511424147699 -7.1038290417855023 0 0 0 0 -1.9363784926132102 5.1714784489230965 0 5.1714784489230965 -5.5917871953835458 0 0 0 0 96.365420445797042 38.343191868305439 0 38.343191868305439 3.1533486597909359 0 0 0 0 130.0368274198425 34.752898015637584 0 34.752898015637584 3.2735246580996318 0 0 0 0 258.54873578360639 93.007588264008518 0 93.007588264008518 19.425161630100774 0 0 0 0 -3.5169273102152925 6.6874684960251347 0 6.6874684960251347 9.806697404803117 0 0 0 0 154.3844639155509 60.95064131158324 0 60.95064131158324 16.341932564595481 0 0 0 0 -2.2739588780683375 -0.49584286640120467 0 -0.49584286640120467 -0.64696933110965915 0 0 0 0 -13.142307406432794 12.049953283937469 0 12.049953283937469 -3.5908407377530125 0 0 0 0 176.71760869533864 110.79531690752992 0 110.79531690752992 15.633001762238564 0 0 0 0 -37.463661779593167 39.117767959367484 0 39.117767959367484 -14.802503852610243 0 0 0 0 -4.0266941953618787 -0.0097487772129980499 0 -0.0097487772129980499 1.2413084195339366 0 0 0 0 176.15819491524508 75.007051154236251 0 75.007051154236251 34.407475426276505 0 0 0 0 -20.960746491175314 7.520409692569956 0 7.520409692569956 12.156366074807011 0 0 0 0 86.239366022303031 107.89882046607909 0 107.89882046607909 215.01691421182477 0 0 0 0 91.474868109192812 165.29102447766491 0 165.29102447766491 92.027869515168277 0 0 0 0 21.962665199288381 79.392458372331021 0 79.392458372331021 73.207905215851497 0 0 0 0 -31.983763615578027 129.59905568716931 0 129.59905568716931 136.26779336262553 0 0 0 0 -47.964218097208686 13.139582715768483 0 13.139582715768483 10.78193548971467 0 0 0 0 48.851379455958295 164.75545633919114 0 164.75545633919114 110.40293448667217 0 0 0 0 52.915873855836253 114.46633665099216 0 114.46633665099216 -13.412317653637729 0 0 0 0 64.919562807603143 249.40463596077461 0 249.40463596077461 74.121700528354268 0 0 0 0 50.573822709447995 173.2128405518597 0 173.2128405518597 107.08682868815231 0 0 0 0 165.49019199422875 191.96368713877746 0 191.96368713877746 92.40822619242681 0 0 0 0 64.11113535774075 95.491908257732575 0 95.491908257732575 34.370812852066592 0 0 0 0 145.73626211661289 36.952211973250087 0 36.952211973250087 159.17619177192682 0 0 0 0 192.13156515146258 134.68872726323843 0 134.68872726323843 63.492838399339234 0 0 0 0 -19.106297167593993 57.538511970757099 0 57.538511970757099 296.47737646384485 0 0 0 0 143.69843545196022 38.253471260303741 0 38.253471260303741 -41.165788139260258 0 0 0 0 -0.43968442781301498 1.5346114860438433 0 1.5346114860438433 2.6248385465723914 0 0 0 0 55.990792163491193 38.002998704344918 0 38.002998704344918 -29.566271100396989 0 0 0 0 -17.490762828478751 3.5631689406218356 0 3.5631689406218356 12.162390218567452 0 0 0 0 48.978774796491308 88.784342744620517 0 88.784342744620517 52.658773865361582 0 0 0 0 1.2328440586707075 26.038807678378362 0 26.038807678378362 -4.3675277528818697 0 0 0 0 26.440693159659702 -10.291863327131068 0 -10.291863327131068 -52.423024737538071 0 0 0 0 -1.3442836750632701 22.064533080481993 0 22.064533080481993 -23.090038406359326 0 0 0 0 2.2496236927854625 39.731870934781909 0 39.731870934781909 -30.759318289914518 0 0 0 0 7.7440838881043419 20.904682021002372 0 20.904682021002372 -31.238195917940175 0 0 0 0 1.3894330563060464 31.410394251008256 0 31.410394251008256 -24.397954815780395 0 0 0 0 5.1442326427812031 15.069297583477464 0 15.069297583477464 -5.2946775766825738 0 0 0 0 4.2678678928487699 22.574679830668174 0 22.574679830668174 -26.623230846860679 0 0 0 0 5.7089852828568635 16.29932042133693 0 16.29932042133693 -6.231253073883579 0 0 0 0 -4.2105976482515644 30.952057723547114 0 30.952057723547114 -20.004440260847332 0 0 0 0 -8.622139708409577 28.816966050617339 0 28.816966050617339 -20.622395098944253 0 0 0 0 -1.1668186046692881 35.353051403209975 0 35.353051403209975 -39.271510780330573 0 0 0 0 -9.7331989843469273 38.572061474420479 0 38.572061474420479 -2.6084170365229511 0 0 0 0 -6.4110988324742451 22.682455264239252 0 22.682455264239252 -6.6754791961284354 0 0 0 0 9.2804459937606225 19.311454947874154 0 19.311454947874154 -16.407668423926225 0 0 0 0 -8.1503637510955578 15.13657052441873 0 15.13657052441873 -18.307754476865682 0 0 0 0 6.7977161334953138 4.7285844075302919 0 4.7285844075302919 1.8474978016421346 0 0 0 0 41.885822765899775 11.630396913119512 0 11.630396913119512 -75.397863190373755 0 0 0 0 38.597690923013488 23.308711243162179 0 23.308711243162179 -50.284168065336416 0 0 0 0 -46.08998404383965 71.347247863610392 0 71.347247863610392 -52.964122192293871 0 0 0 0 23.925946340698157 17.013407822304927 0 17.013407822304927 -14.237968103707601 0 0 0 0 2.2238967600044521 11.110570295933698 0 11.110570295933698 -5.3481102027677139 0 0 0 0 -14.668760330121586 37.185355491819791 0 37.185355491819791 -26.099847403027525 0 0 0 0 -12.274166559000605 28.692010246948485 0 28.692010246948485 -13.636546744663065 0 0 0 0 -9.3528342913782581 38.792033984813315 0 38.792033984813315 -24.154582284842036 0 0 0 0 -8.5893977401192423 24.852643679565233 0 24.852643679565233 -19.78460436522073 0 0 0 0 -14.156957496080951 28.831577600196653 0 28.831577600196653 -21.008892136221817 0 0 0 0 -18.284289049816834 73.161049154674402 0 73.161049154674402 -0.094506173268200655 0 0 0 0 22.941944493701158 66.79491893031809 0 66.79491893031809 2.7092352274537461 0 0 0 0 28.651255751979079 18.254685212457844 0 18.254685212457844 1.5396586755814496 0 0 0 0 -17.99378096077271 56.102295932301786 0 56.102295932301786 1.2109379731991794 0 0 0 0 -9.2587316438912239 77.287792927636474 0 77.287792927636474 9.6867054800968617 0 0 0 0 8.1603998925589671 8.2047103684577536 0 8.2047103684577536 -11.326773432555171 0 0 0 0 15.061967369261357 16.294007038581285 0 16.294007038581285 3.7489922873764669 0 0 0 0 -46.451197530943318 3.2444664519189246 0 3.2444664519189246 -53.719317063441849 0 0 0 0 18.166706294167955 12.168667460538813 0 12.168667460538813 -3.452193182844141 0 0 0 0 54.486531759343507 71.278890781519294 0 71.278890781519294 4.2903532362397527 0 0 0 0 16.391587629695096 67.099387337322696 0 67.099387337322696 -79.448266592400614 0 0 0 0 21.603717546419148 75.503781802706726 0 75.503781802706726 52.808157044870313 0 0 0 0 96.624449238931675 130.7007937300732 0 130.7007937300732 46.344322203629417 0 0 0 0 15.953017151572112 201.61091897370352 0 201.61091897370352 243.61866591930448 0 0 0 0 35.756494171217582 13.584876438140782 0 13.584876438140782 203.38952890588553 0 0 0 0 -89.06016238326265 494.8169827657548 0 494.8169827657548 473.90168610258115 0 0 0 0 -116.5646113496 95.852825365152967 0 95.852825365152967 693.0221496662416 0 0 0 0 55.954538032512573 207.23878495936606 0 207.23878495936606 239.87883656966733 0 0 0 0 -24.396855707635563 15.493592400015899 0 15.493592400015899 -6.5838779639991003 0 0 0 0 148.42955756821038 -629.77092964041003 0 -629.77092964041003 -26.236975254199933 0 0 0 0 78.358656198692188 -602.89219961786148 0 -602.89219961786148 423.57602999359369 0 0 0 0 58.923339408039283 507.84785519084107 0 507.84785519084107 220.07903686496138 0 0 0 0 161.72402427998713 295.73231813017628 0 295.73231813017628 -623.31840288528474 0 0 0 0 694.02872334027779 90.278455350795412 0 90.278455350795412 402.27075088487481 0 0 0 0 375.95870629150068 -193.43811062935129 0 -193.43811062935129 448.66179582400946 0 0 0 0 200.38330293116087 884.14513985847589 0 884.14513985847589 595.000345273329 0 0 0 0 -430.85022057506285 445.97223965686862 0 445.97223965686862 471.50985294530983 0 0 0 0 -833.70924370767898 -7.7558996188163292 0 -7.7558996188163292 41.676359876728384 0 0 0 0 614.54791486191607 445.30313853474217 0 445.30313853474217 93.463756482553435 0 0 0 0 758.8651116567321 -495.666360826453 0 -495.666360826453 -71.035473042429658 0 0 0 0 926.54950027905215 667.78739297496941 0 667.78739297496941 5.6347182904428337 0 0 0 0 7.5971157723597642 3.6679530988728288 0 3.6679530988728288 1.3245633323133461 0 0 0 0 6.5531057063335751 3.1729021901172416 0 3.1729021901172416 3.2540736583310803 0 0 0 0 -63.15227841140586 96.875089908047812 0 96.875089908047812 -125.65621131869557 0 0 0 0 76.114616548011327 66.631867971809697 0 66.631867971809697 -155.9209717242702 0 0 0 0 555.01474844204381 397.88910144968941 0 397.88910144968941 20.86426099613891 0 0 0 0 40.804894667586268 222.49211668701719 0 222.49211668701719 403.16896272120357 0 0 0 0 72.557787042765995 144.96584579926275 0 144.96584579926275 109.68214077814628 0 0 0 0 104.84743930847253 218.49311361131186 0 218.49311361131186 194.23286194181128 0 0 0 0 -25.558695515314007 33.843540357815783 0 33.843540357815783 -12.735892363747723 0 0 0 0 419.78395927338124 -46.489576575893807 0 -46.489576575893807 -41.765731903826236 0 0 0 0 -263.91792733899365 975.25604932842543 0 975.25604932842543 963.0665707741573 0 0 0 0 -978.6204611298981 951.68996943118691 0 951.68996943118691 419.99642618537473 0 0 0 0 131.97034229652661 57.907858248945558 0 57.907858248945558 44.59695868367271 0 0 0 0 1.3276968567254377 3.4378841818039945 0 3.4378841818039945 -0.19501176007395316 0 0 0 0 -414.9732100564645 980.08450734332268 0 980.08450734332268 -104.73115398362279 0 0 0 0 -73.579471394870779 1037.8894728414598 0 1037.8894728414598 -98.483437146991491 0 0 0 0 42.147775550421102 134.02658080431047 0 134.02658080431047 65.108212545426795 0 0 0 0 23.019468922535452 62.624473051524546 0 62.624473051524546 148.00379205445643 0 0 0 0 71.508710462574527 88.75888262929584 0 88.75888262929584 -16.298748541626992 0 0 0 0 74.766069128634058 52.252493419794419 0 52.252493419794419 8.9245558598448156 0 0 0 0 133.25669218816165 212.2869287979338 0 212.2869287979338 -73.22221460032597 0 0 0 0 89.720235327278488 -21.471147121643298 0 -21.471147121643298 57.370925324212294 0 0 0 0 44.728442394667582 75.927703989137171 0 75.927703989137171 26.583705464407103 0 0 0 0 46.364393607263082 82.771941044442428 0 82.771941044442428 6.4517834805665188 0 0 0 0 73.39573554690628 102.94336169695589 0 102.94336169695589 -4.9039233506264281 0 0 0 0 251.26197546878871 61.992810112963525 0 61.992810112963525 -143.00235723657534 0 0 0 0 231.61415181784105 -46.558405765601492 0 -46.558405765601492 -19.91377219577771 0 0 0 0 -5.987348378446768 22.747381362853048 0 22.747381362853048 -62.011172881728271 0 0 0 0 90.684605485044813 -58.504372750074253 0 -58.504372750074253 200.64279868398808 0 0 0 0 -253.72784388278615 346.30352080739976 0 346.30352080739976 -158.28103405529691 0 0 0 0 18.094829071318379 10.642804413413788 0 10.642804413413788 -7.1802296818166269 0 0 0 0 153.92092118519122 29.587049560588639 0 29.587049560588639 -113.26978229152883 0 0 0 0 247.2036003359699 22.58596667432721 0 22.58596667432721 -525.29456844761444 0 0 0 0 68.027304697392111 45.571969440436533 0 45.571969440436533 27.546668956510146 0 0 0 0 9.67298327376011 75.972702780840336 0 75.972702780840336 -105.88087307586102 0 0 0 0 -35.063246278052247 225.05125420572585 0 225.05125420572585 -200.80779260525014 0 0 0 0 -15.286265850130057 9.3712722213416839 0 9.3712722213416839 15.242118411753154 0 0 0 0 61.323941160666436 96.8295574925869 0 96.8295574925869 -30.360079316305928 0 0 0 0 32.438988590416557 116.26779421127867 0 116.26779421127867 -57.486198335333029 0 0 0 0 172.92490972399173 91.748630794827477 0 91.748630794827477 -94.14851816011651 0 0 0 0 165.49108832684578 79.061987085515284 0 79.061987085515284 19.141911680959311 0 0 0 0 74.213745954461046 72.991212996250397 0 72.991212996250397 -18.760225560705294 0 0 0 0 27.353043529997194 119.09612131991526 0 119.09612131991526 -30.231297596159436 0 0 0 0 48.701142416168295 81.972486110833415 0 81.972486110833415 19.841977775020496 0 0 0 0 37.892384183465467 50.915528733131524 0 50.915528733131524 35.499053889572309 0 0 0 0 12.701068444841439 74.840248932021495 0 74.840248932021495 41.472097697253048 0 0 0 0 -25.232981663917599 88.937135996755387 0 88.937135996755387 27.566285252706166 0 0 0 0 17.721642745007557 56.559858419564989 0 56.559858419564989 31.332739764955477 0 0 0 0 30.467311326709662 45.710421306645728 0 45.710421306645728 23.713036210305347 0 0 0 0 35.413058219743107 40.863115738946362 0 40.863115738946362 5.8568832271375868 0 0 0 0 67.553325700257119 49.104252778803129 0 49.104252778803129 6.4315049096694565 0 0 0 0 53.895921820287185 113.96558216136327 0 113.96558216136327 -2.8048609453107929 0 0 0 0 31.921805970807327 96.276635071422788 0 96.276635071422788 16.049864634640471 0 0 0 0 38.263610027312097 84.195122388759046 0 84.195122388759046 27.905980636689492 0 0 0 0 80.173175851352426 126.48923278279835 0 126.48923278279835 2.0405189248704119 0 0 0 0 18.103824845062491 140.20708552450628 0 140.20708552450628 6.6013072907371679 0 0 0 0 77.941987186659389 150.23563357138482 0 150.23563357138482 -2.2042651182928239 0 0 0 0 21.176035206824736 111.72343123083942 0 111.72343123083942 25.128535963893228 0 0 0 0 -85.231852673881804 143.49866769012078 0 143.49866769012078 18.767339772970445 0 0 0 0 3.510124636173714 110.92866066504212 0 110.92866066504212 -89.142191242543049 0 0 0 0 3.1202361475807265 110.59609236783217 0 110.59609236783217 54.722381857056462 0 0 0 0 33.392455067798437 119.07767861751563 0 119.07767861751563 51.680605388788535 0 0 0 0 -83.074382621820405 51.74118060382898 0 51.74118060382898 34.464767895506156 0 0 0 0 7.5089343493392136 8.2955702831297771 0 8.2955702831297771 3.5168679596637276 0 0 0 0 19.201914694788844 35.991117367493132 0 35.991117367493132 4.5930706125359961 0 0 0 0 56.552084284159719 27.43771442754587 0 27.43771442754587 -39.803307740949094 0 0 0 0 46.725661720007338 56.388284433232911 0 56.388284433232911 -122.6681624136836 0 0 0 0 27.853863551308677 63.20246201817281 0 63.20246201817281 39.300219739438035 0 0 0 0 28.086292029760443 62.796443028757494 0 62.796443028757494 22.184726116636739 0 0 0 0 22.78459022439052 12.766012516949075 0 12.766012516949075 -35.612788167964666 0 0 0 0 41.725163422277546 38.403864358042483 0 38.403864358042483 -29.108866684582608 0 0 0 0 30.548080198612297 59.24382140947273 0 59.24382140947273 43.258548069994504 0 0 0 0 43.151412747345603 48.151489297430089 0 48.151489297430089 47.366711008624407 0 0 0 0 23.264222200392396 40.525803232194448 0 40.525803232194448 28.359824737628514 0 0 0 0 34.505440305394586 22.617728544453712 0 22.617728544453712 -15.934670519483916 0 0 0 0 66.232897140449495 37.030485054179735 0 37.030485054179735 11.201299029131405 0 0 0 0 44.815754901937908 54.478285847668303 0 54.478285847668303 15.711233361827908 0 0 0 0 69.521260534118483 28.275468530995568 0 28.275468530995568 24.313719268131536 0 0 0 0 33.849783157449565 62.557479414957925 0 62.557479414957925 25.889711874653585 0 0 0 0 64.346221295891155 33.160317900197697 0 33.160317900197697 37.933488946597208 0 0 0 0 15.496369320014391 15.108274108349221 0 15.108274108349221 -13.698537817140704 0 0 0 0 32.459158458685124 54.374549363034021 0 54.374549363034021 40.950884923337071 0 0 0 0 88.477242897261021 89.563813926470175 0 89.563813926470175 32.840884614943207 0 0 0 0 4.3286780714850615 4.6963830035858791 0 4.6963830035858791 5.3450911887310326 0 0 0 0 33.838688016490778 31.667836788888962 0 31.667836788888962 26.251378915250825 0 0 0 0 -10.616272865874635 33.973719710276782 0 33.973719710276782 28.423594930187392 0 0 0 0 7.5937028612594375 4.1433721476338299 0 4.1433721476338299 -7.3053035199694136 0 0 0 0 36.416208295294723 20.29028697734249 0 20.29028697734249 -10.867754194046952 0 0 0 0 49.949215647226083 6.472901725795964 0 6.472901725795964 -1.9755470202871948 0 0 0 0 56.283233547794225 23.641417024817201 0 23.641417024817201 -48.8079102350639 0 0 0 0 48.756937386860955 58.823583277116995 0 58.823583277116995 -28.049014291624189 0 0 0 0 41.148645200410101 40.195036790668382 0 40.195036790668382 18.205257856083335 0 0 0 0 58.670720091395197 91.579149080018396 0 91.579149080018396 76.916682365081215 0 0 0 0 33.149643266470235 37.309920379828505 0 37.309920379828505 23.510809985549542 0 0 0 0 34.208021027546422 40.954222508214315 0 40.954222508214315 22.655238597301633 0 0 0 0 34.363004538194218 115.30562022838808 0 115.30562022838808 70.892657901116763 0 0 0 0 -9.0498185452793223 10.972135146406984 0 10.972135146406984 10.397701352316219 0 0 0 0 7.6142152595688231 62.44532153762475 0 62.44532153762475 6.4441621587757254 0 0 0 0 7.580264132211596 61.9290890270604 0 61.9290890270604 4.9719200144536444 0 0 0 0 1.9347191726519668 77.176006339075684 0 77.176006339075684 77.623695395206596 0 0 0 0 23.298212753621556 51.324445622532949 0 51.324445622532949 16.901072264292452 0 0 0 0 15.135387362814072 98.89265382099984 0 98.89265382099984 96.271402982849395 0 0 0 0 326.89966174638448 30.292177780138445 0 30.292177780138445 -256.40091623832632 0 0 0 0 2.9004031258074647 9.9359074442419626 0 9.9359074442419626 3.101925064835541 0 0 0 0 -192.54663870686727 127.25160171215612 0 127.25160171215612 59.755221029205131 0 0 0 0 16.519165096500728 75.958577519042592 0 75.958577519042592 1.2964523009432014 0 0 0 0 -8.4610715777598671 48.979166459408589 0 48.979166459408589 -0.6224454037292162 0 0 0 0 -7.8627825471998918 48.203026925037008 0 48.203026925037008 22.246694803626006 0 0 0 0 30.128134749649114 41.650007880197833 0 41.650007880197833 16.323919811654008 0 0 0 0 -57.0886471826052 82.633464406157145 0 82.633464406157145 47.855689838906983 0 0 0 0 -74.402917492203414 17.506644362023508 0 17.506644362023508 35.326095373209682 0 0 0 0 -2.2853371337649691 4.0132078682766235 0 4.0132078682766235 -0.36655098262752972 0 0 0 0 -17.765653813679819 14.634808727743803 0 14.634808727743803 -5.1838709694566205 0 0 0 0 -123.17382481755953 65.753386507518371 0 65.753386507518371 9.256162492063595 0 0 0 0 -86.768094204191584 46.008640322077554 0 46.008640322077554 -5.6767695233065751 0 0 0 0 -3.4751514753875945 0.17692304624741695 0 0.17692304624741695 3.937109419459432 0 0 0 0 154.56919662061227 156.92318517406966 0 156.92318517406966 1.811332186582149 0 0 0 0 211.83203760950892 37.312041962544754 0 37.312041962544754 -2.7961979843821609 0 0 0 0 -13.652606771204773 27.900863980506983 0 27.900863980506983 6.6752572384029918 0 0 0 0 -11.618774663547658 13.50380836384862 0 13.50380836384862 -11.882967570279533 0 0 0 0 71.767869231656732 55.764421137981117 0 55.764421137981117 -5.1819413146877196 0 0 0 0 -12.250825226845787 19.637696378695026 0 19.637696378695026 -15.610433158345813 0 0 0 0 -8.2466929621768941 23.801105900041875 0 23.801105900041875 -2.7452951746672625 0 0 0 0 -77.56121855380843 40.773550835176138 0 40.773550835176138 -5.4677042894518308 0 0 0 0 -21.852489183570171 15.188430873857087 0 15.188430873857087 7.112900919679106 0 0 0 0 7.041813280244666 22.057156653300666 0 22.057156653300666 2.3386233284184641 0 0 0 0 -59.175554293209188 78.459071972762104 0 78.459071972762104 -36.558481194850174 0 0 0 0 -11.779852317642508 51.276287083212083 0 51.276287083212083 -23.807493771528243 0 0 0 0 -18.875219236501451 51.61430105642107 0 51.61430105642107 -9.7722638434343594 0 0 0 0 14.985024712380696 25.243545012336632 0 25.243545012336632 -12.854066862399009 0 0 0 0 -37.569980140666303 47.203816074237693 0 47.203816074237693 -20.106972499197582 0 0 0 0 -0.51105729107803199 55.462264544195932 0 55.462264544195932 -14.795035755858407 0 0 0 0 45.501320777351793 50.446325689583318 0 50.446325689583318 -33.1649960650102 0 0 0 0 48.691282640051213 38.609984895520029 0 38.609984895520029 -64.274207770940848 0 0 0 0 40.052838910021819 49.284705439022218 0 49.284705439022218 -22.103977310696791 0 0 0 0 53.552184536742061 57.307493820811942 0 57.307493820811942 -5.9454055799724301 0 0 0 0 59.553874387856922 48.357729208455567 0 48.357729208455567 -30.777798131224699 0 0 0 0 19.89909779478694 80.99029972536664 0 80.99029972536664 -13.220902214627131 0 0 0 0 25.567676893082911 47.000971279111518 0 47.000971279111518 9.08175600964978 0 0 0 0 -127.95621436872864 99.255991659107622 0 99.255991659107622 -9.2430702349083731 0 0 0 0 -1.4360518401781306 25.040074077491781 0 25.040074077491781 -20.681094632920093 0 0 0 0 31.147774288041546 51.029769316701277 0 51.029769316701277 -6.3687104013079079 0 0 0 0 -19.391735965073153 12.145374941394607 0 12.145374941394607 15.682217137494808 0 0 0 0 -48.525829455369603 -27.030851355149935 0 -27.030851355149935 71.09968323137582 0 0 0 0 -7.1141475139022106 -1.6178514072727808 0 -1.6178514072727808 0.071029340166023247 0 0 0 0 -242.78178736941118 291.42651462064532 0 291.42651462064532 -85.937898677206249 0 0 0 0 96.552534026082867 45.687893257321775 0 45.687893257321775 -526.35468719127675 0 0 0 0 -77.766986750284559 -25.846192454690026 0 -25.846192454690026 410.18708099753712 0 0 0 0 271.950016475148 291.20447050886287 0 291.20447050886287 -21.725359473755816 0 0 0 0 14.922554485077853 326.5428946975735 0 326.5428946975735 99.263203629117925 0 0 0 0 -146.77723389700623 118.85651057606447 0 118.85651057606447 -28.674029789108317 0 0 0 0 53.092191236893996 161.11361799165024 0 161.11361799165024 -79.071602048279601 0 0 0 0 -42.07431205073226 287.25912337874979 0 287.25912337874979 91.897289956134045 0 0 0 0 -20.756925157900696 228.54219818177444 0 228.54219818177444 -65.761621124183876 0 0 0 0 -105.70014669375087 242.1763302203035 0 242.1763302203035 136.42438341953675 0 0 0 0 4.9526697618275648 360.90289264429339 0 360.90289264429339 191.20984894991852 0 0 0 0 -134.25367880474732 38.821829962282209 0 38.821829962282209 363.04537775664357 0 0 0 0 41.228662003153659 131.12418186301147 0 131.12418186301147 620.33809264782758 0 0 0 0 -140.32491144858068 322.38670498615829 0 322.38670498615829 338.19642604673572 0 0 0 0 -3.9676315419749955 1.186835491259842 0 1.186835491259842 -4.5563066141588422 0 0 0 0 -147.29324865774652 234.20811842093099 0 234.20811842093099 380.87046012601058 0 0 0 0 173.00343516875 -116.60445537479245 0 -116.60445537479245 111.15457290684571 0 0 0 0 -2.6450180495885434 -158.69218168512452 0 -158.69218168512452 111.00583559967515 0 0 0 0 -35.561340396328887 150.87552657420747 0 150.87552657420747 -34.233959293036605 0 0 0 0 -6.7196761901611239 14.272500269061197 0 14.272500269061197 -3.4730157257789358 0 0 0 0 153.85474408087612 232.83961376998923 0 232.83961376998923 167.07777046089177 0 0 0 0 85.697365231226286 183.78252994185641 0 183.78252994185641 180.34462343093765 0 0 0 0 60.542000479290436 -60.233991521945427 0 -60.233991521945427 126.83490350758802 0 0 0 0 -2.3370434857659177 17.737990784300962 0 17.737990784300962 18.55109692988546 0 0 0 0 188.79301721291631 231.15978429523238 0 231.15978429523238 154.32821385990246 0 0 0 0 284.29828394523793 105.41398854013096 0 105.41398854013096 130.57644133555004 0 0 0 0 135.92716877955536 225.6707262123964 0 225.6707262123964 174.16043298820296 0 0 0 0 34.870518515698208 32.977081570178512 0 32.977081570178512 12.225320796899886 0 0 0 0 -4.7848156132022268 68.10110256425105 0 68.10110256425105 37.661714505258715 0 0 0 0 90.191463797455071 203.08703665289795 0 203.08703665289795 164.23209076880448 0 0 0 0 -46.607076089785551 81.132505544519518 0 81.132505544519518 142.51301976440664 0 0 0 0 80.003982186070061 12.765911704260361 0 12.765911704260361 29.870423433618271 0 0 0 0 34.262173973911558 56.288504048734467 0 56.288504048734467 40.246499317087 0 0 0 0 26.830252795580215 58.322722274080505 0 58.322722274080505 53.833245872758027 0 0 0 0 55.738374604232376 -6.1341182417381788 0 -6.1341182417381788 -260.03270099050133 0 0 0 0 118.94281210928966 24.0900544393171 0 24.0900544393171 16.586900414011325 0 0 0 0 -107.95186401994215 53.194979460127797 0 53.194979460127797 92.938345549480545 0 0 0 0 45.809587055307929 104.35082929467899 0 104.35082929467899 -217.96841747208964 0 0 0 0 62.688049913261693 28.094853872293129 0 28.094853872293129 -4.8694575667045195 0 0 0 0 88.618850921578996 36.556845093167794 0 36.556845093167794 95.104309517672277 0 0 0 0 81.247268194725621 10.768362090882874 0 10.768362090882874 20.850800163127133 0 0 0 0 -37.603715855781047 56.19830297070439 0 56.19830297070439 54.684294829683495 0 0 0 0 2.2062739749017055 19.714288984279847 0 19.714288984279847 39.118452189421077 0 0 0 0 -94.833529987731822 177.59610854341344 0 177.59610854341344 -66.100441540867905 0 0 0 0 20.427567098521308 22.336603451601459 0 22.336603451601459 25.493923197299722 0 0 0 0 64.765724992175819 93.361757881648373 0 93.361757881648373 25.035872124220077 0 0 0 0 85.293014927781769 82.725456375168505 0 82.725456375168505 -13.99055720193428 0 0 0 0 -89.568174651445588 62.537298081078916 0 62.537298081078916 125.2269149420099 0 0 0 0 -179.89395569428962 140.7903402495067 0 140.7903402495067 139.61509680432209 0 0 0 0 27.543397307086892 61.416070275375596 0 61.416070275375596 69.39005612600667 0 0 0 0 -50.487947467388949 -12.896911467196333 0 -12.896911467196333 118.38066052137583 0 0 0 0 -83.0149821136838 135.72360818357265 0 135.72360818357265 90.718599992265808 0 0 0 0 45.270480697838138 81.615558860870806 0 81.615558860870806 74.778890900117403 0 0 0 0 171.29074469694297 371.32935395563709 0 371.32935395563709 343.68895625429286 0 0 0 0 -15.879975233994628 10.08273910207572 0 10.08273910207572 66.456754658958744 0 0 0 0 -15.490566042494493 37.699701599506128 0 37.699701599506128 -70.57691302327612 0 0 0 0 257.30911393358838 188.88496068638779 0 188.88496068638779 78.422554488560309 0 0 0 0 127.52635446895511 155.23750147141527 0 155.23750147141527 -41.845907696864742 0 0 0 0 74.852737697849079 45.745006032178935 0 45.745006032178935 -61.78668694794942 0 0 0 0 -287.65122469005655 76.341598394006724 0 76.341598394006724 316.05950600617416 0 0 0 0 178.37446307702339 216.59141152326993 0 216.59141152326993 51.77679552434347 0 0 0 0 32.006561056958162 109.9469142904054 0 109.9469142904054 147.65880828338049 0 0 0 0 140.30993206729909 85.7211893748281 0 85.7211893748281 66.308081698140086 0 0 0 0 75.058166103692201 136.11155864337707 0 136.11155864337707 5.0951175056725333 0 0 0 0 80.414312072822213 122.3447613017961 0 122.3447613017961 -34.438914816324541 0 0 0 0 126.30335742131501 144.57674201231202 0 144.57674201231202 -23.792789436574822 0 0 0 0 515.08078618232321 396.02768708087387 0 396.02768708087387 -46.829558960336726 0 0 0 0 -6.6667935731816641 32.489066707147899 0 32.489066707147899 -70.531630745642616 0 0 0 0 72.921240999316069 98.750596355352172 0 98.750596355352172 -4.208996936227777 0 0 0 0 89.484899835784745 105.28878569193694 0 105.28878569193694 -26.871172769093391 0 0 0 0 449.33427729373579 667.44754788931459 0 667.44754788931459 -12.023735399874568 0 0 0 0 -10.939307048053934 37.809206155883714 0 37.809206155883714 -71.279650042708539 0 0 0 0 -153.16673891759274 7.0971208392074914 0 7.0971208392074914 41.052028877210887 0 0 0 0 394.20801355943695 144.65779871469567 0 144.65779871469567 -68.280930119180994 0 0 0 0 -383.39658254732603 173.00021448078405 0 173.00021448078405 243.755393451298 0 0 0 0 -443.60326856597021 354.38243901207534 0 354.38243901207534 370.47562795980775 0 0 0 0 -223.48943352045353 436.93514643373783 0 436.93514643373783 -172.19152527583356 0 0 0 0 258.68869949421696 255.86505848062188 0 255.86505848062188 -79.573057031593635 0 0 0 0 220.11295962617805 132.75677663059469 0 132.75677663059469 -382.90048353718521 0 0 0 0 -597.03312116334382 270.70233276857834 0 270.70233276857834 206.18071046103432 0 0 0 0 -424.57503761385669 -6.9404902154856245 0 -6.9404902154856245 186.31517343620362 0 0 0 0 7.3886604872688437 33.858947999287722 0 33.858947999287722 -59.034871646341003 0 0 0 0 477.03075138421627 148.45983794934 0 148.45983794934 -127.52611265610176 0 0 0 0 753.69064234419056 395.82321308307291 0 395.82321308307291 -41.822054646967445 0 0 0 0 238.04424990690313 80.266052039300121 0 80.266052039300121 -44.12096255911456 0 0 0 0 258.91409189089245 3.6050742552833981 0 3.6050742552833981 -62.16999892325839 0 0 0 0 9.9603965713035905 15.769563858216515 0 15.769563858216515 -8.1352188857997305 0 0 0 0 15.356859810915921 58.502863032488676 0 58.502863032488676 195.35108871410193 0 0 0 0 8.566496368162916 312.28465163688088 0 312.28465163688088 847.42455809107923 0 0 0 0 4.6031157920936749 3.6096852618976527 0 3.6096852618976527 2.6086927999308216 0 0 0 0 869.92153766622869 -193.65304147612187 0 -193.65304147612187 -83.156424563530891 0 0 0 0 257.2902594337902 110.44009738473324 0 110.44009738473324 110.67963788380439 0 0 0 0 696.90496201543101 532.09098243433391 0 532.09098243433391 291.74325859497185 0 0 0 0 778.94888726025965 -89.57743533599205 0 -89.57743533599205 125.65534734266112 0 0 0 0 255.77180065449284 249.16222363226552 0 249.16222363226552 120.64608902233158 0 0 0 0 242.25679194619806 331.29589691588626 0 331.29589691588626 209.5412693117396 0 0 0 0 -118.391789756035 17.070961021236144 0 17.070961021236144 100.8047605787433 0 0 0 0 -257.53785844177037 162.89112312266661 0 162.89112312266661 194.41841587430099 0 0 0 0 -212.67009981115552 236.62458026907552 0 236.62458026907552 310.21059120149584 0 0 0 0 54.388698327473321 251.66036664774037 0 251.66036664774037 272.93078882532427 0 0 0 0 122.93913417673684 55.742380711890291 0 55.742380711890291 785.11179699522472 0 0 0 0 -152.57430064972505 -9.641373775091779 0 -9.641373775091779 356.05901726382945 0 0 0 0 -141.94976816812778 16.971151403609838 0 16.971151403609838 139.54262488496533 0 0 0 0 -242.28250312250748 141.44583747787692 0 141.44583747787692 155.33693542067522 0 0 0 0 -534.62340313831373 -43.517414186317183 0 -43.517414186317183 150.55938754346869 0 0 0 0 89.883113280684483 -60.40250249410019 0 -60.40250249410019 107.08933605681523 0 0 0 0 -54.230686735795189 85.705245309894053 0 85.705245309894053 23.690384105342673 0 0 0 0 232.53982549031571 135.3547083227586 0 135.3547083227586 -75.565320675465045 0 0 0 0 -6.1141248949979854 312.3515830002616 0 312.3515830002616 208.32832331271493 0 0 0 0 17.79844370403589 -13.811543492010969 0 -13.811543492010969 15.896959979385429 0 0 0 0 -0.93507115492545978 2.7471226358650398 0 2.7471226358650398 -4.2906093240829364 0 0 0 0 -13.543949358579994 269.89730500205769 0 269.89730500205769 31.121894971685833 0 0 0 0 -319.56756460978795 557.9955816273723 0 557.9955816273723 -463.49892733230081 0 0 0 0 -127.30608576928353 200.52281688419316 0 200.52281688419316 177.79993341836962 0 0 0 0 -102.38871766438388 282.09060477457388 0 282.09060477457388 -122.34858773305314 0 0 0 0 563.13454481694407 101.24094985895681 0 101.24094985895681 -394.49031118207495 0 0 0 0 -0.023715086998322477 0.81841564938775946 0 0.81841564938775946 -3.1550124909400665 0 0 0 0 -598.65409427135455 207.43780872366187 0 207.43780872366187 150.2177601379226 0 0 0 0 55.114888474294276 40.627749465638772 0 40.627749465638772 244.11184945647256 0 0 0 0 364.71154256906448 138.6930274128681 0 138.6930274128681 -646.36663418302487 0 0 0 0 487.47615428174322 -76.194065283692908 0 -76.194065283692908 -270.4312177352258 0 0 0 0 300.45788306641043 -127.43937920754252 0 -127.43937920754252 -513.05446118847613 0 0 0 0 -208.04494987329235 608.67393008281942 0 608.67393008281942 373.99657740263501 0 0 0 0 303.18498341089014 90.679614566971566 0 90.679614566971566 -49.173688936338294 0 0 0 0 -145.49063579177891 385.83640176148037 0 385.83640176148037 199.5965855641407 0 0 0 0 -126.71595526941383 680.28442052269747 0 680.28442052269747 139.40017426211853 0 0 0 0 664.42846098679001 859.93121030414477 0 859.93121030414477 -226.23472704994492 0 0 0 0 358.93681071553146 321.08569247252308 0 321.08569247252308 99.349616685332876 0 0 0 0 966.17457652694429 352.58240939538518 0 352.58240939538518 -225.48466204141732 0 0 0 0 -397.96887964620691 169.15729815899977 0 169.15729815899977 739.10910310169857 0 0 0 0 365.38624554145645 -316.96315557349953 0 -316.96315557349953 530.91214413428679 0 0 0 0 -6.3386227608615258 4.8489191860838901 0 4.8489191860838901 -2.284823167848927 0 0 0 0 281.91693431132444 17.646651806302543 0 17.646651806302543 -858.54582891528116 0 0 0 0 115.97681531380658 -5.1162653665232938 0 -5.1162653665232938 -90.892652540140261 0 0 0 0 -41.880431002704427 43.529772325884551 0 43.529772325884551 -93.034992003729712 0 0 0 0 283.27901487145573 -94.985762748707202 0 -94.985762748707202 -119.67054480937077 0 0 0 0 122.57772991362799 263.4674689457388 0 263.4674689457388 -283.40705604397226 0 0 0 0 -659.06815482885577 170.14262560929637 0 170.14262560929637 -50.772279946308117 0 0 0 0 -12.221920568689612 10.286119546808095 0 10.286119546808095 -5.1876120604324854 0 0 0 0 -603.45117984234821 347.22620067519892 0 347.22620067519892 -48.894359842008271 0 0 0 0 -59.471724091898068 390.64727423648583 0 390.64727423648583 -258.92543239191582 0 0 0 0 -197.32122309845545 219.20278517425686 0 219.20278517425686 -57.314938598952722 0 0 0 0 -180.40988962286792 222.11271714953182 0 222.11271714953182 -57.03015914684147 0 0 0 0 -266.64724197265423 139.43071065275763 0 139.43071065275763 -16.763146400815458 0 0 0 0 -163.59810946427478 113.86657084758644 0 113.86657084758644 -10.752766456571408 0 0 0 0 -59.058010314560306 129.84755219085855 0 129.84755219085855 -119.67524370289175 0 0 0 0 -1.711117382758701 4.0465396650872805 0 4.0465396650872805 -10.378806723399236 0 0 0 0 -0.49937453749170047 -0.031543542456056173 0 -0.031543542456056173 0.042049676630881549 0 0 0 0 -657.00923459905243 165.73125255240666 0 165.73125255240666 53.368450687150471 0 0 0 0 -292.24418101818264 -28.636668953648041 0 -28.636668953648041 -2.2155974206834799 0 0 0 0 -531.52240782853187 65.352997072383005 0 65.352997072383005 -2.3024849946893937 0 0 0 0 -319.26514400652741 166.44357927083183 0 166.44357927083183 -47.936384185624775 0 0 0 0 -0.26470386646630928 0.75826976025432202 0 0.75826976025432202 -1.7944623245030584 0 0 0 0 -733.36971652512511 115.62248611424729 0 115.62248611424729 113.64639098494081 0 0 0 0 -0.53330170766690088 1.5671205838119704 0 1.5671205838119704 -4.168587623344763 0 0 0 0 417.85539922859789 166.5342169018586 0 166.5342169018586 -85.722853057523025 0 0 0 0 109.28985582089808 241.94949289425131 0 241.94949289425131 -86.516473913980008 0 0 0 0 -169.73488592786453 167.37694300776275 0 167.37694300776275 33.655092565095401 0 0 0 0 -41.436525133573014 267.72532817587489 0 267.72532817587489 -55.765462915835087 0 0 0 0 12.526838351081096 187.54648133883711 0 187.54648133883711 -42.539662011782639 0 0 0 0 79.394410380551562 -55.712880382914591 0 -55.712880382914591 -207.33079461039233 0 0 0 0 -184.99185829942871 62.208408021957439 0 62.208408021957439 -29.333561654573714 0 0 0 0 -0.13083340564190671 0.0052851278726464557 0 0.0052851278726464557 -2.9883984123712821 0 0 0 0 -615.9943319244303 356.4055923771175 0 356.4055923771175 75.753892852080753 0 0 0 0 48.126914152056997 218.20772530408431 0 218.20772530408431 -42.022654644788417 0 0 0 0 -58.282988849226967 -22.739124610561703 0 -22.739124610561703 -2.6388733953281189 0 0 0 0 282.7952220008774 185.24072438478652 0 185.24072438478652 -113.17171407214482 0 0 0 0 -0.19227308610773974 0.58989667983509264 0 0.58989667983509264 -2.1154269415575868 0 0 0 0 -178.23725448052937 155.41710720647825 0 155.41710720647825 -56.226870629005134 0 0 0 0 -207.27686209274498 46.861024598007134 0 46.861024598007134 -55.186444770937669 0 0 0 0 -193.1135047556163 48.386041909791857 0 48.386041909791857 -44.722443411970744 0 0 0 0 -159.16087711926411 164.19243804393227 0 164.19243804393227 -97.01902399714163 0 0 0 0 -17.339314040225872 25.07995477172517 0 25.07995477172517 -99.50132841274899 0 0 0 0 -74.360898091775198 65.206588438542894 0 65.206588438542894 -116.44631388474954 0 0 0 0 26.492629786418547 39.56449942819745 0 39.56449942819745 -154.25030574338962 0 0 0 0 -43.753476721016341 116.05124531617912 0 116.05124531617912 -174.99290270694473 0 0 0 0 -193.23406851098844 217.71024244748332 0 217.71024244748332 -201.08532355566422 0 0 0 0 66.254272852082067 176.67472701262159 0 176.67472701262159 -143.60770764496556 0 0 0 0 -25.929868342040209 116.0265610426377 0 116.0265610426377 51.040262096372317 0 0 0 0 -432.50564148938065 201.86106547798045 0 201.86106547798045 -70.179393831080233 0 0 0 0 -0.3587599619929982 -1.0457033147000416 0 -1.0457033147000416 -1.1013624632422534 0 0 0 0 242.28508046234856 46.683379425699968 0 46.683379425699968 -51.815983207852696 0 0 0 0 202.55797684621211 249.85854354634648 0 249.85854354634648 91.462110094827949 0 0 0 0 214.82209631319438 162.90039906156153 0 162.90039906156153 -5.7391564403660595 0 0 0 0 216.55525503164608 164.34767691341403 0 164.34767691341403 -7.9411528007040033 0 0 0 0 334.20454126289405 263.34956026124564 0 263.34956026124564 77.559314933612768 0 0 0 0 348.33317657260841 67.500728164661268 0 67.500728164661268 -42.144265239796368 0 0 0 0 169.90378038575727 79.842740340893215 0 79.842740340893215 -17.670141969370889 0 0 0 0 203.90585243808164 64.657170439757465 0 64.657170439757465 -76.697796403197572 0 0 0 0 179.65655334023904 -12.186392106661515 0 -12.186392106661515 -78.080158234355622 0 0 0 0 81.728902185590414 53.09815394062025 0 53.09815394062025 -103.73430689406814 0 0 0 0 254.42069674856646 -12.64854166150559 0 -12.64854166150559 -1.8238042817392852 0 0 0 0 15.616778396899463 -24.134057925839443 0 -24.134057925839443 28.857099860280869 0 0 0 0 -356.651452171458 204.2022145050214 0 204.2022145050214 89.853867655328941 0 0 0 0 -56.506062428808946 39.750029145427106 0 39.750029145427106 7.2559058312472189 0 0 0 0 -54.461894162155659 44.146467985745403 0 44.146467985745403 -179.83978474135802 0 0 0 0 -19.159855926271121 21.552896238092217 0 21.552896238092217 -99.552766354667256 0 0 0 0 38.343790791484935 -11.89854443508375 0 -11.89854443508375 -117.80532961013159 0 0 0 0 44.882586290335894 6.1362379892307217 0 6.1362379892307217 -103.96260799800802 0 0 0 0 50.97713137872779 -0.62861655376400449 0 -0.62861655376400449 -129.25852133738226 0 0 0 0 107.56303500695503 43.507292049354874 0 43.507292049354874 -90.688341566579766 0 0 0 0 52.974109758659324 -24.20427858151379 0 -24.20427858151379 -100.31002372766625 0 0 0 0 116.97853083924565 29.716529196499323 0 29.716529196499323 -70.570039330294094 0 0 0 0 168.88498653747229 101.50873994495123 0 101.50873994495123 -55.836178485886194 0 0 0 0 103.42563779845295 56.181878573763242 0 56.181878573763242 -75.754062647029059 0 0 0 0 93.841479834296479 3.6700443742374773 0 3.6700443742374773 -116.26884951427928 0 0 0 0 81.034030805218208 34.147791597541072 0 34.147791597541072 -104.6132737055741 0 0 0 0 99.142125138333085 61.852368070122793 0 61.852368070122793 -81.438903135553119 0 0 0 0 77.323293810812174 84.720086655695923 0 84.720086655695923 -55.599281977847568 0 0 0 0 93.348511652020534 85.776356546670286 0 85.776356546670286 -73.450486436922802 0 0 0 0 136.97709830435633 103.08419862958544 0 103.08419862958544 -38.212214550323552 0 0 0 0 122.33092125640542 123.40820110074128 0 123.40820110074128 -31.175575170309457 0 0 0 0 177.42571618872353 135.60766108808821 0 135.60766108808821 -43.392332093178993 0 0 0 0 -30.507469221309293 50.719027277242276 0 50.719027277242276 -206.51133381128602 0 0 0 0 27.215336002482218 50.558273160379031 0 50.558273160379031 -207.55216328178722 0 0 0 0 -46.17253795038414 -16.452612380773644 0 -16.452612380773644 -234.96002994727314 0 0 0 0 -7.5534612050760188 31.890029310103273 0 31.890029310103273 -202.0028594467658 0 0 0 0 20.968448252158851 18.249390582859633 0 18.249390582859633 -195.84092105028685 0 0 0 0 -4.5566939038999408 41.632582084788737 0 41.632582084788737 -149.54095689824317 0 0 0 0 23.913772546064138 49.448734079705901 0 49.448734079705901 -102.62527195413713 0 0 0 0 36.852475439183763 59.803772055107402 0 59.803772055107402 -152.06363518370381 0 0 0 0 61.236457150043861 84.937427997509076 0 84.937427997509076 -93.123359871213324 0 0 0 0 43.280903514605598 48.308204263659718 0 48.308204263659718 -92.829433330181928 0 0 0 0 64.686847513996327 44.327618081457331 0 44.327618081457331 -122.00755914147885 0 0 0 0 21.861070141974778 19.489579099577895 0 19.489579099577895 -127.04173724816064 0 0 0 0 42.56381914917074 33.970310958546179 0 33.970310958546179 -96.695969736276311 0 0 0 0 65.897197488104212 1.412646354523531 0 1.412646354523531 -131.82467430454562 0 0 0 0 28.16924129149993 9.9254035926351207 0 9.9254035926351207 -132.85673306905665 0 0 0 0 7.0343133844653494 39.917410903406562 0 39.917410903406562 -149.13260302328854 0 0 0 0 35.053907257148239 -5.4143163518601796 0 -5.4143163518601796 -170.97983629813825 0 0 0 0 28.516060163377915 6.763482259149896 0 6.763482259149896 -282.96711489223526 0 0 0 0 5.2806735138219665 35.296954501034634 0 35.296954501034634 -193.25308135715022 0 0 0 0 33.909571001004224 1.368613565879059 0 1.368613565879059 -190.05664748253184 0 0 0 0 38.924223508873183 2.312418204430287 0 2.312418204430287 -129.62008712415991 0 0 0 0 36.238444367572811 15.335131670144619 0 15.335131670144619 -164.00218289949407 0 0 0 0 44.70330076306891 -12.649503117700078 0 -12.649503117700078 -148.74823131106677 0 0 0 0 41.59118892427432 -9.8449894508485158 0 -9.8449894508485158 -130.24106603479595 0 0 0 0 55.53316770125457 6.4650840495942248 0 6.4650840495942248 -135.74009019606456 0 0 0 0 47.692071940284222 -10.775677432338853 0 -10.775677432338853 -143.69081090165128 0 0 0 0 11.643304583176359 9.0928584062385198 0 9.0928584062385198 -128.08601922636444 0 0 0 0 67.32650960986939 0.69222718046512455 0 0.69222718046512455 -134.767438029201 0 0 0 0 65.625363767103408 5.4657789919292554 0 5.4657789919292554 -148.3331490674318 0 0 0 0 69.764994439790826 30.91978431147254 0 30.91978431147254 -103.14964426333609 0 0 0 0 124.98575975371205 14.461341433991038 0 14.461341433991038 -111.78476936958032 0 0 0 0 80.033144808242469 35.691448883717385 0 35.691448883717385 -156.57875741136377 0 0 0 0 309.7072099404686 141.61834028013982 0 141.61834028013982 -227.71518401203502 0 0 0 0 87.241507831289709 63.432182218564776 0 63.432182218564776 -71.310298897544271 0 0 0 0 184.2159063215986 -21.917210835956212 0 -21.917210835956212 -419.80450433264195 0 0 0 0 -9.8514826656828518 -14.806884367255407 0 -14.806884367255407 0.4918107870980748 0 0 0 0 57.121415250978316 -8.3927164683918818 0 -8.3927164683918818 -167.32568696959061 0 0 0 0 42.681753150158329 -16.487724108337716 0 -16.487724108337716 -98.975342458674277 0 0 0 0 52.9423583388525 72.80186540554314 0 72.80186540554314 -74.41784792629187 0 0 0 0 1.7142517592176318 -0.5112439524691581 0 -0.5112439524691581 -3.3821003125049174 0 0 0 0 1.0134412821213061 3.2546885905947818 0 3.2546885905947818 0.41537854183023626 0 0 0 0 2.6078552568360465 -5.3262953066878254 0 -5.3262953066878254 -23.498465777817728 0 0 0 0 5.8180129767679745 4.4109946253505257 0 4.4109946253505257 0.09737361136926026 0 0 0 0 -15.080135005846387 98.301916709096986 0 98.301916709096986 -219.24925172034273 0 0 0 0 17.932554011111279 17.07956115997149 0 17.07956115997149 -121.72713955376821 0 0 0 0 40.790687926397368 35.437518609782273 0 35.437518609782273 -116.21852600637067 0 0 0 0 35.004402995362398 26.519078630797594 0 26.519078630797594 -116.63612656481564 0 0 0 0 0.071800877272764296 2.2121071042107872 0 2.2121071042107872 -0.29328554979440291 0 0 0 0 -62.394096719312074 25.370514991445816 0 25.370514991445816 70.294037915686204 0 0 0 0 62.305585103862541 38.07477829799609 0 38.07477829799609 -356.72548151715455 0 0 0 0 5.2886887805560434 4.5145091496901131 0 4.5145091496901131 1.9986586114362979 0 0 0 0 -3.433818268327741 2.2858161448384635 0 2.2858161448384635 -0.14942740891274298 0 0 0 0 5.7326192738910322 12.824286057773861 0 12.824286057773861 0.55959010390506592 0 0 0 0 0.44773919953351538 2.3218703059679058 0 2.3218703059679058 -0.15906555758311924 0 0 0 0 5.9382810895331204 30.788805630640127 0 30.788805630640127 6.087372822999896 0 0 0 0 -6.741511622480175 2.4477739739959361 0 2.4477739739959361 26.344302211791728 0 0 0 0 5.8418406028213212 5.4383996881078929 0 5.4383996881078929 -8.2879001266037449 0 0 0 0 7.3742671172512928 -30.71832177543547 0 -30.71832177543547 -293.88038262208283 0 0 0 0 7.2457474146195153 5.8435218147925667 0 5.8435218147925667 2.764461464828031 0 0 0 0 75.160180178543669 16.965433060249779 0 16.965433060249779 -41.113389042271592 0 0 0 0 28.413922761195863 176.40831456502201 0 176.40831456502201 -86.488133116647077 0 0 0 0 -12.666238319550757 123.7885952804063 0 123.7885952804063 -23.037042977186502 0 0 0 0 -6.0338280416035559 145.52523263113108 0 145.52523263113108 -140.92739223107492 0 0 0 0 -21.153595373019925 187.7439633458489 0 187.7439633458489 -103.72941698656359 0 0 0 0 -19.801192899511079 194.63337657018565 0 194.63337657018565 -115.29782465095923 0 0 0 0 -27.297470234767388 213.19109611791282 0 213.19109611791282 -130.30124474729382 0 0 0 0 -78.162656595487078 142.43946740140291 0 142.43946740140291 -112.1167158207827 0 0 0 0 -73.242948756691476 191.6443334471187 0 191.6443334471187 -115.02263103936275 0 0 0 0 -26.366290495416251 138.90490946958062 0 138.90490946958062 -111.93225138897833 0 0 0 0 -3.6041636777517851 119.70977253817546 0 119.70977253817546 -181.29534093716393 0 0 0 0 -15.835588349185855 134.61259581793638 0 134.61259581793638 -124.33792955394892 0 0 0 0 6.6394963509519584 32.660356760585273 0 32.660356760585273 -129.62498463611701 0 0 0 0 70.667446304214536 62.630262277176371 0 62.630262277176371 -119.55147412170481 0 0 0 0 84.437773709119938 46.150383635751496 0 46.150383635751496 -103.60558453685371 0 0 0 0 36.099074362584361 90.932984663471871 0 90.932984663471871 -96.550987221129617 0 0 0 0 75.674341258578352 137.47230338503869 0 137.47230338503869 -42.984684964030748 0 0 0 0 32.891194192769035 55.177933573610062 0 55.177933573610062 162.50791469220712 0 0 0 0 140.09795721144474 140.74283613952866 0 140.74283613952866 -43.784793108798112 0 0 0 0 143.74333700109128 112.51044318215281 0 112.51044318215281 -48.00563073590456 0 0 0 0 112.49027344638489 82.853823594452479 0 82.853823594452479 6.2849480738805141 0 0 0 0 248.4349005689437 302.07894548499462 0 302.07894548499462 74.092986563120576 0 0 0 0 2.6466461680315092 2.838987608109818 0 2.838987608109818 -0.34425111114102336 0 0 0 0 -232.86255999424611 301.78105023253011 0 301.78105023253011 -523.41489223413009 0 0 0 0 962.52282484865282 373.77258246418205 0 373.77258246418205 -527.81861412261787 0 0 0 0 336.627727414736 280.94534464727622 0 280.94534464727622 196.75538849247005 0 0 0 0 1.3004564820312368 3.1654758476476275 0 3.1654758476476275 -0.49244714047278393 0 0 0 0 491.3977435916604 298.28839538138345 0 298.28839538138345 -0.40252714973030379 0 0 0 0 18.690338690859789 216.40515971374043 0 216.40515971374043 354.711718918923 0 0 0 0 -256.2189371405766 -155.18959708970215 0 -155.18959708970215 -263.66480340275666 0 0 0 0 -242.78997799639706 72.68727637494726 0 72.68727637494726 32.639750803282368 0 0 0 0 1.8496301216460864 4.848600882397136 0 4.848600882397136 -0.69614666990964125 0 0 0 0 -61.598284427273029 89.405841444269754 0 89.405841444269754 16.852177871893218 0 0 0 0 -65.284500599787862 63.563580746711523 0 63.563580746711523 0.045612847141455859 0 0 0 0 51.178202080087431 79.997435848762507 0 79.997435848762507 -61.996980325129698 0 0 0 0 -9.2003650180377008 104.29632862002472 0 104.29632862002472 -56.622585618213634 0 0 0 0 -24.591096548378118 86.146595636681013 0 86.146595636681013 -74.027681176092301 0 0 0 0 91.42417272937746 85.571392927966372 0 85.571392927966372 -18.82216310363583 0 0 0 0 0.77400045001269291 3.3541999844250938 0 3.3541999844250938 -0.5672972291806424 0 0 0 0 103.19452385705517 43.621006088873401 0 43.621006088873401 0.2879483504439122 0 0 0 0 95.328133112838259 275.59110271343161 0 275.59110271343161 -47.269340355007444 0 0 0 0 71.918523123822524 272.64349332357961 0 272.64349332357961 276.37918188281037 0 0 0 0 31.717639437003527 276.4789058144197 0 276.4789058144197 -273.52953009711928 0 0 0 0 34.167684489559178 294.79793888320455 0 294.79793888320455 -147.0677375318046 0 0 0 0 69.561193979308882 138.63585160520597 0 138.63585160520597 -491.75989945341735 0 0 0 0 -27.435261400284617 59.120787683893468 0 59.120787683893468 -254.53022546625289 0 0 0 0 -32.301326651169802 192.39977021493542 0 192.39977021493542 -168.65422750452854 0 0 0 0 -25.89379445481336 169.13706451449889 0 169.13706451449889 -140.92397600728145 0 0 0 0 -12.601471172893071 142.66503744968941 0 142.66503744968941 -235.11709030720158 0 0 0 0 -6.8400435680450755 182.56589613939286 0 182.56589613939286 -130.78428308258299 0 0 0 0 -11.486388764657022 169.41066372279602 0 169.41066372279602 -137.30513646753388 0 0 0 0 -8.789134439350164 143.5680954744239 0 143.5680954744239 -90.608385683764936 0 0 0 0 -7.2882613142282935 136.57463740276216 0 136.57463740276216 -101.47041706070013 0 0 0 0 15.858496032662515 181.53809481606731 0 181.53809481606731 -137.31314445139287 0 0 0 0 -20.977219407252051 160.60044373074925 0 160.60044373074925 -98.751119319436839 0 0 0 0 -27.554504881809407 133.78994505343144 0 133.78994505343144 -32.014387673021702 0 0 0 0 -27.857901932409732 108.67168481005501 0 108.67168481005501 -38.455637280043447 0 0 0 0 -22.950237788958475 120.07826047841081 0 120.07826047841081 -50.419269677833654 0 0 0 0 -8.1264776498355786 122.0081524233392 0 122.0081524233392 -59.491186192768509 0 0 0 0 -24.864578284265008 147.92965011206252 0 147.92965011206252 -85.705434130846697 0 0 0 0 -24.97386669167463 201.77180852647507 0 201.77180852647507 -66.716396825708216 0 0 0 0 -15.455326784453064 194.62169909186923 0 194.62169909186923 -117.81543323989899 0 0 0 0 -11.338512814720218 155.71959530587412 0 155.71959530587412 -81.243627152274712 0 0 0 0 -3.7107725122077682 190.85832038169974 0 190.85832038169974 -168.49785355977656 0 0 0 0 -62.556978005814017 174.4662429690361 0 174.4662429690361 -57.029894441289798 0 0 0 0 -53.32312241537511 149.27565764328028 0 149.27565764328028 0.85504592467623297 0 0 0 0 -83.169517003098008 259.64296220686811 0 259.64296220686811 -40.330231269472279 0 0 0 0 -162.96490690591963 201.06341247158707 0 201.06341247158707 -16.387152686118498 0 0 0 0 -49.67156156879355 246.70869846258574 0 246.70869846258574 -85.621480860518204 0 0 0 0 -31.275476889743004 284.11091076071898 0 284.11091076071898 -42.167657353915274 0 0 0 0 -41.488326392267481 294.99636206870127 0 294.99636206870127 -0.042488144172239117 0 0 0 0 -111.28494060110097 220.99939927765081 0 220.99939927765081 -37.707813999209975 0 0 0 0 -513.61916419901536 129.46034102622434 0 129.46034102622434 33.210572286778188 0 0 0 0 -218.58399849284251 268.31760487968859 0 268.31760487968859 -0.091267982745193876 0 0 0 0 0.22036319906791135 -1.2076287891765247 0 -1.2076287891765247 -1.2735764933542555 0 0 0 0 -189.74397745549504 -40.713467686058721 0 -40.713467686058721 -5.9613740512286313 0 0 0 0 52.477828105831577 162.37388441643998 0 162.37388441643998 -0.07403031864156491 0 0 0 0 0.093373790396398704 -0.51904809704559796 0 -0.51904809704559796 -1.772582884224903 0 0 0 0 -158.85789741262852 117.16368810142376 0 117.16368810142376 53.676150259439964 0 0 0 0 -111.87658238947915 115.63449498359842 0 115.63449498359842 9.4916772110082093 0 0 0 0 120.42661320685147 76.970846833632095 0 76.970846833632095 0.061671374672258403 0 0 0 0 -0.21390612225931971 -1.1439772377347595 0 -1.1439772377347595 -0.74265855338961728 0 0 0 0 -517.13601661903158 29.619330819812603 0 29.619330819812603 97.830156252144661 0 0 0 0 -261.72453037842206 160.04424283489061 0 160.04424283489061 -0.12021601068821562 0 0 0 0 -231.51860301078705 18.55277572421619 0 18.55277572421619 -42.872180466656573 0 0 0 0 238.53580458343231 26.1637980566652 0 26.1637980566652 -15.834669547148224 0 0 0 0 89.078947029171104 49.399711057689274 0 49.399711057689274 12.202019485019264 0 0 0 0 164.59951984033796 31.252021333465109 0 31.252021333465109 -11.534903687555925 0 0 0 0 -0.064573099980153259 0.86978940403545835 0 0.86978940403545835 -2.4925330031762769 0 0 0 0 -291.15366537923535 63.456852216034008 0 63.456852216034008 18.833953038629261 0 0 0 0 -368.66821397199237 95.602561414743832 0 95.602561414743832 7.4047736540669575 0 0 0 0 74.84235723457823 12.534344972871622 0 12.534344972871622 6.3110513498759246 0 0 0 0 -107.10086987644172 118.54889413706042 0 118.54889413706042 9.5034138455084758 0 0 0 0 -62.606090857683739 140.03848286418724 0 140.03848286418724 -6.0581840292434208 0 0 0 0 -15.938150489062537 58.087844359426526 0 58.087844359426526 39.587009333725291 0 0 0 0 160.65946987390271 101.0389726174526 0 101.0389726174526 -50.805013587945723 0 0 0 0 0.33736228104577748 -0.95794807226093326 0 -0.95794807226093326 -1.1844308449796017 0 0 0 0 18.710260551764804 139.00338776549324 0 139.00338776549324 -45.25538674051495 0 0 0 0 -17.272632284737483 89.322257272171555 0 89.322257272171555 -5.7171703269954151 0 0 0 0 -21.007363146940406 104.15453086946582 0 104.15453086946582 -34.401158288063016 0 0 0 0 -23.312411337261437 111.58997771777649 0 111.58997771777649 -25.906547256359772 0 0 0 0 -102.87926000060543 141.96512493041519 0 141.96512493041519 -32.924254250723607 0 0 0 0 -87.084499583772413 109.58261117417533 0 109.58261117417533 -13.889853082277114 0 0 0 0 -32.801859163926565 89.840888425409503 0 89.840888425409503 -7.1970317300147144 0 0 0 0 -23.99999210806709 104.62104270315467 0 104.62104270315467 -26.692098904706654 0 0 0 0 -36.313076609592827 98.699472909167525 0 98.699472909167525 -14.872376286715735 0 0 0 0 97.222329358475463 29.133180549871099 0 29.133180549871099 -12.616992025956279 0 0 0 0 -0.87103512924895377 0.99046280579712231 0 0.99046280579712231 -4.2058118539576981 0 0 0 0 -94.54267046849418 43.754415613686433 0 43.754415613686433 -36.191744913514412 0 0 0 0 -141.32964007645751 46.742807194492343 0 46.742807194492343 3.3018492864139262 0 0 0 0 -12.085092144916416 38.970152855887136 0 38.970152855887136 -6.1928648244793294 0 0 0 0 -64.656795373351088 40.529127439441254 0 40.529127439441254 2.2420939959847601 0 0 0 0 6.2340429316472319 4.9985950097018872 0 4.9985950097018872 -4.6913680425319626 0 0 0 0 18.832202075591908 22.219627886502465 0 22.219627886502465 20.02374580382218 0 0 0 0 57.765603915801421 30.751298433206216 0 30.751298433206216 -32.128661202295916 0 0 0 0 -8.5802007237580256 40.586526189228607 0 40.586526189228607 -9.8337110190332169 0 0 0 0 2.1300994869543501 12.966706995022832 0 12.966706995022832 21.967309187355568 0 0 0 0 1.4135294433237959 42.723764610617764 0 42.723764610617764 -27.845148327571223 0 0 0 0 29.867387271035113 27.442843814671505 0 27.442843814671505 21.487855722919676 0 0 0 0 28.728780491379439 21.469768796079734 0 21.469768796079734 32.82362528986414 0 0 0 0 16.173835056109766 19.532264725063584 0 19.532264725063584 11.511216723364811 0 0 0 0 10.086845884798095 28.953639204322826 0 28.953639204322826 10.721956597612007 0 0 0 0 7.1434077762495463 18.57119223623701 0 18.57119223623701 22.197352204365227 0 0 0 0 17.073908885376341 18.903162957849304 0 18.903162957849304 39.452756586644682 0 0 0 0 31.540009421430504 23.542563017669195 0 23.542563017669195 11.351391532739171 0 0 0 0 -17.941619261051528 101.22532107363804 0 101.22532107363804 -9.5756473961955635 0 0 0 0 -17.910368600091196 78.796731741140519 0 78.796731741140519 -25.746876567427535 0 0 0 0 -24.020827577071032 99.989471563938423 0 99.989471563938423 -7.1288963844417594 0 0 0 0 -24.526100061563284 95.724453192672854 0 95.724453192672854 -14.123289471084718 0 0 0 0 -50.878149860138365 57.767795045001549 0 57.767795045001549 -7.333956125061377 0 0 0 0 -41.905881100312399 83.136130684157251 0 83.136130684157251 -10.837925813473703 0 0 0 0 -38.870640926055785 48.763273420569021 0 48.763273420569021 137.70989573568659 0 0 0 0 -7.4010700857324991 70.617932138957258 0 70.617932138957258 -62.517928403780388 0 0 0 0 0.92348520778634224 5.4368373208651235 0 5.4368373208651235 5.9114418752410485 0 0 0 0 37.65147824639962 22.713797293958692 0 22.713797293958692 14.182112545214409 0 0 0 0 80.633178032730939 150.87130514116143 0 150.87130514116143 -23.224445134590496 0 0 0 0 90.183612159962649 152.61197766868281 0 152.61197766868281 -37.124268237908836 0 0 0 0 -6.8819467103166971 94.515304567394196 0 94.515304567394196 -25.885412228030077 0 0 0 0 5.9916968677425757 131.26261295572658 0 131.26261295572658 18.581525136047276 0 0 0 0 -42.140775016967382 95.827560960678966 0 95.827560960678966 -9.4169484710000688 0 0 0 0 -48.513289627582708 74.403771864323062 0 74.403771864323062 63.470560508867493 0 0 0 0 -50.361040512092586 74.685468387622677 0 74.685468387622677 1.5525107146095252 0 0 0 0 -22.135514489154957 89.865733007802191 0 89.865733007802191 9.6678313459415222 0 0 0 0 -21.195445916688186 95.291409012890654 0 95.291409012890654 6.3050508064843598 0 0 0 0 -23.404285484179127 101.06536005185262 0 101.06536005185262 -7.4111146737122908 0 0 0 0 -18.824620479674195 95.380023878617067 0 95.380023878617067 -7.0721255958487745 0 0 0 0 -2.8238533024705248 90.580385439898237 0 90.580385439898237 -13.052869106104481 0 0 0 0 -15.298226170998532 99.583826041329303 0 99.583826041329303 -18.843845796007372 0 0 0 0 -15.725332890855498 96.152046447939938 0 96.152046447939938 -19.070241241613985 0 0 0 0 -24.774305825182864 100.76120124281738 0 100.76120124281738 -7.2485726735030767 0 0 0 0 0.19150549946061801 100.54408462803985 0 100.54408462803985 -25.043522082652999 0 0 0 0 16.312788417199044 87.724560035705508 0 87.724560035705508 -15.551896724180551 0 0 0 0 8.8135339256259613 91.342260153094685 0 91.342260153094685 -14.998543794441503 0 0 0 0 -23.953510885900869 82.301009071799854 0 82.301009071799854 2.8186183418729343 0 0 0 0 -1.2510950149444398 83.579383932519704 0 83.579383932519704 0.84990696294698864 0 0 0 0 10.001616777175514 79.923241587028315 0 79.923241587028315 -6.3123462197181652 0 0 0 0 10.85926800184825 84.720951085917477 0 84.720951085917477 6.7578226289479062 0 0 0 0 110.51559388315945 104.85597271210281 0 104.85597271210281 5.8042180111806374 0 0 0 0 67.57755324109894 103.86170739425143 0 103.86170739425143 -30.694593463136698 0 0 0 0 42.747412920980423 72.959736886441533 0 72.959736886441533 -8.5593504440403194 0 0 0 0 99.06781966262497 73.094928025879199 0 73.094928025879199 -3.3952114932544646 0 0 0 0 196.01157253669953 127.02523978867248 0 127.02523978867248 -74.884086889986065 0 0 0 0 78.720420185771218 147.50948935330234 0 147.50948935330234 -58.29646783132921 0 0 0 0 77.541630422587332 189.75382605144841 0 189.75382605144841 -42.525867650838336 0 0 0 0 61.211266913625877 165.46530230580538 0 165.46530230580538 -76.710328003061477 0 0 0 0 49.777797247290437 100.16554606453428 0 100.16554606453428 -31.460422812713659 0 0 0 0 36.768844896192604 110.77053368494671 0 110.77053368494671 -36.026000055979239 0 0 0 0 24.762943431538588 120.05191779989764 0 120.05191779989764 -51.131235624809051 0 0 0 0 11.734557985226274 113.3872223997023 0 113.3872223997023 -36.172206454913976 0 0 0 0 -5.1417624085988791 115.57345645231544 0 115.57345645231544 -41.982052301289514 0 0 0 0 39.605899983260315 162.02643936021195 0 162.02643936021195 -36.023393137264065 0 0 0 0 11.652928691350098 140.35092495687422 0 140.35092495687422 -34.353688469404005 0 0 0 0 21.601802172954194 152.01157667443476 0 152.01157667443476 -26.484902295065694 0 0 0 0 32.493892773622065 149.3323622103344 0 149.3323622103344 -46.432139501674101 0 0 0 0 17.390003406673713 145.83742544484085 0 145.83742544484085 -103.52261509037635 0 0 0 0 20.516247998573817 119.40198748116381 0 119.40198748116381 -50.143389295219094 0 0 0 0 0.38776491120916035 120.58872730655094 0 120.58872730655094 -60.891744842767366 0 0 0 0 9.5096920347787091 128.62860205728066 0 128.62860205728066 -55.932506813587679 0 0 0 0 1.3057913307129638 106.01957333750761 0 106.01957333750761 -47.229529033094877 0 0 0 0 -17.560640643670922 120.65130797898018 0 120.65130797898018 -53.62093725464365 0 0 0 0 -11.257715519488556 111.6236191474527 0 111.6236191474527 -45.744983926211717 0 0 0 0 -18.113254816227709 103.801210261503 0 103.801210261503 -37.90750874610967 0 0 0 0 -21.041759408526559 106.70514975336118 0 106.70514975336118 -37.272840308141895 0 0 0 0 -13.778512317352579 100.50813646614552 0 100.50813646614552 -29.741873115621274 0 0 0 0 -18.513969459731015 99.814232636606903 0 99.814232636606903 -29.659263008317794 0 0 0 0 -15.173481021913176 103.95009608598048 0 103.95009608598048 -37.275950163271887 0 0 0 0 -4.9498336564429337 96.570773547049612 0 96.570773547049612 -29.102429050428327 0 0 0 0 -1.6087608363159234 104.9583903935727 0 104.9583903935727 -34.556830031637219 0 0 0 0 14.747729317889025 112.88378005989216 0 112.88378005989216 -41.64828144616331 0 0 0 0 6.838893228356028 95.816000345512293 0 95.816000345512293 -24.780692554928464 0 0 0 0 -10.417522942401774 109.08044258206064 0 109.08044258206064 -35.523191879561637 0 0 0 0 -263.8720402095496 -200.44022937916452 0 -200.44022937916452 1036.9639414848825 0 0 0 0 5.2436238991772086 7.7228126569621764 0 7.7228126569621764 11.478704179545019 0 0 0 0 38.410052196435572 116.07365005231986 0 116.07365005231986 -16.160547065606806 0 0 0 0 0.027855333864863496 325.20193195570391 0 325.20193195570391 2308.511591830058 0 0 0 0 -164.47226162234438 330.62918511838507 0 330.62918511838507 1285.5193158104448 0 0 0 0 -100.85204493870697 -192.2485004287737 0 -192.2485004287737 647.73723806750058 0 0 0 0 -263.63031290278013 -178.10672595180222 0 -178.10672595180222 708.76470147103828 0 0 0 0 -103.85282370109053 65.305693737478578 0 65.305693737478578 93.7202768316929 0 0 0 0 -70.531358189015009 156.13186934500118 0 156.13186934500118 68.825164148784097 0 0 0 0 113.76009300887381 -117.18125563598733 0 -117.18125563598733 -343.72937934542369 0 0 0 0 -1.9891220561505634 9.2664304323576516 0 9.2664304323576516 -6.4291228651218262 0 0 0 0 987.62657978929929 1844.8530765817559 0 1844.8530765817559 -800.92623998274212 0 0 0 0 4.9594562356304142 509.45988325159948 0 509.45988325159948 324.13898610692559 0 0 0 0 1.7606511363266293 7.6053115981280612 0 7.6053115981280612 6.4486144172329034 0 0 0 0 3529.9750147972809 2312.3225481483096 0 2312.3225481483096 -20.276366380575201 0 0 0 0 -1.6087280209884511 6.232386558428658 0 6.232386558428658 -1.750791748805625 0 0 0 0 0.26676879630394978 33.529668362443772 0 33.529668362443772 0.01371400887001073 0 0 0 0 1.9835333736555896 14.752382526957362 0 14.752382526957362 22.509571343999824 0 0 0 0 -463.56153205105511 315.25330725821914 0 315.25330725821914 136.31056247439847 0 0 0 0 -1105.3525095597288 -192.91937069189589 0 -192.91937069189589 122.63552930733147 0 0 0 0 -635.34380297020107 718.55352644038794 0 718.55352644038794 432.84524229240196 0 0 0 0 648.21070074891759 837.92390911702751 0 837.92390911702751 -0.57315865264536114 0 0 0 0 1956.0300188833571 538.59084784771767 0 538.59084784771767 -300.40559895098704 0 0 0 0 189.51987258323061 579.73371594810305 0 579.73371594810305 207.30659843546528 0 0 0 0 677.57785948814853 174.83692232824251 0 174.83692232824251 173.30405984203389 0 0 0 0 0.039662515678756449 3.7189079412785162 0 3.7189079412785162 15.339525968787427 0 0 0 0 1000.0618278072216 430.49732179801322 0 430.49732179801322 -138.78165103781794 0 0 0 0 191.46911978302523 382.36317845126177 0 382.36317845126177 60.318847753202135 0 0 0 0 -141.79232279459393 79.796821978121443 0 79.796821978121443 -6.8525609806092689 0 0 0 0 233.32931491917407 416.58243331108679 0 416.58243331108679 -184.6788755695743 0 0 0 0 290.32815427504102 738.32172580989572 0 738.32172580989572 152.18715381949733 0 0 0 0 1.7031039389826645 4.233461761284623 0 4.233461761284623 10.43447908006317 0 0 0 0 -91.49639761236358 -252.45680172853281 0 -252.45680172853281 953.11139230629487 0 0 0 0 147.41253327425511 318.14004669305723 0 318.14004669305723 1032.7047691347198 0 0 0 0 623.99695669935318 -514.95694575237576 0 -514.95694575237576 50.394505923075485 0 0 0 0 -220.6270323646313 501.53669164604798 0 501.53669164604798 891.81589724684454 0 0 0 0 -2.667362172231222 4.6556329709434721 0 4.6556329709434721 30.74674306826094 0 0 0 0 -74.492658164832392 299.4125693075548 0 299.4125693075548 363.12359049510269 0 0 0 0 -438.39856977451564 -143.40481583963629 0 -143.40481583963629 91.82628671877319 0 0 0 0 -34.942567055928521 31.489205398480408 0 31.489205398480408 27.209141035942594 0 0 0 0 -1.8292982485581888 56.509569297391863 0 56.509569297391863 19.563183384831063 0 0 0 0 -53.194407500574016 39.831932868844888 0 39.831932868844888 21.556621798983542 0 0 0 0 -34.450281399178493 60.6719413641149 0 60.6719413641149 28.363523396212258 0 0 0 0 -117.69266830387733 28.873371721774674 0 28.873371721774674 31.936268402787391 0 0 0 0 -55.512023236762616 24.708310354908463 0 24.708310354908463 25.479652247588092 0 0 0 0 -61.064010889349447 52.498760145928827 0 52.498760145928827 11.717753566532338 0 0 0 0 -210.78422206228061 21.165654401560005 0 21.165654401560005 22.756560618276126 0 0 0 0 1.506645737630059 0.9620320013618624 0 0.9620320013618624 3.7398451252083476 0 0 0 0 -79.861526726148441 81.56851445358916 0 81.56851445358916 -0.034039175166449595 0 0 0 0 -44.29888469702928 36.002785484726701 0 36.002785484726701 15.157904171544942 0 0 0 0 12.393095629653544 61.99058025683189 0 61.99058025683189 25.752761722091236 0 0 0 0 10.861716240688111 71.656377940944367 0 71.656377940944367 -6.5171126183504384 0 0 0 0 24.158537755240104 72.542693827017501 0 72.542693827017501 -0.0067701352236326784 0 0 0 0 104.63046140547522 36.442014533924521 0 36.442014533924521 -7.7184619318868499 0 0 0 0 86.436540030125798 37.651836873442335 0 37.651836873442335 4.805837777472334 0 0 0 0 6.8201906914910069 36.968931776329555 0 36.968931776329555 11.737017535502673 0 0 0 0 41.071561789212865 62.839008198789088 0 62.839008198789088 8.5090773534307118 0 0 0 0 22.50532464841308 18.767401607085048 0 18.767401607085048 7.6898530898652098 0 0 0 0 28.76415286163683 47.235094011641195 0 47.235094011641195 -35.64689359167096 0 0 0 0 -7.3055193951440742 51.01490545087654 0 51.01490545087654 13.270932397373144 0 0 0 0 13.96538226902851 19.238416507008225 0 19.238416507008225 16.899876313546173 0 0 0 0 11.871856013021898 29.305723612531438 0 29.305723612531438 34.872387644572882 0 0 0 0 30.028770763172361 10.714616136661789 0 10.714616136661789 23.872605344091426 0 0 0 0 28.058493862848508 15.664669478223942 0 15.664669478223942 3.364148581576071 0 0 0 0 6.3435116032342194 4.8407407227969088 0 4.8407407227969088 56.316443030184018 0 0 0 0 15.356392944239332 12.045024659887403 0 12.045024659887403 -0.80459531332044909 0 0 0 0 5.8275617730469094 14.584592119550507 0 14.584592119550507 44.766336720865866 0 0 0 0 14.087263492969214 32.572644347368623 0 32.572644347368623 9.6143723573331954 0 0 0 0 4.1456275112468575 17.291955189537475 0 17.291955189537475 42.515005771012511 0 0 0 0 15.918897588504478 9.7512219648797327 0 9.7512219648797327 29.050529848609585 0 0 0 0 3.0137343551602385 14.82634030288466 0 14.82634030288466 6.7798631764034623 0 0 0 0 2.7024352511871257 17.55272544451509 0 17.55272544451509 57.468213287647814 0 0 0 0 -12.230546123319073 29.394945500473113 0 29.394945500473113 24.295851498617139 0 0 0 0 16.933041968441103 10.035805733365123 0 10.035805733365123 9.3625064179941546 0 0 0 0 5.9942302610288607 24.28755381532028 0 24.28755381532028 16.984594050023588 0 0 0 0 8.2285773572816652 16.051570270544531 0 16.051570270544531 14.761728881564395 0 0 0 0 -5.8316175996642414 53.10825157639556 0 53.10825157639556 -11.798344365102821 0 0 0 0 -24.884583564358763 42.456554822936596 0 42.456554822936596 12.365025791070366 0 0 0 0 1.1381555737187057 12.044957443182533 0 12.044957443182533 18.330200430082357 0 0 0 0 -21.524007045522922 28.261747047302833 0 28.261747047302833 27.066460751346312 0 0 0 0 5.2764683727218653 14.04644975039264 0 14.04644975039264 8.4420180120250734 0 0 0 0 -57.751988421499846 -121.69226679659187 0 -121.69226679659187 97.115603836842638 0 0 0 0 -0.44684585971988611 3.5094085196797806 0 3.5094085196797806 11.778449644658338 0 0 0 0 -7.1902799732270353 2.0038173034625402 0 2.0038173034625402 9.930057946101229 0 0 0 0 -232.25259851140436 -393.82188343982853 0 -393.82188343982853 144.92828385479515 0 0 0 0 -508.99248710708343 142.88929600587289 0 142.88929600587289 -11.637602107366547 0 0 0 0 1088.682605070022 339.74941686476632 0 339.74941686476632 12.305390556066413 0 0 0 0 254.70886433438864 173.01949849529774 0 173.01949849529774 30.651786855261889 0 0 0 0 -36.964958427735837 48.813586256823328 0 48.813586256823328 23.017699656047625 0 0 0 0 464.6422181238886 -260.65714187912818 0 -260.65714187912818 17.399097388290102 0 0 0 0 80.388797377992887 -70.244305235439242 0 -70.244305235439242 -77.798017762048403 0 0 0 0 -41.478796021714516 -104.83935680838476 0 -104.83935680838476 -20.764707031856233 0 0 0 0 5.4120061108639312 8.9555160280488337 0 8.9555160280488337 9.4182030407149568 0 0 0 0 15.634911180866766 22.793131105834618 0 22.793131105834618 35.616666991154489 0 0 0 0 42.760254437816911 71.555477824018453 0 71.555477824018453 -109.73506952110529 0 0 0 0 19.25250666658394 17.621957823488628 0 17.621957823488628 40.624862992059207 0 0 0 0 -5.9248877866339171 22.260513432793232 0 22.260513432793232 11.099041226952295 0 0 0 0 -7.9818203256872948 21.170810222633008 0 21.170810222633008 16.609186275561569 0 0 0 0 -57.909561391436 -18.477318553822442 0 -18.477318553822442 15.091107880100026 0 0 0 0 -7.2812595780224285 26.96569813913284 0 26.96569813913284 24.495146976978162 0 0 0 0 -13.915256856009364 24.969321178883547 0 24.969321178883547 6.7698166784248315 0 0 0 0 5.3899527085752155 32.883458931685681 0 32.883458931685681 34.321696356247543 0 0 0 0 -9.4916997374432412 24.086167360280029 0 24.086167360280029 34.654051609618882 0 0 0 0 50.415021304328548 78.365006249627186 0 78.365006249627186 123.98977401151205 0 0 0 0 -10.396667152599548 -5.3638451980441459 0 -5.3638451980441459 4.4597765908911242 0 0 0 0 -17.299290354264343 5.3374066158961995 0 5.3374066158961995 19.802207647158994 0 0 0 0 0.36463273740140778 0.55097687052507638 0 0.55097687052507638 0.31607064724013867 0 0 0 0 -60.362803688214626 164.95527166947431 0 164.95527166947431 157.12956006692548 0 0 0 0 19.686307889215982 30.999824595970509 0 30.999824595970509 41.415294514894811 0 0 0 0 -54.969529515346039 -58.799556760424252 0 -58.799556760424252 79.393373778948444 0 0 0 0 -33.707416277116863 70.169029297809175 0 70.169029297809175 174.65046894234911 0 0 0 0 0.96296599683648765 -1.0782036554247583 0 -1.0782036554247583 1.9941074895871083 0 0 0 0 3.5802491895883577 12.344219406288175 0 12.344219406288175 3.5147790397030576 0 0 0 0 -1.4428670245833928 9.1332928019437531 0 9.1332928019437531 4.0324845105278655 0 0 0 0 -46.745617362018493 5.1591139561892305 0 5.1591139561892305 251.52518733890611 0 0 0 0 2.7773636824713321 10.481957049516495 0 10.481957049516495 -28.12394148350063 0 0 0 0 0.32397702663246264 -2.1828352456350046 0 -2.1828352456350046 0.081039759141862788 0 0 0 0 -0.0029441355218295939 67.624473351210327 0 67.624473351210327 101.04425843486388 0 0 0 0 0.1098753443438909 50.169729298188031 0 50.169729298188031 -7.0000160588460858 0 0 0 0 -36.911023095453857 4.6477305444495869 0 4.6477305444495869 55.630498778053152 0 0 0 0 -86.305442000448238 103.24905482674512 0 103.24905482674512 -12.252094633960951 0 0 0 0 15.863180491156527 63.667717976288259 0 63.667717976288259 -48.56191134382243 0 0 0 0 16.889698381804124 21.62460930701841 0 21.62460930701841 27.094344534435947 0 0 0 0 61.836781630598125 442.90359287128649 0 442.90359287128649 -113.41495968449453 0 0 0 0 1.0913076576180174 -67.561403416239045 0 -67.561403416239045 28.106359080367838 0 0 0 0 -25.161136635244475 21.402262689209238 0 21.402262689209238 -39.385962579923216 0 0 0 0 -3.962566176756809 27.15939246490052 0 27.15939246490052 8.4369870358204935 0 0 0 0 -5.1662035229019239 23.618562739155095 0 23.618562739155095 12.939776661147334 0 0 0 0 1.4972652419673977 20.699001303162731 0 20.699001303162731 11.573337481211638 0 0 0 0 -0.0054601458323304541 23.962836485263324 0 23.962836485263324 10.700755793692224 0 0 0 0 -5.4308693275306723 16.868609121695044 0 16.868609121695044 9.1116050263335637 0 0 0 0 -0.0076694874178794724 20.616901584620443 0 20.616901584620443 -4.1912231150781736 0 0 0 0 1.8400127209461061 17.561544442065497 0 17.561544442065497 2.823807826346183 0 0 0 0 -0.78053210437792586 23.082735916110323 0 23.082735916110323 9.7026093196836882 0 0 0 0 15.702864892227808 24.44748691564746 0 24.44748691564746 12.28500906275076 0 0 0 0 1.3570124197431142 20.537407930700283 0 20.537407930700283 13.440814960158605 0 0 0 0 4.9214695055343327 9.0169365766469127 0 9.0169365766469127 9.8380151884266525 0 0 0 0 1.7803260546143065 19.438327657569801 0 19.438327657569801 19.157799312968564 0 0 0 0 2.0767086259549359 13.888201158886915 0 13.888201158886915 13.906467773967933 0 0 0 0 1.9215514685304704 18.281258412137305 0 18.281258412137305 13.064394310282125 0 0 0 0 -3.6807316404083394 16.470886465920557 0 16.470886465920557 22.663352862327883 0 0 0 0 7.9184725132756029 16.312991351653253 0 16.312991351653253 11.640834826748033 0 0 0 0 1.4240483683388447 21.636846358996991 0 21.636846358996991 10.91548232716741 0 0 0 0 -21.413297318311379 31.012734792317133 0 31.012734792317133 21.582088233008108 0 0 0 0 3.2759681987238416 15.294541934356772 0 15.294541934356772 9.5917420179123098 0 0 0 0 -1.9183493847958744 24.981993976711237 0 24.981993976711237 9.3611435984639684 0 0 0 0 21.460759075205715 21.917973337063813 0 21.917973337063813 4.7121422381605953 0 0 0 0 7.8485950369213242 10.41327152580925 0 10.41327152580925 4.2937567998851591 0 0 0 0 4.800656433988479 21.263348585122003 0 21.263348585122003 10.766286904785375 0 0 0 0 -3.2677239934678326 11.953617261493548 0 11.953617261493548 8.7240705226819557 0 0 0 0 -1.1820862339372979 19.649163333519027 0 19.649163333519027 13.390042634222482 0 0 0 0 23.881001361070958 12.162214534924715 0 12.162214534924715 4.5547072934386961 0 0 0 0 6.2357022858777782 11.335893708383082 0 11.335893708383082 7.8730311461404199 0 0 0 0 7.2371835404883313 18.516446484329663 0 18.516446484329663 1.3066235201113159 0 0 0 0 7.8885239000082947 14.640302186002373 0 14.640302186002373 13.219018422722002 0 0 0 0 -19.159366534913715 41.334907374173781 0 41.334907374173781 -28.246507019895944 0 0 0 0 -8.9062521758751245 15.432974747036496 0 15.432974747036496 21.245697363796353 0 0 0 0 -3.5187603754934713 0.037272954722482154 0 0.037272954722482154 0.64995442842555917 0 0 0 0 6.2690257399808615 39.415410475463432 0 39.415410475463432 0.53161272251600167 0 0 0 0 16.905076969014772 30.053105573402718 0 30.053105573402718 -4.2398917790269479 0 0 0 0 17.137693380267592 35.19043686396617 0 35.19043686396617 24.662038905842564 0 0 0 0 33.312455837309244 29.479365591254464 0 29.479365591254464 -2.6021752376764198 0 0 0 0 37.604706362959405 -10.591234279841728 0 -10.591234279841728 37.342367285011278 0 0 0 0 -3.2427400704327738 21.596487297590102 0 21.596487297590102 46.115365412304527 0 0 0 0 10.576853678620083 14.948558759524275 0 14.948558759524275 6.9310853964765329 0 0 0 0 -54.353762625338277 51.212799107532192 0 51.212799107532192 16.119555059238337 0 0 0 0 1.9043601632583886 31.117084052661085 0 31.117084052661085 -10.608663690363755 0 0 0 0 8.4843694758601487 -2.1925665334638325 0 -2.1925665334638325 16.774109694561048 0 0 0 0 5.1760461112389748 -13.45238916105609 0 -13.45238916105609 39.882000588768278 0 0 0 0 12.24111149611366 13.248104630052794 0 13.248104630052794 8.6418936227090626 0 0 0 0 12.670451413294359 12.733500559046661 0 12.733500559046661 8.0490624875965295 0 0 0 0 17.089240054112935 16.587490553271373 0 16.587490553271373 15.216668551472992 0 0 0 0 -10.583229081275931 47.331547397996474 0 47.331547397996474 3.6494969489331197 0 0 0 0 -0.26744907993452216 20.279934897213025 0 20.279934897213025 28.395302936478402 0 0 0 0 27.124243881611619 16.919018495256751 0 16.919018495256751 19.745221659679373 0 0 0 0 27.140526566923654 18.216173366789008 0 18.216173366789008 43.159672186405089 0 0 0 0 38.748952671128791 36.293109477863254 0 36.293109477863254 28.822961831356224 0 0 0 0 -1.6743157945966232 44.306441956021445 0 44.306441956021445 1.9658932717902644 0 0 0 0 11.734857415740407 11.347720507455961 0 11.347720507455961 24.118870776153926 0 0 0 0 20.804470335283639 21.324850864321043 0 21.324850864321043 20.552401870771064 0 0 0 0 25.383905449217792 26.052111800925008 0 26.052111800925008 25.722554498088073 0 0 0 0 -48.214121386285115 83.534865430781792 0 83.534865430781792 19.009810087126425 0 0 0 0 42.201232700244873 16.978674126890837 0 16.978674126890837 1.4334196775016608 0 0 0 0 -10.108325633958884 -23.362169252930471 0 -23.362169252930471 138.40968625280948 0 0 0 0 36.600776549705188 31.0122714636816 0 31.0122714636816 -6.0118121883133426 0 0 0 0 34.446730737334292 1.7274368148700887 0 1.7274368148700887 10.703203089389717 0 0 0 0 -2.622308313017129 12.562920756621679 0 12.562920756621679 -8.1156517011258984 0 0 0 0 27.338351338854409 7.3241519965085899 0 7.3241519965085899 -43.667716410272988 0 0 0 0 43.687757131105172 28.679229214598308 0 28.679229214598308 -27.03810350074491 0 0 0 0 42.992377284009933 100.91429507713431 0 100.91429507713431 -29.122823726720526 0 0 0 0 145.34310074871178 13.195047080556037 0 13.195047080556037 -52.974874243442173 0 0 0 0 158.60206036161344 194.41352848618567 0 194.41352848618567 -19.666876823990606 0 0 0 0 -0.31835958588663971 1.6570091663177777 0 1.6570091663177777 2.7707991073286422 0 0 0 0 -226.88523539196467 156.49126634827917 0 156.49126634827917 237.473300141035 0 0 0 0 414.58796362191788 -101.54185643473465 0 -101.54185643473465 67.79959652065736 0 0 0 0 -14.233659771962266 10.477745741385661 0 10.477745741385661 18.156086295766727 0 0 0 0 30.333576288066979 21.535593339212937 0 21.535593339212937 -12.145906788329739 0 0 0 0 31.710667133447714 90.772280688484898 0 90.772280688484898 166.98966569161894 0 0 0 0 20.895695744125987 2.5771713549802371 0 2.5771713549802371 -79.078691480857742 0 0 0 0 -1.3681236808850485 -2.330607288050814 0 -2.330607288050814 1.3120042397994496 0 0 0 0 -7.1591972115711542 13.460622774458898 0 13.460622774458898 277.76845367734131 0 0 0 0 5.7242322246631829 -1.0611211424633229 0 -1.0611211424633229 -1.4885885352955341 0 0 0 0 5.2140709945979324 0.90678905027516521 0 0.90678905027516521 44.657748058663856 0 0 0 0 88.509980844035454 97.533508158025143 0 97.533508158025143 47.622442669991869 0 0 0 0 27.465077625813137 66.647642386657026 0 66.647642386657026 32.539255741477973 0 0 0 0 15.594920041417936 23.466182792224572 0 23.466182792224572 -5.9175183744373498 0 0 0 0 0.49268988959470938 15.344586361910601 0 15.344586361910601 2.3892596079460588 0 0 0 0 4.3126636770597244 16.831994235658925 0 16.831994235658925 4.7654473904173358 0 0 0 0 -4.2639219421398593 17.944542028060823 0 17.944542028060823 28.894674163411764 0 0 0 0 23.071362399940426 18.515815521820628 0 18.515815521820628 6.6985201593051897 0 0 0 0 4.0415427825664665 39.395045447543907 0 39.395045447543907 -8.1787546827108599 0 0 0 0 3.0594523636100348 34.353758837682108 0 34.353758837682108 -19.895356570592412 0 0 0 0 9.1586251742304796 4.5582952479448835 0 4.5582952479448835 0.70724695191602649 0 0 0 0 2.5805076936376281 27.468219440575922 0 27.468219440575922 -2.069297131653002 0 0 0 0 3.8595715282725509 15.15882843222505 0 15.15882843222505 4.5595282806034163 0 0 0 0 -11.400565315039785 33.357994222326852 0 33.357994222326852 0.073584115496487357 0 0 0 0 1.8588593648389633 15.089809493036569 0 15.089809493036569 8.6053200237365672 0 0 0 0 -8.7801555667683715 20.736663914018209 0 20.736663914018209 13.64087572783319 0 0 0 0 -5.5040134321025107 39.457289542049693 0 39.457289542049693 2.2788035153316741 0 0 0 0 12.54678012345903 18.283316432376523 0 18.283316432376523 4.9357238138109096 0 0 0 0 7.0043828590278281 18.37942320818911 0 18.37942320818911 5.2353917733635171 0 0 0 0 15.389061252159792 10.718525346890527 0 10.718525346890527 3.9681797788766033 0 0 0 0 0.55059648544818174 -0.43917285070091339 0 -0.43917285070091339 -0.72245716504157542 0 0 0 0 -8.4276966432689733 7.850300641527383 0 7.850300641527383 27.406180682548438 0 0 0 0 0.17424820800513174 13.474876667705928 0 13.474876667705928 8.9144003205317688 0 0 0 0 0.64107821851606062 4.3103225024351275 0 4.3103225024351275 -2.7396895739617264 0 0 0 0 26.130480017454829 19.645344765664049 0 19.645344765664049 2.489217124908464 0 0 0 0 -35.578505735943509 25.413898457803953 0 25.413898457803953 -5.9277541525661945 0 0 0 0 27.986513364230632 21.622361703935894 0 21.622361703935894 3.4059400409933005 0 0 0 0 33.634120084432652 21.076249920850387 0 21.076249920850387 0.71423831136416993 0 0 0 0 12.458969113009516 23.02854795103849 0 23.02854795103849 2.0811519624949142 0 0 0 0 -161.36680808196252 41.1991447038763 0 41.1991447038763 7.4721066004749446 0 0 0 0 79.95640270144213 36.512613351966138 0 36.512613351966138 -30.0324645857836 0 0 0 0 -0.78852443698900387 2.3068757471495474 0 2.3068757471495474 -0.73498633356498999 0 0 0 0 39.175309146874497 5.6201649605272905 0 5.6201649605272905 16.997779587109108 0 0 0 0 -38.649825231841533 21.964574368812464 0 21.964574368812464 -9.2206396251094702 0 0 0 0 -62.827279625158553 101.38303830410041 0 101.38303830410041 -21.55989288535784 0 0 0 0 0.070638218615425172 59.89207069965849 0 59.89207069965849 22.626305235629843 0 0 0 0 -10.98231008790026 31.755253679675661 0 31.755253679675661 -28.212992622735328 0 0 0 0 -36.028443906121538 53.015250383225066 0 53.015250383225066 -18.903863836736491 0 0 0 0 -0.030107383907306939 37.69848028886372 0 37.69848028886372 -16.084272234722448 0 0 0 0 -20.257334415269725 24.207901955544003 0 24.207901955544003 -13.658935807939997 0 0 0 0 -0.0067108128132531419 26.489916650278246 0 26.489916650278246 5.1674343749364198 0 0 0 0 -19.834712095685859 41.567360113210498 0 41.567360113210498 -5.5621794429316651 0 0 0 0 48.867372567991026 51.93075322487735 0 51.93075322487735 55.251160476623767 0 0 0 0 -36.832816265379734 163.38232065030024 0 163.38232065030024 8.5772951283070142 0 0 0 0 6.3741491558175767 81.201542457652977 0 81.201542457652977 61.455109400340007 0 0 0 0 80.222228120735963 15.367603585993493 0 15.367603585993493 55.775114547242993 0 0 0 0 4.1182331122042797 24.247841787124685 0 24.247841787124685 91.572184009739431 0 0 0 0 52.495181573343871 64.779072220841044 0 64.779072220841044 35.01045674845227 0 0 0 0 45.457972016374697 49.645618739901693 0 49.645618739901693 42.657292415227857 0 0 0 0 43.376258175085241 148.94515028779279 0 148.94515028779279 13.945642348066031 0 0 0 0 61.944603507225111 79.245581513780053 0 79.245581513780053 -27.002706299961574 0 0 0 0 59.756065436016797 -6.385671677038772 0 -6.385671677038772 17.336173637791944 0 0 0 0 -0.54504545898293344 10.388041885645691 0 10.388041885645691 -10.304105925528802 0 0 0 0 144.09275383008207 122.60348897225776 0 122.60348897225776 -9.8177742948682862 0 0 0 0 188.58213600591989 69.186079314647941 0 69.186079314647941 -4.9423118340710062 0 0 0 0 70.07140715580681 105.77597359248466 0 105.77597359248466 57.696189272217453 0 0 0 0 53.550295515376348 113.19889870802919 0 113.19889870802919 2.2188992820156273 0 0 0 0 53.496465589341824 105.75436851779523 0 105.75436851779523 72.95684342108143 0 0 0 0 256.0476951679866 166.67809504988509 0 166.67809504988509 42.614243806980085 0 0 0 0 161.11566395869886 95.93003269453402 0 95.93003269453402 -6.9120779649238102 0 0 0 0 179.89222709093883 50.449701493453176 0 50.449701493453176 62.143747043795884 0 0 0 0 126.7697576914652 63.06922442225914 0 63.06922442225914 15.334182118138415 0 0 0 0 59.580409162239448 77.429837570831296 0 77.429837570831296 24.429927136050537 0 0 0 0 59.656836544404541 77.574723825332057 0 77.574723825332057 1.0583614067436429 0 0 0 0 -17.226956345402868 88.66921885064221 0 88.66921885064221 12.960598197023501 0 0 0 0 -10.828183195491874 103.74305510409977 0 103.74305510409977 1.6297670374624431 0 0 0 0 -2.044101741797931 79.896595348691335 0 79.896595348691335 32.780699214781635 0 0 0 0 -2.2237418031363632 79.44640181277282 0 79.44640181277282 -7.9201784158794908 0 0 0 0 44.689179726450618 42.157174279504666 0 42.157174279504666 38.431513968983154 0 0 0 0 -71.942556444493675 137.90061827369937 0 137.90061827369937 61.749698515544878 0 0 0 0 -83.962999463066808 105.82501446822425 0 105.82501446822425 29.851377254308318 0 0 0 0 -35.70649232202959 145.81136258771767 0 145.81136258771767 -140.19725008458772 0 0 0 0 -53.445309460061253 126.46052850948763 0 126.46052850948763 -1.4415910453826655 0 0 0 0 -31.626392179401591 100.70926141373639 0 100.70926141373639 28.942868270904 0 0 0 0 -16.018355198587415 92.144189338805518 0 92.144189338805518 -34.876316247595241 0 0 0 0 73.400399487814866 31.652367438888177 0 31.652367438888177 30.913502136565512 0 0 0 0 -47.813079810104682 54.542331990422099 0 54.542331990422099 -48.477921412297292 0 0 0 0 -8.7474598100991159 5.0326149390765949 0 5.0326149390765949 10.674333521792164 0 0 0 0 136.87916578768636 117.01852199080167 0 117.01852199080167 -11.892108808169723 0 0 0 0 -103.79669801599812 174.58054109479417 0 174.58054109479417 -38.953402991688563 0 0 0 0 11.001252691965391 0.85979022546189299 0 0.85979022546189299 -7.9620083679467371 0 0 0 0 41.37277850092147 33.228731875017068 0 33.228731875017068 24.638546396605477 0 0 0 0 48.721616686321795 27.900005011470057 0 27.900005011470057 37.661893802047416 0 0 0 0 39.239074447112216 29.686237142133905 0 29.686237142133905 36.080481472599786 0 0 0 0 47.47458577890302 20.325020564394435 0 20.325020564394435 27.603079429376521 0 0 0 0 55.181676816573599 33.336298702066415 0 33.336298702066415 37.881881121697006 0 0 0 0 52.353666386617988 19.940464527720906 0 19.940464527720906 35.982434136560187 0 0 0 0 146.17229391055298 57.973854055453558 0 57.973854055453558 17.062009809716983 0 0 0 0 61.411111312852881 62.146007967068726 0 62.146007967068726 23.559668817193597 0 0 0 0 1.4367983987443553 24.446705153295554 0 24.446705153295554 30.557768382420051 0 0 0 0 54.993305870273616 13.833345055405516 0 13.833345055405516 25.771869720418181 0 0 0 0 5.901965523014951 20.893772436116706 0 20.893772436116706 36.514209666820534 0 0 0 0 28.170033011163468 34.741106334120559 0 34.741106334120559 31.685242321536862 0 0 0 0 31.141597119119979 17.149123461516865 0 17.149123461516865 24.867574202173273 0 0 0 0 -2.0645268673786834 23.130194178689393 0 23.130194178689393 29.532607617438174 0 0 0 0 78.509765443886863 21.545149883328122 0 21.545149883328122 6.2244252332311589 0 0 0 0 41.967650051235978 14.986763822811781 0 14.986763822811781 14.283777665594243 0 0 0 0 6.5100129458369338 24.280322103149956 0 24.280322103149956 42.211446053966938 0 0 0 0 27.703021715467912 38.57401731400023 0 38.57401731400023 37.124368931778008 0 0 0 0 39.203510039968933 25.801370928278629 0 25.801370928278629 21.435992165876087 0 0 0 0 92.784195290470961 23.030389698702493 0 23.030389698702493 -1.3343118588163634 0 0 0 0 2.8340523554405692 24.31226376375389 0 24.31226376375389 28.522289484702242 0 0 0 0 -1.1177435537080953 0.2994420562185951 0 0.2994420562185951 2.2166971105788491 0 0 0 0 65.366705375694437 55.484418689426093 0 55.484418689426093 57.480541339902629 0 0 0 0 61.251528293410956 18.797642514968175 0 18.797642514968175 70.226736973854713 0 0 0 0 42.948831442626215 42.797834308281381 0 42.797834308281381 43.785883650183678 0 0 0 0 41.435677760418912 21.499045619217213 0 21.499045619217213 38.753891946456861 0 0 0 0 59.747895965971111 50.724039506530971 0 50.724039506530971 33.471524661559215 0 0 0 0 58.699006364280649 37.787596590955218 0 37.787596590955218 34.93612341095286 0 0 0 0 118.1941697974944 55.537516696818784 0 55.537516696818784 36.708142386261898 0 0 0 0 85.081977028494293 48.529023232644249 0 48.529023232644249 35.588666619747528 0 0 0 0 -1.2983227336365104 -0.99757624754911944 0 -0.99757624754911944 2.9191535585312351 0 0 0 0 84.700701281435613 49.593740358935975 0 49.593740358935975 45.205762944773596 0 0 0 0 69.764385643160495 58.432818245873932 0 58.432818245873932 65.176224220173026 0 0 0 0 75.059441583536682 57.849028104210447 0 57.849028104210447 46.059676457594833 0 0 0 0 80.671384946399485 49.160963102018286 0 49.160963102018286 56.108683221282263 0 0 0 0 70.596676202090833 24.619464057472953 0 24.619464057472953 -24.651204324690141 0 0 0 0 78.75087045642249 55.314045256183817 0 55.314045256183817 61.620007106903358 0 0 0 0 197.93853935138031 26.909110521894036 0 26.909110521894036 -64.446610509432503 0 0 0 0 36.102181074544205 63.368450934194698 0 63.368450934194698 83.346068450206076 0 0 0 0 -7.0255717091224739 -1.3594753234311057 0 -1.3594753234311057 4.6883816693047038 0 0 0 0 47.522625844725553 29.189733030843854 0 29.189733030843854 31.697693346977758 0 0 0 0 75.17880059008894 60.99637226282357 0 60.99637226282357 51.674706749323377 0 0 0 0 50.66459208989545 43.012785965598596 0 43.012785965598596 28.415285553841386 0 0 0 0 7.8201713694533339 5.0268478512852539 0 5.0268478512852539 9.3434239901131946 0 0 0 0 71.768596749152493 52.150827516022218 0 52.150827516022218 57.162155178222747 0 0 0 0 25.796664868590682 30.900116641199631 0 30.900116641199631 31.437265540347781 0 0 0 0 17.312251319184043 26.917345468953819 0 26.917345468953819 21.732448944180675 0 0 0 0 9.0942040400841506 27.560497349877551 0 27.560497349877551 22.666133791528409 0 0 0 0 21.288860953776748 86.118300199694204 0 86.118300199694204 -16.624785878226248 0 0 0 0 0.65969435076112859 94.831567952394835 0 94.831567952394835 -29.690177745320398 0 0 0 0 17.242873702480711 16.83133059572404 0 16.83133059572404 3.5030942119901454 0 0 0 0 -91.815249422565103 204.17775962033556 0 204.17775962033556 118.12249169871211 0 0 0 0 -252.80079674527224 121.57490233896169 0 121.57490233896169 117.69165930699819 0 0 0 0 15.536524626921164 21.826461706801638 0 21.826461706801638 13.452117994893342 0 0 0 0 10.332354428065081 24.138462945316149 0 24.138462945316149 19.151379705315549 0 0 0 0 10.611971628532046 26.697431867025443 0 26.697431867025443 22.596294950168158 0 0 0 0 9.547449611629105 20.194630216962338 0 20.194630216962338 14.722941971666785 0 0 0 0 18.049022937522182 22.310352404198483 0 22.310352404198483 15.079652724887467 0 0 0 0 20.346752920043542 15.844407219167465 0 15.844407219167465 5.1553276805223192 0 0 0 0 30.396936757693766 24.062894619637518 0 24.062894619637518 1.1804292152955895 0 0 0 0 23.448467505397275 23.623961992692784 0 23.623961992692784 12.01628584851278 0 0 0 0 30.498377324183821 10.351088194915064 0 10.351088194915064 -4.7522876569928485 0 0 0 0 20.881972672282473 23.32040239832034 0 23.32040239832034 19.592750550430864 0 0 0 0 37.159992432410647 41.553874099690539 0 41.553874099690539 22.58519575007233 0 0 0 0 28.383846606361033 20.848381152329807 0 20.848381152329807 -2.2537755959136803 0 0 0 0 33.760345831105951 25.091718479328847 0 25.091718479328847 -4.5800528073305031 0 0 0 0 33.842389703160734 34.914627198442759 0 34.914627198442759 1.2236689490091521 0 0 0 0 27.054429843514669 34.624382174174542 0 34.624382174174542 22.449486543468311 0 0 0 0 14.398394861673637 -0.47049827424656598 0 -0.47049827424656598 -19.428682741386396 0 0 0 0 59.113044238154544 46.907829482559464 0 46.907829482559464 -28.956012921640649 0 0 0 0 20.949451819457465 16.125989785605505 0 16.125989785605505 3.783340415054596 0 0 0 0 36.599646456917981 5.9805106533276557 0 5.9805106533276557 6.8881903636938659 0 0 0 0 37.723281567450613 5.1128902306118107 0 5.1128902306118107 -27.827687866814813 0 0 0 0 17.193850147858029 47.914325821369857 0 47.914325821369857 -17.78427938913228 0 0 0 0 45.944041914306581 30.654566409892141 0 30.654566409892141 -41.070267907583911 0 0 0 0 -1.906065763182113 7.4684376541558493 0 7.4684376541558493 -0.25011010203947137 0 0 0 0 12.936864895556937 41.465093930844887 0 41.465093930844887 13.328830883845512 0 0 0 0 61.52703765242768 20.416293286627479 0 20.416293286627479 -17.167047898303281 0 0 0 0 2.8331608246585827 6.5582781304168236 0 6.5582781304168236 0.4474109283906671 0 0 0 0 44.253552191985364 32.737219502934749 0 32.737219502934749 -8.9869456750893733 0 0 0 0 94.749367446927863 84.364114278422448 0 84.364114278422448 -13.810386255958292 0 0 0 0 75.39937809552066 -17.549918847314984 0 -17.549918847314984 -75.32668114774242 0 0 0 0 66.14758889082708 28.889799166852725 0 28.889799166852725 -17.902043919826667 0 0 0 0 76.158394438585674 -39.585918692997438 0 -39.585918692997438 -17.343138609445305 0 0 0 0 133.16605732165044 -8.7703730162684224 0 -8.7703730162684224 -19.599494764552219 0 0 0 0 3.5857279428350068 2.5463849702086776 0 2.5463849702086776 1.1227308079733547 0 0 0 0 7.7110321378302729 3.9806527289688916 0 3.9806527289688916 -1.2449205712150473 0 0 0 0 -15.678646146479878 -42.983179557864787 0 -42.983179557864787 35.366660248973858 0 0 0 0 81.130968256911729 1.3998410259082448 0 1.3998410259082448 8.1354092787441914 0 0 0 0 195.1672244258807 -48.002480405215465 0 -48.002480405215465 -14.656206541927531 0 0 0 0 282.50869711101404 119.29280288824157 0 119.29280288824157 1.3258830695485813 0 0 0 0 153.20161164813908 67.071854616300698 0 67.071854616300698 -19.683654736381868 0 0 0 0 167.27068328215682 154.31258104861263 0 154.31258104861263 13.736814130934363 0 0 0 0 172.01285881557851 147.53238856210373 0 147.53238856210373 21.586456855002325 0 0 0 0 159.43075556508848 115.49423323240626 0 115.49423323240626 6.1797528764427625 0 0 0 0 211.4787479377228 117.50148096380872 0 117.50148096380872 6.0048775532704894 0 0 0 0 142.77733991501009 73.335698418784887 0 73.335698418784887 9.3406706874884549 0 0 0 0 26.990358155249851 70.037488489484531 0 70.037488489484531 105.77514677081126 0 0 0 0 194.87651573595213 156.73860315142065 0 156.73860315142065 4.0347135281190276 0 0 0 0 112.68391349380545 10.621214786653582 0 10.621214786653582 -108.76224651632947 0 0 0 0 241.23800677223335 197.73630517720085 0 197.73630517720085 61.762033074424835 0 0 0 0 78.490731432919233 30.941060744218717 0 30.941060744218717 -16.889166588508516 0 0 0 0 123.06897309367196 83.5558772321383 0 83.5558772321383 26.271642971365509 0 0 0 0 20.625946119140167 22.168942757412822 0 22.168942757412822 8.9488312022271117 0 0 0 0 58.409790680270817 70.075738331710454 0 70.075738331710454 50.753410396457184 0 0 0 0 30.817122410842785 93.004074166427927 0 93.004074166427927 34.204716319945874 0 0 0 0 86.148482804925152 56.630270450319586 0 56.630270450319586 34.621530016913312 0 0 0 0 78.636821271495137 44.652361495818695 0 44.652361495818695 52.061340593536443 0 0 0 0 44.789974859137146 113.68574040698877 0 113.68574040698877 192.7494045780586 0 0 0 0 37.801473666346283 58.505935204557318 0 58.505935204557318 40.958713841857389 0 0 0 0 -0.68195664310500348 39.199965815095595 0 39.199965815095595 48.478434486083529 0 0 0 0 -4.1910526367864804 54.471317102652392 0 54.471317102652392 31.444072071361006 0 0 0 0 21.779483199251587 52.097924616186162 0 52.097924616186162 25.590947760193956 0 0 0 0 53.078206336275912 67.705227234753821 0 67.705227234753821 59.317500146384702 0 0 0 0 52.615633964596782 102.94701118132798 0 102.94701118132798 15.99030521477107 0 0 0 0 103.17943325193482 63.488420480309287 0 63.488420480309287 31.586306129078366 0 0 0 0 7.9160883611878816 15.383041613224023 0 15.383041613224023 2.5689338623827496 0 0 0 0 -36.726881656799378 77.174855096185638 0 77.174855096185638 38.181231503898744 0 0 0 0 11.534201649192255 52.622319977934239 0 52.622319977934239 -20.367579047786421 0 0 0 0 -2.6901157010250358 87.957116634527338 0 87.957116634527338 58.954547657804426 0 0 0 0 51.423614551924402 101.29099111594405 0 101.29099111594405 33.140335387055529 0 0 0 0 -1.4891192155864985 24.983941731175079 0 24.983941731175079 11.02458110234865 0 0 0 0 -28.204174497863278 127.61045741003181 0 127.61045741003181 144.83385329318116 0 0 0 0 14.793580159609292 70.79835496908845 0 70.79835496908845 17.130411526103231 0 0 0 0 -20.309256519514747 95.483560962882621 0 95.483560962882621 111.00111478718463 0 0 0 0 56.420642950513866 126.76589582487941 0 126.76589582487941 34.504460397234652 0 0 0 0 25.325348772938014 108.1482910003906 0 108.1482910003906 108.89214833921869 0 0 0 0 -13.594785855343609 70.232946682520165 0 70.232946682520165 73.100086973626588 0 0 0 0 -12.763752943457803 152.14302023570053 0 152.14302023570053 64.605568544524431 0 0 0 0 32.964899931845451 41.990687368054495 0 41.990687368054495 32.375651804490332 0 0 0 0 -21.108662985861883 159.88628833671828 0 159.88628833671828 -2.500106284445792 0 0 0 0 8.3245803659916646 35.181705886794816 0 35.181705886794816 16.261655472898497 0 0 0 0 -30.189826963454834 75.363483759492738 0 75.363483759492738 48.47290407239052 0 0 0 0 -1.8357622257300505 47.522228375806861 0 47.522228375806861 28.277096599729305 0 0 0 0 20.218604405250517 129.61896555623753 0 129.61896555623753 -62.769000943852006 0 0 0 0 59.842699006770999 121.97437755075771 0 121.97437755075771 -19.287235545984004 0 0 0 0 15.919666595000308 116.47687466210482 0 116.47687466210482 52.409018921889583 0 0 0 0 -14.92368415667657 76.695246603289121 0 76.695246603289121 28.187587898412545 0 0 0 0 7.4435384516400518 68.90648507489459 0 68.90648507489459 38.150015172686835 0 0 0 0 -90.92956690423523 71.970167618993969 0 71.970167618993969 -22.978577197645791 0 0 0 0 24.73542270885082 92.787538621545536 0 92.787538621545536 -56.761464409581095 0 0 0 0 53.740491662356362 55.071950770583499 0 55.071950770583499 -44.417528120618954 0 0 0 0 83.964303876851773 142.26569907585326 0 142.26569907585326 36.015143526550673 0 0 0 0 44.617860541769915 35.350584777124823 0 35.350584777124823 -19.354673588710284 0 0 0 0 -12.812701328786208 73.181863102238324 0 73.181863102238324 37.005376766190864 0 0 0 0 334.18985835651984 157.32275733464121 0 157.32275733464121 -15.516113230367409 0 0 0 0 -13.382623284676406 73.578675034397918 0 73.578675034397918 44.954774358264046 0 0 0 0 -227.81237818572117 -153.46599374341167 0 -153.46599374341167 371.90365674216446 0 0 0 0 -8.8771006509996369 276.4140352074628 0 276.4140352074628 252.90048627165379 0 0 0 0 3.4827983992827001 3.2923939772521607 0 3.2923939772521607 2.6393907595126507 0 0 0 0 -125.67214190177037 45.920078963019478 0 45.920078963019478 238.72422122134594 0 0 0 0 735.08288166483908 -44.07977995928195 0 -44.07977995928195 -50.163986639010545 0 0 0 0 387.81799926383974 455.48765319962513 0 455.48765319962513 -31.651255482793204 0 0 0 0 -159.8212289897383 211.77327260148013 0 211.77327260148013 148.8753366918645 0 0 0 0 176.36483867387869 99.733862087909074 0 99.733862087909074 -17.059105788714078 0 0 0 0 168.96250667763525 81.763691822015971 0 81.763691822015971 -27.755817529084197 0 0 0 0 174.33213014867215 73.446165326425216 0 73.446165326425216 -15.742163842922309 0 0 0 0 -9.069091005538354 13.300101757681496 0 13.300101757681496 8.4173924258448665 0 0 0 0 232.31305636088291 82.411431539647538 0 82.411431539647538 -5.0647819949917903 0 0 0 0 -13.550518554807134 74.660632386687411 0 74.660632386687411 46.572047076955499 0 0 0 0 116.93418283588835 52.395544982486172 0 52.395544982486172 34.159031570450679 0 0 0 0 109.75087007567345 100.663488423128 0 100.663488423128 60.724009822408334 0 0 0 0 209.44487429871515 6.4585407176127774 0 6.4585407176127774 49.868255804387445 0 0 0 0 197.15317921985115 76.569695199123089 0 76.569695199123089 43.407101564436744 0 0 0 0 203.48386501835193 35.659646286910629 0 35.659646286910629 307.25102075146424 0 0 0 0 97.657499998924322 36.271385447074863 0 36.271385447074863 89.973102844716777 0 0 0 0 10.520078710755115 68.072727404883835 0 68.072727404883835 106.81632215503487 0 0 0 0 60.391279239889627 120.5361110114045 0 120.5361110114045 64.84887325388263 0 0 0 0 135.1035159416133 173.02615571499882 0 173.02615571499882 85.290522320017772 0 0 0 0 217.56437843809545 153.03174821884386 0 153.03174821884386 21.12951228273414 0 0 0 0 207.33245167906534 108.53721056173435 0 108.53721056173435 35.368967548965884 0 0 0 0 4.193683899796838 1.8194718769946405 0 1.8194718769946405 0.31901393703130054 0 0 0 0 440.52416243663174 226.74850501480068 0 226.74850501480068 88.755194066925469 0 0 0 0 469.74945051062969 -75.818969056141214 0 -75.818969056141214 19.739126852704885 0 0 0 0 126.47555367529276 -45.779311724727449 0 -45.779311724727449 17.189804704823473 0 0 0 0 -34.949249769653761 20.103269754910343 0 20.103269754910343 176.27391897744383 0 0 0 0 5.4068645714287413 55.88291347710765 0 55.88291347710765 -96.483740461677371 0 0 0 0 -8.1804370898971683 -23.600629266777105 0 -23.600629266777105 80.150697036500787 0 0 0 0 15.817079748492688 14.966879195118963 0 14.966879195118963 101.93132594221242 0 0 0 0 -21.563963672262616 -60.436803880293155 0 -60.436803880293155 14.00357261733734 0 0 0 0 -21.56396367191337 -60.436803880329535 0 -60.436803880329535 14.003572617350983 0 0 0 0 -21.563963671942474 -60.436803880438674 0 -60.436803880438674 14.003572617395548 0 0 0 0 -25.747996175043227 72.73686937635739 0 72.73686937635739 240.24261539042345 0 0 0 0 162.15668533714779 237.97043336558636 0 237.97043336558636 259.22655959387021 0 0 0 0 27.317946693481645 61.689636907871318 0 61.689636907871318 159.65354699340969 0 0 0 0 56.089584445784567 79.644184734444934 0 79.644184734444934 93.156045750940393 0 0 0 0 0.051703999507783038 0.97683086636419603 0 0.97683086636419603 0.1009652458158854 0 0 0 0 20.387359929045488 33.48208810120741 0 33.48208810120741 32.415316367594642 0 0 0 0 -33.192485536477761 -2.3259059006559255 0 -2.3259059006559255 25.785033177658988 0 0 0 0 95.279310851850369 20.560252327857597 0 20.560252327857597 5.6681745597452391 0 0 0 0 30.390414139372297 15.918343005632778 0 15.918343005632778 58.113630766834831 0 0 0 0 -16.01352789747034 23.683727994907713 0 23.683727994907713 17.256078283571696 0 0 0 0 36.619238396931905 8.3822938329394674 0 8.3822938329394674 -5.3354793134240026 0 0 0 0 19.757169662800152 23.567742888266366 0 23.567742888266366 59.77157651773814 0 0 0 0 15.180810393372667 19.854830330423738 0 19.854830330423738 68.899653155560372 0 0 0 0 8.5736388325167354 34.758688888487086 0 34.758688888487086 55.368823870536289 0 0 0 0 20.494969042098091 21.386484130225654 0 21.386484130225654 48.236329018058314 0 0 0 0 10.285607135258033 49.247371053728784 0 49.247371053728784 39.133053830042627 0 0 0 0 20.09618132081232 45.87133387373251 0 45.87133387373251 32.533487830060039 0 0 0 0 76.357588959523127 81.028538639497128 0 81.028538639497128 36.129408584994962 0 0 0 0 20.462442953052232 54.51635597403947 0 54.51635597403947 95.907367894709751 0 0 0 0 37.143224569997983 59.151835154914806 0 59.151835154914806 25.081564683818215 0 0 0 0 83.842466852831421 106.6315802820136 0 106.6315802820136 -10.781062870387359 0 0 0 0 20.723337386312778 82.173962621714963 0 82.173962621714963 11.059613999670546 0 0 0 0 471.04318168418831 84.426019021453612 0 84.426019021453612 33.953443023685395 0 0 0 0 205.04699116655684 71.434277712169205 0 71.434277712169205 33.644141720378229 0 0 0 0 235.50166578481731 118.10565187287102 0 118.10565187287102 1.5905974068336945 0 0 0 0 75.775670472651768 120.83945009343627 0 120.83945009343627 121.00933366124809 0 0 0 0 141.71744891785784 107.53769301035572 0 107.53769301035572 0.53507848160370486 0 0 0 0 201.282698936222 76.826065166786066 0 76.826065166786066 -6.068937954149078 0 0 0 0 193.51372994450912 108.06201077416051 0 108.06201077416051 -17.127372031278355 0 0 0 0 208.97637071817735 101.6577829062885 0 101.6577829062885 -46.605961087490869 0 0 0 0 157.80438896821579 102.5005683199488 0 102.5005683199488 -41.300111645328798 0 0 0 0 193.58203413957381 115.72956238513143 0 115.72956238513143 -71.585045372044988 0 0 0 0 169.92459818052157 112.21715486590074 0 112.21715486590074 -130.31442645958305 0 0 0 0 181.44661861150234 145.0564546276928 0 145.0564546276928 -51.736618528635518 0 0 0 0 35.097823159892869 55.886678926532113 0 55.886678926532113 -60.225154527968698 0 0 0 0 19.64045408689708 90.606860498533933 0 90.606860498533933 -59.022978568388339 0 0 0 0 3.4449689993489301 89.370260190039517 0 89.370260190039517 -30.916441785895586 0 0 0 0 155.62242477004838 112.50683314154685 0 112.50683314154685 -77.93029920797926 0 0 0 0 116.89798161754152 73.243605265789483 0 73.243605265789483 -39.445569202413026 0 0 0 0 109.86650157985423 87.613447344126143 0 87.613447344126143 -152.77085459078808 0 0 0 0 115.77844312315574 114.68848115993205 0 114.68848115993205 -61.879936381677908 0 0 0 0 54.736538938559534 84.977957535702444 0 84.977957535702444 -227.53264908852725 0 0 0 0 79.207606012947508 143.44448949248363 0 143.44448949248363 -105.87993163848023 0 0 0 0 -27.184694333889638 84.196710672120389 0 84.196710672120389 -194.16105447839891 0 0 0 0 178.75809157926415 190.78480699058127 0 190.78480699058127 -77.225712225528696 0 0 0 0 150.73597511677872 128.98485774077517 0 128.98485774077517 -191.72282503623501 0 0 0 0 179.17260850089951 271.00346475105289 0 271.00346475105289 -98.47765795633677 0 0 0 0 131.84900701139122 206.26668322366413 0 206.26668322366413 -143.93112464079422 0 0 0 0 109.53321772390336 251.71921660101179 0 251.71921660101179 -236.50792174397793 0 0 0 0 191.86912251685862 151.05444136341521 0 151.05444136341521 -16.063809111943556 0 0 0 0 190.35468002378911 143.11579373341101 0 143.11579373341101 -57.633314909820911 0 0 0 0 190.85548551412649 190.65848877359713 0 190.65848877359713 -38.056470961928426 0 0 0 0 188.57336596652749 189.28885778953099 0 189.28885778953099 -0.24783586297780857 0 0 0 0 175.96079435828869 178.04210828800296 0 178.04210828800296 -30.250350729231286 0 0 0 0 181.86361619163654 173.50517014139041 0 173.50517014139041 32.762064171725797 0 0 0 0 182.60029725267668 186.5775189523647 0 186.5775189523647 23.592632254265482 0 0 0 0 172.84058148281474 207.13144631044452 0 207.13144631044452 57.375649313578833 0 0 0 0 189.19554579239048 176.52671021558854 0 176.52671021558854 16.745162579096359 0 0 0 0 -55.053720991010778 144.76757023458958 0 144.76757023458958 177.90002122223814 0 0 0 0 163.10185534977245 140.3623369645627 0 140.3623369645627 12.962722180916899 0 0 0 0 171.07528994766471 161.69044866669719 0 161.69044866669719 -17.072224457926495 0 0 0 0 137.90065326933109 92.952514672044344 0 92.952514672044344 47.454030200387933 0 0 0 0 78.229157789610326 167.43889189262973 0 167.43889189262973 40.746826875783881 0 0 0 0 -25.69932283778348 76.560001366527757 0 76.560001366527757 39.901671233978306 0 0 0 0 14.186786597417267 115.904708404742 0 115.904708404742 50.566578896101419 0 0 0 0 60.350339511176571 99.873666167753981 0 99.873666167753981 38.660553995578084 0 0 0 0 -65.212102090434882 66.278196494916415 0 66.278196494916415 6.9263140778116963 0 0 0 0 -6.5460874678217529 8.252909606136356 0 8.252909606136356 1.5151997624394653 0 0 0 0 34.462643607403152 94.016074921557447 0 94.016074921557447 31.307671605110954 0 0 0 0 42.583684661763982 89.859401749678455 0 89.859401749678455 45.046451313472062 0 0 0 0 149.19171900086803 134.33321371744387 0 134.33321371744387 49.437219415136497 0 0 0 0 46.747801097546471 106.86523472132831 0 106.86523472132831 44.728985681274025 0 0 0 0 92.001439846048015 75.253254606455812 0 75.253254606455812 28.650154241175812 0 0 0 0 44.220065511100984 95.653585163130629 0 95.653585163130629 26.399790956478682 0 0 0 0 76.644846572671668 103.138168976413 0 103.138168976413 39.217278250115214 0 0 0 0 39.076629339600913 66.927797055956034 0 66.927797055956034 29.069786032039019 0 0 0 0 79.78153517319879 60.114579551570387 0 60.114579551570387 20.129409563156514 0 0 0 0 83.02523970520997 51.544603398242543 0 51.544603398242543 20.480307752786757 0 0 0 0 54.143125379501726 40.993326946493653 0 40.993326946493653 23.211603245094011 0 0 0 0 77.509389689817908 59.403116734996729 0 59.403116734996729 30.903442530812754 0 0 0 0 23.683752121156147 10.476556601023617 0 10.476556601023617 -29.20004816965352 0 0 0 0 117.9178034452143 87.411978483902203 0 87.411978483902203 46.124410672397062 0 0 0 0 121.1250040122859 99.327515045574273 0 99.327515045574273 13.441351276109344 0 0 0 0 78.550763168032063 65.075154762362672 0 65.075154762362672 29.543104601521918 0 0 0 0 123.61624873211258 89.743787385421456 0 89.743787385421456 36.142294427612796 0 0 0 0 80.128184839180904 72.313868887562421 0 72.313868887562421 33.90465256247353 0 0 0 0 14.303647868415993 7.2711656034565806 0 7.2711656034565806 -25.39040684744171 0 0 0 0 34.544548927194626 43.667454000406352 0 43.667454000406352 7.2512706396478563 0 0 0 0 184.69729089965949 36.739679055181114 0 36.739679055181114 -5.1978727669193177 0 0 0 0 0.68288240334368311 36.517003428456519 0 36.517003428456519 -8.0502140602911822 0 0 0 0 108.04924192100589 33.489305148073981 0 33.489305148073981 -1.6772401065536542 0 0 0 0 15.65477527496806 34.815528975633427 0 34.815528975633427 1.8843080672539259 0 0 0 0 1.9684050169646525 -1.3460327208933656 0 -1.3460327208933656 -4.0906263927145474 0 0 0 0 19.439837327794521 43.40297533035482 0 43.40297533035482 26.339464281089022 0 0 0 0 138.94289974006824 80.707632701720286 0 80.707632701720286 10.497102376357361 0 0 0 0 145.69317071628757 87.058471641714277 0 87.058471641714277 -6.3731406331207836 0 0 0 0 138.41787475184537 88.671727261600608 0 88.671727261600608 17.8291953431617 0 0 0 0 145.46776929637417 90.963861650554463 0 90.963861650554463 8.2698727222668822 0 0 0 0 128.87688628227988 119.66155645285562 0 119.66155645285562 -17.645102154245251 0 0 0 0 -11.864906952356085 75.169418252563048 0 75.169418252563048 43.199216778905964 0 0 0 0 165.86101323454204 95.558710628440167 0 95.558710628440167 9.4996932850335725 0 0 0 0 196.86586624724441 94.199920855899109 0 94.199920855899109 -28.608252730133245 0 0 0 0 199.68997056530498 65.654277758276294 0 65.654277758276294 32.188307305199487 0 0 0 0 186.07758231782464 109.30758342852096 0 109.30758342852096 18.840340851405927 0 0 0 0 182.55569638356974 125.9284600753399 0 125.9284600753399 -34.144499877918861 0 0 0 0 95.777767860199674 111.0848109767503 0 111.0848109767503 21.474600512126926 0 0 0 0 128.57705652144068 254.99183041117431 0 254.99183041117431 27.078834381161869 0 0 0 0 -62.558891180480714 143.71611244501764 0 143.71611244501764 145.67571306649188 0 0 0 0 3.6213423079848894 1.0801260845809608 0 1.0801260845809608 -1.0623401518275841 0 0 0 0 182.67805890346062 295.63863891407345 0 295.63863891407345 21.640305983682083 0 0 0 0 -21.714006820151553 379.9067320173549 0 379.9067320173549 -12.693889738926373 0 0 0 0 -294.38794849177793 138.53736701985508 0 138.53736701985508 -186.9649208028095 0 0 0 0 4.9984817504519015 52.685164442213136 0 52.685164442213136 -640.60563581114911 0 0 0 0 -0.012931837467476726 185.32487091472467 0 185.32487091472467 -148.6839765888144 0 0 0 0 -10.459998237027321 188.00789533037459 0 188.00789533037459 -288.8177906065248 0 0 0 0 90.899401801583736 72.232216839901412 0 72.232216839901412 -226.6295868069501 0 0 0 0 43.256082027939556 68.133899394939363 0 68.133899394939363 -423.76015351806564 0 0 0 0 -63.133830511622364 264.09080277547764 0 264.09080277547764 -487.85443815819235 0 0 0 0 -0.19710339189344619 109.43357909172222 0 109.43357909172222 -163.09069395206461 0 0 0 0 32.203717968834098 339.76851844117482 0 339.76851844117482 -786.51969693513456 0 0 0 0 15.256270880352531 234.16624586341823 0 234.16624586341823 73.617411504761549 0 0 0 0 0.72022780443072065 -1.9743555747893886 0 -1.9743555747893886 -0.79131355052128072 0 0 0 0 -45.008347860682989 -14.329404980602703 0 -14.329404980602703 108.13136212352947 0 0 0 0 58.652712351482478 -22.611379210418818 0 -22.611379210418818 -66.629805791300896 0 0 0 0 0.84004704698486421 0.13146352604693234 0 0.13146352604693234 -1.0099487536093079 0 0 0 0 17.314765222618007 -95.281618587625417 0 -95.281618587625417 59.971431624723436 0 0 0 0 -19.190688793547451 3.1546314576007717 0 3.1546314576007717 97.846751426488481 0 0 0 0 -12.998812001627812 -0.81303094901204531 0 -0.81303094901204531 87.006309806063655 0 0 0 0 0.56677389129566791 -1.6283031036847291 0 -1.6283031036847291 -0.67432156169315505 0 0 0 0 -91.555299103631114 94.71527644861817 0 94.71527644861817 -24.562274448609969 0 0 0 0 48.099783615325578 59.663842009353175 0 59.663842009353175 -37.874018156675447 0 0 0 0 -22.488626493577613 66.749088449028932 0 66.749088449028932 -13.241840566719475 0 0 0 0 -41.45568532213656 44.369195626480177 0 44.369195626480177 -3.9050256407790584 0 0 0 0 -31.191478009568527 28.313527935912134 0 28.313527935912134 77.50888473698069 0 0 0 0 -31.58394531333397 35.557047011678605 0 35.557047011678605 6.2446296032940154 0 0 0 0 -15.110981368168723 4.8279919501110271 0 4.8279919501110271 8.8976499858254101 0 0 0 0 -30.560226703513763 5.9693891718161467 0 5.9693891718161467 8.8433691432264823 0 0 0 0 -2.4477764362382004 -16.064685248547903 0 -16.064685248547903 40.454190710119292 0 0 0 0 12.82004800971481 740.47688247037877 0 740.47688247037877 -637.69798409210853 0 0 0 0 -4.3218350057169914 0.50521434908552365 0 0.50521434908552365 0.86553678724135352 0 0 0 0 -5.9231013428216102 -14.301643633589265 0 -14.301643633589265 87.525261820109449 0 0 0 0 -116.58133911412733 -164.75431768785711 0 -164.75431768785711 47.416881440880388 0 0 0 0 -485.78126218403486 323.35787736639213 0 323.35787736639213 -326.00397913607594 0 0 0 0 4.6320419559719426 2.7691191391449905 0 2.7691191391449905 0.021060621141202773 0 0 0 0 -333.63494014428579 326.65624902108175 0 326.65624902108175 -353.15173864693497 0 0 0 0 -13.081398302944763 -2.3189496975651558 0 -2.3189496975651558 1.9200261300664465 0 0 0 0 -498.2590960443631 271.75769395175666 0 271.75769395175666 -255.95240908729465 0 0 0 0 -439.84289428369084 232.06655543779561 0 232.06655543779561 -306.27702968363155 0 0 0 0 -326.34649439304485 311.63941004879598 0 311.63941004879598 -283.4266405430244 0 0 0 0 -464.03251588810235 299.23145359424961 0 299.23145359424961 -271.71530754282139 0 0 0 0 403.19000715034053 115.74698281872224 0 115.74698281872224 75.447614327102201 0 0 0 0 388.48260890528036 197.85861402108776 0 197.85861402108776 53.189263661319274 0 0 0 0 -65.259637523035053 198.385909674922 0 198.385909674922 -343.20641992295714 0 0 0 0 -202.02387003140757 93.741255790766445 0 93.741255790766445 -52.961201197598712 0 0 0 0 -146.53455704654334 348.89825764123816 0 348.89825764123816 -206.57254528423073 0 0 0 0 -300.5343237213383 258.75824486081729 0 258.75824486081729 -190.9876562403806 0 0 0 0 -217.31511080620112 331.26172909692832 0 331.26172909692832 169.91580935491947 0 0 0 0 296.1910886214464 606.54752974680014 0 606.54752974680014 -70.961375214632426 0 0 0 0 392.53020803391701 156.78881631467084 0 156.78881631467084 38.911317330181191 0 0 0 0 376.00882242046646 94.234859328153107 0 94.234859328153107 287.23953755007824 0 0 0 0 599.39054936682805 438.71493406312948 0 438.71493406312948 290.11047176280408 0 0 0 0 642.84454248443944 16.079900041309884 0 16.079900041309884 116.65142634388758 0 0 0 0 1514.9520144463168 308.33558996332431 0 308.33558996332431 17.223279925907264 0 0 0 0 -3.5821038622077905 1.8635198711170347 0 1.8635198711170347 0.71046794529989654 0 0 0 0 680.97986671539547 313.23218986433858 0 313.23218986433858 258.90357888239669 0 0 0 0 804.04038548695098 -27.723538092322997 0 -27.723538092322997 118.7667617474799 0 0 0 0 394.59573562898731 246.03414559784142 0 246.03414559784142 160.24276645512145 0 0 0 0 359.5870432247757 130.65209821276221 0 130.65209821276221 253.19705558301939 0 0 0 0 428.63960802240763 72.547540435694827 0 72.547540435694827 83.426254721940495 0 0 0 0 128.65542396571254 94.985139977266954 0 94.985139977266954 120.7944792816852 0 0 0 0 160.52281052686158 122.40536492082174 0 122.40536492082174 76.486197030483709 0 0 0 0 12.498927287262632 6.5237436721363338 0 6.5237436721363338 90.53833045007832 0 0 0 0 160.95714446681086 114.95955188367589 0 114.95955188367589 136.49295454564708 0 0 0 0 -63.3474402265565 15.663521481124917 0 15.663521481124917 31.264633525353929 0 0 0 0 -35.300961333108717 43.041227467141653 0 43.041227467141653 98.579692417584738 0 0 0 0 184.25097152312628 88.050630192635481 0 88.050630192635481 19.663813492523332 0 0 0 0 187.57011686509941 106.04674306702145 0 106.04674306702145 35.95799813708436 0 0 0 0 95.323742433596635 117.83101332179649 0 117.83101332179649 50.767235439921933 0 0 0 0 -22.524959509959444 -19.634195119591823 0 -19.634195119591823 -95.67885938607651 0 0 0 0 268.52035542188241 -37.242582863435018 0 -37.242582863435018 -19.166932544416341 0 0 0 0 1.1158957787820647 13.891695213076176 0 13.891695213076176 -1.7770275578484842 0 0 0 0 -39.221405862015672 0.19469102883704181 0 0.19469102883704181 15.515336906959419 0 0 0 0 471.10811827067664 88.569331940771008 0 88.569331940771008 -55.736655163411342 0 0 0 0 431.93825468021532 32.159514562750701 0 32.159514562750701 -53.253312524328067 0 0 0 0 -30.81525243537908 -4.6532812527202623 0 -4.6532812527202623 15.368416062112374 0 0 0 0 200.71460273525713 84.131823136292383 0 84.131823136292383 -34.476625753290136 0 0 0 0 1.0031736948748273 15.356231375190362 0 15.356231375190362 -0.21067226534151473 0 0 0 0 -27.877967094282212 33.464751022853306 0 33.464751022853306 0.068464460240647895 0 0 0 0 52.568397623088458 61.161346657764625 0 61.161346657764625 -22.481610450493463 0 0 0 0 49.273332478267548 73.983216164766418 0 73.983216164766418 15.342980415705824 0 0 0 0 65.018679214977965 197.48807556174415 0 197.48807556174415 -54.252834828534105 0 0 0 0 91.511115706191049 90.48552888228005 0 90.48552888228005 25.380880893158974 0 0 0 0 41.596359574630696 86.520511718670832 0 86.520511718670832 -30.744650664688379 0 0 0 0 -2.6753022217920659 1.6610854375621216 0 1.6610854375621216 0.86278665995439496 0 0 0 0 -150.03190487371467 42.26906357988446 0 42.26906357988446 37.24016157370329 0 0 0 0 -0.29722869368561078 50.135507992039493 0 50.135507992039493 35.865485603726029 0 0 0 0 -4.3459279502377797 3.1681384181889314 0 3.1681384181889314 -1.2401190434587335 0 0 0 0 -0.37606877510552295 43.118319261853685 0 43.118319261853685 1.3912504999316297 0 0 0 0 20.752810172110912 39.085687518829218 0 39.085687518829218 40.564618929907738 0 0 0 0 32.431934183186968 28.798110670735696 0 28.798110670735696 33.362373699630552 0 0 0 0 21.524154104241461 42.623019551650941 0 42.623019551650941 15.874564615289273 0 0 0 0 -9.8715566243045032 82.094762684551824 0 82.094762684551824 2.6416506049336022 0 0 0 0 -42.929597685360932 76.943993553173641 0 76.943993553173641 19.170781952801917 0 0 0 0 -46.726609308112529 102.34421284663767 0 102.34421284663767 47.543081107611215 0 0 0 0 -140.02510259012342 174.40248693724789 0 174.40248693724789 -3.8134949731502275 0 0 0 0 -81.574059597136511 73.388352050149479 0 73.388352050149479 34.277266312397842 0 0 0 0 -66.690821274431073 92.150941635202798 0 92.150941635202798 50.473530597737408 0 0 0 0 -40.233325011751731 78.124109412328835 0 78.124109412328835 -6.138766292064247 0 0 0 0 -43.373169965881971 80.208935870407004 0 80.208935870407004 17.221987838423956 0 0 0 0 -14.822879522820585 55.375885848439793 0 55.375885848439793 -7.4450253331488057 0 0 0 0 -37.054246139523457 91.416695095313116 0 91.416695095313116 -105.02435081654767 0 0 0 0 -36.460058856740943 55.377412648285826 0 55.377412648285826 -59.739109012447443 0 0 0 0 -74.051366787636653 44.832518617775349 0 44.832518617775349 -18.429611678999208 0 0 0 0 -58.565033653871069 72.894469575760922 0 72.894469575760922 -74.88615572098206 0 0 0 0 -48.160905832060962 23.147444348524004 0 23.147444348524004 -115.20752920312225 0 0 0 0 -48.72333589423215 61.230340986027159 0 61.230340986027159 -141.49748734859168 0 0 0 0 -63.252633059979416 107.57395413163613 0 107.57395413163613 -231.53061934622747 0 0 0 0 -60.788013395156668 122.05246331004901 0 122.05246331004901 -212.33349840977462 0 0 0 0 -103.81295978133858 206.17992953937664 0 206.17992953937664 -282.22999888130289 0 0 0 0 -76.23227899055928 156.54451540041191 0 156.54451540041191 -194.1234071599356 0 0 0 0 -72.339675382958376 142.76910401351051 0 142.76910401351051 -227.69535140123116 0 0 0 0 20.908678585579764 86.444759612439611 0 86.444759612439611 -133.28585947775719 0 0 0 0 -38.685984506650129 91.149991657641294 0 91.149991657641294 -164.92526894870389 0 0 0 0 -36.667863091046456 136.82707687035509 0 136.82707687035509 -140.93914218710415 0 0 0 0 -49.705806784448214 90.482624347885576 0 90.482624347885576 -113.07584832777866 0 0 0 0 -28.816016547374602 138.18501410084264 0 138.18501410084264 -206.80706958705559 0 0 0 0 -167.52210748178186 121.94496141165655 0 121.94496141165655 -191.31222338778389 0 0 0 0 -227.96508765167437 233.00513311365148 0 233.00513311365148 -224.41448696196312 0 0 0 0 -97.330661190950195 193.63477721837262 0 193.63477721837262 -214.27195728429069 0 0 0 0 -7.0175670754397288 108.92194730053416 0 108.92194730053416 -240.33063189887616 0 0 0 0 72.177283284454461 159.35473659070703 0 159.35473659070703 -375.16130241849169 0 0 0 0 -15.62246119473275 201.23103423197517 0 201.23103423197517 -428.93603114357393 0 0 0 0 -334.9492093877634 187.25084897823581 0 187.25084897823581 -91.716668168999604 0 0 0 0 -246.7310807571921 27.09669377902901 0 27.09669377902901 -258.84102394075671 0 0 0 0 2.6299014404469432 4.0785537114941519 0 4.0785537114941519 1.0785474432433233 0 0 0 0 -63.689413890078868 131.83689402947675 0 131.83689402947675 -244.53623604860695 0 0 0 0 -92.582052919999114 53.824783684380236 0 53.824783684380236 -0.86575963660652633 0 0 0 0 19.477190430918228 13.483558918395502 0 13.483558918395502 2.383367401022717 0 0 0 0 -138.03169919170614 205.71156289103237 0 205.71156289103237 -233.77627801657582 0 0 0 0 -110.94941541198205 219.78491685373774 0 219.78491685373774 -239.42238266787172 0 0 0 0 128.48894829925848 176.69411305632457 0 176.69411305632457 -69.410690049274649 0 0 0 0 -161.26497761852806 349.28846772158431 0 349.28846772158431 -414.50339871094911 0 0 0 0 19.74822508201305 11.045369073215078 0 11.045369073215078 2.0241368097721377 0 0 0 0 -220.26091286813607 277.9852007788686 0 277.9852007788686 -260.38329626127597 0 0 0 0 62.947848508396419 -104.22044691421615 0 -104.22044691421615 -77.515142408531347 0 0 0 0 -120.69587594517361 -1.8868050985247464 0 -1.8868050985247464 8.3106556481434382 0 0 0 0 143.71533728783106 110.06486406693602 0 110.06486406693602 -36.594360403927567 0 0 0 0 -23.050093704936444 53.99879899800726 0 53.99879899800726 -7.061787355785782 0 0 0 0 -37.551675023452844 14.026341035312726 0 14.026341035312726 -0.3094494631041016 0 0 0 0 -66.955624084774172 108.48358992386784 0 108.48358992386784 26.439035953131679 0 0 0 0 23.221160627814243 80.881364953856973 0 80.881364953856973 -40.426493787064828 0 0 0 0 -37.286096751704463 137.33160769259302 0 137.33160769259302 15.15121248878495 0 0 0 0 -64.012170684945886 118.20021832321618 0 118.20021832321618 8.7472140305457913 0 0 0 0 19.000048117566621 146.50577044991769 0 146.50577044991769 8.1181165682901337 0 0 0 0 3.5511450067153874 0.65760569856124107 0 0.65760569856124107 -1.5793760878889174 0 0 0 0 17.174509057498653 77.431033695023871 0 77.431033695023871 -83.787879910792981 0 0 0 0 -508.93555702563026 406.24514280507174 0 406.24514280507174 -252.8895191046031 0 0 0 0 -293.27836436481448 92.860629690174392 0 92.860629690174392 -414.49207319644665 0 0 0 0 -81.311881797970273 229.33302588361403 0 229.33302588361403 -505.26666215847945 0 0 0 0 -134.40862054741592 223.85448514963718 0 223.85448514963718 -313.98109845244835 0 0 0 0 -74.661222694063326 209.62496638115408 0 209.62496638115408 -336.79734460004329 0 0 0 0 -47.441405014978955 173.31039295038863 0 173.31039295038863 -376.20425901788258 0 0 0 0 -86.74819475071854 84.68143223395964 0 84.68143223395964 -242.37934875617066 0 0 0 0 -18.669429550725908 219.38721859692214 0 219.38721859692214 -375.73495114211255 0 0 0 0 -43.146794900647365 121.49300876718917 0 121.49300876718917 -216.57310589947156 0 0 0 0 -19.892316170589766 80.553307824209696 0 80.553307824209696 -40.927545270911651 0 0 0 0 -49.421902144058549 107.57502099454905 0 107.57502099454905 -64.110459916089894 0 0 0 0 22.571207536122529 -2.2620236529910471 0 -2.2620236529910471 -112.17379292350961 0 0 0 0 180.10009135225846 89.161912338291586 0 89.161912338291586 -62.957475981165771 0 0 0 0 167.81085319984413 228.26911397981166 0 228.26911397981166 -253.33753004284517 0 0 0 0 -293.16750020624022 663.42655089525488 0 663.42655089525488 -385.4422386817896 0 0 0 0 455.46061181349796 265.23108267088537 0 265.23108267088537 -165.56185034486407 0 0 0 0 -0.35115926046273671 252.44793451130681 0 252.44793451130681 -154.60521319192048 0 0 0 0 -90.442636191786733 408.69897141899128 0 408.69897141899128 -131.81726544263802 0 0 0 0 -131.44521322791115 493.54260472629539 0 493.54260472629539 -228.18457446507091 0 0 0 0 -192.81589339152561 475.84214859854546 0 475.84214859854546 -237.94708833167533 0 0 0 0 161.08261975077039 538.65534345368906 0 538.65534345368906 -266.64266257044801 0 0 0 0 2.400140704412479 465.58442816861134 0 465.58442816861134 -314.30251825386949 0 0 0 0 -234.2675236070063 197.78355025648489 0 197.78355025648489 -232.94151660582065 0 0 0 0 12.924858246877136 7.8961439348334821 0 7.8961439348334821 1.2497513195941181 0 0 0 0 138.37640241022018 163.33010406120229 0 163.33010406120229 -155.73322704067778 0 0 0 0 -276.35341219573456 306.90973647596547 0 306.90973647596547 -462.06918412509549 0 0 0 0 -125.8725523810208 570.06656763266346 0 570.06656763266346 -490.58146200037299 0 0 0 0 -103.95928386916785 102.16855273118654 0 102.16855273118654 -87.786529874629196 0 0 0 0 -24.472984814667143 87.851849199723802 0 87.851849199723802 -112.06708494228042 0 0 0 0 5.4415931450400308 2.0978895420164676 0 2.0978895420164676 -0.82075724151358287 0 0 0 0 -76.876747511272697 132.55587010119689 0 132.55587010119689 -140.0483749998748 0 0 0 0 -77.114643477587379 -54.520270006327337 0 -54.520270006327337 -39.438285178970546 0 0 0 0 -75.545011904061539 60.24247878461756 0 60.24247878461756 -130.77756062388289 0 0 0 0 -108.9010039925779 58.792151138495683 0 58.792151138495683 -27.730557951010269 0 0 0 0 -55.3292300158937 112.38482017562274 0 112.38482017562274 -0.69920071324395394 0 0 0 0 -85.805982340243645 61.919546092795827 0 61.919546092795827 -47.766151101575815 0 0 0 0 -77.939741318812594 110.59047592498246 0 110.59047592498246 -55.789630592931644 0 0 0 0 -59.697603916225489 97.321822584899564 0 97.321822584899564 23.579317655257455 0 0 0 0 -64.337439719140093 106.41103484178484 0 106.41103484178484 36.563566137614544 0 0 0 0 -31.729867499685497 81.045540833683845 0 81.045540833683845 39.18376394459392 0 0 0 0 -16.807538120308891 83.208211351960927 0 83.208211351960927 -135.89222977900317 0 0 0 0 -31.108238718152279 66.764085661469835 0 66.764085661469835 78.954033705071197 0 0 0 0 -0.96824664823031981 -1.6110042994327571 0 -1.6110042994327571 0.70790685037276546 0 0 0 0 -81.706319564149453 95.383433796106146 0 95.383433796106146 -108.30245602717332 0 0 0 0 33.651443515838764 38.931375118543656 0 38.931375118543656 -100.4978267006336 0 0 0 0 11.737424408638617 66.288996099264295 0 66.288996099264295 9.7283758085468435 0 0 0 0 33.872947569543612 87.872659886421388 0 87.872659886421388 -130.43374365342743 0 0 0 0 6.2548354537866544 60.49350741496346 0 60.49350741496346 88.8348325306888 0 0 0 0 0.080035760720595275 114.09305557497926 0 114.09305557497926 -27.942100315751304 0 0 0 0 -1.0534140747973026 -1.8066294679643065 0 -1.8066294679643065 0.80683500675322861 0 0 0 0 68.922396135763847 108.69791287145927 0 108.69791287145927 -40.943508299436871 0 0 0 0 73.864142531514517 89.716312058630137 0 89.716312058630137 -120.78470638311046 0 0 0 0 -27.971208071670844 86.542442133024451 0 86.542442133024451 -83.960317592174761 0 0 0 0 -28.54674557717226 56.766867619855475 0 56.766867619855475 -116.04733940302685 0 0 0 0 114.80865237110265 107.67733743527606 0 107.67733743527606 -138.83847671252443 0 0 0 0 0.092954671566039634 147.41932686983441 0 147.41932686983441 -62.658005495221005 0 0 0 0 -0.19893381892325124 218.97896586477782 0 218.97896586477782 -335.06338821441705 0 0 0 0 -125.1320030666102 64.020077043848687 0 64.020077043848687 103.4947158171326 0 0 0 0 2.2164389243326923 0.14407334998154653 0 0.14407334998154653 -1.2413867865874018 0 0 0 0 -61.921246158977738 75.345317927196902 0 75.345317927196902 -96.538442550285254 0 0 0 0 -0.28795492487125784 -1.1564097931901873 0 -1.1564097931901873 -0.6474997020493003 0 0 0 0 -56.985221117618494 23.774814393099405 0 23.774814393099405 289.52622685664664 0 0 0 0 -42.057489347782393 238.00327881034718 0 238.00327881034718 -197.93286817270746 0 0 0 0 -143.82253308439977 302.41953631778142 0 302.41953631778142 86.885354194802858 0 0 0 0 -36.422462570095377 126.93612856104937 0 126.93612856104937 203.33092520686478 0 0 0 0 -0.061329374861088581 159.99941523845609 0 159.99941523845609 -15.674021822385839 0 0 0 0 -24.478056254658441 141.41801801738347 0 141.41801801738347 102.3084986308495 0 0 0 0 -0.025068232433860232 121.28716293643967 0 121.28716293643967 -1.9120365045309882 0 0 0 0 -5.5133891418663552 91.555810321371609 0 91.555810321371609 77.107932806594363 0 0 0 0 8.9827488877344877 92.643439530245814 0 92.643439530245814 -2.0779912142861576 0 0 0 0 -4.3961485278121017 122.78663113878486 0 122.78663113878486 49.390101904882613 0 0 0 0 12.482697545317933 70.924097192983027 0 70.924097192983027 88.167183697249129 0 0 0 0 9.034152818552684 4.7650272072560256 0 4.7650272072560256 97.045731395806797 0 0 0 0 -18.332055857204978 105.82107480983132 0 105.82107480983132 83.69440204278726 0 0 0 0 -31.904066938601318 81.731313008463985 0 81.731313008463985 54.507193323559477 0 0 0 0 -4.5539461482912884 99.781335909541667 0 99.781335909541667 40.860749414758175 0 0 0 0 -31.886511604743646 81.720757716253274 0 81.720757716253274 35.072861599732278 0 0 0 0 -61.055695821887639 98.839012738154452 0 98.839012738154452 42.803496698290473 0 0 0 0 -63.220506889978424 91.509469729964621 0 91.509469729964621 41.610796466060492 0 0 0 0 -56.307387473090785 38.847795409845276 0 38.847795409845276 25.163241429066147 0 0 0 0 -1.8003726803707423 -1.1707382222288381 0 -1.1707382222288381 -0.44855073914469301 0 0 0 0 -124.5737190265063 26.939445234032974 0 26.939445234032974 108.63789020063086 0 0 0 0 -33.790662909064849 58.295311791699532 0 58.295311791699532 30.163292634802929 0 0 0 0 -34.753140672371956 44.487023835627497 0 44.487023835627497 -93.55627274822109 0 0 0 0 -42.618455764910323 195.79490885028645 0 195.79490885028645 -153.18301444896292 0 0 0 0 62.689708783116657 135.15877453142502 0 135.15877453142502 -40.723844741721678 0 0 0 0 -188.19606166836456 -138.98425963298541 0 -138.98425963298541 208.69266356451226 0 0 0 0 -0.53867005615046537 -1.6398753806677711 0 -1.6398753806677711 -0.83312846828061105 0 0 0 0 -8.7005741077959016 12.2100103784895 0 12.2100103784895 1.6155583150638719 0 0 0 0 -197.77689229836687 62.509308938160302 0 62.509308938160302 -69.53296269223847 0 0 0 0 440.01303740724325 281.38139476776541 0 281.38139476776541 108.30692463250944 0 0 0 0 -258.3727766505117 -68.265853335183408 0 -68.265853335183408 76.033821264391008 0 0 0 0 -49.631258505338337 -12.619337261455257 0 -12.619337261455257 -6.3255070588038507 0 0 0 0 -56.129470486481296 42.019321551906842 0 42.019321551906842 -17.889126501006103 0 0 0 0 -239.50497266702587 194.3663013703208 0 194.3663013703208 -119.26139149367373 0 0 0 0 -76.731492929437081 76.75560965996192 0 76.75560965996192 -67.183913893377394 0 0 0 0 -66.779235185847938 71.175310064412429 0 71.175310064412429 18.846580296052707 0 0 0 0 -98.067605244854349 92.885710711238062 0 92.885710711238062 5.7864925942853915 0 0 0 0 -54.37528643742553 91.531142455350164 0 91.531142455350164 29.877226365582828 0 0 0 0 -62.491954752484162 55.963595155057419 0 55.963595155057419 4.4957186814572196 0 0 0 0 -75.412766574632315 19.411493989174279 0 19.411493989174279 13.696086847397964 0 0 0 0 -75.390965109036188 48.99803437367882 0 48.99803437367882 24.71725201515801 0 0 0 0 -61.832616072744713 18.49305899877254 0 18.49305899877254 9.0608434899040731 0 0 0 0 -152.62396550770791 72.579559910273929 0 72.579559910273929 16.797257096879548 0 0 0 0 -125.86237405843713 -0.72171887635977328 0 -0.72171887635977328 22.071856822469272 0 0 0 0 -100.12988861535086 46.042865902864975 0 46.042865902864975 26.804893155800528 0 0 0 0 -45.162345867880504 1.4928535270155407 0 1.4928535270155407 16.340704764518705 0 0 0 0 -19.510066262235341 34.007371728290309 0 34.007371728290309 -6.5713218165874423 0 0 0 0 -54.993631110904971 44.661520455087157 0 44.661520455087157 -6.3214465367927914 0 0 0 0 -6.9199266360590173 14.598584464868168 0 14.598584464868168 2.0533019671929154 0 0 0 0 136.813272336105 129.3177236855463 0 129.3177236855463 -88.780216437659647 0 0 0 0 1.4136632287039106 2.4422055892136569 0 2.4422055892136569 -0.46771013336052647 0 0 0 0 -4.2827838695011451 41.08145380147289 0 41.08145380147289 208.09048666709896 0 0 0 0 224.79399033354275 263.52428557749136 0 263.52428557749136 122.64942399517895 0 0 0 0 218.01014707700961 252.86923072680111 0 252.86923072680111 110.22426395114962 0 0 0 0 181.31548702516739 179.7675485628688 0 179.7675485628688 95.369240571644696 0 0 0 0 -10.204097458173564 13.243356046895514 0 13.243356046895514 1.7063844652975675 0 0 0 0 262.16547079896191 262.26908372698347 0 262.26908372698347 144.0518992367688 0 0 0 0 381.84834221599158 200.83970240838244 0 200.83970240838244 97.142987481704267 0 0 0 0 212.02090644618147 252.66518463492912 0 252.66518463492912 115.69763705758305 0 0 0 0 260.54368865408287 252.29546082675552 0 252.29546082675552 102.11084422047315 0 0 0 0 148.25932501647912 221.95162134987777 0 221.95162134987777 162.38191031946781 0 0 0 0 367.31383510572778 246.18356356922271 0 246.18356356922271 174.07791877409363 0 0 0 0 367.31801190853002 245.06293844199536 0 245.06293844199536 114.50886503536867 0 0 0 0 348.65611388406978 283.02295506979289 0 283.02295506979289 119.56981100051189 0 0 0 0 385.39318800476394 189.6409282816436 0 189.6409282816436 137.86360307645737 0 0 0 0 217.18376157109014 276.03202155631152 0 276.03202155631152 153.95258326078965 0 0 0 0 120.66727367356361 131.43140653403634 0 131.43140653403634 123.83045601052027 0 0 0 0 -1.074538534529637 2.0334298784116811 0 2.0334298784116811 -2.9054708718537441 0 0 0 0 550.04323206361732 -87.679219800529609 0 -87.679219800529609 3.1152271889150143 0 0 0 0 -135.749165602625 0.91503542295868101 0 0.91503542295868101 3.3535840608674334 0 0 0 0 423.46447282715235 67.22133459753104 0 67.22133459753104 -96.527494196219777 0 0 0 0 -23.98188616952018 27.230605149844976 0 27.230605149844976 -29.604992857974995 0 0 0 0 -87.26150301125017 -8.112131698702342 0 -8.112131698702342 -24.914240331538167 0 0 0 0 -111.47297021874692 25.682717089322068 0 25.682717089322068 -3.5347245588054648 0 0 0 0 -87.739428005123045 33.449923515416231 0 33.449923515416231 -15.787259971702952 0 0 0 0 -71.545893341361079 32.686359380715658 0 32.686359380715658 -20.7428627902882 0 0 0 0 -44.974941559077706 -10.289341873936792 0 -10.289341873936792 -29.938947738764909 0 0 0 0 18.332049307733541 -5.8355935257814053 0 -5.8355935257814053 -37.238000245932199 0 0 0 0 -20.141454746568343 -2.4524593051537522 0 -2.4524593051537522 -25.179269097592623 0 0 0 0 7.7445782761496957 6.0380440023345727 0 6.0380440023345727 -26.185230525043153 0 0 0 0 -45.605033555271802 51.445243793124973 0 51.445243793124973 -42.054714535068342 0 0 0 0 -13.867813123157248 29.153032297364916 0 29.153032297364916 -35.627603607750643 0 0 0 0 -67.918457521347591 35.621682339901326 0 35.621682339901326 -24.764923996146536 0 0 0 0 1.1403282313840464 -16.259542673762553 0 -16.259542673762553 -33.524413442046352 0 0 0 0 -18.532688404253065 20.123723659063984 0 20.123723659063984 -20.876578449861583 0 0 0 0 197.10941043328785 67.131976941625453 0 67.131976941625453 120.12390736206089 0 0 0 0 456.32225911896967 309.30276958257582 0 309.30276958257582 86.021387355374827 0 0 0 0 -9.8241500233416446 283.46377444523023 0 283.46377444523023 184.4945135662183 0 0 0 0 325.32123019672872 344.56419097843286 0 344.56419097843286 169.77879070111521 0 0 0 0 542.12745596912282 197.00231974813607 0 197.00231974813607 157.35509866577468 0 0 0 0 420.67035993216268 245.95960534068422 0 245.95960534068422 220.13812085706286 0 0 0 0 341.84872248561442 432.44670435743376 0 432.44670435743376 262.65910564945943 0 0 0 0 -3.0295333570255991 4.0220148538897718 0 4.0220148538897718 1.5553908779039709 0 0 0 0 941.31102578053833 533.02614206777116 0 533.02614206777116 113.75378800567432 0 0 0 0 -983.0681320335425 -285.19067643427297 0 -285.19067643427297 -35.401882848288551 0 0 0 0 -498.46745647950593 -44.4429689628505 0 -44.4429689628505 135.98819732662469 0 0 0 0 -320.17445443113684 94.231740653061024 0 94.231740653061024 -19.172446714707064 0 0 0 0 -6.6948726651668409 9.2074077815570661 0 9.2074077815570661 2.1639713447752236 0 0 0 0 622.61640263209847 380.4412812354326 0 380.4412812354326 148.81086868688521 0 0 0 0 -199.31351557768244 32.227133897282386 0 32.227133897282386 25.440960622801867 0 0 0 0 -324.33889916275803 -27.58819630807011 0 -27.58819630807011 -3.151061401898005 0 0 0 0 -187.97341456581307 260.92186704796404 0 260.92186704796404 -255.06337045242617 0 0 0 0 -147.74671023145493 43.128019314462108 0 43.128019314462108 -80.547887537661609 0 0 0 0 2.4557033566370592 1.1531122440509094 0 1.1531122440509094 -0.37252196166255658 0 0 0 0 -113.45624669046083 255.51457125216575 0 255.51457125216575 0.658045041494006 0 0 0 0 -159.21160460691681 184.50777394738088 0 184.50777394738088 -29.623611754945159 0 0 0 0 -477.62741262392956 235.24334567946835 0 235.24334567946835 149.24492975564044 0 0 0 0 1.8965639297194059 0.14659394341441612 0 0.14659394341441612 -0.96653026615892834 0 0 0 0 -208.39204498153413 52.540515142712593 0 52.540515142712593 225.04432526977234 0 0 0 0 -328.75487297523068 134.42653044004101 0 134.42653044004101 23.341958416336638 0 0 0 0 -911.70550314186221 86.332221800896605 0 86.332221800896605 203.23474712898678 0 0 0 0 -262.17554331573774 272.18127481371994 0 272.18127481371994 105.86946002900709 0 0 0 0 -556.01510567566584 359.16077170692972 0 359.16077170692972 182.61351067205806 0 0 0 0 -167.83185427253193 234.83155651905122 0 234.83155651905122 182.20431507415014 0 0 0 0 -298.18113353056833 93.91618411951049 0 93.91618411951049 372.97143003551571 0 0 0 0 -315.69348010909016 109.1952600290183 0 109.1952600290183 91.692372926347161 0 0 0 0 -215.27943645661799 284.9457342296156 0 284.9457342296156 56.566757129696271 0 0 0 0 -61.227062844984175 330.68210197428152 0 330.68210197428152 108.74409688074138 0 0 0 0 -120.25981127389241 126.22185960404641 0 126.22185960404641 273.80915087829953 0 0 0 0 20.865243055028259 334.81560555305521 0 334.81560555305521 572.03899098540364 0 0 0 0 0.027070634139818139 21.736296762897723 0 21.736296762897723 792.82846692932878 0 0 0 0 263.96118185848172 176.56739960470145 0 176.56739960470145 171.83177418441528 0 0 0 0 5.7455219087860314 120.8513349404343 0 120.8513349404343 166.01688443902481 0 0 0 0 0.15308491409814451 270.25196334605675 0 270.25196334605675 -61.394402872623687 0 0 0 0 -90.822227466097047 128.94985315003478 0 128.94985315003478 -170.85932672080617 0 0 0 0 -81.142306588881183 285.93517212060215 0 285.93517212060215 -173.55069376198162 0 0 0 0 32.610803129209671 152.61412197452364 0 152.61412197452364 79.134745887220106 0 0 0 0 -54.440756456271629 68.399857763334239 0 68.399857763334239 21.364393764336455 0 0 0 0 -29.037783808940731 110.0093853341192 0 110.0093853341192 144.56903907396963 0 0 0 0 19.689577187367831 -11.264143430052627 0 -11.264143430052627 188.11104260850448 0 0 0 0 -97.68296726240078 21.533492065885184 0 21.533492065885184 356.55085603693624 0 0 0 0 0.54181505242510752 -0.57864064156031247 0 -0.57864064156031247 -0.03223352471196872 0 0 0 0 11.749145918569411 33.723126847186904 0 33.723126847186904 -120.93660883069924 0 0 0 0 -12.201328813272994 55.653461612475439 0 55.653461612475439 -1.9657169876854823 0 0 0 0 -16.499870149607887 41.710102578721489 0 41.710102578721489 -24.736086587405225 0 0 0 0 -0.66764634256259114 5.5804749061415393 0 5.5804749061415393 1.2256831221801123 0 0 0 0 -23.726259788731113 0.34613650665414752 0 0.34613650665414752 76.285520026382983 0 0 0 0 -60.047660686630479 109.31951994365295 0 109.31951994365295 81.06571799025096 0 0 0 0 21.335955128772184 1.1635281798880897 0 1.1635281798880897 3.8212387702151318 0 0 0 0 24.335006448956847 74.727377343353965 0 74.727377343353965 -30.387982283195015 0 0 0 0 21.993777904788516 34.442634690233596 0 34.442634690233596 29.033452471079581 0 0 0 0 -7.2781125129840802 210.45408201024929 0 210.45408201024929 -47.365896312444306 0 0 0 0 29.179343343668734 -38.604442114165067 0 -38.604442114165067 36.096504453166744 0 0 0 0 2.9449301206177552 116.00972348965172 0 116.00972348965172 -45.701559528153666 0 0 0 0 40.562043059555066 36.521637551907318 0 36.521637551907318 37.600865851388981 0 0 0 0 19.543840888007253 66.330962842462668 0 66.330962842462668 -24.366842585739505 0 0 0 0 60.893378478227532 38.104810293421906 0 38.104810293421906 -11.496084489081113 0 0 0 0 58.433858265532763 48.923810951861014 0 48.923810951861014 -9.9311198150567179 0 0 0 0 -4.2420818222426533 70.720488939885399 0 70.720488939885399 -2.5466888392638793 0 0 0 0 71.118367770926852 73.69814713586311 0 73.69814713586311 36.624332924900955 0 0 0 0 81.239430099827587 36.145031256281072 0 36.145031256281072 20.465833669370113 0 0 0 0 15.357910172868287 78.185426966853811 0 78.185426966853811 19.247916543794418 0 0 0 0 61.001269199086892 60.2539408751054 0 60.2539408751054 18.50108358786747 0 0 0 0 -16.725578959267295 96.53880662827487 0 96.53880662827487 13.045461331473689 0 0 0 0 30.192428247287125 57.575619429975923 0 57.575619429975923 34.836932974301348 0 0 0 0 2.4210598072240828 140.53419817739245 0 140.53419817739245 0.12901202862485661 0 0 0 0 48.827884180354886 91.736194153365432 0 91.736194153365432 12.482452202006243 0 0 0 0 40.164975739411602 125.43245311784358 0 125.43245311784358 2.6412507266650209 0 0 0 0 -7.9767270279116929 145.68333827042716 0 145.68333827042716 -79.80733740148321 0 0 0 0 -13.74843862271473 83.422491944717748 0 83.422491944717748 -7.4680368321178321 0 0 0 0 -38.327820370879124 55.396028240290917 0 55.396028240290917 -50.470625263359402 0 0 0 0 318.78806163417175 259.80435592376671 0 259.80435592376671 18.5824319632884 0 0 0 0 -24.248234316807441 15.533891784937609 0 15.533891784937609 -2.2966413386328028 0 0 0 0 170.20740108995233 267.5891808796332 0 267.5891808796332 113.02484144317714 0 0 0 0 182.36754874112376 210.23488928827646 0 210.23488928827646 36.276769443313242 0 0 0 0 157.25911709095089 246.31778868546689 0 246.31778868546689 82.590607321224525 0 0 0 0 165.61863950557745 259.34398940708888 0 259.34398940708888 -0.74965873352584822 0 0 0 0 178.09741122504056 243.33473454092291 0 243.33473454092291 81.632508049682656 0 0 0 0 149.58083006152447 265.2393595605372 0 265.2393595605372 85.769601051782047 0 0 0 0 162.88046821871831 203.94013934622308 0 203.94013934622308 279.74881473770256 0 0 0 0 195.27705937590508 363.60345090427109 0 363.60345090427109 -17.110536145706646 0 0 0 0 156.02120765169821 251.9581321423002 0 251.9581321423002 66.290778647955449 0 0 0 0 164.10710941998695 182.37498191671193 0 182.37498191671193 88.375853626639582 0 0 0 0 142.96202460248605 236.27692720330651 0 236.27692720330651 155.96433602920843 0 0 0 0 169.64064394834713 235.11141051070808 0 235.11141051070808 137.0776343065836 0 0 0 0 250.43060226927628 241.75321738160164 0 241.75321738160164 97.69960458420428 0 0 0 0 197.78759166664531 223.98025242029553 0 223.98025242029553 99.440925886292234 0 0 0 0 85.229244640644538 297.57424977400188 0 297.57424977400188 -30.77110573578102 0 0 0 0 -36.120359381143032 40.797155615481813 0 40.797155615481813 -43.961750232563759 0 0 0 0 142.72109917846683 244.47426332620489 0 244.47426332620489 98.490301230635851 0 0 0 0 29.816130291575973 63.984260418342728 0 63.984260418342728 161.8537181558695 0 0 0 0 27.268247990657983 134.82776825784617 0 134.82776825784617 11.949728516671485 0 0 0 0 -40.306167554522972 44.405133417884812 0 44.405133417884812 -50.762382065591432 0 0 0 0 74.846471091111198 232.94072056714322 0 232.94072056714322 257.19661609007289 0 0 0 0 -70.956154624691408 38.348819753429325 0 38.348819753429325 462.87471964031374 0 0 0 0 30.04585700620737 228.09384589939918 0 228.09384589939918 -671.4092306040593 0 0 0 0 -1.1184902428913404 1.2490788650481974 0 1.2490788650481974 0.35573651471179879 0 0 0 0 -87.255175911599508 202.91194815481049 0 202.91194815481049 -34.300213306360092 0 0 0 0 8.9273301138891838 -22.199174124467845 0 -22.199174124467845 -284.72423421861276 0 0 0 0 7.0389461103986832 -74.229105436878854 0 -74.229105436878854 -197.26303281525543 0 0 0 0 30.832082583262491 80.27105717170781 0 80.27105717170781 -252.27521643160071 0 0 0 0 -22.268057464221783 -13.516993948667277 0 -13.516993948667277 -341.04669424600615 0 0 0 0 155.86567144886067 176.06119594838992 0 176.06119594838992 64.818491856542323 0 0 0 0 -85.570060090049083 167.9423502016632 0 167.9423502016632 128.05595719505254 0 0 0 0 153.90708385648031 -39.964947551041405 0 -39.964947551041405 -29.766828098621318 0 0 0 0 -17.359345103643136 45.296891028331174 0 45.296891028331174 -50.110385383009998 0 0 0 0 113.94843171215325 68.954947388022447 0 68.954947388022447 -125.45986136166903 0 0 0 0 49.842370739643229 126.29236961891547 0 126.29236961891547 -60.509266013965316 0 0 0 0 -31.194045451679699 35.145464384948639 0 35.145464384948639 -38.130160272618966 0 0 0 0 -360.48238721111557 431.33994903780695 0 431.33994903780695 137.59135899270041 0 0 0 0 177.027813199099 140.80734888779224 0 140.80734888779224 -92.434239671429168 0 0 0 0 -122.95617066230625 16.219005765105976 0 16.219005765105976 9.285371809809476 0 0 0 0 -113.26745190814836 29.297555150373228 0 29.297555150373228 12.330538532273749 0 0 0 0 -117.93484976293985 30.741443286180584 0 30.741443286180584 16.086274523571774 0 0 0 0 -95.517989616593695 30.554532711930733 0 30.554532711930733 7.0573945612632087 0 0 0 0 -120.26666163949994 34.758998435707326 0 34.758998435707326 22.105287163355115 0 0 0 0 -106.69096517551225 14.362447534986131 0 14.362447534986131 40.582608237364184 0 0 0 0 -105.69034969498171 18.659715099347522 0 18.659715099347522 24.518981448060913 0 0 0 0 -71.202271539019421 27.22585294808232 0 27.22585294808232 3.2990458542117267 0 0 0 0 -111.48014727818372 44.630042530961873 0 44.630042530961873 0.33644210366765037 0 0 0 0 -109.90216638418497 40.585874733607852 0 40.585874733607852 7.6196246177787543 0 0 0 0 -136.26000037899939 14.659541270835689 0 14.659541270835689 16.960028802826855 0 0 0 0 -137.88401928386884 27.276682904319387 0 27.276682904319387 20.256542970284499 0 0 0 0 -156.50408941146452 32.876912182877277 0 32.876912182877277 15.47173207096057 0 0 0 0 -161.51527937749051 62.5214725179776 0 62.5214725179776 -3.7777517637441633 0 0 0 0 -141.16638858550868 85.252990521415086 0 85.252990521415086 -25.689146847929806 0 0 0 0 -100.27587340338505 76.946081819684878 0 76.946081819684878 -25.483954790775897 0 0 0 0 -60.896745894278865 54.276625610305928 0 54.276625610305928 -17.687590398381872 0 0 0 0 -134.85919968725648 43.07982412702404 0 43.07982412702404 7.3804681038236595 0 0 0 0 -61.818964866601164 99.68401154161802 0 99.68401154161802 -66.577000185767247 0 0 0 0 -58.047981387440814 44.514231426188417 0 44.514231426188417 -16.657003713145969 0 0 0 0 12.283506947540445 85.3272679157526 0 85.3272679157526 -64.041437393090746 0 0 0 0 81.96055795342545 39.219751901054224 0 39.219751901054224 -71.2803664487692 0 0 0 0 1.1875710196618456 -0.68590229055553209 0 -0.68590229055553209 -18.57655957294628 0 0 0 0 -52.045604903833009 49.945469080634211 0 49.945469080634211 -16.92385332675633 0 0 0 0 -53.176389329426456 -3.4672087282633584 0 -3.4672087282633584 -15.361334545530553 0 0 0 0 -55.080125186475925 10.002196748828283 0 10.002196748828283 15.349200411375932 0 0 0 0 -168.02456843499749 -85.906919301917696 0 -85.906919301917696 25.717782541814813 0 0 0 0 150.17139861776377 -0.78930807911547163 0 -0.78930807911547163 -94.823804162275337 0 0 0 0 -145.34971204563408 -170.16621024084566 0 -170.16621024084566 -43.970245931619502 0 0 0 0 -1.1595479800669324 1.0137459755450777 0 1.0137459755450777 -0.6404433991321703 0 0 0 0 81.689422160693539 43.620164442079442 0 43.620164442079442 -121.68803115055562 0 0 0 0 -62.553328209796746 -59.895965997454368 0 -59.895965997454368 97.953825415577739 0 0 0 0 -166.11696910508908 38.096163253530904 0 38.096163253530904 103.17846123578965 0 0 0 0 -39.197106884472305 -31.193479205066069 0 -31.193479205066069 -161.45634594523108 0 0 0 0 -137.46546966291498 76.152474982351123 0 76.152474982351123 53.192026939650532 0 0 0 0 96.199234941988834 -259.90461348420649 0 -259.90461348420649 57.05224689192255 0 0 0 0 -1.1855991153861396 -59.359198676000233 0 -59.359198676000233 20.170525646375609 0 0 0 0 -36.582367072987836 -27.302905892058334 0 -27.302905892058334 1.541001143916219 0 0 0 0 -111.17767538121552 -47.526112349926734 0 -47.526112349926734 118.88556491221243 0 0 0 0 -237.68023932242068 36.429101419693325 0 36.429101419693325 89.041529726304361 0 0 0 0 -512.85943797329674 125.30162390366422 0 125.30162390366422 111.68099249895931 0 0 0 0 -154.8471100422903 -77.019653963136079 0 -77.019653963136079 221.89210846029164 0 0 0 0 -195.5128838182427 121.7571055341723 0 121.7571055341723 3.0410498968121829 0 0 0 0 -410.53547735276516 -334.37646089920236 0 -334.37646089920236 438.23438971958967 0 0 0 0 -401.33970026689349 258.66866339968328 0 258.66866339968328 -54.753504044783767 0 0 0 0 -165.94856449468352 144.63408435659676 0 144.63408435659676 -70.120174320893057 0 0 0 0 -82.837088427389972 80.929134841124323 0 80.929134841124323 -22.340705010497913 0 0 0 0 -70.117217207269277 55.660089160399366 0 55.660089160399366 -21.927811594354353 0 0 0 0 -71.404507891242247 55.552125106231188 0 55.552125106231188 -21.64415701530379 0 0 0 0 -90.184116145828739 58.85367183749986 0 58.85367183749986 -12.614472516976093 0 0 0 0 -100.75359540845966 51.906268440045096 0 51.906268440045096 -6.9198543751499528 0 0 0 0 -136.56833476817701 100.89769072608033 0 100.89769072608033 -28.370100602049206 0 0 0 0 -92.307339947146829 78.669408964837203 0 78.669408964837203 -19.416704175298946 0 0 0 0 -168.53494342169142 90.814996867547961 0 90.814996867547961 23.191832621661888 0 0 0 0 -121.80145490879659 45.826713705751899 0 45.826713705751899 43.150188196241288 0 0 0 0 -147.46179874664813 30.184320540233784 0 30.184320540233784 34.704487351700664 0 0 0 0 -117.88433317354065 34.13264600184084 0 34.13264600184084 17.770462554133701 0 0 0 0 -122.74519598123152 52.067139993842829 0 52.067139993842829 9.2040900964784669 0 0 0 0 119.41069996578153 -39.277347696431207 0 -39.277347696431207 -145.84349298986717 0 0 0 0 213.83890760426584 66.592251909483821 0 66.592251909483821 -89.493511439708527 0 0 0 0 -48.929605319179245 32.485672425023949 0 32.485672425023949 -124.3344630247293 0 0 0 0 89.488150111632422 -67.713502935594988 0 -67.713502935594988 -53.332548892180057 0 0 0 0 -45.535904330252379 -11.869966487895454 0 -11.869966487895454 155.61845098507001 0 0 0 0 -8.8054189249232877 -48.132854978533032 0 -48.132854978533032 -32.966214345659864 0 0 0 0 87.006454307993408 10.929434900790511 0 10.929434900790511 109.65026187484546 0 0 0 0 55.803498597932048 -5.5631622095456805 0 -5.5631622095456805 113.76789381460549 0 0 0 0 232.42307389013149 35.025383658567989 0 35.025383658567989 95.763889351997932 0 0 0 0 124.80986073947133 81.662912157893516 0 81.662912157893516 102.38756664501307 0 0 0 0 193.17078850550752 34.012624278845578 0 34.012624278845578 412.15852963840371 0 0 0 0 432.52845594933024 66.619265899197671 0 66.619265899197671 102.87272034389571 0 0 0 0 282.19989864638774 311.16657072864723 0 311.16657072864723 360.8274806092395 0 0 0 0 143.41698985474068 98.683044783607329 0 98.683044783607329 133.74796147370034 0 0 0 0 126.0718298173897 379.37138205709749 0 379.37138205709749 270.1096788699133 0 0 0 0 -12.892311836272711 166.85813324587434 0 166.85813324587434 5.3181518727735693 0 0 0 0 15.051133537936039 365.13428138454697 0 365.13428138454697 -37.624459576049048 0 0 0 0 104.81886511225457 106.29021505182027 0 106.29021505182027 -256.07204237665883 0 0 0 0 77.902626598268398 195.94175006809019 0 195.94175006809019 -62.477389685407388 0 0 0 0 319.85381385393703 193.10325888915031 0 193.10325888915031 -64.954275177171439 0 0 0 0 -80.864587473552092 235.2322590978988 0 235.2322590978988 -282.90157164046082 0 0 0 0 65.200363042251411 221.08387525556941 0 221.08387525556941 -554.21749866387017 0 0 0 0 -123.7544283906318 171.07727276506694 0 171.07727276506694 -172.83542019794731 0 0 0 0 12.41075335462665 71.413092365326065 0 71.413092365326065 -58.097269124531522 0 0 0 0 -42.063668301241705 42.692933871245486 0 42.692933871245486 145.15908311018848 0 0 0 0 -4.9887289415356975 3.0857128458526404 0 3.0857128458526404 1.4624275556166548 0 0 0 0 103.06108032359043 -7.2727778729463353 0 -7.2727778729463353 -33.558606478157344 0 0 0 0 5.4716049175784036 1.4296152046692185 0 1.4296152046692185 -0.7068730180697429 0 0 0 0 -30.897227846784517 34.92373217355771 0 34.92373217355771 3.1145073931064644 0 0 0 0 -31.562524036622563 30.275707075364949 0 30.275707075364949 -8.2788962765043834 0 0 0 0 -4.6641064617325938 12.654165558390346 0 12.654165558390346 -7.8055533062283899 0 0 0 0 -78.326911626645597 -10.989122646908982 0 -10.989122646908982 82.716853722602536 0 0 0 0 -37.238937780231936 -38.131210373956492 0 -38.131210373956492 -19.354394956173564 0 0 0 0 -39.861926901656261 62.856858069326336 0 62.856858069326336 66.212802075428954 0 0 0 0 -11.201509695944367 4.7560001550677384 0 4.7560001550677384 1.7393468469970212 0 0 0 0 -114.27662237100958 181.68562734587022 0 181.68562734587022 -163.33757356967271 0 0 0 0 273.44566058679629 255.47188972332879 0 255.47188972332879 146.66028169137462 0 0 0 0 -85.533377613814082 -14.78086101838926 0 -14.78086101838926 44.928302363789044 0 0 0 0 -3.9415968527822969 3.0485272692616689 0 3.0485272692616689 1.2487920618626873 0 0 0 0 -203.70099792048859 133.10597463559134 0 133.10597463559134 -106.58354922836816 0 0 0 0 -0.020445159366637711 0.57597375063922129 0 0.57597375063922129 -0.059031196748545511 0 0 0 0 -773.71881998206663 184.21678382194568 0 184.21678382194568 92.71351794800762 0 0 0 0 245.28594427433563 246.82681527659224 0 246.82681527659224 160.77327341703131 0 0 0 0 -128.31763405250967 228.16249265052375 0 228.16249265052375 -167.28242214416105 0 0 0 0 -148.54569161807012 250.83415714538205 0 250.83415714538205 21.379294645409573 0 0 0 0 -153.79721381624768 487.98235210054168 0 487.98235210054168 140.40531543471388 0 0 0 0 -23.455591653815645 459.58000005227177 0 459.58000005227177 228.21363909755746 0 0 0 0 807.17107560493969 436.2757112114964 0 436.2757112114964 45.881786655274482 0 0 0 0 -0.63959522442803518 1.6511417641510491 0 1.6511417641510491 -4.5112630570981196 0 0 0 0 -63.891870640772595 14.40733789113068 0 14.40733789113068 70.499267035400408 0 0 0 0 92.459963812140359 -24.389419825874455 0 -24.389419825874455 1.4483083256163809 0 0 0 0 -2.3791029995783504 9.7998638448931246 0 9.7998638448931246 -6.0828010134962121 0 0 0 0 73.754936476801959 207.48021382206832 0 207.48021382206832 149.23622483240979 0 0 0 0 172.28950501148938 270.03529059141601 0 270.03529059141601 130.25343700561348 0 0 0 0 243.68088793140487 235.0218185330059 0 235.0218185330059 111.97187108177059 0 0 0 0 -0.80867428763226989 62.061673494079237 0 62.061673494079237 57.63831475086365 0 0 0 0 119.28902487685082 -11.912390202920506 0 -11.912390202920506 25.682699961133039 0 0 0 0 -20.76781896573992 4.0391310273196659 0 4.0391310273196659 14.855441936669237 0 0 0 0 -214.03454198545114 -27.08951359488583 0 -27.08951359488583 143.45872294545643 0 0 0 0 21.978320944763254 77.214986886777751 0 77.214986886777751 50.701445026944384 0 0 0 0 27.124558502262516 62.41448863267442 0 62.41448863267442 75.339512529488275 0 0 0 0 -3.7574566900488833 42.16060987268439 0 42.16060987268439 48.768065333207886 0 0 0 0 -45.183812757547457 36.086787779636239 0 36.086787779636239 41.463821694014314 0 0 0 0 23.720005188173673 76.145956830427167 0 76.145956830427167 73.023002478135709 0 0 0 0 119.03125527535599 36.229387764835906 0 36.229387764835906 26.110978612283361 0 0 0 0 4.4525597758121283 39.925719641814631 0 39.925719641814631 34.416788709438237 0 0 0 0 100.1365846787121 36.729832851189713 0 36.729832851189713 44.550565923294926 0 0 0 0 107.63354428138678 71.147260557895152 0 71.147260557895152 27.854622339596972 0 0 0 0 5.7577105020609451 57.425658740140136 0 57.425658740140136 46.382340179289656 0 0 0 0 -14.093808358924024 29.673577444522834 0 29.673577444522834 42.245684502489624 0 0 0 0 84.345341930631548 72.804165396602912 0 72.804165396602912 67.948372223262822 0 0 0 0 -5.4322534087283572 1.7410845085883864 0 1.7410845085883864 2.5041970156541424 0 0 0 0 -152.09851094805254 230.2706553353961 0 230.2706553353961 191.26418052773988 0 0 0 0 493.12800028853235 189.06558110338847 0 189.06558110338847 58.878868798022268 0 0 0 0 -16.288675719565134 40.941733402182678 0 40.941733402182678 39.625517728261862 0 0 0 0 -33.51989989084359 -367.84676406082576 0 -367.84676406082576 -621.16458063469872 0 0 0 0 12.272026616339531 0.5324203004580319 0 0.5324203004580319 0.33606086593519535 0 0 0 0 91.222545749769779 462.35097261703595 0 462.35097261703595 1037.7011317643182 0 0 0 0 86.062020254372328 969.31060618663787 0 969.31060618663787 754.59002367898211 0 0 0 0 789.72750663243642 637.25388600652059 0 637.25388600652059 -640.51777478783879 0 0 0 0 158.64066694053736 50.994017358102155 0 50.994017358102155 133.39979159162613 0 0 0 0 -21.250976419894364 72.787989588253026 0 72.787989588253026 76.432874638985695 0 0 0 0 -590.95156043648603 147.81109105328414 0 147.81109105328414 1652.419541523861 0 0 0 0 21.56847034644538 14.825445751454737 0 14.825445751454737 13.019208859040209 0 0 0 0 142.80004553317485 106.6304268184449 0 106.6304268184449 61.34960511054669 0 0 0 0 150.1336879949522 285.61032339295798 0 285.61032339295798 187.53134618119475 0 0 0 0 205.28081101280986 334.98690699392137 0 334.98690699392137 229.69226096764032 0 0 0 0 159.34309450906585 279.35855952722341 0 279.35855952722341 191.70035512819231 0 0 0 0 -2.3389670766109987 5.4709273561705984 0 5.4709273561705984 0.57408837575719573 0 0 0 0 130.32271646976005 71.219956915603689 0 71.219956915603689 -205.170080979673 0 0 0 0 187.3056870662258 162.56544745036808 0 162.56544745036808 -60.27215057063222 0 0 0 0 217.61567999681574 280.03611622058725 0 280.03611622058725 148.88882945272053 0 0 0 0 235.19215586363862 236.97640364707422 0 236.97640364707422 232.69066254114659 0 0 0 0 207.90239082233893 280.24911343997837 0 280.24911343997837 187.1539551883543 0 0 0 0 207.3430916858124 223.55590064414628 0 223.55590064414628 111.72602348830151 0 0 0 0 246.8412960034475 246.03986286010058 0 246.03986286010058 68.5905176139986 0 0 0 0 438.11700179704349 89.895113386002777 0 89.895113386002777 -36.364300724414079 0 0 0 0 552.03221272755763 376.79626226493019 0 376.79626226493019 157.46558400272261 0 0 0 0 205.45547527860617 326.09581520372012 0 326.09581520372012 272.54485979088531 0 0 0 0 447.43027375033125 308.33560352743734 0 308.33560352743734 117.28688784290534 0 0 0 0 4.8852324140700034 1.1025995391191259 0 1.1025995391191259 -2.3917383065513711 0 0 0 0 155.04223542075488 289.34007081007076 0 289.34007081007076 437.71244096587634 0 0 0 0 63.623532351339236 130.34759471545112 0 130.34759471545112 349.73944737493002 0 0 0 0 391.39990939685958 445.01745445091728 0 445.01745445091728 347.4096823677537 0 0 0 0 191.3203004065108 -29.251406463996204 0 -29.251406463996204 -38.739310781112181 0 0 0 0 496.27838425214031 262.27269187344712 0 262.27269187344712 491.81489106234221 0 0 0 0 105.71641815759358 531.62634200322827 0 531.62634200322827 845.59401264975168 0 0 0 0 49.493347146897577 34.821602912426897 0 34.821602912426897 242.21108443240155 0 0 0 0 19.31188210122491 14.285441771520709 0 14.285441771520709 90.933533284514851 0 0 0 0 -27.400829563557636 51.549108789293314 0 51.549108789293314 168.80055649683811 0 0 0 0 60.341419071599375 114.70942987627313 0 114.70942987627313 168.52448391732833 0 0 0 0 60.181560342134617 145.80782428413386 0 145.80782428413386 106.68341712355686 0 0 0 0 26.20127757647424 126.86486870334556 0 126.86486870334556 232.82648357607104 0 0 0 0 103.22624801957863 250.74605716854239 0 250.74605716854239 320.63712104790648 0 0 0 0 -18.651444577524671 23.79470209973806 0 23.79470209973806 114.33511416086003 0 0 0 0 17.334490777284373 102.98398813853782 0 102.98398813853782 173.10260381705848 0 0 0 0 13.941245828114006 41.711961494222862 0 41.711961494222862 117.72339600189298 0 0 0 0 -79.266635038511595 11.672963995691134 0 11.672963995691134 49.721035482951265 0 0 0 0 -80.407996621535858 -4.2388695284753339 0 -4.2388695284753339 132.98519822198887 0 0 0 0 -32.569895463442663 11.295429623620294 0 11.295429623620294 92.318234336089517 0 0 0 0 -49.020740610489156 -41.304724139503378 0 -41.304724139503378 -61.330370631083497 0 0 0 0 -38.803116538154427 -0.0084691813244717196 0 -0.0084691813244717196 88.785953924998012 0 0 0 0 -75.188281739385275 1.7929624646849334 0 1.7929624646849334 -81.25620984298439 0 0 0 0 -83.748839048843365 24.297214883852575 0 24.297214883852575 89.337400414297008 0 0 0 0 17.774064785393975 21.933519307225367 0 21.933519307225367 -7.6903827538935658 0 0 0 0 -45.236425275972579 -8.1066368659085128 0 -8.1066368659085128 -230.69839009170028 0 0 0 0 -32.667617727536708 -11.53885818411436 0 -11.53885818411436 -232.50441341268743 0 0 0 0 2.0431954020575063 21.398451814960094 0 21.398451814960094 -0.12297340219139219 0 0 0 0 48.944083463604329 18.696966332332522 0 18.696966332332522 -253.64669643221714 0 0 0 0 29.926887914694532 22.10497990206462 0 22.10497990206462 -14.938390298519593 0 0 0 0 4.8323330718558282 27.452170556458441 0 27.452170556458441 -17.447686026789597 0 0 0 0 40.147758217282302 38.36752858907208 0 38.36752858907208 7.9523012233117214 0 0 0 0 46.564229681469442 45.743295575977754 0 45.743295575977754 -72.604764356578016 0 0 0 0 -15.454171560093528 -121.03513536620812 0 -121.03513536620812 -127.20518138851548 0 0 0 0 12.366225435849628 52.173280619012985 0 52.173280619012985 0.49939267720674252 0 0 0 0 48.734468138485681 64.443875662546475 0 64.443875662546475 -13.834189889412301 0 0 0 0 0.57539073549646957 16.13240643212302 0 16.13240643212302 -16.501751585233119 0 0 0 0 106.06707331234429 82.968246019361231 0 82.968246019361231 12.694687361625256 0 0 0 0 -3.0002229086300929 24.585671816496344 0 24.585671816496344 -8.2870829406854192 0 0 0 0 45.194930799101712 41.280212988173616 0 41.280212988173616 53.607666400839207 0 0 0 0 53.760231192518404 42.586460148840217 0 42.586460148840217 0.40441558176735271 0 0 0 0 34.3023932277938 5.9373286095981257 0 5.9373286095981257 8.8489032317563669 0 0 0 0 83.672395172950928 88.067257389740234 0 88.067257389740234 -9.9327536914888697 0 0 0 0 58.654880093061365 68.122859891472217 0 68.122859891472217 -90.627661226496457 0 0 0 0 30.400850994970057 9.3930935779320706 0 9.3930935779320706 -0.074534273807207896 0 0 0 0 67.725373134497204 53.392298027538345 0 53.392298027538345 -59.43465676402684 0 0 0 0 49.220470799366012 76.759668039272583 0 76.759668039272583 -18.066307167057403 0 0 0 0 41.738094490849107 -17.332932005809141 0 -17.332932005809141 -95.346322130248154 0 0 0 0 20.445265000418658 60.880699462129542 0 60.880699462129542 -60.398329501125772 0 0 0 0 361.86949258449022 -215.3271395562092 0 -215.3271395562092 23.368271145768858 0 0 0 0 560.97901849868504 -220.93448537945392 0 -220.93448537945392 -528.16099114114877 0 0 0 0 538.68698674783809 300.62805692385575 0 300.62805692385575 -609.65192757349325 0 0 0 0 125.37428216556145 22.723556069423353 0 22.723556069423353 -84.668617406491649 0 0 0 0 160.89094306450716 -14.169857809114546 0 -14.169857809114546 33.176265159419927 0 0 0 0 54.858525373063458 187.34841675301141 0 187.34841675301141 1.161416607996216 0 0 0 0 71.560953429546771 176.61538737178353 0 176.61538737178353 5.2737223988806363 0 0 0 0 -11.325355909953696 79.111727555285057 0 79.111727555285057 69.417725449945536 0 0 0 0 -158.89362396789511 213.78003170344505 0 213.78003170344505 443.13021735404891 0 0 0 0 604.65405618642399 -23.271901477906681 0 -23.271901477906681 -113.95006232283777 0 0 0 0 -49.759148286422715 115.38211725360247 0 115.38211725360247 87.339972565259643 0 0 0 0 3.2335022290077546 3.7489559883421464 0 3.7489559883421464 1.1451694366525729 0 0 0 0 362.69867039233941 275.40523497137178 0 275.40523497137178 84.343491683959996 0 0 0 0 19.812777230080741 13.487692580950011 0 13.487692580950011 -2.210750417748784 0 0 0 0 -4.1671742835130594 81.524677077878394 0 81.524677077878394 53.620644613361584 0 0 0 0 -91.459068032337427 79.361593837536702 0 79.361593837536702 142.78406066061143 0 0 0 0 162.89298640530615 82.566110700783611 0 82.566110700783611 -19.960975305866214 0 0 0 0 11.51184820954068 10.436408352718502 0 10.436408352718502 1.0939281376638235 0 0 0 0 90.070709874568806 30.891487361105991 0 30.891487361105991 1.1748126893784141 0 0 0 0 92.099176236035419 62.275880023684294 0 62.275880023684294 27.193972050189586 0 0 0 0 181.24086878676462 63.262043532262396 0 63.262043532262396 0.10445733839878812 0 0 0 0 18.680415309538517 18.667240139793591 0 18.667240139793591 2.8186869446922915 0 0 0 0 74.982639138717786 63.313380029885593 0 63.313380029885593 20.049532090964931 0 0 0 0 131.63731792351609 84.739761747068769 0 84.739761747068769 26.337733469892555 0 0 0 0 111.69244497293403 12.022105085124167 0 12.022105085124167 -9.3188017799584486 0 0 0 0 0.82934385521272702 7.0737891432158762 0 7.0737891432158762 -0.55655716168923863 0 0 0 0 67.792515321314568 39.403829157638029 0 39.403829157638029 -20.050281291749343 0 0 0 0 42.034491470039939 22.204327285434374 0 22.204327285434374 10.119139475711336 0 0 0 0 -6.6730740917884361 18.885255589577127 0 18.885255589577127 -8.691247851042931 0 0 0 0 2.0396601763116848 18.5204769458919 0 18.5204769458919 -9.1693103473518036 0 0 0 0 66.056220063124783 65.57978674463493 0 65.57978674463493 -30.860568354843053 0 0 0 0 55.666771449803491 59.355853530963941 0 59.355853530963941 5.9273101587259589 0 0 0 0 44.841617241956556 52.033727381078279 0 52.033727381078279 169.34591945973443 0 0 0 0 59.498578011916834 53.697737955526463 0 53.697737955526463 153.10695012302676 0 0 0 0 48.268246694948175 121.10800365341856 0 121.10800365341856 127.49746713974127 0 0 0 0 67.084991773452202 3.0743313045131799 0 3.0743313045131799 164.76520794172393 0 0 0 0 44.262794475721421 132.44915088972243 0 132.44915088972243 -2.4790119216777384 0 0 0 0 10.911907559369865 107.06082813599642 0 107.06082813599642 75.82989085850204 0 0 0 0 21.849209039537527 112.20031115682286 0 112.20031115682286 78.206346337497962 0 0 0 0 -17.917082739520993 205.49061289647216 0 205.49061289647216 -28.095576723397244 0 0 0 0 -34.975412287909421 208.41329341855453 0 208.41329341855453 -26.945341773189284 0 0 0 0 19.356816583858972 336.50151555356422 0 336.50151555356422 37.064378494367702 0 0 0 0 28.003380762256711 177.77148843533905 0 177.77148843533905 -55.953176368573622 0 0 0 0 38.635700098573579 126.0111140063218 0 126.0111140063218 -17.879031958036649 0 0 0 0 -71.605925210009445 74.586287571153662 0 74.586287571153662 -30.432953456562245 0 0 0 0 147.42564686473634 -86.23687123417767 0 -86.23687123417767 -123.66559489099018 0 0 0 0 26.730190841579315 180.07153406707039 0 180.07153406707039 -255.61390076203679 0 0 0 0 9.3934337471437175 -48.378209610345948 0 -48.378209610345948 154.92495571501786 0 0 0 0 20.093311062863563 376.44412674123595 0 376.44412674123595 -328.47593338582374 0 0 0 0 154.21742483432172 -44.650998180666647 0 -44.650998180666647 -791.0564985641613 0 0 0 0 -53.413619054117589 -920.950111902559 0 -920.950111902559 271.73963934367202 0 0 0 0 -15.176564984056313 248.68942715035155 0 248.68942715035155 303.19555617921287 0 0 0 0 190.04641758272192 687.28361007346393 0 687.28361007346393 -244.42173687976992 0 0 0 0 -52.573926569901232 118.66793054138179 0 118.66793054138179 397.77976910939833 0 0 0 0 -9.8638920426217993 -2.2847340892548829 0 -2.2847340892548829 -0.96818118823080201 0 0 0 0 11.312735051360505 120.60029350055811 0 120.60029350055811 157.80252957815537 0 0 0 0 33.313304432151199 70.988707623189839 0 70.988707623189839 239.00764690439246 0 0 0 0 15.151207009126665 24.101479791965176 0 24.101479791965176 155.02099708644528 0 0 0 0 34.575335131274187 61.983928144326455 0 61.983928144326455 187.23737068946502 0 0 0 0 6.521147858533368 12.52225875646036 0 12.52225875646036 300.68463452671676 0 0 0 0 21.444617912828107 60.582006211407133 0 60.582006211407133 -76.072006630597571 0 0 0 0 -42.703130579197023 73.615511248666735 0 73.615511248666735 112.67854206903166 0 0 0 0 -29.73077636746082 11.791286946313036 0 11.791286946313036 8.453245190672865 0 0 0 0 23.967217906771111 92.798201845558651 0 92.798201845558651 -55.225721339935262 0 0 0 0 -59.69432580294233 81.839064760632027 0 81.839064760632027 114.94735101864353 0 0 0 0 -58.779092730488628 89.590278329336343 0 89.590278329336343 169.42877580571076 0 0 0 0 15.757617922568897 60.326654352107653 0 60.326654352107653 163.79005855804644 0 0 0 0 14.964728164748522 62.70751405316696 0 62.70751405316696 187.32659168159876 0 0 0 0 30.07381436596188 36.200265443023454 0 36.200265443023454 155.56662529825553 0 0 0 0 -121.73551570622112 86.346356956459204 0 86.346356956459204 176.39297836679543 0 0 0 0 -99.865285394895182 96.607682854290033 0 96.607682854290033 163.73484214375253 0 0 0 0 -42.341764849472384 130.65921990141578 0 130.65921990141578 109.32018296647971 0 0 0 0 -58.460804359978283 131.17383008983961 0 131.17383008983961 138.89790668804199 0 0 0 0 -247.78338556878589 239.12491303112438 0 239.12491303112438 104.46010847608432 0 0 0 0 42.59846164450687 314.5690466316712 0 314.5690466316712 -172.31053190743478 0 0 0 0 -193.03446052096479 75.327688387509625 0 75.327688387509625 256.76085304333537 0 0 0 0 197.93819093001366 104.19111852690548 0 104.19111852690548 -219.88444796879276 0 0 0 0 107.86893773897464 310.18965843801925 0 310.18965843801925 -38.460055568602911 0 0 0 0 -138.17016464888502 282.64885281038346 0 282.64885281038346 20.948171758918761 0 0 0 0 -5.3147607104975236 0.55858246858965543 0 0.55858246858965543 1.1809101556691246 0 0 0 0 -433.78340938232213 -103.29386532654826 0 -103.29386532654826 292.4004395294869 0 0 0 0 217.93257618156895 100.71713320110939 0 100.71713320110939 -139.92908096331666 0 0 0 0 25.797060941888049 93.03074680597183 0 93.03074680597183 232.75569633693158 0 0 0 0 -9.9525260207589099 1.687496367532475 0 1.687496367532475 1.5249988474214824 0 0 0 0 68.336570691350062 80.380142559954038 0 80.380142559954038 159.78873040498092 0 0 0 0 71.146532611387556 -289.9176800560831 0 -289.9176800560831 -121.63571511716509 0 0 0 0 -243.73777757209609 339.50822472248728 0 339.50822472248728 373.5983951251028 0 0 0 0 -803.01905091434674 -591.71075248609304 0 -591.71075248609304 -219.85155333758792 0 0 0 0 -99.526922392662527 -36.067624547942614 0 -36.067624547942614 -267.80021752524408 0 0 0 0 209.83688973541211 254.02084090429162 0 254.02084090429162 293.57790365784604 0 0 0 0 229.28261932685837 298.87352324227027 0 298.87352324227027 180.25283311974999 0 0 0 0 -5.4299119627579273 1.9884914329610908 0 1.9884914329610908 0.9355170882300925 0 0 0 0 -124.80289589890344 352.43443736516565 0 352.43443736516565 162.44166642455457 0 0 0 0 190.42335576006008 345.9660212346098 0 345.9660212346098 150.99915634021818 0 0 0 0 -287.69963501052916 0.23751380639896524 0 0.23751380639896524 -146.26826242447896 0 0 0 0 -560.40913455952659 214.48426599580057 0 214.48426599580057 1.5450386134743894 0 0 0 0 -459.95767549794982 62.277166127810233 0 62.277166127810233 100.07917551882747 0 0 0 0 -39.975402745974861 160.48014853962741 0 160.48014853962741 18.562581588140802 0 0 0 0 -9.083579383068809 269.43825277805479 0 269.43825277805479 30.627614146033011 0 0 0 0 119.16316776241274 12.197029976036902 0 12.197029976036902 100.28340904735887 0 0 0 0 -19.199983212976804 98.404340756295824 0 98.404340756295824 74.66860382953746 0 0 0 0 20.8470977308898 147.4009048578082 0 147.4009048578082 58.634525147539989 0 0 0 0 0.70070061041815279 2.0214267712562553 0 2.0214267712562553 0.69337305943029293 0 0 0 0 42.832166873929964 69.51706021951577 0 69.51706021951577 -32.882302486847038 0 0 0 0 73.879089107892469 123.31005535995473 0 123.31005535995473 15.538455727804831 0 0 0 0 58.179601407380687 101.03056993827977 0 101.03056993827977 -1.1889435083812714 0 0 0 0 84.939112335425307 67.997436617602034 0 67.997436617602034 37.142050457966434 0 0 0 0 52.337275373192824 23.005604834603218 0 23.005604834603218 -11.911885596116917 0 0 0 0 100.16324624353729 45.217026178316701 0 45.217026178316701 -20.372939746326665 0 0 0 0 -21.906928392177178 125.13941064921892 0 125.13941064921892 -26.336754652063973 0 0 0 0 82.272074572535729 79.518781191539347 0 79.518781191539347 -58.431400710720482 0 0 0 0 81.632481463199369 -4.5274284577598713 0 -4.5274284577598713 15.96989587873577 0 0 0 0 100.49193079175166 7.7193528283669366 0 7.7193528283669366 22.328190480112596 0 0 0 0 0.91905414320341805 3.1037052289861933 0 3.1037052289861933 2.4791533885045496 0 0 0 0 -178.80057297111671 62.294997505791343 0 62.294997505791343 10.460839372540704 0 0 0 0 -232.00525794627902 139.96791614389076 0 139.96791614389076 49.938768616872039 0 0 0 0 99.862384922784258 103.08668025305997 0 103.08668025305997 -73.377603116010505 0 0 0 0 81.509250711029836 211.06024594341852 0 211.06024594341852 23.563400321707377 0 0 0 0 128.08376947170109 203.75457941409331 0 203.75457941409331 24.520035937717694 0 0 0 0 134.85103987637558 187.03170140823568 0 187.03170140823568 52.011696634409418 0 0 0 0 204.32331278313723 166.40085916421594 0 166.40085916421594 0.27871275337747647 0 0 0 0 220.99583269688446 180.04827076208949 0 180.04827076208949 -38.349415885805342 0 0 0 0 166.0579879912475 228.49965616003556 0 228.49965616003556 -33.932914119199268 0 0 0 0 308.33446935102984 142.18616669654693 0 142.18616669654693 -28.292592360205163 0 0 0 0 215.16562470023473 168.8162838950243 0 168.8162838950243 -0.4726866366363538 0 0 0 0 190.51201673807373 148.35937383541204 0 148.35937383541204 -19.809486400506103 0 0 0 0 200.46433289379638 132.67934948638322 0 132.67934948638322 0.94318737024332222 0 0 0 0 159.53353646033793 167.54902144531297 0 167.54902144531297 1.1596873967100692 0 0 0 0 160.4443516591117 136.64321434836111 0 136.64321434836111 14.540227372021036 0 0 0 0 193.06538544329078 69.933815584722424 0 69.933815584722424 15.452246118287803 0 0 0 0 117.57086302410244 70.484878757629758 0 70.484878757629758 21.03955465391482 0 0 0 0 -13.331968635974278 12.700522194258397 0 12.700522194258397 2.2832166661796478 0 0 0 0 -45.074719377653309 20.815913812275085 0 20.815913812275085 -16.487924271023076 0 0 0 0 -191.84101171664952 26.377004086236411 0 26.377004086236411 33.149083453903586 0 0 0 0 -143.83769450847103 -8.6999832878873349 0 -8.6999832878873349 -16.516582503238169 0 0 0 0 -172.13624405596784 25.942385221564109 0 25.942385221564109 25.490849986650574 0 0 0 0 -17.917677532170273 30.876284776020839 0 30.876284776020839 40.338835309130445 0 0 0 0 -5.5022050971656924 7.9869326565262355 0 7.9869326565262355 -6.2819883195203872 0 0 0 0 -176.70299316468663 -12.303096927651495 0 -12.303096927651495 -9.1634087279744563 0 0 0 0 240.09103733457596 57.048858606785871 0 57.048858606785871 -10.637424372402165 0 0 0 0 -2.4722795888898297 8.1164934444266024 0 8.1164934444266024 9.1628083049221019 0 0 0 0 213.42816436079374 64.300186346991723 0 64.300186346991723 2.1207642652016148 0 0 0 0 2.2146219330129764 5.3433636180413586 0 5.3433636180413586 5.2005556050932142 0 0 0 0 449.34725209649969 55.294178872689827 0 55.294178872689827 7.3941881179598568 0 0 0 0 -62.437105586344842 70.537544659616287 0 70.537544659616287 -127.22949550031444 0 0 0 0 36.9202576022617 64.880319202072315 0 64.880319202072315 -238.13142845262701 0 0 0 0 -25.61790784688128 -14.893923366906165 0 -14.893923366906165 19.560146196215101 0 0 0 0 -206.3607152722434 323.66416710188878 0 323.66416710188878 -102.28549171423401 0 0 0 0 -69.751520040925982 247.29123382488257 0 247.29123382488257 -297.02802712991979 0 0 0 0 -72.985836205930866 142.76917826512926 0 142.76917826512926 -22.224433733015758 0 0 0 0 -351.46880299774421 151.97480925969739 0 151.97480925969739 13.508710680785953 0 0 0 0 377.44621692226792 136.97056947207693 0 136.97056947207693 35.955743858459755 0 0 0 0 613.34122127903174 -20.901205361788016 0 -20.901205361788016 40.536242662397854 0 0 0 0 573.3581926334482 276.9136821783577 0 276.9136821783577 110.36895404961979 0 0 0 0 273.57337600050232 273.6607482610134 0 273.6607482610134 107.38538107919794 0 0 0 0 349.74990512189834 212.49025377255748 0 212.49025377255748 185.27159565501825 0 0 0 0 246.61599258509523 179.59990155527339 0 179.59990155527339 175.51304286655613 0 0 0 0 137.26956385315862 261.62482256076146 0 261.62482256076146 230.99062956863145 0 0 0 0 224.5427007444232 206.64297626247935 0 206.64297626247935 16.534132697210225 0 0 0 0 413.26380984051502 27.980698469145864 0 27.980698469145864 -11.614555784237325 0 0 0 0 360.74327113553954 196.34153918816264 0 196.34153918816264 -12.866261873554322 0 0 0 0 75.659393676003674 62.639248052906623 0 62.639248052906623 13.673818930436028 0 0 0 0 82.608087965529194 80.023434870511437 0 80.023434870511437 -15.931445341553626 0 0 0 0 170.56050804523329 66.181723544937313 0 66.181723544937313 -24.485475087600207 0 0 0 0 86.119382472061261 97.578751399723842 0 97.578751399723842 31.647843961469334 0 0 0 0 185.87505923547542 97.767051542225772 0 97.767051542225772 2.3519326946334331 0 0 0 0 92.763132483312802 100.1940081130906 0 100.1940081130906 35.635901770028795 0 0 0 0 158.12029329069264 102.61532406587003 0 102.61532406587003 10.188028144351847 0 0 0 0 89.783790983127801 87.950188169528928 0 87.950188169528928 9.235368131321593 0 0 0 0 51.331634761561872 113.34151834820477 0 113.34151834820477 30.649418526165391 0 0 0 0 -6.6153229358387762 80.398741506760416 0 80.398741506760416 7.2825964292205754 0 0 0 0 11.412362192440924 111.12979590162286 0 111.12979590162286 26.30320964438215 0 0 0 0 16.248527294770611 100.68162728377274 0 100.68162728377274 19.751224703417392 0 0 0 0 -48.010534220265981 108.47075847615815 0 108.47075847615815 30.070767663450169 0 0 0 0 -64.859315809429972 83.390693117788032 0 83.390693117788032 27.923264563025441 0 0 0 0 -69.676619001013023 126.83900456483207 0 126.83900456483207 -7.7776368482500402 0 0 0 0 -38.935302253092232 75.971511998813185 0 75.971511998813185 -21.074179790683047 0 0 0 0 -15.658332760955091 112.33391128722815 0 112.33391128722815 -13.532518448679184 0 0 0 0 71.670866112341173 41.894311404292239 0 41.894311404292239 -88.071321406028801 0 0 0 0 -203.6788237977089 75.040776359182928 0 75.040776359182928 -21.012587517960128 0 0 0 0 -229.1742111568019 110.43460454465185 0 110.43460454465185 7.270339884196801 0 0 0 0 -152.09893864568949 166.68982140134449 0 166.68982140134449 -82.413516672006153 0 0 0 0 -148.76708681150922 90.685573578968615 0 90.685573578968615 30.54946012320579 0 0 0 0 -89.692766688895063 101.6288284266775 0 101.6288284266775 27.909815192777387 0 0 0 0 -142.64405476732918 88.993566719492662 0 88.993566719492662 43.570071957292384 0 0 0 0 -194.33115253331198 86.329312783613204 0 86.329312783613204 39.590256225981648 0 0 0 0 -141.58700290865249 71.884596312252768 0 71.884596312252768 38.865656538528128 0 0 0 0 -144.81547830413183 79.34451072048455 0 79.34451072048455 14.738079934788402 0 0 0 0 -228.728371054538 60.242669556133478 0 60.242669556133478 48.143413464953483 0 0 0 0 -202.35321141528766 49.709796244338577 0 49.709796244338577 46.362740103693795 0 0 0 0 -197.3280046745349 56.088177558343887 0 56.088177558343887 50.785749718979787 0 0 0 0 -201.37373683898659 36.643687021046389 0 36.643687021046389 47.466354736527137 0 0 0 0 -192.05027979452279 32.536034037204445 0 32.536034037204445 47.570740884526458 0 0 0 0 -194.03822584811496 2.282828572069775 0 2.282828572069775 17.182672974460729 0 0 0 0 -236.63810744883085 19.72129887968913 0 19.72129887968913 43.888291436115651 0 0 0 0 -266.9398704403211 -10.840779854630455 0 -10.840779854630455 16.575176702428507 0 0 0 0 -186.3772189686224 -28.210467452968714 0 -28.210467452968714 -2.2802665766466816 0 0 0 0 -299.09983655102405 41.758754997012147 0 41.758754997012147 43.869291700786562 0 0 0 0 -458.86658545130649 207.91945322228844 0 207.91945322228844 -73.797585556589183 0 0 0 0 -559.76128374510881 -101.60004813160685 0 -101.60004813160685 -15.476997264293459 0 0 0 0 -3.1494912970617435 2.6543547825940195 0 2.6543547825940195 -2.0842881592878939 0 0 0 0 -386.31764886735073 20.991284322711181 0 20.991284322711181 71.475013029947149 0 0 0 0 -25.427351884731252 22.810203911190456 0 22.810203911190456 -54.387992958338145 0 0 0 0 -48.254881464039499 -64.583466021360437 0 -64.583466021360437 -275.7555069742873 0 0 0 0 -7.2871181346636149 41.057665179824653 0 41.057665179824653 -154.28792730627902 0 0 0 0 -148.6508006693366 200.04439254390491 0 200.04439254390491 -304.86819630482853 0 0 0 0 -6.7615438911016099 54.291135840781862 0 54.291135840781862 -63.663507952547661 0 0 0 0 76.556321296411625 -5.7220188902565496 0 -5.7220188902565496 -148.57929751608117 0 0 0 0 47.06200122797236 -68.183275949955714 0 -68.183275949955714 -90.638590170017778 0 0 0 0 125.12800900313596 -7.0867199160074961 0 -7.0867199160074961 -70.767674523362075 0 0 0 0 75.889752945982764 -5.6190926469616898 0 -5.6190926469616898 -26.289241734169991 0 0 0 0 159.56577677590394 33.899771904744398 0 33.899771904744398 -62.645072131683264 0 0 0 0 22.232172664978862 15.017155247543997 0 15.017155247543997 138.6655502844842 0 0 0 0 42.625643061779556 -44.070506975476292 0 -44.070506975476292 -48.026781961747474 0 0 0 0 19.005546531909204 -5.9116114827629644 0 -5.9116114827629644 -65.540683031661047 0 0 0 0 82.087463694366306 -76.233256564057228 0 -76.233256564057228 -24.892902750618305 0 0 0 0 2.0562400887391448 0.86515555945417333 0 0.86515555945417333 0.44742758020382212 0 0 0 0 131.77908442005355 69.326785728415416 0 69.326785728415416 149.91277508660642 0 0 0 0 17.120499467288028 58.755611559859972 0 58.755611559859972 333.7195268266978 0 0 0 0 65.136403301868995 -27.902647465680275 0 -27.902647465680275 246.39402885490836 0 0 0 0 -125.01842760999898 59.195153043867322 0 59.195153043867322 284.29267732610788 0 0 0 0 134.45841972176277 28.021390514734776 0 28.021390514734776 -54.80157688845793 0 0 0 0 -66.723349537643116 123.4493917452819 0 123.4493917452819 104.22512682792876 0 0 0 0 -194.68865515532525 94.244574570219811 0 94.244574570219811 255.56215853738468 0 0 0 0 21.552577879312594 143.22339119088338 0 143.22339119088338 263.12645641686686 0 0 0 0 60.931158893865359 105.66736112633225 0 105.66736112633225 196.99869874829892 0 0 0 0 -44.798700788007409 101.95329542800664 0 101.95329542800664 252.15142899099737 0 0 0 0 25.931042863518087 80.633451462106677 0 80.633451462106677 147.89804520301914 0 0 0 0 151.75547291729163 123.54294723810199 0 123.54294723810199 124.8370134742654 0 0 0 0 76.547531694963254 138.53985915007161 0 138.53985915007161 207.38777172174377 0 0 0 0 128.28343617462815 137.57144903734297 0 137.57144903734297 128.98608768461145 0 0 0 0 7.4509145260926744 130.08649763308676 0 130.08649763308676 120.67893359806112 0 0 0 0 53.228487877015141 50.582373295525031 0 50.582373295525031 175.30393929696947 0 0 0 0 -29.691298527028266 35.207492224953967 0 35.207492224953967 205.63072309037307 0 0 0 0 25.982753318912728 92.108815271712956 0 92.108815271712956 153.11057773224729 0 0 0 0 67.59692806772 107.06744521580731 0 107.06744521580731 68.735924098578835 0 0 0 0 49.199623912398238 151.24517654807642 0 151.24517654807642 81.712437041007888 0 0 0 0 31.721392867477334 102.6623732646176 0 102.6623732646176 -26.591601286632795 0 0 0 0 2.3622694699806743 112.01069838617695 0 112.01069838617695 143.79801607515083 0 0 0 0 370.14861381493756 323.94723034978642 0 323.94723034978642 285.69352012180752 0 0 0 0 423.80903329880675 263.51044977653328 0 263.51044977653328 160.21700732415502 0 0 0 0 -615.70592746347756 -356.09271906696904 0 -356.09271906696904 -32.038371036825993 0 0 0 0 -9.9312580835535158 8.6664475555926543 0 8.6664475555926543 -1.2679250216811369 0 0 0 0 320.86216411325222 269.04013640324956 0 269.04013640324956 304.61793037887037 0 0 0 0 -2.9923078267659307 1.5418957122353021 0 1.5418957122353021 3.069821086856507 0 0 0 0 -58.2066913146773 15.207370956290106 0 15.207370956290106 111.87131768673135 0 0 0 0 320.6165951270076 255.32540335948022 0 255.32540335948022 300.88657805860566 0 0 0 0 250.22750816170446 266.79958854135475 0 266.79958854135475 305.86111979956331 0 0 0 0 232.80640478798159 229.19851051969454 0 229.19851051969454 232.76764321623909 0 0 0 0 439.53126904179589 197.54928495803233 0 197.54928495803233 236.56600440002512 0 0 0 0 392.71053846353971 280.42549218760087 0 280.42549218760087 258.57314625310391 0 0 0 0 716.31102898147583 442.35676363447692 0 442.35676363447692 265.83437222610519 0 0 0 0 1143.2526501818611 192.12503889586242 0 192.12503889586242 -2.7310231073224713 0 0 0 0 1.2021742081365918 2.6787742068956248 0 2.6787742068956248 1.4542124203010545 0 0 0 0 43.296488947853504 355.85869407532118 0 355.85869407532118 181.04411068220179 0 0 0 0 -265.15072257521388 271.71286282694382 0 271.71286282694382 164.60738316111019 0 0 0 0 106.95509261095867 304.01384048916589 0 304.01384048916589 210.22481638450336 0 0 0 0 298.70015139436146 290.29942787991058 0 290.29942787991058 167.90167252407082 0 0 0 0 321.73050154928751 249.64765073553644 0 249.64765073553644 182.33983768340477 0 0 0 0 346.22646053144126 287.38344112427876 0 287.38344112427876 176.53537397526179 0 0 0 0 262.94923526893399 261.95729345806831 0 261.95729345806831 289.72592437306957 0 0 0 0 276.26779683650238 269.51581076879484 0 269.51581076879484 216.81114455425995 0 0 0 0 277.77119258689709 252.12393183608208 0 252.12393183608208 205.84869496154715 0 0 0 0 345.05013489229168 236.04807511217405 0 236.04807511217405 232.3586456947196 0 0 0 0 23.713795248848328 154.79037552868613 0 154.79037552868613 236.56604303635322 0 0 0 0 177.55593725045037 179.83530591691488 0 179.83530591691488 199.12161974002083 0 0 0 0 229.63369860430248 304.77092063660166 0 304.77092063660166 234.81803159514766 0 0 0 0 97.85814902652055 190.13673668688716 0 190.13673668688716 247.34592462725504 0 0 0 0 410.43192068787903 212.49168353250388 0 212.49168353250388 58.222012796268245 0 0 0 0 212.30180772834137 230.61039649640406 0 230.61039649640406 217.80595156326763 0 0 0 0 147.94618701137824 -75.915581224405742 0 -75.915581224405742 -165.52045452747188 0 0 0 0 -0.1762101662392368 0.62622323314528217 0 0.62622323314528217 -0.70146573718199789 0 0 0 0 381.45769506493525 388.83410046314748 0 388.83410046314748 231.02789947001111 0 0 0 0 -17.756986599449192 -16.274774253611213 0 -16.274774253611213 18.912171087064053 0 0 0 0 42.473693626430759 120.94199101026061 0 120.94199101026061 35.652982659866211 0 0 0 0 -20.938784701892523 23.67669898047204 0 23.67669898047204 -16.483950824536919 0 0 0 0 -83.985736692528008 -15.631935536388482 0 -15.631935536388482 101.82280878054371 0 0 0 0 -244.28802446468035 -12.031786260027729 0 -12.031786260027729 138.2454727491604 0 0 0 0 -418.62053541684145 29.998049400350283 0 29.998049400350283 159.04744125051366 0 0 0 0 -136.91616484339465 -314.57620514299924 0 -314.57620514299924 186.75927414390026 0 0 0 0 91.625342129296769 15.35362484792131 0 15.35362484792131 -41.111446087139484 0 0 0 0 380.44658816117226 267.6983178198152 0 267.6983178198152 184.24535983970418 0 0 0 0 -571.2998171007348 73.41683918398121 0 73.41683918398121 -301.76852991165651 0 0 0 0 384.86471937277383 260.11536590157993 0 260.11536590157993 167.33865582780618 0 0 0 0 -18.233828072880875 16.424357471240256 0 16.424357471240256 -3.3625560300648942 0 0 0 0 3.3549855199415859 2.3890488161035961 0 2.3890488161035961 -3.9842372679401592 0 0 0 0 -640.82581415276218 -223.24148783781857 0 -223.24148783781857 207.19939198033171 0 0 0 0 -446.83382639753836 -182.10219810911985 0 -182.10219810911985 68.725423689071249 0 0 0 0 -6.439218529429624 -0.34923408454460514 0 -0.34923408454460514 1.928413424848074 0 0 0 0 -109.45951963282278 238.13485325016154 0 238.13485325016154 -45.158371261932189 0 0 0 0 -796.85619837247941 301.70390638210392 0 301.70390638210392 108.41518271693349 0 0 0 0 -71.836200702484348 232.43811253378226 0 232.43811253378226 -55.391775347736257 0 0 0 0 -107.50372521257668 195.44910190748487 0 195.44910190748487 -50.435294417946352 0 0 0 0 -242.22230377904634 208.43331576843775 0 208.43331576843775 29.138745193420618 0 0 0 0 -98.24802224895393 125.61812866718537 0 125.61812866718537 71.882788250753947 0 0 0 0 -219.84094311961962 123.08453055951759 0 123.08453055951759 108.24289343302371 0 0 0 0 -299.2252859029104 135.05787548269291 0 135.05787548269291 155.27659098587537 0 0 0 0 -193.5675902460498 77.676203495695518 0 77.676203495695518 113.10926825030037 0 0 0 0 -261.03858482276883 111.29333564073249 0 111.29333564073249 105.04479885661567 0 0 0 0 -144.00656545771744 87.987094982639519 0 87.987094982639519 106.96029163943604 0 0 0 0 -184.00141515715222 127.06743275954068 0 127.06743275954068 74.944552898081383 0 0 0 0 -141.05673500034027 107.44768728598865 0 107.44768728598865 100.03192326900171 0 0 0 0 -144.05276719783433 116.74037782267078 0 116.74037782267078 117.35237368760863 0 0 0 0 -146.89363165644318 118.46842899616422 0 118.46842899616422 174.50555765180616 0 0 0 0 -149.59025607824515 76.373582492217338 0 76.373582492217338 110.55831452026177 0 0 0 0 -161.62405922041216 93.738224445834931 0 93.738224445834931 87.764653701213319 0 0 0 0 -104.09437759999855 102.70005815557306 0 102.70005815557306 31.051188275188906 0 0 0 0 -109.13768675555184 127.27596858828474 0 127.27596858828474 83.425428352836661 0 0 0 0 -115.30364166375148 140.41389664660164 0 140.41389664660164 67.578466907551046 0 0 0 0 -74.028443652543501 127.83640603247932 0 127.83640603247932 23.86253368693724 0 0 0 0 -65.855112632694727 128.55345166184634 0 128.55345166184634 -53.277383794316847 0 0 0 0 -35.723248885435169 85.385560138503934 0 85.385560138503934 -42.278260899191082 0 0 0 0 -61.204336068083649 111.8346905445178 0 111.8346905445178 -35.916763079930774 0 0 0 0 -70.207446296437411 78.580651856624172 0 78.580651856624172 1.8025270235866628 0 0 0 0 -45.557136722036375 85.902346371065505 0 85.902346371065505 0.8770920803071931 0 0 0 0 -46.011480347235192 51.075820160765034 0 51.075820160765034 1.9616111609429936 0 0 0 0 -77.71280427039801 38.896982195841701 0 38.896982195841701 -1.0027201651537325 0 0 0 0 -91.598717549932189 80.113870988867347 0 80.113870988867347 30.044891137746163 0 0 0 0 -82.99347321226378 50.978283460754028 0 50.978283460754028 53.653427214179828 0 0 0 0 -154.35059486684077 38.850902751999001 0 38.850902751999001 59.776676560635678 0 0 0 0 -88.029234903414817 16.661410774233445 0 16.661410774233445 18.56097774409136 0 0 0 0 214.4026850766204 252.54666244027067 0 252.54666244027067 48.3552032888947 0 0 0 0 258.41626298426854 96.950463848021172 0 96.950463848021172 -6.4083191511381301 0 0 0 0 252.02654090977239 132.29388766663874 0 132.29388766663874 39.628050780149351 0 0 0 0 221.38344413224695 102.39208340119512 0 102.39208340119512 10.623438261474803 0 0 0 0 291.22416304460785 142.54004364399952 0 142.54004364399952 32.222852086713829 0 0 0 0 237.35411986517101 67.873371418148054 0 67.873371418148054 32.610213164691231 0 0 0 0 332.66511076723327 292.18328464556726 0 292.18328464556726 174.3210979065334 0 0 0 0 382.85286842644564 109.31390385227132 0 109.31390385227132 26.818947898129409 0 0 0 0 253.12335244825954 99.664836859250499 0 99.664836859250499 110.74380760498025 0 0 0 0 338.7677756252524 82.528845710921814 0 82.528845710921814 124.53419080228196 0 0 0 0 327.81035427779716 104.59924532215518 0 104.59924532215518 70.249871778440138 0 0 0 0 362.26705956756268 189.33451505331686 0 189.33451505331686 232.19540418859106 0 0 0 0 331.82490320823854 107.54750742578472 0 107.54750742578472 34.580785242044612 0 0 0 0 326.82031939299486 218.1256520944662 0 218.1256520944662 39.022820375717856 0 0 0 0 -2.7508571170001233 62.848385422409137 0 62.848385422409137 -37.784970319684362 0 0 0 0 -4.6505526254331926 57.721121121758188 0 57.721121121758188 -19.955460159624636 0 0 0 0 -18.573387393282644 30.135170456506295 0 30.135170456506295 -25.688266016207024 0 0 0 0 28.386074449721491 37.088214891544339 0 37.088214891544339 -47.590332900643261 0 0 0 0 0.70301409410240012 76.710156930149424 0 76.710156930149424 -59.23444011065294 0 0 0 0 30.736367560619883 12.705620481131156 0 12.705620481131156 -24.834291011075123 0 0 0 0 29.180738270891652 -8.5906744208377859 0 -8.5906744208377859 -32.572186065968708 0 0 0 0 7.904445482783558 56.138726610649428 0 56.138726610649428 -33.990100417613576 0 0 0 0 34.759815805104154 52.441119703558797 0 52.441119703558797 -65.894772415616899 0 0 0 0 28.941184129799694 -10.140645753573608 0 -10.140645753573608 -41.823735755453527 0 0 0 0 528.36005353867949 268.98008006424425 0 268.98008006424425 -23.693853818618663 0 0 0 0 4.916784186518953 2.3893193022680492 0 2.3893193022680492 -8.4000091343172585 0 0 0 0 356.60206422654301 239.00970667504225 0 239.00970667504225 147.86155259632869 0 0 0 0 416.80166187065333 183.29669409663984 0 183.29669409663984 141.01723854686225 0 0 0 0 776.01984650116356 191.78307015066093 0 191.78307015066093 138.93052616404748 0 0 0 0 -1.3503244101533483 3.0618718596114309 0 3.0618718596114309 -3.9300798673273718 0 0 0 0 31.419812720305345 3.9656383446799737 0 3.9656383446799737 -44.096251307094008 0 0 0 0 31.482456329267734 5.2290891121665481 0 5.2290891121665481 -32.410991045547718 0 0 0 0 25.403674168344878 -38.59862264813637 0 -38.59862264813637 -70.8165585349916 0 0 0 0 29.95283990371685 8.2170509941875238 0 8.2170509941875238 -29.065384224312595 0 0 0 0 14.017562021377671 71.781595599917637 0 71.781595599917637 -56.601767620458304 0 0 0 0 0.45652763987891376 102.35240916940529 0 102.35240916940529 -203.13173330856716 0 0 0 0 27.08404575491295 -14.461093702680955 0 -14.461093702680955 -170.89929570806453 0 0 0 0 2.6239425859005081 1.497095625347427 0 1.497095625347427 -2.390461551919671 0 0 0 0 -101.45770962135248 115.25081727667293 0 115.25081727667293 -49.948668370037922 0 0 0 0 -70.406001079278212 145.7250861540615 0 145.7250861540615 -103.74751068841579 0 0 0 0 -45.721613328969397 104.56939884159146 0 104.56939884159146 -35.767574180900851 0 0 0 0 -26.801254998914374 110.68709555628629 0 110.68709555628629 -77.376254397531739 0 0 0 0 -2.2624265952108544 78.269751920681301 0 78.269751920681301 -43.76330541725747 0 0 0 0 11.692537311369961 61.241660209885595 0 61.241660209885595 -82.531855526998697 0 0 0 0 476.25831776770428 -3.8666925363377231 0 -3.8666925363377231 -127.24472710489977 0 0 0 0 7.4776749130214739 76.004570807489472 0 76.004570807489472 467.25571958914588 0 0 0 0 1404.2354609358008 1037.9182892997051 0 1037.9182892997051 -2497.1756720789999 0 0 0 0 12.54896153904582 6.9102632951887095 0 6.9102632951887095 5.9465406753194543 0 0 0 0 181.77852433425141 153.429919330345 0 153.429919330345 -59.482896229183098 0 0 0 0 126.11408778319856 282.15393514724838 0 282.15393514724838 28.21325542111299 0 0 0 0 -26.718753003180609 212.14979511894671 0 212.14979511894671 33.329922426239136 0 0 0 0 246.69342446624796 409.1751789550417 0 409.1751789550417 -44.546338878376446 0 0 0 0 -431.12339183343283 70.349487755316659 0 70.349487755316659 86.882349952189543 0 0 0 0 -1.6771961882912692 1.9119049634446341 0 1.9119049634446341 0.68316270855687833 0 0 0 0 -135.94320311776391 193.98702309500914 0 193.98702309500914 14.116041995075648 0 0 0 0 -250.56703756353818 184.15696237028533 0 184.15696237028533 52.757386227269308 0 0 0 0 -122.43552450706738 138.79343132407439 0 138.79343132407439 65.716303503984818 0 0 0 0 4.6877286642775289 161.36682949470924 0 161.36682949470924 1.7111539175693906 0 0 0 0 -304.31660061241018 241.18837875281679 0 241.18837875281679 49.486855471368472 0 0 0 0 -21.696866954605412 98.204649501860558 0 98.204649501860558 86.080972015020961 0 0 0 0 0.29959886822689441 72.893315440181141 0 72.893315440181141 40.465445219400863 0 0 0 0 -35.887649360847718 207.45957487855412 0 207.45957487855412 -48.343373925754349 0 0 0 0 84.096872223635728 138.34710236946194 0 138.34710236946194 68.790823296519193 0 0 0 0 123.40571370570979 111.02340202496089 0 111.02340202496089 58.98683204477129 0 0 0 0 135.84125960047095 73.272338097356624 0 73.272338097356624 17.593934159460332 0 0 0 0 230.97358392694878 84.237579068222658 0 84.237579068222658 2.8624507738204557 0 0 0 0 103.07410468938906 84.571505522402731 0 84.571505522402731 51.464298829989275 0 0 0 0 90.446932531463972 63.589936470561952 0 63.589936470561952 33.900275314699684 0 0 0 0 97.981654475734103 128.75365456126383 0 128.75365456126383 20.459626074892185 0 0 0 0 95.966963240665791 66.921710128855921 0 66.921710128855921 83.785880245130102 0 0 0 0 251.46167975182834 86.043102915111376 0 86.043102915111376 32.864244341908488 0 0 0 0 127.33707953333942 71.798060047396575 0 71.798060047396575 5.9373971732493374 0 0 0 0 325.3101881687071 149.10919791296055 0 149.10919791296055 19.821864511395688 0 0 0 0 -64.531119984334509 87.536332047908218 0 87.536332047908218 75.179707168346795 0 0 0 0 132.85003688634606 110.94632098589136 0 110.94632098589136 0.55398620201958693 0 0 0 0 -223.64877005778544 83.42659022378939 0 83.42659022378939 80.773598508050782 0 0 0 0 532.39373953780296 161.91023703661955 0 161.91023703661955 -79.929428440307674 0 0 0 0 -2.4691837172036557 2.5891159520485871 0 2.5891159520485871 -0.81848597266164802 0 0 0 0 55.728518077667104 437.97362629326199 0 437.97362629326199 65.294662290040378 0 0 0 0 195.74678235661486 -14.016637920969515 0 -14.016637920969515 -64.537010463660408 0 0 0 0 -48.779717194523982 276.62219549167912 0 276.62219549167912 22.233218023706286 0 0 0 0 -17.206424032367067 31.498807819845752 0 31.498807819845752 -296.69490346330531 0 0 0 0 -5.1347210399425336 -0.24381912077085843 0 -0.24381912077085843 0.99044112092091297 0 0 0 0 14.94418794268131 191.79431238470715 0 191.79431238470715 122.10190900451926 0 0 0 0 -104.94259383106692 240.37967336550719 0 240.37967336550719 -217.59274862147868 0 0 0 0 -119.02227891728398 121.76870732388124 0 121.76870732388124 -68.474491109631344 0 0 0 0 -202.7956122743949 284.64375522733667 0 284.64375522733667 -30.867673896849738 0 0 0 0 -175.18517311110918 151.8085928513392 0 151.8085928513392 37.083766688287142 0 0 0 0 -69.138933364331024 181.10922659412972 0 181.10922659412972 17.095085282468062 0 0 0 0 -176.19937389183031 196.07260704287472 0 196.07260704287472 9.4013301760351169 0 0 0 0 25.587804501614301 91.508626559385448 0 91.508626559385448 -71.374682885059883 0 0 0 0 -197.0115174538696 62.457916716590262 0 62.457916716590262 47.451751589032938 0 0 0 0 4.061389016242174 24.559273986462358 0 24.559273986462358 -1.4803399286465719 0 0 0 0 -107.8857168010727 73.677919607198419 0 73.677919607198419 -20.648704944207566 0 0 0 0 -22.601335725908939 -4.1819516151485914 0 -4.1819516151485914 -17.30215958622648 0 0 0 0 44.993672865588451 3.2696507061882585 0 3.2696507061882585 -31.676138606306267 0 0 0 0 -127.05948082115583 91.346999072003086 0 91.346999072003086 71.284246436945978 0 0 0 0 -6.7517782017349219 18.135880536280034 0 18.135880536280034 -22.286372391500564 0 0 0 0 82.659651473710255 136.60019618795377 0 136.60019618795377 -123.5052093995655 0 0 0 0 58.938364570607519 79.942428084804305 0 79.942428084804305 -75.217229095454968 0 0 0 0 163.83262575887056 273.03186650698262 0 273.03186650698262 -54.228168645242476 0 0 0 0 987.60381116147619 -881.82883534028952 0 -881.82883534028952 2098.6572377727134 0 0 0 0 194.13373505602976 419.8902246682901 0 419.8902246682901 337.67934513480213 0 0 0 0 40.897211595431145 215.49559561482556 0 215.49559561482556 502.56556572521367 0 0 0 0 -2.3822559778055279 5.1060484993060484 0 5.1060484993060484 -9.8680132291041076 0 0 0 0 -100.12683524599561 122.92125687613952 0 122.92125687613952 23.047156624864328 0 0 0 0 25.778849907477731 31.857558125600942 0 31.857558125600942 11.892300023642761 0 0 0 0 -99.678206787957606 128.91559953201613 0 128.91559953201613 94.374883133604271 0 0 0 0 -56.790698866694584 20.659205390757052 0 20.659205390757052 35.561109711881727 0 0 0 0 -117.3635376891616 78.429982806861517 0 78.429982806861517 37.005221019993769 0 0 0 0 -6.663799979911289 7.5014942610326045 0 7.5014942610326045 -3.9056131955673052 0 0 0 0 31.955829915474169 29.378958536610298 0 29.378958536610298 -1.3355058306406136 0 0 0 0 -128.85211076587439 53.270063815900357 0 53.270063815900357 12.818814087746432 0 0 0 0 -166.02191249481257 -0.15464210672871559 0 -0.15464210672871559 -10.534505918088144 0 0 0 0 12.433279677192331 52.916648966656794 0 52.916648966656794 -2.110284732956643 0 0 0 0 -65.531103515633731 79.005229276503087 0 79.005229276503087 7.1574789993028389 0 0 0 0 121.5556274559367 28.323957717695521 0 28.323957717695521 31.118955912319507 0 0 0 0 8.9936525517332484 27.793425008690974 0 27.793425008690974 46.479531837370814 0 0 0 0 100.2976732784482 -25.62073582375524 0 -25.62073582375524 12.272056224319385 0 0 0 0 124.15880364210534 -51.221011513653139 0 -51.221011513653139 74.331618234537018 0 0 0 0 3.8832406894399298 -2.180924607126407 0 -2.180924607126407 0.45258014944206337 0 0 0 0 183.46819888023765 159.38193217107892 0 159.38193217107892 -121.37548275257723 0 0 0 0 233.52838691953184 16.244918025715378 0 16.244918025715378 -7.0744345780112781 0 0 0 0 -131.38447255925348 0.62261184316412255 0 0.62261184316412255 405.61869642440797 0 0 0 0 -36.587642903895357 227.41479172430581 0 227.41479172430581 -3.4477472864091396 0 0 0 0 84.454359543895407 -1.5831043537291407 0 -1.5831043537291407 -177.09172593820767 0 0 0 0 -34.076001733352314 46.995070761266106 0 46.995070761266106 -30.856487861747155 0 0 0 0 37.567603040075483 75.269796648499323 0 75.269796648499323 -20.694760517100804 0 0 0 0 6.3492544869193068 15.52532807886235 0 15.52532807886235 -12.095963164827722 0 0 0 0 77.780835464376651 55.622021516643144 0 55.622021516643144 -30.763521903303626 0 0 0 0 45.929766075249063 63.88494343160346 0 63.88494343160346 -23.392626549088163 0 0 0 0 11.095607340379502 46.735418832191499 0 46.735418832191499 -29.08807617520506 0 0 0 0 98.960780720874027 58.052355458887178 0 58.052355458887178 -55.045457536631147 0 0 0 0 44.705273520176888 50.337191676005887 0 50.337191676005887 -35.510138495439605 0 0 0 0 95.214763672891422 73.723937686856061 0 73.723937686856061 -81.110425807339197 0 0 0 0 136.03310515317571 57.09719032810608 0 57.09719032810608 -111.43089345732005 0 0 0 0 152.82439402715045 105.28114783330739 0 105.28114783330739 -78.397490591654787 0 0 0 0 48.174363119633199 18.440741969361625 0 18.440741969361625 -85.833787587631377 0 0 0 0 22.011921097600862 146.89068065737411 0 146.89068065737411 166.27503216274727 0 0 0 0 -9.9063318531589175 59.852019156362076 0 59.852019156362076 -64.971539078433125 0 0 0 0 -6.3431857739487896 144.73579218904706 0 144.73579218904706 -5.516072345788416 0 0 0 0 21.474346010571026 52.128231980361306 0 52.128231980361306 -61.690686731210008 0 0 0 0 126.52731546026553 62.169022466148817 0 62.169022466148817 -77.983914922027907 0 0 0 0 33.05415779144063 31.753533680105033 0 31.753533680105033 12.473785273420361 0 0 0 0 1.4201987388933048 72.101882546146953 0 72.101882546146953 10.454906636707165 0 0 0 0 -1.6890189402614837 32.118763650630925 0 32.118763650630925 27.320412264800424 0 0 0 0 37.538706623227597 31.525210030725638 0 31.525210030725638 3.6684216948311246 0 0 0 0 25.009021811804637 33.062128320353182 0 33.062128320353182 20.948965150283748 0 0 0 0 7.2563582233411807 51.127589278759842 0 51.127589278759842 -18.345476735343254 0 0 0 0 -0.24800743072592013 26.552456332286965 0 26.552456332286965 2.77558839917765 0 0 0 0 29.649980363541545 48.239682202591212 0 48.239682202591212 -6.0301647011365276 0 0 0 0 9.8336883207739447 31.053632866656699 0 31.053632866656699 -19.361550647295189 0 0 0 0 -10.431330788022024 28.322690843593591 0 28.322690843593591 -19.693764466475841 0 0 0 0 -15.712841877473693 10.842992815360049 0 10.842992815360049 -19.512527800611679 0 0 0 0 13.13537137534648 6.5843415066923008 0 6.5843415066923008 -11.493403409173922 0 0 0 0 4.5521772313295514 13.573934838426794 0 13.573934838426794 -19.180313981441941 0 0 0 0 -72.976605217376346 57.229805992956244 0 57.229805992956244 -27.486543602717575 0 0 0 0 -21.72970908183197 -6.0149178731480788 0 -6.0149178731480788 -17.376877914000943 0 0 0 0 43.980352955830313 23.032133171647729 0 23.032133171647729 -52.518984751608514 0 0 0 0 -6.5200640801889165 20.152300436809547 0 20.152300436809547 -28.196720602279441 0 0 0 0 51.834887388515199 55.403960578081751 0 55.403960578081751 -48.326340854637237 0 0 0 0 43.251559506383501 16.505590833967517 0 16.505590833967517 -78.994517232255021 0 0 0 0 49.599294263794945 46.704916605345716 0 46.704916605345716 -77.984678139277094 0 0 0 0 63.958921283825475 95.978394974590628 0 95.978394974590628 -240.54708070615561 0 0 0 0 -13.222186950177274 -82.999956889848363 0 -82.999956889848363 -191.78903163149516 0 0 0 0 -51.052371944304468 80.986949177755378 0 80.986949177755378 185.69279143942913 0 0 0 0 33.647828291301266 71.025400734892173 0 71.025400734892173 -0.85468279668020841 0 0 0 0 49.231402538734983 89.710955888940589 0 89.710955888940589 -2.1971274396273657 0 0 0 0 -16.818455949034977 19.68096202922267 0 19.68096202922267 -18.408269847350184 0 0 0 0 -11.779415310153126 85.137317643278948 0 85.137317643278948 25.121196433334262 0 0 0 0 29.815157283534063 68.202210311541421 0 68.202210311541421 -98.443413360903833 0 0 0 0 7.8374175233903003 6.4400526848673962 0 6.4400526848673962 -9.0049289726743211 0 0 0 0 -31.269513579320936 35.012669913843624 0 35.012669913843624 -30.891724903866276 0 0 0 0 24.76293918495503 119.42465033544795 0 119.42465033544795 -16.301523559875932 0 0 0 0 11.40759404860728 71.518878000517361 0 71.518878000517361 -12.584890196267224 0 0 0 0 -20.688102490637526 36.177749520966742 0 36.177749520966742 -29.93044363074992 0 0 0 0 -111.61458613139257 141.0423603092604 0 141.0423603092604 -28.447991161327081 0 0 0 0 -5.0766204295596253 70.074660543357822 0 70.074660543357822 17.695346739375964 0 0 0 0 -24.3131349103096 38.61674454425156 0 38.61674454425156 33.635510559161048 0 0 0 0 -118.99517496703209 4.6413609065533592 0 4.6413609065533592 22.962109571599285 0 0 0 0 -11.48904235198178 13.546953701773631 0 13.546953701773631 -3.311641092107358 0 0 0 0 -60.728627578187115 29.094343562504946 0 29.094343562504946 55.893520340992836 0 0 0 0 2.9359836984513095 26.766563603325267 0 26.766563603325267 -39.94913892805198 0 0 0 0 -15.051833014537351 3.6202163459720396 0 3.6202163459720396 104.06487966659915 0 0 0 0 16.04452128905541 18.595041969467275 0 18.595041969467275 105.17549346977466 0 0 0 0 -31.955238999107678 -60.414629163700738 0 -60.414629163700738 332.6487883173686 0 0 0 0 200.02759843196327 289.44548659483917 0 289.44548659483917 379.74119918767974 0 0 0 0 150.44200108057339 254.15192562017182 0 254.15192562017182 276.48270670633792 0 0 0 0 271.04730634885345 68.759824001150264 0 68.759824001150264 221.88092796149431 0 0 0 0 2.5443396380478731 3.0856072140563846 0 3.0856072140563846 -5.3890930594675694 0 0 0 0 215.06930938136793 287.96879258383706 0 287.96879258383706 374.33581181208137 0 0 0 0 45.732272413575629 -8.4980650125617103 0 -8.4980650125617103 -67.116609971759317 0 0 0 0 2.2235406192953491 -0.29376894431835865 0 -0.29376894431835865 -4.2611371773457094 0 0 0 0 10.321151504135727 -0.84189550944506664 0 -0.84189550944506664 -16.132037602081994 0 0 0 0 0.92289654805244936 15.001188902138892 0 15.001188902138892 -51.384842765659414 0 0 0 0 -5.0538813195632883 10.357967368612591 0 10.357967368612591 3.746511712368811 0 0 0 0 -11.910557601113396 44.551720493400353 0 44.551720493400353 -9.561788809238351 0 0 0 0 -17.943004760982149 21.56861436210238 0 21.56861436210238 -17.671501553211783 0 0 0 0 20.067864626736991 39.545291056347196 0 39.545291056347196 -83.158792016052757 0 0 0 0 4.5669256664277782 34.43214405497929 0 34.43214405497929 -22.825928454301902 0 0 0 0 -18.715054455329664 60.396054123870272 0 60.396054123870272 -80.836737802517291 0 0 0 0 23.68203222178272 48.773386723005387 0 48.773386723005387 -205.14666517809383 0 0 0 0 -33.394655659725686 51.64361109915626 0 51.64361109915626 -58.213273785411729 0 0 0 0 -6.2473159601468069 41.799850290108225 0 41.799850290108225 -82.68769368111316 0 0 0 0 -11.905479585023386 -16.74948861800749 0 -16.74948861800749 -379.49923914532337 0 0 0 0 -250.99807907388094 -18.316139255366579 0 -18.316139255366579 11.434719816695178 0 0 0 0 -9.5955123664898565 44.786460172996158 0 44.786460172996158 -78.787303672499206 0 0 0 0 49.349206007587782 67.545550837814517 0 67.545550837814517 -79.889314077166887 0 0 0 0 -50.202522989320641 157.73755999398782 0 157.73755999398782 134.69404007768753 0 0 0 0 -26.472734707067502 153.12794812970787 0 153.12794812970787 24.794661165193247 0 0 0 0 -105.65275482800644 150.02983002035762 0 150.02983002035762 259.91692302078081 0 0 0 0 15.560355388732205 252.63251485598175 0 252.63251485598175 143.56685035887494 0 0 0 0 42.495713811586029 216.94297579292834 0 216.94297579292834 107.61820537526728 0 0 0 0 211.87202535110555 138.54728076091851 0 138.54728076091851 -1.7759129396699791 0 0 0 0 71.301454580554491 278.14454625161306 0 278.14454625161306 236.84545219608844 0 0 0 0 48.825173085186179 122.62450351146617 0 122.62450351146617 275.34711312783475 0 0 0 0 214.18011300983108 107.98902378991568 0 107.98902378991568 224.68748172470805 0 0 0 0 40.939194663273156 223.23185972177998 0 223.23185972177998 166.5383828660415 0 0 0 0 77.201127977856231 139.75541494047866 0 139.75541494047866 16.060335840298649 0 0 0 0 52.131685150141493 116.41140028448717 0 116.41140028448717 20.067301851966477 0 0 0 0 -9.3609528277220164 44.348058439620743 0 44.348058439620743 -61.269632183076368 0 0 0 0 7.351792030498089 73.94424906821412 0 73.94424906821412 78.4842532394226 0 0 0 0 167.71211253648653 1339.1901773721002 0 1339.1901773721002 877.27078002106282 0 0 0 0 15.35454508224575 224.34417437604498 0 224.34417437604498 118.20149741558225 0 0 0 0 -65.368079934660031 60.082127350108976 0 60.082127350108976 1.6857803788667525 0 0 0 0 2172.2829555432982 569.4610110093854 0 569.4610110093854 -934.39110538227396 0 0 0 0 447.17392415130416 265.02811704186024 0 265.02811704186024 45.89402197790514 0 0 0 0 94.823675088460732 295.46487690272261 0 295.46487690272261 163.22494341358833 0 0 0 0 -22.335733162763063 97.886696912763 0 97.886696912763 -109.44672186473872 0 0 0 0 -54.104830381918873 75.110701000226982 0 75.110701000226982 4.9345250964252045 0 0 0 0 -128.217822620878 161.50666872051079 0 161.50666872051079 224.64074124933541 0 0 0 0 9.2692971333287346 8.3107952709084287 0 8.3107952709084287 6.0405628093552082 0 0 0 0 -121.31214973978058 26.784562315137009 0 26.784562315137009 364.43771468606428 0 0 0 0 60.809598878586257 -156.92317513393209 0 -156.92317513393209 -70.897146844812596 0 0 0 0 -119.86368342598871 0.84616284517687745 0 0.84616284517687745 138.2713730344185 0 0 0 0 -62.442801669269102 -325.964718607127 0 -325.964718607127 -375.09154403371213 0 0 0 0 -193.46453334312537 172.04495694633806 0 172.04495694633806 539.15238414421037 0 0 0 0 -158.90153302415274 309.49654622281378 0 309.49654622281378 536.5857046815197 0 0 0 0 -82.013782015186734 210.31355657945096 0 210.31355657945096 118.42957082568682 0 0 0 0 -157.12533005725231 341.79863911776965 0 341.79863911776965 203.24794167865912 0 0 0 0 -159.33838354657928 148.28613411759397 0 148.28613411759397 282.07955035814666 0 0 0 0 -70.941390194013366 171.70690752577138 0 171.70690752577138 139.19936677977876 0 0 0 0 -107.09564641919133 168.74419139553356 0 168.74419139553356 138.96036125282262 0 0 0 0 -80.979849292329163 214.09111463333102 0 214.09111463333102 51.215891527623171 0 0 0 0 -65.124304293269233 86.27598490888704 0 86.27598490888704 113.57219258156147 0 0 0 0 -79.196445260155471 49.107066122281452 0 49.107066122281452 -8.7316961403456617 0 0 0 0 -61.452927243401064 73.626581084849022 0 73.626581084849022 -97.625778434434324 0 0 0 0 -43.202757258695783 248.44736820609614 0 248.44736820609614 48.490008314402075 0 0 0 0 94.482543877346416 613.93599653420415 0 613.93599653420415 49.424582406740228 0 0 0 0 185.95592560630394 16.768191082141129 0 16.768191082141129 -26.613258506098646 0 0 0 0 -67.043150192388566 57.60659995844253 0 57.60659995844253 -14.346605291102605 0 0 0 0 -47.439801861633896 59.880622886477795 0 59.880622886477795 -14.158365602670528 0 0 0 0 -61.344247885151688 57.036199788770631 0 57.036199788770631 -6.9353153003941799 0 0 0 0 -42.674064705133787 289.23147389137739 0 289.23147389137739 424.47313820585259 0 0 0 0 117.51420963987857 418.23062863798941 0 418.23062863798941 308.31840703324997 0 0 0 0 -90.616290332802237 43.335263272159864 0 43.335263272159864 252.87090409160737 0 0 0 0 -12.923428092240544 13.063598892025635 0 13.063598892025635 -0.55022082337166012 0 0 0 0 174.81171411275864 417.80307086031826 0 417.80307086031826 391.78733588419163 0 0 0 0 -36.688393763527984 58.771726804503487 0 58.771726804503487 -136.95312446879689 0 0 0 0 354.26205890644542 171.29110950290033 0 171.29110950290033 -289.20633608214121 0 0 0 0 244.81108119230703 395.74809108957197 0 395.74809108957197 -182.84487448551272 0 0 0 0 183.00624025501384 147.19995806947554 0 147.19995806947554 -286.41887320501155 0 0 0 0 75.953927555116024 3.8588779303936462 0 3.8588779303936462 186.31184374864097 0 0 0 0 -153.52351132236072 308.55933995917076 0 308.55933995917076 -210.69780418924347 0 0 0 0 62.188243066579162 -108.50044552570944 0 -108.50044552570944 -393.67953859822592 0 0 0 0 -2.9500730418418222 2.763772948411976 0 2.763772948411976 -1.7517059405581961 0 0 0 0 180.54205093712517 236.75612653710596 0 236.75612653710596 -507.90135981586354 0 0 0 0 -199.03953347175411 225.54944992616947 0 225.54944992616947 -89.999875456480368 0 0 0 0 67.972145623389224 60.721459190657697 0 60.721459190657697 -58.650346789647301 0 0 0 0 71.221393945891123 49.971081504150106 0 49.971081504150106 -36.888926302119216 0 0 0 0 64.616126871704182 46.809905735051871 0 46.809905735051871 -38.377471496820363 0 0 0 0 70.527869520657077 29.025003586177263 0 29.025003586177263 -2.1844674546591705 0 0 0 0 76.089043150266662 36.792796625803021 0 36.792796625803021 -41.68945151601838 0 0 0 0 69.18047148707592 79.938059738062293 0 79.938059738062293 -12.666053484477743 0 0 0 0 71.877264881181873 57.30388978443807 0 57.30388978443807 -54.231350492722413 0 0 0 0 12.425744634152807 15.36221599120455 0 15.36221599120455 -1.8859451848710478 0 0 0 0 41.801120083213391 44.604418550528862 0 44.604418550528862 -33.098381556177628 0 0 0 0 244.31126909193699 180.77143216520926 0 180.77143216520926 34.360241919937835 0 0 0 0 37.129361236835692 57.676357208128096 0 57.676357208128096 8.4110461845895088 0 0 0 0 56.460585593780706 129.54779349751334 0 129.54779349751334 30.689448042704043 0 0 0 0 253.88394720846645 72.115705119429322 0 72.115705119429322 -10.031529346160823 0 0 0 0 -0.19165158867022569 1.2962390497869904 0 1.2962390497869904 -3.0044025966925858 0 0 0 0 115.86100877019999 44.273782947326254 0 44.273782947326254 -13.464140451211733 0 0 0 0 16.853547375238367 10.201905464912137 0 10.201905464912137 -6.6358037561165872 0 0 0 0 54.783798901076807 35.164677199663856 0 35.164677199663856 2.1292022034322144 0 0 0 0 38.816319731382464 60.896200207358561 0 60.896200207358561 -20.429053219108027 0 0 0 0 62.864348038611567 27.154335817916373 0 27.154335817916373 6.1390302024953982 0 0 0 0 161.37785640261791 84.10806275417599 0 84.10806275417599 -27.171149996946042 0 0 0 0 39.099339188192971 44.674069126722316 0 44.674069126722316 3.748622644414354 0 0 0 0 59.120208687150004 43.139697865780349 0 43.139697865780349 13.497658920872148 0 0 0 0 79.230161034094635 58.131710276165904 0 58.131710276165904 13.004443052790521 0 0 0 0 75.99202396173132 69.18404669117399 0 69.18404669117399 24.235602583208674 0 0 0 0 42.266754941453151 46.614326487068446 0 46.614326487068446 14.565419804598761 0 0 0 0 72.031429477283382 31.627397121124886 0 31.627397121124886 14.240109070500694 0 0 0 0 85.228610087899142 37.902911998769923 0 37.902911998769923 -21.57960873592674 0 0 0 0 81.658514143728098 43.156389810367727 0 43.156389810367727 3.9397461413536803 0 0 0 0 33.806675714858223 25.525520229723497 0 25.525520229723497 -3.7677949769491192 0 0 0 0 24.074331348689199 32.953165107884523 0 32.953165107884523 10.454515218893164 0 0 0 0 90.838085903455067 47.617984922940195 0 47.617984922940195 23.801001003816054 0 0 0 0 22.92101815402566 25.671166042710865 0 25.671166042710865 2.2175226116552267 0 0 0 0 65.378900630796124 54.916317451466057 0 54.916317451466057 21.119433530431706 0 0 0 0 4.0948408072220275 26.936461126623129 0 26.936461126623129 5.0191523039141828 0 0 0 0 137.64053328084992 103.83176748589904 0 103.83176748589904 93.139715287034051 0 0 0 0 39.181822038591747 20.704326020515165 0 20.704326020515165 7.9194769395448148 0 0 0 0 20.918407585908426 27.075830171823327 0 27.075830171823327 10.178000639484708 0 0 0 0 42.544086932073697 61.671878394437954 0 61.671878394437954 147.73003001575853 0 0 0 0 5.7923778751206498 -2.797044549468179 0 -2.797044549468179 -8.1813279619113572 0 0 0 0 26.875569354750041 49.683465690475714 0 49.683465690475714 12.784137924776587 0 0 0 0 90.970915041820263 47.9226435503424 0 47.9226435503424 8.1402299282262902 0 0 0 0 53.809138108383195 60.981781216232775 0 60.981781216232775 57.52896716905525 0 0 0 0 47.624069157594931 46.905546803267498 0 46.905546803267498 11.849379039878841 0 0 0 0 63.126580219350643 29.156674040740139 0 29.156674040740139 4.3223253148256902 0 0 0 0 4.1907557683437986 13.074610128558959 0 13.074610128558959 2.2016850818918527 0 0 0 0 97.647613200701016 67.121633909051525 0 67.121633909051525 19.203781105592498 0 0 0 0 16.726274914662383 12.663773528811021 0 12.663773528811021 17.845507888235296 0 0 0 0 92.12525109008493 72.964260753724375 0 72.964260753724375 45.567165951179049 0 0 0 0 93.172453598348511 91.018362174112553 0 91.018362174112553 -13.624087422140292 0 0 0 0 79.555031920557667 50.646672037248209 0 50.646672037248209 17.694775271345861 0 0 0 0 2.4586398616520455 58.620184523279022 0 58.620184523279022 47.378203693988326 0 0 0 0 154.38719253969612 107.45197749828731 0 107.45197749828731 61.631722853700921 0 0 0 0 42.561305184775847 87.456797185273899 0 87.456797185273899 -24.787243541926728 0 0 0 0 -55.2827172767702 57.051047522222234 0 57.051047522222234 -16.106001021347765 0 0 0 0 -53.40411160520307 -74.116920012667833 0 -74.116920012667833 220.36847483570091 0 0 0 0 19.704896709881723 23.09744347933156 0 23.09744347933156 7.3935735732011381 0 0 0 0 -77.22086699862848 38.607582384107445 0 38.607582384107445 107.27666749851051 0 0 0 0 24.710107084916672 -60.569694713169156 0 -60.569694713169156 94.182976661181783 0 0 0 0 71.274891458764614 -69.849702907071332 0 -69.849702907071332 23.474510833650129 0 0 0 0 10.362724861915922 73.63345306936435 0 73.63345306936435 -77.129280919332814 0 0 0 0 -79.094511155832151 94.759912077573972 0 94.759912077573972 -41.963092167719878 0 0 0 0 27.760900341812885 48.518776772962156 0 48.518776772962156 -37.134627764920879 0 0 0 0 26.385735208565166 14.961935610808723 0 14.961935610808723 -24.279531389314798 0 0 0 0 -63.289165496003989 96.000049258767831 0 96.000049258767831 -82.993780704946403 0 0 0 0 -79.426071720306936 87.161361474425576 0 87.161361474425576 -75.245971309044762 0 0 0 0 -76.438092993586906 115.79344998702072 0 115.79344998702072 -96.442875037195336 0 0 0 0 24.444806740070575 10.287105903450183 0 10.287105903450183 4.5997956071707833 0 0 0 0 -172.28328230120678 137.55490312764596 0 137.55490312764596 133.26339980634293 0 0 0 0 -58.557645617293929 -25.64279189095987 0 -25.64279189095987 227.67740606161897 0 0 0 0 55.235234285739352 -165.19846966351315 0 -165.19846966351315 150.35616134014708 0 0 0 0 36.890332935363404 296.04261950645378 0 296.04261950645378 -196.75261425718952 0 0 0 0 8.1921564823859825 3.0680461521304494 0 3.0680461521304494 1.0471652238071201 0 0 0 0 -6.0083501425397117 112.57491764784208 0 112.57491764784208 -194.21451340128527 0 0 0 0 -108.18791866920219 179.91073977999258 0 179.91073977999258 107.977241980705 0 0 0 0 -71.881666421337286 266.44092198057479 0 266.44092198057479 305.45651219856336 0 0 0 0 -120.82477120874682 76.194967798561265 0 76.194967798561265 132.74797172289982 0 0 0 0 -134.49015643156599 49.761462941009086 0 49.761462941009086 167.37362881627087 0 0 0 0 -227.04897943592368 73.026617629006068 0 73.026617629006068 224.75577719236026 0 0 0 0 83.245467099826783 437.87907345676649 0 437.87907345676649 236.10786638002901 0 0 0 0 -206.02800012613079 204.11920789888791 0 204.11920789888791 1003.8005775832717 0 0 0 0 39.441111553474911 212.01455140468534 0 212.01455140468534 -15.727012159179139 0 0 0 0 14.849206022576254 192.52367855181001 0 192.52367855181001 -4.0541212274092686 0 0 0 0 -38.060225097196962 113.33204684474913 0 113.33204684474913 -71.131770117979613 0 0 0 0 -45.676630990601552 179.93008629239193 0 179.93008629239193 31.112200249302987 0 0 0 0 -21.935275659219769 121.54409836492459 0 121.54409836492459 -81.611710747492907 0 0 0 0 -73.907622782805447 74.325275168188909 0 74.325275168188909 -118.40514919861744 0 0 0 0 -36.910143329121638 89.273440730863513 0 89.273440730863513 -113.04856587338145 0 0 0 0 -53.137670798609179 118.78286468955412 0 118.78286468955412 -146.1638215695275 0 0 0 0 -3.7276111345531717 103.53547358672085 0 103.53547358672085 -163.2977179407826 0 0 0 0 -70.826460628643872 56.403199909514115 0 56.403199909514115 -139.45989375757927 0 0 0 0 -51.999343795428103 122.49983923146146 0 122.49983923146146 -154.69222189631546 0 0 0 0 -6.3115848374472989 79.064974187156622 0 79.064974187156622 -196.49787738508894 0 0 0 0 -11.639659848788142 122.76825303731675 0 122.76825303731675 -192.68737442419479 0 0 0 0 3.7466716535200248 142.78794795205977 0 142.78794795205977 -197.9821602129814 0 0 0 0 -8.1380330872598279 231.40806201919622 0 231.40806201919622 -411.89129416622018 0 0 0 0 -267.75099401380066 250.6520797899484 0 250.6520797899484 -70.823912617423048 0 0 0 0 -141.86464429832631 139.57187640031407 0 139.57187640031407 -21.375892268457392 0 0 0 0 -57.373471869963396 61.242859937054163 0 61.242859937054163 8.15190443928077 0 0 0 0 -36.940771247413068 59.719022860175755 0 59.719022860175755 -16.376118907654018 0 0 0 0 -24.389962608223868 88.170848267354813 0 88.170848267354813 -54.719116963184206 0 0 0 0 -86.466721789940493 189.02269266829535 0 189.02269266829535 -169.16113812282856 0 0 0 0 -51.217994893498144 129.3484466891241 0 129.3484466891241 -89.317141196661396 0 0 0 0 
</DataArray>
<DataArray type="Float64" Name="cross_section_updated" format="ascii">
1 1 1 0.010681052821847004 0.010683686024761579 1 1 1 1 1 1 1 1 1 1 1 1 1 1 1 1 1 1 1 1 1 1 1 1 1 1 1 1 1 1 1 1 1 0.0094472455479328865 1 1 1 1 1 1 1 0.0096675598675278578 1 1 1 1 1 1 0.010832474771702939 1 1 1 1 1 1 1 0.012917837709803755 1 1 0.0094723554116721079 1 1 1 1 1 1 1 0.0089639897575075969 1 0.015562232065686833 1 1 0.0054554916093577724 1 1 1 1 1 1 1 1 0.008420250375164277 1 1 1 1 1 1 1 0.009300592293515977 1 1 1 1 1 1 1 0.0087490859623549841 1 1 0.006089769092885956 1 1 1 0.0077288720522282073 1 1 1 1 1 1 0.0092646642616763236 1 1 1 1 1 1 1 1 1 1 1 1 1 1 1 1 0.0096140616302494777 1 1 1 1 1 1 1 1 1 1 1 1 1 1 1 1 1 1 0.010068853762765145 1 1 0.0099804801693482575 1 1 1 1 1 0.0026667695642011938 1 1 1 1 0.0043615264865515448 1 1 1 1 1 1 1 1 1 1 1 1 1 0.010041819064904129 1 0.0014450335220943314 1 1 1 1 1 1 0.0098057365194968819 1 1 1 1 1 0.0093938587232894125 1 1 1 1 1 1 1 1 1 1 1 1 1 1 1 1 1 1 1 1 1 1 1 1 1 1 0.0062722188283338941 1 1 1 1 1 1 1 1 1 1 0.0085285268340151797 1 1 1 1 1 1 0.008274793868152705 1 1 1 0.010371889746738368 1 1 1 1 1 1 1 1 0.010381450483263954 0.0077763594890505744 1 1 1 1 1 1 0.0092619237155218276 1 1 1 1 1 1 1 1 1 1 1 1 1 1 1 1 1 1 1 1 1 1 1 1 1 1 1 0.010687563676921204 1 0.0098802500452765969 1 1 1 1 0.0097881463076311664 1 1 1 1 1 1 1 0.0047804759451093876 1 1 1 1 0.0098050984826326924 1 1 1 1 0.0032688626583668497 1 1 1 0.010216251237100269 1 1 1 1 1 1 1 1 1 1 1 1 1 1 1 1 0.010175900078337699 1 1 1 1 1 1 1 1 1 0.0093922434469916223 1 1 1 1 1 1 0.0024102715108488548 1 1 1 1 1 1 1 1 1 1 0.0083094774609361408 1 1 1 1 1 1 1 1 1 1 1 1 1 1 1 1 1 1 1 1 1 1 0.0026689795990055137 1 0.0043247330768800846 1 1 1 1 1 0.0089475924947318413 1 1 1 1 1 1 0.011180516516332686 1 1 1 1 1 1 1 1 0.0099229500496968437 1 1 1 1 1 0.012367766296531413 1 0.0012568514542669867 0.010266439579618151 1 1 1 1 1 1 1 0.010319937816896527 1 1 1 1 1 1 1 1 1 1 1 1 1 1 1 1 1 1 1 1 0.0076737434918909527 1 1 1 1 1 1 1 1 1 1 1 1 1 1 1 1 1 1 1 1 1 1 1 1 1 0.0083648112618229242 1 1 1 1 1 0.0073136043398888944 1 1 1 1 1 1 1 0.0083231601861100228 1 1 1 1 1 1 1 1 1 1 1 1 0.0053212014728193265 1 1 1 1 1 1 1 1 1 1 1 1 1 1 1 1 1 1 1 1 1 1 1 1 1 1 1 1 1 0.0097537688367463141 1 1 1 0.0092375160317148125 1 1 1 0.009989546766295784 0.014821525877219813 1 1 1 1 1 1 0.013222269336628512 1 1 1 1 0.011189033571697114 1 1 1 1 1 1 0.0078614843249245094 1 1 1 1 1 1 1 0.0092377240994938603 1 1 1 1 1 1 1 1 1 1 1 1 0.006671006759243479 1 0.010554610254964365 1 1 1 0.013030728786991653 0.0083620299096065394 1 0.011198525726281489 1 1 1 1 0.014577896089237671 1 1 1 1 1 1 1 1 0.01009870939062851 0.01020605167645163 1 1 1 1 0.010088263473097978 1 1 1 1 1 1 1 1 1 1 1 0.01452216185513565 1 1 1 0.009422292392673488 1 1 1 1 1 1 1 1 1 1 1 1 1 1 1 1 1 1 1 1 1 1 0.0032515594577294804 1 1 1 1 1 0.010404666156071024 1 0.0022995617352779014 1 1 1 0.0097577396841496099 1 0.0035581933000859694 1 0.0044346320175152661 1 1 0.012462163480090344 0.0099002755155068109 1 1 1 1 1 1 1 1 0.012554129933604333 1 1 1 1 1 0.0063445888638253428 0.013759585043204108 1 1 1 1 1 1 1 1 1 1 1 1 1 1 1 1 1 0.0084942251588155573 1 0.01396463127160855 1 1 0.005395298653952784 1 0.010138687776239134 1 1 1 0.0062091428597096186 0.0053325964690864678 0.0097979121759035996 1 1 1 1 1 1 0.0096567544987622919 1 0.0013279035442562998 1 1 1 1 1 1 1 1 1 1 0.009887447574122972 1 1 1 1 1 1 0.0098259214205502245 1 1 1 0.0077843243092276283 1 1 1 1 1 1 1 1 1 1 1 1 0.0092795850566370908 1 1 1 1 1 1 1 1 1 1 1 1 1 1 1 1 1 1 0.010610909791816394 1 1 1 0.011898774529622676 1 1 1 1 1 1 1 1 1 1 1 1 1 1 1 1 1 1 1 1 0.011849360471448156 1 1 1 1 1 1 0.016481764495843328 1 0.0098326928092192338 1 1 1 1 1 1 1 0.0089468955015167845 0.0098957696868668052 1 1 1 1 1 1 1 1 1 1 1 1 1 1 1 1 1 1 1 1 1 1 1 1 1 1 1 1 1 1 1 1 0.0096189908937617911 1 1 0.0098987535109548788 1 1 1 1 1 1 1 1 1 1 1 1 1 1 1 0.011271490078425738 1 1 1 0.010864152991655451 1 1 1 1 1 1 1 1 1 1 0.0091268182129112842 1 1 1 1 1 1 1 1 1 1 1 1 1 1 1 1 1 1 1 1 1 1 0.0096598132774827778 1 1 1 1 1 1 1 1 1 1 1 1 1 1 1 1 1 1 1 1 1 1 1 1 1 1 1 1 1 1 1 1 1 1 1 1 1 1 1 1 1 1 1 1 1 1 1 1 1 1 1 1 1 1 1 1 1 1 1 1 0.010681464450162785 1 1 1 1 0.011191685666659753 1 1 1 1 1 1 1 1 1 1 1 1 1 1 1 1 1 0.010133597976258344 1 1 0.0099042346035777065 1 1 1 1 1 1 1 1 1 1 1 1 1 1 0.0099092161827684065 1 1 1 1 1 1 0.0096614244850147853 1 1 1 1 0.010200223977862079 1 0.0098531878217229928 1 1 1 1 1 1 1 1 1 1 1 1 0.010161166663706291 1 0.010118658171739727 0.011669188736405576 1 1 1 1 0.010438116104158386 1 1 1 1 1 0.0097417345845509686 1 0.0090510525617708976 1 1 1 1 0.01002899360513595 0.006395867162405932 1 1 1 1 0.0085903682477566946 1 1 1 1 1 1 1 1 1 1 1 0.0068355025963766792 1 0.0062796555104750566 1 1 1 1 1 1 1 0.0083291803187005124 0.0053363716338415343 1 1 1 1 1 1 1 1 1 1 0.010016318154020043 1 1 1 1 1 1 1 1 1 0.010831739320314181 1 0.012438402891908892 1 1 1 1 1 1 1 1 0.010133575163020502 1 1 0.0099685897614252162 1 1 1 1 1 1 1 1 1 0.010101221838965094 1 1 1 1 1 1 1 1 1 1 1 1 1 1 1 1 1 1 1 1 1 1 1 1 1 1 1 1 1 1 1 1 1 1 1 1 1 1 0.0097697600872047284 0.0096385719205372526 1 1 1 1 1 1 1 1 1 0.0089715014769864571 1 1 1 1 1 1 1 0.0090171055358829084 1 0.0099360099557588254 1 1 1 1 1 1 1 0.0086149637532942618 1 1 1 1 1 1 0.0099962331321838058 1 1 1 0.0077543397134474373 1 1 1 1 0.010055874111436845 1 1 1 0.0073565262805982447 1 1 0.00873713021640702 1 0.0068218516627907236 1 1 1 1 1 1 1 0.010516328842814438 1 1 1 1 1 1 1 1 1 1 1 0.011347976852587387 1 1 1 1 1 1 0.011980092971167706 1 1 1 1 0.0090796198792640424 1 1 0.0099669995997866776 1 0.0073866842495150884 1 1 1 1 0.010168987860774846 1 0.008907620274551005 1 0.0116203838358646 1 1 1 0.0090676409242533961 1 1 1 1 1 0.010037044273987517 1 1 0.0099461070640703628 1 1 1 1 1 1 0.010088023564533293 1 1 0.0096638942442021491 1 1 0.010391959164248791 0.012023802703764994 0.010932563628460705 1 1 1 0.0080318573273731059 1 1 1 1 1 0.0092547465437663873 1 1 1 1 1 0.0096714769545713491 1 1 1 1 1 1 1 1 1 1 1 1 1 1 1 1 1 1 1 1 1 1 1 1 1 1 1 1 1 1 1 1 1 1 1 1 1 1 1 0.010297281681062389 1 1 1 1 1 1 1 0.010162353281737707 1 1 0.010500938617317599 0.010318787043653015 1 1 1 1 1 1 1 1 1 1 1 1 1 1 1 1 1 1 0.010849691323063456 1 1 1 1 1 1 0.011871796708870624 1 1 1 1 1 1 1 0.012908170180467022 1 1 1 1 1 1 1 1 0.011848839383009527 1 1 0.01125845056144158 1 0.01179969490084536 1 0.013990048250080288 0.0089326587035570802 1 1 1 1 0.010063363802542653 0.011478260205983411 1 0.01225334391561728 1 0.011084909642751913 1 1 1 1 0.012038412542724922 1 0.0045469676844332053 1 1 1 1 0.0099963379088154961 1 1 1 1 1 1 1 1 1 0.0061800814607466965 1 1 0.0095765397783182955 0.0069893564201614815 1 1 0.0071037281128390056 1 1 1 0.008500142568224062 1 0.0072386877188815677 1 1 1 0.0065507932362305959 1 0.0095068897572651457 1 1 1 1 1 1 1 1 1 1 1 1 1 1 1 1 1 1 1 1 1 1 1 1 1 1 1 1 1 1 1 1 1 1 1 1 1 1 1 1 1 1 1 1 1 1 1 1 1 1 1 1 1 1 1 1 1 1 1 1 1 1 1 1 1 1 0.0063718208735938321 1 1 1 1 1 1 1 1 1 1 1 1 1 1 1 1 1 1 1 1 1 1 1 1 1 1 1 1 1 1 1 1 1 1 1 1 1 1 1 1 1 1 1 1 1 1 1 1 1 1 1 1 1 1 1 1 1 1 1 1 1 1 1 1 1 1 1 1 1 1 1 1 1 1 1 1 1 1 1 1 1 1 1 1 1 1 0.0099208633554698153 1 1 1 1 0.0082368729748644523 1 1 1 1 1 1 0.010152632462349889 1 1 1 1 1 1 0.010479960420803281 1 1 1 1 0.011855842160381063 1 1 1 0.0076984728001993534 1 1 1 1 1 0.01173122358855779 1 0.0086700881891114811 1 0.010000767368483663 1 1 1 1 1 1 1 1 1 1 1 1 1 1 1 0.010219887777262796 1 1 1 1 0.010312322524494931 1 1 1 1 1 1 1 1 1 1 1 1 1 1 1 1 1 1 1 1 1 1 1 0.013581364051246433 1 1 1 1 1 1 1 1 1 1 0.020424671018695419 1 0.011887167196785585 1 1 0.01507730739243001 1 0.0053261365575468095 0.011869785802986475 1 0.0058835761976001773 1 1 1 1 1 0.01041552015674917 0.0059088661997727075 1 0.010056724184461669 1 1 1 1 0.010073740706649736 1 1 1 1 1 1 0.0097146233184661618 1 1 1 1 1 1 1 1 1 1 1 1 1 1 0.016425474002120018 1 1 0.0095218832841376579 1 1 1 0.013948916211596909 1 0.0066792277990843701 1 1 1 1 1 0.018236733765849365 1 1 1 1 0.0084652988262903638 1 1 1 1 1 0.010179600212634563 1 1 1 1 1 1 1 1 0.009958567231698294 1 1 1 1 0.011454448772264515 1 1 1 1 0.0089308130576933806 1 1 1 1 1 1 1 1 0.011099830085459924 1 1 0.01136754514662555 1 1 1 1 1 0.010427485933479811 1 1 0.0054967783015753991 1 1 1 1 1 1 1 1 1 1 1 1 1 1 1 0.0099480368208676243 1 1 1 0.0027265146618002884 0.0027000776941818348 1 1 1 1 1 1 1 0.012467866017431278 1 1 1 1 0.018480382885127142 1 0.013392196451129228 1 1 0.010000957804974611 1 1 0.012860475153958871 0.006821392651247077 1 0.0091801414678734233 1 1 0.011364259836036124 1 1 0.0063622012033481123 1 1 1 1 1 1 1 1 0.004648610976437817 0.013544925943297809 0.0084552189235675632 1 1 1 0.0037807016938227831 1 1 0.0094867329041692962 1 1 1 1 1 0.0046463969702432075 1 1 0.013487338844694283 1 0.0060329903667609239 0.0077725372997382181 1 1 0.01470366520054584 1 1 1 1 1 0.0083051185496494529 1 1 1 0.0068954643206811418 1 1 0.0071565484399666174 1 0.010496333753808727 0.0064940956432614112 0.005477452005533727 0.012507871410928576 1 1 1 1 1 0.012562034930008298 1 0.01310356585627805 1 0.010002446139395015 0.0095779144744037419 1 1 1 0.0098920661361050419 1 1 1 1 1 1 1 0.0046313076397265056 1 1 1 1 1 0.0074050928148777619 1 0.0095426796641118593 0.0092847404347202993 1 1 1 0.010006286398472085 0.010286034239067788 1 1 1 1 1 1 1 1 1 1 1 1 1 1 1 1 1 1 1 0.0071883242396342112 1 0.0099916273065103582 0.011967334260213068 0.0072463271674427249 1 1 1 1 1 0.010461069724696938 1 1 1 1 1 1 1 1 1 1 0.009926018285257748 1 1 1 1 1 1 1 0.0085454375784595679 1 0.0055826276419730387 1 1 1 1 1 1 1 1 0.0050578800001638228 1 0.0099642555539887351 1 1 1 1 1 1 1 1 0.010174698727667453 1 1 1 1 1 1 1 1 1 1 1 1 1 1 0.0097258354230957411 1 1 1 1 1 1 1 0.012211811269315901 1 1 0.011614229398294066 1 1 1 1 1 1 1 1 1 1 1 1 1 1 1 1 1 1 1 1 1 1 1 1 1 0.011153587514160214 1 1 1 1 1 1 1 1 1 1 0.0029080203723267006 1 0.01041966724436442 1 1 1 1 1 1 1 1 1 1 1 1 1 1 1 1 1 1 0.0027920789596874683 1 1 1 1 1 0.0022724340390131523 1 1 1 1 1 1 1 1 1 1 1 1 1 0.0030286332582533902 1 0.0098538935306798602 1 1 0.0089222069519130053 0.01197289378819839 1 0.014733144792967501 1 1 0.0099807720580756942 1 0.011052949648569026 1 1 0.0057353887932595996 1 1 1 1 1 1 0.0097542297386445081 0.0099902219822678318 1 0.0054733312753349282 1 1 0.0099895614349358661 1 1 1 0.0052293477278834849 1 1 0.017512617712552695 1 1 1 1 1 1 1 1 0.015930669680153456 1 1 1 0.0099940049084936648 1 1 1 1 1 1 1 1 1 1 1 1 0.0079347300361926314 1 0.0099892842717053901 1 1 1 1 1 0.0087140780869441256 1 1 1 1 1 1 1 1 1 1 1 1 1 1 1 1 1 1 1 1 0.015245624840758535 1 1 1 1 1 1 1 1 0.014496113874164135 1 1 1 1 1 1 1 1 1 0.013679939296782399 1 1 1 1 1 1 1 1 1 0.012634197893366247 1 0.013780259134799669 1 1 0.010236085789298533 1 1 0.013903667453275204 1 0.012402976112814695 0.013427365613117697 1 0.010178893956496652 1 1 1 1 1 1 0.011198932036065264 0.012096630632374266 1 1 1 1 1 1 1 1 1 1 1 1 1 1 0.012969833142561718 1 1 1 1 1 1 1 1 1 1 1 0.0093035648827735351 1 1 0.0090354460031694152 1 1 1 1 1 0.010196134820414714 1 1 0.0084348287165940221 1 1 1 1 1 1 1 1 1 1 1 0.0097928616867320375 1 1 1 1 1 0.010044321751709193 1 1 0.01035100374995793 1 1 1 1 0.0099754942170572694 1 1 1 1 1 1 1 1 1 1 1 1 0.0091413082663809216 1 1 1 1 1 1 1 1 1 1 0.01007706122217571 1 1 1 1 1 1 1 1 1 1 0.0095216403880529401 1 1 0.0090362150256997238 1 1 1 1 1 1 1 1 1 1 1 1 1 1 1 1 1 0.009514574637646777 1 0.007191120646291899 1 1 1 0.0051426475199354386 1 0.011668097034438555 1 1 1 1 1 1 1 1 1 1 1 0.011391647025356357 1 1 0.012286633868137907 1 1 0.0096853832715453492 1 1 1 1 1 1 1 0.010006671787025292 1 0.0091762271099469373 1 1 1 1 1 1 1 1 1 1 1 1 1 1 1 1 1 1 1 0.014475112447698966 0.0023467134024050262 1 1 1 1 1 1 0.012904312850371157 0.01005728405881676 1 1 1 1 1 1 1 1 1 1 0.0036625969553064222 1 1 0.010356019878993809 0.006684050478341988 1 1 0.0099740418659421751 1 1 0.0097372533308638827 1 1 0.0055788578301791134 1 0.0075208969702169615 1 0.010214141161166739 1 1 1 1 1 0.010684754611301453 1 1 1 1 1 1 1 1 0.011591174595603278 1 1 1 1 1 1 1 1 1 1 1 1 1 1 0.010491305203720755 1 1 1 1 0.011274849981334894 1 1 1 1 1 1 1 1 1 1 0.0099234276023411113 1 1 1 1 1 0.010549515151063286 1 0.010745278459669006 1 0.010105596697117891 0.0097361347035913107 1 1 1 0.011813221537748704 1 1 1 0.0096498149610093256 1 1 1 1 0.0098019371660909953 1 1 1 1 1 1 0.0096495082264895417 1 1 0.0098486263800621112 1 1 1 1 1 1 1 1 1 1 1 1 0.012579934483044876 1 1 1 0.010813572391120845 1 1 1 1 1 1 1 1 1 0.011710752118721975 1 1 0.01003673300462089 1 0.009799063938258492 1 0.01224208222859147 1 1 1 1 1 1 1 0.0026317970204567838 1 0.012205165719315732 1 1 1 1 1 1 0.0024469496070950777 1 1 1 0.010147943790593909 1 1 1 1 1 1 1 1 1 1 1 1 1 1 1 1 1 1 1 1 1 1 0.011192860556471795 1 1 1 1 1 1 0.010404861075266086 1 1 1 1 1 0.010251053322474071 1 0.010631396834015795 1 1 1 1 1 1 1 1 1 0.010591144875905073 1 1 1 1 1 0.0106443578277219 1 1 1 1 1 1 1 1 1 1 1 1 1 1 1 1 0.0099659968898692247 1 1 1 1 0.010239496752455824 1 1 1 1 1 1 1 1 1 0.010240286913438547 1 1 1 1 1 1 1 1 1 1 0.01058037846686956 1 1 1 1 1 1 1 1 1 1 1 1 1 1 1 1 1 1 1 0.010133354691433519 1 1 0.0089727494960527739 1 1 0.0082681724069216204 1 0.0078132853036579387 1 1 1 1 1 0.010018258872503308 1 1 1 1 1 1 1 1 1 1 1 1 1 1 1 1 0.0091786490403989313 1 1 1 1 1 1 0.0095092162518854179 1 1 1 1 1 1 0.0099230334894481603 1 1 1 1 0.0097235969794278558 1 1 1 1 1 1 0.0098776247121554091 1 1 1 1 0.0093493608233908201 1 1 1 1 1 1 1 1 1 1 1 1 1 1 1 1 1 1 0.0073012242738814542 1 1 1 1 1 1 1 1 1 1 1 1 0.0099983153075327881 0.010156914628579683 0.0099722983100157606 1 1 1 1 1 0.010365606026742981 1 1 1 1 1 1 0.011027865429851423 1 1 1 0.010531911786684636 0.0099845775426598733 1 1 1 1 1 0.010026530957900697 1 1 1 1 0.010220227139819245 1 1 1 1 1 1 1 0.011488718623870429 1 1 0.010328843610893305 1 0.010946740815968204 1 1 1 1 1 1 1 0.011417753222342286 1 1 1 1 1 0.01115771772750368 1 1 1 1 1 0.010642349744098611 0.01180587322002305 1 1 1 1 1 1 1 1 0.010039961609909467 1 1 1 1 1 1 1 1 1 1 1 1 1 1 1 1 1 1 1 1 1 0.0087292580134437307 1 1 1 1 1 1 1 1 1 0.0096661160784534024 1 1 1 1 1 1 1 1 1 1 1 1 1 1 1 0.0095989921036757752 1 1 1 1 1 1 1 1 1 1 1 1 1 1 1 1 1 1 1 1 1 1 1 1 1 1 1 1 1 1 1 1 1 1 0.0078410730322303786 0.0079830355671172675 1 1 1 1 1 1 1 1 1 1 0.0075476915956569912 0.010230433744306926 1 1 1 1 0.0087301371366039025 1 1 1 1 0.010011195955340162 1 1 1 1 1 1 0.0099080863437825059 1 1 1 1 1 1 1 0.0089947778711295875 0.009595199560355365 1 1 1 1 0.010009867473454497 0.0099387168258978781 1 1 1 1 1 1 1 1 0.0080398497014563322 1 1 1 1 1 1 1 1 0.0071820198332017207 1 1 1 0.0069489998789063669 1 1 1 1 0.0064445458472657275 1 1 1 1 1 0.0034012737761896297 1 1 1 1 1 1 1 1 1 1 1 1 0.0099660045719846754 1 0.0084686138638913472 1 1 1 0.010702080100641016 1 1 0.010230032930110444 1 1 1 0.018270923141146429 1 0.01104827109051984 1 1 1 1 1 1 1 1 1 1 1 1 1 1 1 1 1 1 1 1 1 0.0074920045568994051 1 1 1 1 1 0.0072181934107133153 1 1 1 1 1 1 1 1 1 0.010271879408748887 1 1 1 1 1 1 1 1 1 1 0.010282235383970731 1 1 1 1 0.010554114792719619 1 1 1 1 1 1 1 1 1 1 1 1 1 1 1 1 1 1 1 0.0090420469726792598 1 1 0.010188336693226219 1 1 0.010434968592643735 1 0.019227321787772811 1 1 0.0033722911963239531 1 1 0.0097710317168503997 1 1 1 1 1 1 0.0028576380528207365 1 1 1 1 1 1 1 1 1 1 0.020672437606330335 1 1 1 1 0.020596740462765044 1 1 1 1 1 1 1 0.0098132584525564767 1 1 1 1 1 1 0.0208295148337252 1 1 1 1 1 1 1 1 0.0087617996849640722 1 1 1 0.01024989371982591 1 1 1 1 1 1 0.0096199836601410793 1 1 1 1 1 1 1 1 1 1 1 0.010221303766314423 1 1 1 1 1 1 0.010295797655200041 1 1 1 0.020819394388660119 1 1 1 1 0.0099464204601521448 1 0.0087119721134334468 1 0.010066887247323164 1 1 1 1 1 1 1 1 1 1 1 1 1 1 0.010543194478615929 1 1 1 0.010204065869437817 1 1 1 1 1 1 1 1 1 1 1 1 1 1 1 1 1 1 1 1 1 0.0097743654380025233 1 1 1 1 1 1 1 1 1 1 1 1 0.012383670923369242 1 1 1 0.0093067183881482152 1 1 1 1 1 0.0097785165358837307 1 0.0094957658291270758 1 1 1 0.010111573918284952 1 1 1 1 1 1 0.011621500615633882 1 0.0098840809475269648 1 1 1 0.010024144611831992 0.0094344915772205176 1 1 1 1 1 1 1 1 1 1 0.012466718152109592 0.010716592492226829 0.0058420307253555428 1 1 1 1 0.010017615483983215 0.012075534976686543 0.0051761901319674307 1 1 0.010086074926230815 0.0087312684359754367 1 1 0.0063752875953442222 1 1 1 1 1 1 0.011742824649132495 1 1 1 1 1 1 0.01160626633970983 1 1 1 1 1 1 0.010338886813475737 1 1 0.010885252036319945 1 1 1 1 1 1 1 1 1 1 0.010750431092282029 1 1 1 1 1 1 1 1 1 1 1 1 1 0.01058274531731423 1 1 1 1 1 1 1 0.0094431304489588919 1 1 1 0.0091088525652529666 1 1 1 1 0.0089303033014697612 1 1 1 1 1 1 1 1 0.012123184573172421 1 0.0088667999923649817 1 1 1 0.010486188142365096 1 0.011100135876194482 1 1 1 1 1 1 1 1 0.0099727302924576058 1 1 1 0.011366536182180989 0.013885920442419311 1 1 1 1 1 0.012974901577272362 0.0084735267268671137 1 1 1 1 1 1 1 1 0.013299066655784873 0.012499038197587697 1 1 1 1 1 1 1 0.0099832614309304617 1 1 1 1 1 1 1 1 0.013682046768657492 1 1 0.014761567557865115 1 1 1 0.015346661850974899 1 1 1 1 0.014367421201749437 1 1 1 1 1 1 1 1 1 1 1 0.010454559765975105 1 1 1 1 1 1 0.016731015457662705 1 0.016174808757039735 1 1 0.0098103917340918341 1 1 1 1 1 1 1 0.016721917236731026 1 1 1 1 1 1 1 0.011029793662229698 1 0.0068561486353840295 1 0.01032445445909699 1 1 1 0.015259039561499377 1 1 1 1 0.010532163173447443 0.0091708641652502934 1 1 1 0.01554581942654774 1 1 1 0.0079679823361933494 1 1 1 0.010171055869067733 1 1 1 1 1 1 1 1 1 1 1 1 1 1 1 1 1 1 1 1 1 1 1 1 1 1 1 1 1 1 1 0.010106911333740129 1 1 1 1 1 1 1 1 1 1 1 1 1 1 1 1 1 1 1 1 1 1 1 1 1 1 1 1 1 0.0097441776103188715 1 1 1 1 0.010226260463723776 0.010121192551658199 1 1 1 1 1 1 0.010293488999480809 1 1 1 1 1 1 1 1 1 0.010268524374444653 1 1 1 1 1 1 1 1 1 1 1 1 1 0.010009876021686306 1 1 1 1 1 1 1 1 1 1 1 1 1 1 1 1 1 1 0.011042672963160376 1 1 1 0.013396701578300502 0.011152509105972302 1 1 0.010147329346583555 1 1 1 0.010131875958776295 1 1 1 0.012056710793994325 0.0083656809050683956 1 1 1 1 0.016350466429979175 1 1 0.010194772332032974 0.01306561909508909 1 1 0.010881593109403592 1 1 1 1 1 1 1 1 1 1 1 1 1 0.013922766062937448 1 0.010001926151725574 1 1 1 1 1 0.012956590106845443 1 0.012027476651833173 1 1 1 1 1 1 1 1 1 1 1 1 1 1 1 1 1 1 1 1 0.010133655552774172 1 1 1 1 1 1 1 1 1 1 1 1 1 1 1 1 1 1 1 1 1 1 1 1 1 1 1 0.010426167081355971 1 1 1 1 0.016713516398342877 1 1 1 1 1 0.013862695867914153 1 1 1 1 1 1 1 1 0.010003231507546891 1 1 1 1 1 1 1 1 0.013696958865494088 1 1 1 1 0.0097037885456476916 1 1 1 1 0.010043458487885477 1 1 1 1 1 1 0.009492810024356221 1 1 1 0.0092302199345642242 1 1 1 1 1 0.015359264241412126 -2.0816681711721685e-17 1 0.0141870518227956 1 1 0.010272373486867178 1 1 1 1 1 1 0.013838837800417296 1 1 1 1 1 0.010886297606419003 1 1 1 1 1 1 1 1 1 1 1 1 1 1 1 1 1 1 1 1 1 1 0.010789425052327297 0.010445970525717996 1 1 1 0.0099946070418374146 1 1 1 1 1 1 0.0094789247345176235 0.0097647687927889248 1 1 1 1 1 1 1 1 1 1 1 1 1 1 1 1 1 1 1 1 1 1 1 1 1 0.01168067373599653 1 1 1 1 1 1 1 1 1 1 1 1 1 1 1 0.011526189816907428 1 1 1 0.011369998354560935 1 1 1 1 1 1 1 1 1 1 0.010606712499349476 1 1 1 1 0.010976041681703571 1 0.0093426226719784296 1 1 0.0098363803341153903 1 1 1 1 1 1 1 1 1 1 1 1 1 1 1 0.010170205521681045 1 1 1 1 1 1 1 1 1 1 1 1 1 1 1 1 1 1 0.010541114386773388 1 1 1 1 1 1 0.010131718610538257 1 1 1 1 1 1 1 1 1 1 1 1 1 1 1 1 1 1 1 1 1 1 1 0.0095875910466949703 1 1 1 1 1 1 1 1 1 0.0090182672320179187 1 1 1 1 1 0.0090369336559080193 1 1 1 0.0099236435798579388 1 1 1 1 1 1 1 1 0.009960035281472884 1 0.0091884286113814578 1 1 1 1 1 1 1 1 0.010021082199529062 1 0.0099860293026948158 0.0085005809205768532 0.010402367647126995 1 1 0.0076382184645171162 1 1 0.0062083140167032034 1 1 1 1 0.0081554198692161076 0.0068522325536949404 1 1 1 1 0.0058785100388300086 0.010350909946413137 1 0.010678921089405397 1 1 0.0063063778282706918 1 0.0079736614306255404 1 1 1 1 1 1 1 0.010075036670128363 0.010312523025599738 1 0.01031684742784942 1 1 0.010103388072381607 1 1 0.010229258389521077 1 1 1 1 1 1 1 1 1 0.010530102912308856 1 1 1 0.010511021443295562 1 1 1 1 1 1 0.010557201743454946 1 1 1 1 0.01013994695879804 1 1 1 1 1 1 1 1 0.010112447243776902 1 1 1 1 1 1 1 1 1 1 1 1 1 1 1 1 1 1 1 1 1 1 1 1 1 1 1 1 1 1 0.010561611754877338 1 1 1 1 1 1 1 1 1 1 1 1 1 1 1 1 1 1 1 1 0.010033510665579054 1 1 0.01094620753543374 1 1 0.0093211128548916691 1 0.010747884109344937 1 0.011370947487696709 1 0.0075597410599273183 0.0033647504530703656 0.01003066417324059 1 1 1 1 1 1 0.010215805630625699 1 0.010159404779032273 1 1 1 1 1 0.014618445481790619 1 0.0076821453834770605 1 0.007297082299092492 1 1 0.012246702165538659 1 0.0069007356590260541 0.007478218238896708 1 0.0072333706742923696 1 1 1 0.0072237282525060807 0.010002506661739482 0.009539546499483624 1 1 1 0.0088616353624507808 0.0091265023491626327 1 1 0.0099450717215796031 1 0.0034341544111817605 1 1 1 1 0.010003964579456804 1 0.0040349007618586466 1 1 1 1 1 1 1 1 1 1 1 1 1 1 1 1 1 1 1 1 1 1 0.010062262710151355 1 1 1 1 1 1 1 1 1 1 0.010000052142494652 1 1 1 1 1 0.013962181940770629 1 1 1 0.0087961653953336737 1 0.0092900617171030909 1 1 0.011547296264895804 1 1 0.0087768872531067792 0.0114839443158703 0.016304638875785479 1 1 1 1 1 1 1 1 1 1 1 1 1 1 1 1 1 1 1 0.010115536375956306 0.013003699839741936 1 1 1 1 0.011646759030440518 1 1 0.010020514353413527 1 1 1 1 1 0.0025141690624185566 1 1 1 1 1 1 1 0.00098824413000771216 1 1 0.0017605856968518352 1 1 1 1 1 1 1 1 1 1 1 1 1 1 1 0.013990769445228703 1 1 1 1 1 1 1 1 0.012498262549132092 1 1 1 1 1 1 1 1 1 0.010862210346923471 1 1 1 1 1 1 1 1 1 1 1 1 1 1 1 1 0.0096023760894926816 1 1 1 1 1 1 0.0088396967286969684 1 1 1 0.013754337904031846 0.0091956745974569112 1 1 1 1 0.0099902782863355282 1 1 0.015437485556646145 1 1 1 0.0098891496190262208 1 1 1 1 1 1 1 1 1 1 1 1 1 1 1 0.010007246054519702 1 1 1 1 1 1 1 1 1 1 1 1 1 1 1 1 1 1 1 1 1 1 1 1 1 1 0.010078348707762723 1 1 1 0.0087398700407323657 1 0.012015757832025301 1 1 1 1 0.010000911859246531 1 1 1 1 1 1 1 1 1 1 1 1 1 1 1 1 1 1 1 0.01000028432883155 1 1 1 1 0.0075569858543401112 1 1 1 1 1 1 1 0.009864590397951449 1 1 1 1 1 1 1 1 0.0099896637829850199 1 1 1 1 1 1 1 1 1 1 1 1 1 1 0.0099762482324139649 1 1 1 1 1 0.01225889900339926 0.009996875152998989 1 1 0.012464266064709337 1 1 1 0.011195720987687946 1 0.010826778075977546 1 1 0.010255705692351569 1 0.010051145434389697 1 1 1 0.010954682242131451 0.011169865146602049 1 0.010866759073974096 0.013066609111615897 0.010234153508173808 1 1 1 1 1 1 0.010064026623162971 1 1 1 1 1 1 1 1 1 1 1 1 1 1 0.010111140858001771 1 1 1 0.010311144315462459 1 1 1 1 1 1 1 1 0.010508487175183578 1 1 0.00852967718067805 1 0.0094519005049250836 1 1 1 1 1 1 1 0.010045123809558481 1 0.0099067886273845902 1 1 1 1 1 1 1 1 1 1 1 1 1 1 1 1 1 1 1 1 1 1 1 1 1 1 1 1 1 1 1 1 1 1 1 1 1 1 1 1 1 1 1 0.010781591622626999 0.009555933868891588 1 1 1 1 1 0.0096060501024483429 1 1 1 1 1 1 0.012337237211890659 1 0.0070204980901867036 1 1 0.014723571108512397 1 1 1 0.011388070015615804 1 0.010470231113294598 1 1 1 1 1 1 1 1 1 1 1 1 1 1 1 1 1 1 1 1 1 1 1 1 1 1 1 1 1 1 1 0.0095793226032524926 0.0096617622205368882 1 0.012191899774860366 1 1 1 1 1 0.011839090584270722 1 1 0.011269779762495992 0.010836326274986452 0.010066550251794527 1 1 1 0.0096674724747418707 1 0.011454698792051486 0.010563512661291663 1 1 1 1 1 0.0090170373275430572 1 0.010000313180950555 1 0.008559965713639605 1 1 0.0091861079060342153 1 0.010738953637256514 0.0079566465296562177 1 0.0083850460731948497 1 1 0.010883685660644711 1 1 0.0099995881017665503 0.00971283175939925 1 1 0.0084100836814088326 1 1 1 0.0097179233443252695 1 1 1 1 1 1 1 1 1 1 1 1 1 1 0.01333041834830824 1 1 1 1 0.012226033941284277 1 1 1 0.014979308004286651 1 1 0.010004587199580899 1 1 1 1 1 1 1 1 1 1 0.0065394039177817144 1 1 1 0.0080015261976690323 1 1 1 0.010000944066913823 1 1 1 1 0.009373964984785696 1 0.010756379906449551 1 1 0.0100305354082593 1 1 1 1 1 0.010073059744270828 1 1 1 1 1 1 1 1 1 1 1 1 0.0099158169377774538 1 1 1 1 1 1 1 1 1 1 1 1 1 0.0099421245611478019 0.0099069174303698868 1 1 0.0098225874181425629 1 1 0.010742169219693577 0.0087027506420680259 1 0.0090704304146463216 0.0077151981472949535 1 1 1 1 1 1 1 1 1 0.012431163463745334 1 1 1 0.012313719119734456 1 0.0040973404983365175 0.012894914926255477 1 1 0.010101521597524019 1 1 1 0.0097806126325597053 1 1 1 0.0099253184820952047 1 1 1 1 1 1 1 1 1 0.0098035152605886432 1 1 1 1 1 1 1 0.00944496757838241 1 1 1 1 0.0094049627597875898 0.011474109361830832 0.011201883713336361 1 0.010720844270309414 1 1 1 0.0086493494427963228 1 1 1 1 1 0.010247794909213372 1 1 1 0.0099449316750258795 1 0.007790204559971271 1 1 1 1 1 1 0.010003996848889387 1 0.010202925799150322 1 1 1 1 1 1 1 0.010056991618971509 1 0.013278742836771041 1 0.0096036464589366478 1 1 1 1 1 1 1 0.014019874232284773 1 1 0.0095647519401896326 1 1 1 1 1 1 1 1 0.010183173194016728 1 1 0.013349365631869524 1 1 1 1 1 0.012425328141056699 1 1 1 0.011573275484511515 1 1 1 1 1 1 1 1 1 1 1 1 1 1 0.010450973530683938 1 1 0.0099703315960458731 1 1 1 1 0.010596984757088201 1 1 1 0.010293300758790029 1 0.010147226361015079 1 1 1 1 1 1 1 1 1 1 1 1 1 1 1 1 1 1 0.0097728370872010931 1 1 1 1 1 1 1 1 1 1 1 1 1 0.0099749977775855769 1 1 1 1 1 1 1 1 1 1 1 1 1 1 1 1 1 1 1 0.0088242064739069634 1 0.0094177380073603763 1 1 0.015090293660173018 1 0.0098228877673267358 1 1 1 0.014213665260984873 0.0097495154869785342 1 1 0.013157578601086203 1 1 1 1 0.010279653372296506 1 1 1 0.010048259057179548 1 1 0.0099289061907884817 1 1 1 1 0.010542960982634204 1 1 1 1 1 1 1 1 1 1 1 1 1 1 1 1 1 1 1 1 1 1 1 1 1 1 0.0096319986139918046 1 1 1 1 1 0.0064117675460349088 1 1 0.012396961465119354 1 1 1 1 1 1 1 0.0053226659058228844 0.012503910890177669 1 1 1 0.0089337232808732615 1 1 1 0.0099863668514870857 1 1 0.0070630557704119846 1 1 1 1 0.010015798214693096 0.014713687612227008 0.0083223580756211276 1 1 1 1 0.0037736554218481405 0.01313734928003819 1 0.011043920851299684 1 0.011031112434976481 0.0085684244186167522 0.0054853767751833499 0.008159372507279803 1 0.012940511257008871 1 1 1 1 1 0.0098088998006254039 1 1 1 0.01556973892025634 1 1 1 1 1 1 1 1 1 1 1 0.010523191978597605 1 1 1 1 0.0070789173024604843 1 0.010946573894699616 1 1 1 1 0.006655572404670026 1 1 1 1 1 0.010160055106835989 1 1 1 0.0095460572892863624 1 1 0.0099731748575736245 1 1 1 1 0.014689017213500584 1 1 0.0050886087785449868 1 1 0.017315129048621251 1 1 1 1 1 1 1 1 1 1 1 1 1 1 1 1 0.010531350487434222 1 1 1 1 1 1 1 1 1 1 1 1 0.010298640801688484 0.010899084212630118 0.010287816736040688 1 1 1 1 1 0.010620790446300068 0.011981629284295593 1 1 1 1 1 1 0.0097045130676689483 0.017724003862182557 0.0098795815316832219 1 1 1 1 0.011534991632452824 1 1 1 1 0.013003402015935283 1 0.010753027861364979 1 1 1 1 0.009997194695904486 1 1 1 1 1 1 1 1 1 1 1 1 1 1 1 1 1 1 1 1 1 1 1 1 1 0.01001848723913319 1 1 1 0.013517552571513115 1 1 0.0079651376291573362 1 0.0072548434882596033 1 1 1 1 0.013545177911589774 0.010876942343247226 1 0.0070731799997207929 1 0.0080055940429609417 1 1 1 1 0.010010813483950297 1 0.0088378938180049271 1 1 1 0.0083595362379065771 1 1 1 1 1 1 1 1 1 1 1 1 0.013507396008389894 1 1 0.010118783018178146 1 1 1 0.019369238625262984 1 0.0076994192522761781 1 1 1 1 1 0.021423098045166351 1 1 1 1 1 1 1 1 1 1 1 1 1 1 1 1 0.0096730489634308404 1 1 1 1 0.0088783902658841618 1 1 1 1 1 1 1 1 1 1 1 1 1 1 1 1 1 1 0.010487707626654217 1 1 1 1 1 0.0098776790490411309 1 1 0.011546782317828689 1 1 0.023456716675663541 1 1 1 1 0.0088335877779569735 1 0.013956275533821817 1 1 1 1 1 1 1 1 1 1 1 1 1 0.0020065288660995628 1 1 1 1 1 0.0031803863962403421 1 1 1 1 1 1 1 1 1 1 1 1 1 0.0043081071051545156 1 1 1 0.0055637280321440179 1 0.0096335287364151326 1 1 1 0.0098632290730295471 1 1 1 1 1 1 1 1 1 1 1 1 1 0.009657835785018944 1 1 1 1 1 1 1 1 1 1 1 1 1 1 1 1 1 0.012111063964584258 0.012949467893626389 1 1 0.0089757088880879337 1 1 1 1 0.01046480957582795 1 1 1 0.01807336218418475 0.0083675062201837708 1 1 0.019486171680072762 1 1 1 1 1 1 1 1 1 1 1 1 0.0086442037359100478 1 0.0099351895763348172 1 1 0.0056334093526735239 0.011676262583397001 0.0058746478995286167 1 1 0.0095969051030997416 1 1 1 1 1 0.010769993170157338 1 0.0073413285588346255 1 0.0083868982705169286 1 0.0094751389003799608 1 1 1 1 1 0.012026477440322781 1 0.013671678052151508 1 1 1 1 0.013156608257905241 1 1 0.0076227535835393535 0.0099502987680095863 0.010057699198011687 1 1 0.010056602368056479 1 1 1 1 1 0.0053541405287018092 1 1 1 1 1 1 1 1 1 1 1 0.0099855292732909592 0.007390795284911684 1 0.010093403297281324 1 1 1 0.0087218465085603901 1 1 1 0.0078750619060538925 0.0058824790576686697 1 1 0.010015577791522417 1 0.011145693985629522 1 1 1 0.010907007003184224 1 1 1 1 1 0.0076300469262540419 0.0096514521868094373 1 0.011397562301250733 1 1 1 1 1 1 1 1 1 1 1 1 0.0075556382674168421 1 1 1 0.0091115350733667663 1 1 1 1 1 1 1 1 1 1 0.0095142187271272452 1 1 1 1 1 1 1 1 1 1 0.0073879363090096489 1 1 1 1 1 1 1 1 0.0098833686265914437 1 0.011135232861860297 1 1 1 1 0.010956136592278305 0.007580182281217757 1 1 0.011240371953615599 1 1 0.0098599375300386059 1 0.010771249938499731 1 1 1 1 1 0.0098563571096652626 1 1 1 1 1 1 1 1 0.010684281289279078 1 1 1 1 0.011090834728174808 1 0.0071153912778947831 0.011171319777806095 1 1 1 1 1 1 0.015309566111544137 1 0.0062024709888703735 1 1 1 1 0.011902755983088705 1 0.010236387929151802 1 0.01127688490375209 1 1 1 0.0099768875788333357 1 1 1 1 1 0.011028679811601869 0.015898436238185831 0.010525450032336455 1 0.009988540948916368 1 1 1 1 1 0.012260594852772774 1 1 1 1 1 1 1 1 1 1 1 1 1 1 1 1 1 1 1 1 1 0.011385397530990918 1 1 1 1 1 1 1 0.010279114259727834 1 1 0.011331531628939828 1 1 1 1 1 1 1 1 1 0.016013224822335512 1 1 1 1 1 1 0.010471584130285368 1 1 1 0.016259043150440348 1 1 1 1 1 1 1 1 0.012261370761314783 1 1 1 0.013671461524559388 1 1 1 1 1 1 0.010248482228493349 1 0.010086244822138025 1 1 0.014990518045575758 1 1 1 0.0022018519447252836 1 1 1 1 1 0.01127083220247925 1 0.0073925901102261018 1 0.01657643237269199 0.010001691798106884 1 1 1 0.015259823629180496 1 1 0.01158278035052592 0.0080350868664545022 1 0.015808766746830828 1 0.014709618662879573 1 1 1 0.0092573991457001042 1 1 1 1 1 1 0.0099131719214521734 1 1 1 1 1 0.0096292160453853061 0.007885161918473476 1 1 1 1 1 1 1 0.0038424067206508728 1 0.010319062844677863 1 0.016070471125436192 1 1 1 0.0032434407261096353 1 1 1 1 1 1 0.011850056259659387 1 0.011328376709626879 1 1 1 0.0099640565681797019 1 1 1 1 1 1 1 1 1 1 1 0.010545456046223058 1 1 1 1 1 1 1 1 1 1 1 1 1 0.0097481613336399577 1 1 0.011258163287425731 1 1 1 1 1 1 1 1 1 1 1 1 1 1 0.0092369460870952227 1 1 1 1 0.010343448101345836 1 1 1 1 1 1 1 1 1 1 1 0.011027544159311746 1 1 1 1 1 1 1 1 0.0076159829099750279 0.010630680795660069 1 1 1 1 1 1 0.0112873040603301 1 1 0.0097001003781579075 1 1 1 1 1 1 1 1 1 1 1 1 1 1 1 1 1 1 1 1 1 1 0.010144968445294738 1 0.002522541491088855 1 1 1 1 1 1 1 1 1 1 1 1 0.0098769986565495054 1 1 1 1 1 1 1 1 1 1 1 1 1 1 1 1 1 1 1 1 0.010691814495464136 1 1 1 0.010913225910353829 1 1 1 1 1 0.0034291115454828606 1 1 1 1 0.013899217496052649 1 1 1 0.011134689045771201 1 1 1 0.015264560392500244 1 0.0087770401636994601 1 0.010672676895121058 0.007450007500399875 1 1 1 1 1 1 1 0.008702057603029098 0.010962100935718177 1 0.011431550491498568 0.0093507687743643597 0.0096664453139495166 1 0.0095690837440611728 0.0075351853676616266 0.010012014772667131 1 1 1 1 1 1 1 1 1 1 1 1 1 1 0.012794872918818524 1 1 1 0.0099951643960013749 1 1 1 1 0.0094732094525375489 1 1 0.01289379108387885 0.0080816187661990665 1 0.0090244997784289238 1 1 1 1 0.0077486272464051481 0.013286046655252988 0.012603400411916895 1 1 1 1 1 1 1 1 0.0082955928832021183 1 1 1 1 1 1 0.009213096078912927 1 1 1 1 1 0.010513649053778914 1 0.010845123038045924 1 0.01223200341561171 1 1 1 1 1 0.0075273071635670701 1 1 0.0081467476818797117 1 1 1 1 0.0098259351985238302 1 1 0.0095020146487020049 1 1 1 1 1 1 1 0.0091177174675004784 1 0.0098156188331280647 1 0.013556244284125815 1 0.012283834351326586 1 1 0.009659078032801572 1 1 1 1 1 0.007659097937509407 0.018829825743117291 1 1 1 1 1 0.010255778886207191 1 1 0.01795890892038686 1 1 1 1 1 0.011370194634913065 1 1 1 1 1 1 1 1 0.0095369012776362755 1 1 1 1 1 0.0099559463166428146 1 1 1 1 1 1 0.0087376177648604541 1 1 1 1 1 0.009862085500527619 1 1 1 1 1 1 1 1 1 1 1 1 1 1 1 1 0.010437913292203527 1 1 0.0086797706514135271 1 1 0.0091471128101982494 1 0.008897288231104538 1 1 1 1 1 1 1 1 0.0092667435048088415 1 1 1 0.012311224343571332 0.0072204835779800048 1 0.011554801418463812 1 0.0088551764428178512 1 0.010638053132709177 1 1 1 0.015538329208158771 1 1 1 1 0.0070163526025424292 0.0099653036246990581 1 1 1 1 0.013446585998324148 1 1 1 1 1 1 0.006455387093147285 1 0.008977117984997415 0.0081696269126354786 1 1 1 0.014033526935843182 1 1 1 1 1 0.0086257047049093233 0.014349551582090822 1 0.008706702066394267 0.013450972768018998 1 0.014751014435605187 1 1 0.0099301346295231196 1 0.011174413314720841 1 1 1 0.010180301171529488 1 1 1 1 1 1 1 1 1 1 1 1 1 0.0099512567641718234 1 0.0085045777064603218 0.01250087690776655 1 1 0.0074313163515796008 1 1 1 0.0096042558220649221 1 1 1 1 1 0.011259708579206145 0.0099923776313635502 1 0.018285147485513721 1 1 1 0.010316642170343537 1 1 1 0.010728873681310338 1 1 1 0.014751597215006603 1 1 0.012315705936361748 1 1 0.013036711796994224 1 1 1 1 1 1 1 1 1 0.012166145592073067 1 1 1 1 1 1 1 1 1 0.010061330211245188 1 1 1 0.014827570033209607 0.010192872944486177 1 1 1 1 1 1 1 1 1 1 0.012132550831849597 1 1 0.0086982515539005077 0.016152652103897013 0.010430028101304533 1 1 1 1 1 1 1 1 1 1 1 1 1 1 0.010893150676851539 1 1 1 1 0.010429249778994036 1 0.012601424914107045 1 0.010161619811215477 1 1 1 1 1 1 1 1 1 1 1 1 1 1 1 1 1 1 1 1 1 1 1 1 1 1 1 1 1 1 1 1 0.0063852065843012498 1 1 1 1 1 1 1 1 1 1 1 0.0062013149999832207 1 1 1 1 1 1 1 1 1 1 1 0.0086079922752716545 1 1 1 1 0.010138751671971865 1 1 1 0.0070544179258231858 1 1 1 0.0080389776428977655 1 0.0072566950008241841 1 0.0038314916463731367 0.009957823223969646 1 1 1 1 1 1 1 1 1 1 1 1 1 1 0.006178175803715099 1 1 1 1 1 1 1 1 0.0099461591925232868 0.010032068679758846 1 1 1 1 1 1 0.0066829184110768396 1 1 1 1 1 1 0.0065250592440881869 0.010292103179735973 1 1 0.007349189591173878 0.011008119048459591 1 1 1 1 1 0.010350794348836512 1 1 1 1 1 0.0093052784511223098 1 0.0099918377579147552 1 1 1 1 1 0.0085139624036068579 1 0.0091984333195204333 1 0.0090910969373625486 1 1 1 1 1 1 0.0094210873335449433 0.01263835853403524 0.0082338299807891147 1 0.0088729042262240144 1 0.012816586309101222 1 1 1 1 0.0095216471585486216 1 1 1 1 1 1 0.0098377076277935266 1 1 1 1 1 1 1 1 1 1 1 1 1 0.010062274210102067 1 1 1 1 1 0.010147177691750858 1 1 1 1 1 1 0.010717056488548421 1 1 0.0099289010644836358 0.0088986903819756706 1 1 1 1 1 1 1 1 1 1 0.010209326495166799 1 1 1 1 1 1 1 1 1 1 1 1 1 0.0025362989207931268 1 1 1 1 1 1 1 0.012732873396723909 1 1 1 1 0.0089608633199307983 0.0091101565061526835 0.012661441227137464 1 0.01017940031707156 1 1 1 0.010230109835954895 1 1 0.012579327371411972 1 1 1 1 1 1 1 1 0.0093750617618212281 1 1 0.0082953448333549264 1 1 1 1 0.0083783206020599452 1 1 1 1 1 1 1 0.0089829823885706015 1 0.012073462917182797 1 0.012302570509410049 1 1 1 0.013085106635142535 0.0094431163210020267 1 1 1 0.0085166103187731511 1 0.0099613143241870927 1 1 1 0.011205614339938989 1 1 1 0.0091591699256888433 1 1 1 1 1 0.009200420094571421 1 1 1 1 1 1 0.013485967225299541 0.0072945392260766219 1 1 0.0092041935964369426 1 1 1 1 0.0099581073713299918 0.0099795992296194767 1 1 0.010083805171450487 1 0.011809085453620513 1 1 0.010444820982599903 0.0095538112159510927 1 1 1 1 1 0.0093078392075786748 1 1 1 1 1 1 0.0097065033045807582 1 0.010596646317732666 1 1 1 1 1 1 1 1 1 1 1 1 1 1 1 0.010927170992293725 1 0.012929442824318713 1 1 1 1 1 1 0.0088110853606290264 1 0.010437865715565379 1 0.0053789874772143522 1 1 1 0.011113119447153713 0.0097133400347918387 1 1 1 1 1 1 1 1 1 1 0.0030594077825645445 1 1 1 1 1 1 1 1 1 1 1 1 1 1 1 1 1 1 1 1 1 1 1 1 1 1 1 1 1 1 1 1 1 1 1 1 1 1 1 1 1 1 1 1 1 1 1 1 1 1 1 1 1 1 1 1 1 1 1 1 1 1 1 1 1 1 1 0.0097344693019659721 0.0098555861245464196 1 1 1 1 1 1 1 1 0.0092613850296092513 1 1 0.0089879730654913864 1 1 0.0079777235896334626 1 1 1 1 1 1 0.0085062722144942128 1 1 0.010105353103823695 1 1 1 1 1 1 1 1 1 1 0.0089729670593687999 1 1 1 1 1 1 1 1 0.0097178396461801153 1 1 1 1 1 1 1 1 1 1 1 1 0.0096054121244585604 1 1 1 1 1 1 1 1 1 0.0095576847877316198 1 1 1 0.0098875724782784211 1 1 1 1 1 1 1 1 0.0026763557445951061 1 1 1 1 1 1 1 1 1 1 1 1 1 1 1 1 1 1 1 1 1 1 0.010015385588736376 1 1 1 1 1 1 1 1 1 1 1 1 0.010169128890922554 0.010007380905671593 1 0.0025731892635886856 1 1 1 1 1 1 1 1 0.0095559610908444569 1 1 1 1 1 1 1 1 1 1 1 1 1 1 1 1 1 1 1 0.010058033346503225 1 1 1 1 1 1 0.0040980416888413695 1 1 1 1 1 1 1 1 0.0092258382230192629 1 1 1 1 1 1 1 1 1 1 1 1 0.0082736718521950643 1 0.0075631472963616237 1 1 1 0.0090478336291758069 1 1 1 1 1 1 1 0.008288224054302528 1 1 1 1 1 1 1 1 1 1 1 0.0071777982665623841 1 1 1 1 1 0.0082704281736119337 1 1 0.0045340628419107097 1 1 1 1 1 1 1 1 0.0073562645753483284 1 1 1 1 1 1 1 1 1 0.0058651176776861741 1 0.0089037692681198828 1 1 1 1 1 1 1 1 1 1 1 1 1 1 1 1 0.005313219155660554 0.0030562533442116679 1 1 1 1 1 1 0.01363351639062247 1 0.008951161039723576 1 1 1 1 1 1 1 1 1 0.010947963374907815 1 1 1 1 1 1 1 1 0.0064824634893688622 1 1 1 1 0.0066358242371069576 0.0073927458417641714 1 1 1 1 1 1 1 1 1 1 1 1 1 1 1 1 1 1 1 1 1 1 0.01020878810597952 1 1 1 0.011510452590315306 1 1 1 1 1 1 1 1 0.0085678968463608965 1 1 1 1 0.011932304613612986 1 1 1 0.00558792187567618 1 1 1 1 1 1 0.014217262236675413 1 1 1 1 1 1 1 1 1 1 1 1 1 1 0.0098425301999010752 1 1 1 1 1 1 1 1 0.0092718918851313475 1 1 1 0.0081489164184535764 1 1 1 1 0.0091019705036437179 1 1 1 1 1 1 1 1 1 1 1 0.0095645400942511848 0.0092952727947120603 1 0.0090166713207196613 1 1 0.0098120801483152272 1 1 1 1 1 1 1 1 1 1 1 1 1 1 1 1 1 1 1 1 1 1 1 0.0092749683800993077 1 1 1 1 1 1 1 1 1 1 1 1 1 1 1 1 1 1 1 1 1 1 1 1 1 1 1 1 1 1 1 1 1 1 1 1 1 1 1 1 1 1 1 1 1 1 1 1 1 1 1 0.0083781522826374411 1 1 1 1 1 1 1 1 1 0.012362625335361116 1 1 1 1 1 1 1 1 1 0.008383652003767483 1 1 1 1 1 1 1 1 1 1 1 0.01257408635504088 0.01084899125373634 1 1 1 1 1 0.014411824238352107 1 0.0064323858438575087 1 1 0.0083758817990296636 1 1 0.010527639221993474 1 1 1 1 1 1 1 1 1 1 0.0092966409285945902 1 1 1 1 1 1 1 1 1 1 1 1 1 1 1 1 1 1 1 1 1 1 1 1 1 1 1 0.0085214228734729284 0.011808464415053371 1 0.0096356233621162704 0.0098189767337471222 1 1 1 1 1 1 1 1 1 1 1 1 1 1 1 1 1 0.016050801358075385 1 0.0036557781989532117 1 0.0056462699808707689 1 1 1 1 1 1 1 0.017468769476118105 0.0058303856882943941 1 0.012743021088778193 1 1 1 1 1 1 1 1 0.0085205227538988695 1 1 1 1 1 1 1 1 1 1 0.010256769354155454 1 1 1 1 1 1 1 1 1 1 1 1 1 0.01046561652089259 1 1 1 1 1 1 1 0.010106464833322604 1 1 0.010713795032620731 1 1 1 1 1 1 1 0.010345923395101628 1 0.010239458561779012 1 1 0.010008590842427324 1 1 1 1 0.0083178118542199444 1 1 1 1 1 1 1 1 1 1 1 1 1 1 0.0050794180282184636 1 0.014591606032934372 0.0099725940472508365 1 1 0.015334139584291841 1 1 1 1 0.016164402824469813 1 1 1 1 1 1 1 1 0.0030970455895755217 1 0.0099907605155634335 1 1 1 1 1 1 1 1 1 0.0071629959578267139 1 1 0.012613444324000727 1 1 0.0054848772849867711 1 1 1 1 1 1 0.0054948457730694296 0.010593201789379503 1 1 0.010000803577140503 1 0.0097077309257587868 1 1 1 1 1 1 1 1 1 1 1 1 0.0077243243231324872 1 1 1 1 0.010133749997245124 1 1 1 1 1 1 1 1 1 1 1 1 1 1 1 1 1 1 1 1 0.010422976464012988 1 1 1 0.009991306076765934 1 1 1 1 0.010194940569190103 1 1 0.0075393202546904445 1 1 0.0063742249006158921 0.0084019289175011318 1 1 1 1 1 1 1 1 1 1 1 1 1 1 1 1 1 0.010084218601016432 1 1 1 1 1 1 1 1 1 0.0041256138409598193 1 0.0099241765448843163 1 1 0.0099627912814560082 0.0098484608905975921 1 1 1 1 1 1 1 0.0096994209105333885 1 1 1 0.0098509600199357915 1 1 1 0.0049158119004063267 1 0.0047790080236388248 0.01698614464100804 1 1 1 1 1 1 1 1 1 1 1 1 1 1 1 0.010155876749900476 1 1 1 1 1 1 0.010569590394017944 1 1 0.016711713434956123 1 1 1 0.016251131069844396 1 1 1 1 1 1 1 1 1 1 1 1 1 1 1 1 1 1 1 1 1 1 1 1 1 1 1 1 1 1 1 0.010122166248683763 1 1 1 1 1 1 0.010111603929147166 1 1 1 1 1 1 1 1 1 1 1 1 0.010303267046566708 1 0.010291825729787882 1 1 1 1 1 1 1 1 1 1 1 1 1 1 1 0.010133607565462596 1 1 1 1 1 1 1 1 1 1 1 1 1 1 1 1 1 1 1 1 1 1 1 0.010123921828554212 1 1 1 1 1 1 1 1 1 1 1 1 1 1 1 1 1 1 1 1 1 1 1 1 1 1 1 1 1 1 1 1 0.0098377605601000801 1 1 1 1 1 1 1 0.0094824329718433426 1 1 1 1 0.010197183510342675 1 1 1 1 1 0.0049871902400961884 1 1 1 1 1 1 1 1 1 0.0069358188983940847 1 0.0090178738809225407 1 1 1 1 1 1 1 1 1 1 1 1 1 0.0101702992918309 1 1 0.0099902376460482643 1 0.0090980028216533053 1 0.010298378618011013 1 1 1 1 1 1 1 1 1 1 1 1 1 1 1 1 1 1 1 1 1 1 1 1 1 1 1 1 1 1 1 0.0086739933108732278 1 1 1 1 1 1 1 1 1 1 1 1 1 1 1 1 1 1 1 1 1 0.0048657854975732041 1 1 1 1 1 1 0.010197134056395805 1 1 0.0085117995676525643 1 1 1 1 0.0082467303334518884 1 1 1 1 1 0.0090298832904875045 1 1 1 1 1 1 1 1 1 1 1 1 1 1 1 1 1 1 1 0.0096897139974302833 1 1 0.0093361596169911753 1 1 1 1 1 1 1 1 0.0021402493253270087 1 1 1 0.00068928177122653134 1 1 1 1 1 1 2.9490299091605721e-17 0.00986078692779414 0.0037056186612831263 1 1 1 1 1 1 1 1 1 1 1 1 0.010520907885320464 1 1 1 1 1 1 1 1 1 1 1 1 1 1 1 1 1 1 1 1 1 1 1 1 1 1 1 1 1 1 0.0096464456195608887 1 1 1 1 1 1 1 1 1 1 1 0.0098477839080691239 1 1 1 0.0098472236794779899 0.0096617979594660099 1 1 1 1 1 0.0099454068708009734 0.0099999460232996079 0.0091849806779458285 1 1 0.0097744659709366431 1 1 0.010055795009275316 1 1 1 1 1 1 1 1 1 1 1 1 0.010471427583447913 1 1 1 1 1 1 1 1 1 1 1 1 1 1 1 1 0.011070483063465093 1 1 1 1 1 1 0.0092847211362343859 1 1 1 1 1 1 0.009047567397318098 0.0095455398633252277 1 0.011150587787814827 0.010016353289709411 1 1 1 1 1 1 1 1 1 1 0.010602593807440351 1 0.010601181782658153 0.0097695798567515989 0.0097398613010522966 1 1 1 1 1 1 1 1 1 0.010376825685411789 1 1 1 1 1 1 1 1 0.010142371464222741 1 1 1 1 1 0.010053098118126692 1 1 1 1 1 1 1 1 1 1 1 1 1 1 1 1 1 1 1 1 1 1 1 1 1 0.0077887631834818432 1 1 1 1 1 1 1 1 1 1 1 1 1 1 0.0090842631988134522 1 1 1 0.011205990357841082 1 0.0099404771754197322 0.0080723457284314609 1 1 0.010097202368845037 1 1 1 1 1 1 1 1 1 1 1 1 1 1 1 1 1 0.010190821041600479 1 1 1 1 1 0.0071142055119826179 1 1 1 0.011310689168898233 1 0.011425742639959997 1 1 1 1 1 1 0.0073167099026994076 0.010018448587728459 1 1 1 0.010898389827730682 0.010947403446862064 1 1 1 0.0066944458598279487 0.0056774575035175752 1 1 1 1 1 0.010012322327235916 0.012558834179301606 1 0.01232931771778375 1 1 1 1 1 1 1 1 1 0.0070822674051324655 1 1 1 1 1 1 1 1 1 1 1 1 0.010806814878431966 0.01081208579227351 1 1 1 1 1 1 0.0048662917967232794 1 1 1 1 0.010219665243899723 1 1 1 1 1 0.020360051625734968 1 1 1 1 1 1 1 1 1 1 0.010263680619640041 1 1 0.019720403787208456 1 1 0.00999521432692352 1 1 1 1 1 1 1 0.016855415513591127 1 1 1 0.01539294218370388 1 1 1 1 1 1 1 1 1 1 1 1 1 1 0.0097880014707531684 0.012947497402224596 1 1 1 1 0.007673578518156754 1 1 1 1 1 1 1 1 1 1 0.0089466474824715109 1 1 0.010026317779538196 1 1 0.010001666350213101 0.012983038354274242 1 1 1 1 1 0.015724931628542944 0.016103756845198269 1 0.010049330487721796 1 1 1 1 1 1 0.010013738029306793 1 1 1 0.00793089202072721 0.01546935538299286 1 1 0.010270487590880008 1 1 1 0.009999560491090834 1 1 1 0.0074749085483157701 1 0.0067314543831089538 1 1 0.010809280366702298 0.012669837362431604 1 1 0.0034362964613625403 0.011492048038203771 1 1 1 1 1 1 1 1 0.015259168845743526 1 0.006671189536932293 1 0.0080538004136903908 1 0.009289531165022874 1 1 1 1 1 1 1 1 1 1 1 1 1 1 0.0094981318807524171 1 1 1 1 0.0085370100643571492 1 1 1 0.0087691853581952084 1 1 1 0.013376859875801565 1 1 1 1 1 0.017923410855954183 1 1 1 1 0.016252426921401882 1 1 1 1 1 0.014524420039792764 1 1 1 1 0.019561011286064682 1 1 1 1 1 0.0015012367524879291 1 1 1 1 1 1 1 1 1 1 1 0.0023804943782002076 1 1 1 0.0016367098332496499 1 1 1 1 1 1 1 1 1 0.0035007632221575671 1 1 1 1 0.011908458247787752 1 1 0.010720235213215318 1 1 1 1 1 1 1 1 1 1 1 1 1 1 1 1 1 1 1 1 0.0094391683990560984 1 1 1 1 1 0.0096668281507662143 1 1 1 1 1 1 1 1 1 1 1 1 1 1 0.0091242164052167569 1 1 1 1 1 1 0.0082503897431345299 1 1 1 1 1 1 1 0.0088163160707530677 0.010003096590943013 1 1 1 1 0.0098365257120854657 1 0.0095286241197873808 1 1 1 1 1 1 1 0.0097039167893235787 1 1 1 1 0.0097723402482898861 1 1 1 1 1 1 1 1 1 1 1 1 0.0098704876681811257 1 1 1 1 1 1 1 1 1 1 1 1 1 1 1 1 1 1 1 1 1 1 1 1 1 1 1 1 1 1 1 1 1 1 1 1 1 1 1 1 1 1 1 1 1 1 1 1 1 1 1 1 1 1 1 1 1 1 1 1 1 1 1 1 1 1 1 1 1 1 1 1 0.010077080790299281 1 0.010548239328520529 1 1 1 1 0.010012875749344903 1 1 0.010755693013602786 1 1 0.010027439743476675 1 1 1 1 0.010999049897076285 1 1 1 1 1 1 1 1 1 1 1 1 1 1 1 1 1 1 1 1 1 1 0.010243159074995133 1 1 1 0.010087156084791528 1 1 1 1 0.010119357507677998 1 1 1 1 1 1 0.010032201422886482 1 1 1 1 1 1 1 1 1 1 1 1 1 1 1 1 1 1 1 1 1 1 1 1 1 1 1 1 1 1 1 1 1 1 1 0.0099254021465642883 1 1 0.0098502209371350707 1 1 1 0.0099318810090907872 1 1 1 1 1 1 0.009746275022809784 1 1 1 1 1 1 1 0.0099247298752163857 1 1 1 1 1 1 1 1 1 1 0.009574367408600775 1 1 1 1 0.0095049488772233938 0.013797176416488191 1 1 1 1 1 1 0.013165326537592906 1 0.010757622412275094 1 0.011010856065859241 1 1 1 1 1 1 1 1 0.010105027315159453 0.015140035145658978 1 1 1 1 1 1 1 1 1 1 1 1 1 1 1 1 1 1 1 1 1 1 1 1 1 1 1 1 1 1 1 1 1 1 1 1 1 1 1 1 1 1 1 1 1 1 1 1 1 1 1 1 1 1 1 1 1 0.011659100871735968 1 1 1 1 1 1 1 1 0.0086266530837710714 1 1 0.011193110307693287 1 0.0092204006881865391 1 0.013007395018812694 1 1 1 1 1 1 1 0.011433286822927796 1 1 1 1 1 0.011184223596714213 1 1 1 1 0.012931151752009231 1 1 1 1 1 1 1 1 1 1 0.010350060186830094 1 1 1 1 1 1 1 1 1 1 1 1 0.013098529057761838 1 1 0.012841854063425523 1 0.011563362386124208 1 1 1 1 0.010335816370663409 1 1 1 1 0.012339150484502405 1 1 0.011541172060443847 1 1 1 0.01108556551397637 0.0098544007064946069 1 1 1 1 1 1 1 1 0.010739705830146315 1 1 1 1 1 1 0.01384822966995158 1 0.012672579183266293 0.009107296003134896 1 1 0.0082829511684499313 0.010073736862582455 1 0.016321024643481966 1 1 0.010093809392462964 1 1 1 1 0.010027330969566843 1 1 1 1 1 0.014421038132736515 1 1 1 1 1 1 1 1 1 1 1 1 1 1 1 0.012231813534632211 0.010890216418875946 1 0.012324163939265749 1 1 0.010614641775436992 1 1 1 1 0.010594475059252342 1 1 1 1 1 1 1 0.0099972848854837787 1 1 1 1 1 1 0.011875509590545223 1 1 1 1 0.012293169130157711 1 0.013209138871155626 1 1 1 1 1 1 1 0.014141427275924028 0.015095937960214568 1 1 1 1 1 1 1 1 1 1 1 0.0099023492146816869 1 1 1 1 1 1 0.010021534574650132 1 0.010391572943499015 1 1 1 1 0.010317473335933077 0.010562813035167293 1 1 1 1 0.011114428416788669 1 0.010487978909081696 1 1 1 1 1 1 0.01212976727628009 0.010005318591538413 1 0.010584000851020701 0.0096352679361086865 1 1 1 1 1 1 1 0.0098756389077111952 1 1 1 1 1 1 1 1 1 1 0.020321165934976647 1 1 1 1 1 1 1 1 1 0.0085078855795447245 1 1 1 1 1 1 1 1 1 1 1 1 1 1 1 0.018169718814478132 1 1 1 1 1 1 1 1 0.010009973220351045 1 1 0.010005214232680667 0.016563296533309995 1 1 1 1 1 1 1 0.012923147306022812 1 1 1 1 0.012827485077919436 1 1 1 1 1 1 0.01272056228361642 0.010081671988043064 1 1 1 1 1 1 1 1 0.010244772174869556 1 1 1 1 0.014778583931317625 1 1 1 0.010074331803971473 1 1 1 0.010408749920929522 1 0.015934743803030716 0.014360483437221502 1 1 1 0.010261405976604805 1 1 1 0.011785603014306008 1 0.013238851101040047 0.0095012875384591078 0.010867468850774394 1 1 1 0.010735781546917914 0.016144252289496418 0.012987710801852431 1 1 0.0091305881740960972 0.0088219573909637371 1 0.012611407561976953 1 1 1 1 0.0092144554194323429 1 1 0.010009888377294909 1 1 1 0.014189952330772838 1 1 0.010387741431497569 0.010608935788938491 1 1 1 1 1 1 1 1 1 1 1 1 1 1 0.015203358759253546 1 0.010086168971831774 1 1 1 1 1 1 0.012259999081848896 1 0.0092174626470574086 0.02226353967980018 1 1 0.009993976248730994 1 1 0.0052345876958820731 1 0.010022195839164683 1 0.0059333851995716849 1 1 1 0.016025328137821676 1 0.017333358072860849 1 0.0099988001064779172 1 0.01629763638904241 1 1 1 0.01145499366373927 1 1 1 1 1 1 0.012392658863193184 1 0.013174247820696372 1 1 0.010531509395266401 1 1 1 1 1 1 1 0.011548489230667867 1 0.013315843099837344 1 1 1 1 1 1 1 1 1 1 1 0.010358682944459449 1 1 1 1 1 1 1 1 1 1 1 1 1 1 0.010004876475996004 1 1 1 1 1 1 1 1 1 1 1 1 1 1 1 1 1 1 1 1 1 1 1 1 1 1 1 1 1 1 1 1 1 1 1 1 1 1 1 1 1 1 1 1 1 1 1 1 1 1 1 1 1 1 1 1 1 1 0.012611684971907641 1 1 0.0011950350429947316 0.010002173297798322 1 1 1 1 1 1 1 1 1 1 1 1 0.0082280869265466561 1 1 1 1 1 0.0083810266498348888 0.016223944954183812 1 1 1 0.0073285833432043153 0.010000495236262889 1 1 1 1 1 1 0.012973568162397598 1 1 1 1 1 1 1 1 0.0102854759063199 1 1 1 1 1 1 1 1 1 1 1 1 0.0099847656456301601 1 1 0.010043973555456356 1 1 1 0.0099847381814380763 1 1 1 1 1 1 1 1 1 1 0.0097585520746825138 1 1 1 0.010517439672449199 1 0.0089039300408039878 1 1 1 1 1 1 1 1 1 1 1 1 1 1 1 1 1 0.010080318833006639 1 1 1 1 1 1 1 1 1 1 1 1 1 1 1 1 0.0098937105621407125 1 1 1 1 1 0.010057744391428956 1 1 1 1 1 1 0.0098109133199618948 1 1 0.0094728364333217727 1 1 1 1 1 1 1 1 1 1 1 1 1 1 1 1 1 1 1 1 1 1 1 1 1 1 1 1 1 1 1 1 1 1 1 1 1 0.0098615682483270215 1 1 0.012470373399968515 1 1 1 1 0.012223392086364715 1 1 1 1 1 1 1 1 1 1 1 0.010219909965312239 1 1 1 1 1 1 1 1 1 1 1 1 1 1 1 1 1 1 1 1 1 1 1 1 0.011518224718870325 1 1 1 1 1 0.010505385871632142 1 1 1 1 1 1 1 1 1 1 1 1 0.009973546189419865 1 1 1 1 1 1 0.0099734957421918624 1 1 1 1 1 1 1 1 0.010145034704602336 1 0.0099094588644928986 1 1 1 1 1 1 1 1 1 1 1 1 1 1 1 1 1 1 1 0.0097695507991403981 1 1 1 1 1 1 0.0098600919346474997 0.0092450416942752994 1 1 1 1 1 1 1 1 1 1 1 1 1 1 1 1 1 1 1 1 0.0091497832807007299 1 0.010294650558676038 1 1 1 1 0.0091679188726658048 1 1 1 1 1 1 1 1 1 1 1 0.0095788479390023513 1 1 1 0.0045905701453812196 1 1 1 1 1 1 1 1 1 1 1 1 0.0060278935388599734 1 1 1 1 1 1 1 0.009839420934347155 1 1 1 1 0.0095123341086805896 1 1 1 1 1 0.010273505080551698 1 1 1 0.010128612695493361 1 1 1 1 1 1 1 1 1 1 1 1 1 1 1 1 1 1 1 1 1 1 1 0.010029774359198532 1 1 1 0.010154670569509364 1 1 1 1 0.01591610527656926 1 1 1 0.017546662625178934 1 1 1 1 1 1 1 1 1 0.01892438832104457 1 1 1 1 1 1.0408340855860843e-17 1 0.010063000429322013 1 1 1 1 1 1 1 1 1 1 1 1 1 1 1 0.0019107787333147823 1 1 1 0.00098329617319045659 1 1 1 0.0099544851113242318 1 1 1 1 1 1 1 1 1 1 1 0.0030130004606288667 1 1 1 1 1 1 1 1 1 1 1 1 1 1 1 1 1 1 1 1 1 1 1 1 1 1 1 1 1 1 1 0.0098337501314458842 1 1 1 1 1 1 1 1 1 1 1 1 1 1 1 1 1 1 1 1 1 1 1 1 1 1 1 1 1 1 1 1 1 1 1 1 1 1 1 1 1 1 1 1 1 1 1 1 1 1 1 1 1 0.0096810169004399906 1 0.0099469719680497521 1 1 0.008716676139563579 1 1 1 0.0091742058644476328 1 1 1 0.0099778647539859461 1 0.0099707580714197813 1 1 1 1 1 1 1 0.0095486810213561753 1 1 0.0085799436849416759 1 1 1 0.014863134632643625 1 0.010952926479980691 1 1 1 0.01721580808428607 1 1 1 0.012866024750372788 1 1 1 0.013779843109170974 1 0.010204351549769675 1 1 0.0075689106356003153 1 0.011201929725703302 1 1 1 1 0.016572478249769287 1 0.010197752476531206 1 1 1 1 0.010036436479729719 1 1 1 1 1 1 1 1 1 1 1 0.010283244950674583 1 1 1 1 1 1 1 1 1 1 1 1 1 1 1 1 1 1 1 1 1 1 1 0.008446668121948742 1 1 0.011017320817539502 1 0.013243641516362054 1 0.0093695316575827872 1 1 1 1 0.0073787349513922181 1 0.0081909116373752311 1 1 1 1 1 0.013283899470359385 1 1 1 1 1 1 1 1 1 1 1 0.015790536771579544 1 1 1 0.010439390138220869 1 0.011292835979669638 0.014188314828049421 1 1 0.0099679659110838634 0.018719979038331041 1 1 0.011701804053659011 1 1 1 0.010020825544680046 1 1 0.0083689113932846147 0.0077946889009723429 1 1 1 1 1 1 1 1 1 1 1 1 1 1 1 1 1 1 1 1 1 1 1 1 0.0090352884642453789 1 1 1 1 1 1 1 0.006931145870221425 1 1 1 1 1 1 1 1 1 1 1 1 1 1 1 1 0.009547958093527386 1 1 1 0.0090901725248471506 1 1 1 1 1 1 1 0.0096168504322853687 1 1 1 1 1 1 1 1 1 1 0.010163291680528928 1 1 1 1 1 1 1 1 1 1 0.010383179457791726 1 1 1 1 1 1 1 1 1 1 1 1 1 1 1 1 1 0.0086236688812265025 1 1 1 1 1 0.0086697726108816604 1 1 0.011126692482441684 1 0.010668622945075316 1 1 1 1 1 1 1 1 1 1 1 1 1 1 1 1 1 1 1 1 1 1 1 1 1 1 1 1 1 1 1 1 1 1 1 1 1 1 1 1 1 1 1 1 1 1 1 1 1 1 1 1 1 1 1 1 1 0.0095198929543378365 1 1 1 1 1 1 1 1 1 1 1 1 1 1 1 0.010239095584581729 1 1 1 1 1 1 1 1 1 1 1 1 1 1 1 1 1 1 1 1 1 1 1 1 1 0.0086328812618157603 1 0.010045379357586967 1 1 1 1 1 1 1 1 0.010222577979220441 1 1 1 1 1 1 1 1 1 1 1 1 1 1 1 1 1 0.0098907519303032872 1 1 1 0.0062898061160187903 1 1 1 1 1 1 1 1 0.0079735972411526749 0.0096865446347564575 1 1 0.0095422144313197614 1 1 1 1 1 1 1 1 1 1 1 1 1 1 1 1 1 1 1 1 1 1 1 1 1 1 1 1 1 1 1 1 1 1 1 1 1 1 1 1 1 1 1 1 1 1 1 1 0.005089000674425203 1 1 0.011243872118021329 1 1 1 1 1 0.0092556236850182411 1 1 1 0.010025648064799816 1 1 1 0.010527693535118576 1 1 1 0.0098273160735468587 1 1 1 1 1 1 1 1 1 0.011689975543425636 1 1 1 1 1 0.0098759293148008489 1 1 1 1 1 1 1 1 1 1 1 1 1 1 1 1 1 1 1 1 1 1 1 0.0096670194754034273 1 1 1 1 0.0095989201106932744 1 1 1 1 1 1 1 1 1 1 1 1 1 1 0.0066497130351690966 1 1 1 1 1 1 0.0087551168664889226 1 0.014297641907871618 1 1 1 0.0088337497818848018 1 1 1 1 1 1 1 1 1 0.01030314593241027 1 1 1 1 1 1 1 0.010006239178244395 1 1 1 1 1 1 1 1 1 1 1 1 1 1 0.014514426214079817 1 0.012284761229734506 0.013814642842817474 0.014613661743149143 1 1 1 1 1 1 0.010597304999969945 1 1 1 1 0.0061134996288022565 1 1 1 1 1 1 1 1 0.0062797281058736797 1 1 0.010953508615416638 0.0034301252780126485 1 1 0.0038224883751254695 1 1 1 1 0.0093403804160841208 1 1 1 1 1 1 1 1 0.010119569855101238 1 1 0.010192625932187435 0.0094764879093074111 1 0.0098764407299340266 1 1 1 1 1 1 1 1 1 1 1 1 1 1 1 1 1 1 1 1 1 1 1 1 0.001646521550136431 0.020885639226593596 1 1 0.0014904866370253518 1 1 1 1 1 1 0.011532529549089824 1 1 1 1 1 1 1 1 1 1 1 1 1 0.0013885906425488651 1 1 1 1 1 1 0.0014493486074594695 1 1 1 0.010482673694814166 1 1 1 1 1 1 1 1 0.0095692852921202051 1 1 1 1 1 1 1 1 1 0.0088532489004842143 1 1 0.015778101834051907 1 1 0.0096589030006959883 1 0.0090223209954017405 1 1 0.017376735824421632 1 1 0.018347948182085117 1 1 0.015527069127470719 1 1 1 0.0087450519351536561 0.013723015969790146 1 1 1 0.0093985528558690589 1 0.014920131787557422 1 1 0.010077326369140239 1 1 1 1 0.017512706257432696 0.0091800596833174208 1 0.010709991404876475 1 1 1 1 1 1 1 1 1 1 1 1 1 1 1 1 1 1 1 0.012880880365426233 1 1 1 1 0.01093189820845605 1 1 1 1 1 1 1 1 1 1 1 1 1 1 1 1 1 1 1 1 1 1 1 1 1 1 1 1 1 1 
</DataArray>
</CellData>
</Piece>
</UnstructuredGrid>
</VTKFile>
