<?xml version="1.0"?>
<VTKFile type="UnstructuredGrid" version="0.1" byte_order="LittleEndian">
<UnstructuredGrid>
<Piece NumberOfPoints="29649" NumberOfCells="10383">
<Points>
<DataArray type="Float64" NumberOfComponents="3" format="ascii">
-0.5 -0.5 0 -0.46846304837030139 -0.47681974484589279 0 -0.48095733451828748 -0.45151771881915381 0 -0.5 -0.5 0 -0.48095733451828748 -0.45151771881915381 0 -0.5 -0.41004107980355592 0 -0.5 -0.5 0 -0.46846304837030139 -0.47681974484589279 0 -0.43694249661973472 -0.5 0 -0.46846304837030139 -0.47681974484589279 0 -0.43812936226539828 -0.46068668964276449 0 -0.43694249661973472 -0.5 0 -0.46846304837030139 -0.47681974484589279 0 -0.43812936226539828 -0.46068668964276449 0 -0.45845195183622178 -0.4438048196963616 0 -0.43812936226539828 -0.46068668964276449 0 -0.45845195183622178 -0.4438048196963616 0 -0.43918444256534639 -0.44118424196448941 0 -0.43812936226539828 -0.46068668964276449 0 -0.45845195183622178 -0.4438048196963616 0 -0.45845195183622178 -0.4438048196963616 0 -0.48095733451828748 -0.45151771881915381 0 -0.47877454140704528 -0.42692294974995881 0 -0.46846304837030139 -0.47681974484589279 0 -0.45845195183622178 -0.4438048196963616 0 -0.48095733451828748 -0.45151771881915381 0 -0.48095733451828748 -0.45151771881915381 0 -0.5 -0.41004107980355592 0 -0.47877454140704528 -0.42692294974995881 0 -0.5 -0.41004107980355592 0 -0.47877454140704528 -0.42692294974995881 0 -0.5 -0.41004107980355592 0 -0.47877454140704528 -0.42692294974995881 0 -0.47243234888893598 -0.40049214461995541 0 -0.47243234888893598 -0.40049214461995541 0 -0.45265074823147139 -0.37657536171875539 0 -0.48149581473229153 -0.36560973465004282 0 -0.5 -0.40151284668718701 0 -0.47243234888893598 -0.40049214461995541 0 -0.48149581473229153 -0.36560973465004282 0 -0.5 -0.41004107980355592 0 -0.5 -0.40151284668718701 0 -0.47243234888893598 -0.40049214461995541 0 -0.47243234888893598 -0.40049214461995541 0 -0.4435264055902457 -0.40174756327198358 0 -0.45265074823147139 -0.37657536171875539 0 -0.4435264055902457 -0.40174756327198358 0 -0.45265074823147139 -0.37657536171875539 0 -0.42852276756970431 -0.38604195239277661 0 -0.4435264055902457 -0.40174756327198358 0 -0.45265074823147139 -0.37657536171875539 0 -0.45845195183622178 -0.4438048196963616 0 -0.47877454140704528 -0.42692294974995881 0 -0.45148180128362969 -0.42103547645820472 0 -0.45845195183622178 -0.4438048196963616 0 -0.47877454140704528 -0.42692294974995881 0 -0.47243234888893598 -0.40049214461995541 0 -0.4435264055902457 -0.40174756327198358 0 -0.45148180128362969 -0.42103547645820472 0 -0.47877454140704528 -0.42692294974995881 0 -0.47243234888893598 -0.40049214461995541 0 -0.45148180128362969 -0.42103547645820472 0 -0.4435264055902457 -0.40174756327198358 0 -0.45148180128362969 -0.42103547645820472 0 -0.42684152784681861 -0.40914846015563022 0 -0.43918444256534639 -0.44118424196448941 0 -0.45845195183622178 -0.4438048196963616 0 -0.45148180128362969 -0.42103547645820472 0 -0.43918444256534639 -0.44118424196448941 0 -0.45148180128362969 -0.42103547645820472 0 -0.42894023828224448 -0.42776986004131412 0 -0.45148180128362969 -0.42103547645820472 0 -0.42894023828224448 -0.42776986004131412 0 -0.42684152784681861 -0.40914846015563022 0 -0.42894023828224448 -0.42776986004131412 0 -0.42684152784681861 -0.40914846015563022 0 -0.40946564482035419 -0.42250913069730489 0 -0.42684152784681861 -0.40914846015563022 0 -0.40946564482035419 -0.42250913069730489 0 -0.41140369542360961 -0.39941030067509248 0 -0.40946564482035419 -0.42250913069730489 0 -0.39951177656723941 -0.44536924043939857 0 -0.42057564098021222 -0.44427974735154963 0 -0.42894023828224448 -0.42776986004131412 0 -0.40946564482035419 -0.42250913069730489 0 -0.42057564098021222 -0.44427974735154963 0 -0.42684152784681861 -0.40914846015563022 0 -0.42852276756970431 -0.38604195239277661 0 -0.41140369542360961 -0.39941030067509248 0 -0.4435264055902457 -0.40174756327198358 0 -0.42684152784681861 -0.40914846015563022 0 -0.42852276756970431 -0.38604195239277661 0 -0.42852276756970431 -0.38604195239277661 0 -0.40201560677793108 -0.3774769889713252 0 -0.41990857931974251 -0.36610276665878261 0 -0.42852276756970431 -0.38604195239277661 0 -0.41140369542360961 -0.39941030067509248 0 -0.40201560677793108 -0.3774769889713252 0 -0.41140369542360961 -0.39941030067509248 0 -0.40201560677793108 -0.3774769889713252 0 -0.39668402828850341 -0.39425826581320877 0 -0.40201560677793108 -0.3774769889713252 0 -0.39668402828850341 -0.39425826581320877 0 -0.37665814286574312 -0.37990398172601098 0 -0.41140369542360961 -0.39941030067509248 0 -0.39273342017679058 -0.40934484128062598 0 -0.41140369542360961 -0.39941030067509248 0 -0.39668402828850341 -0.39425826581320877 0 -0.39273342017679058 -0.40934484128062598 0 -0.39668402828850341 -0.39425826581320877 0 -0.38125146789249648 -0.3965050731948016 0 -0.39273342017679058 -0.40934484128062598 0 -0.39668402828850341 -0.39425826581320877 0 -0.38125146789249648 -0.3965050731948016 0 -0.37665814286574312 -0.37990398172601098 0 -0.40946564482035419 -0.42250913069730489 0 -0.39040617458807442 -0.42806511775088329 0 -0.39951177656723941 -0.44536924043939857 0 -0.40946564482035419 -0.42250913069730489 0 -0.41140369542360961 -0.39941030067509248 0 -0.39273342017679058 -0.40934484128062598 0 -0.40946564482035419 -0.42250913069730489 0 -0.39273342017679058 -0.40934484128062598 0 -0.39040617458807442 -0.42806511775088329 0 -0.39273342017679058 -0.40934484128062598 0 -0.39040617458807442 -0.42806511775088329 0 -0.37406314492997172 -0.41927938188615971 0 -0.38125146789249648 -0.3965050731948016 0 -0.39273342017679058 -0.40934484128062598 0 -0.37406314492997172 -0.41927938188615971 0 -0.39273342017679058 -0.40934484128062598 0 -0.37406314492997172 -0.41927938188615971 0 -0.39040617458807442 -0.42806511775088329 0 -0.37523890169680202 -0.44400008610684222 0 -0.37406314492997172 -0.41927938188615971 0 -0.39040617458807442 -0.42806511775088329 0 -0.37523890169680202 -0.44400008610684222 0 -0.39951177656723941 -0.44536924043939857 0 -0.37523890169680202 -0.44400008610684222 0 -0.39325528242618829 -0.47016722636390162 0 -0.36043766218581369 -0.47389687249373852 0 -0.39951177656723941 -0.44536924043939857 0 -0.39325528242618829 -0.47016722636390162 0 -0.41236904621998838 -0.46002388974635849 0 -0.37523890169680202 -0.44400008610684222 0 -0.39951177656723941 -0.44536924043939857 0 -0.39325528242618829 -0.47016722636390162 0 -0.3890072089015234 -0.5 0 -0.39325528242618829 -0.47016722636390162 0 -0.36043766218581369 -0.47389687249373852 0 -0.3890072089015234 -0.5 0 -0.39325528242618829 -0.47016722636390162 0 -0.41780677269457472 -0.47756855958916739 0 -0.43812936226539828 -0.46068668964276449 0 -0.43694249661973472 -0.5 0 -0.41780677269457472 -0.47756855958916739 0 -0.3890072089015234 -0.5 0 -0.43694249661973472 -0.5 0 -0.41780677269457472 -0.47756855958916739 0 -0.39325528242618829 -0.47016722636390162 0 -0.41780677269457472 -0.47756855958916739 0 -0.41236904621998838 -0.46002388974635849 0 -0.43812936226539828 -0.46068668964276449 0 -0.41780677269457472 -0.47756855958916739 0 -0.43812936226539828 -0.46068668964276449 0 -0.42057564098021222 -0.44427974735154963 0 -0.41236904621998838 -0.46002388974635849 0 -0.43812936226539828 -0.46068668964276449 0 -0.41780677269457472 -0.47756855958916739 0 -0.41236904621998838 -0.46002388974635849 0 -0.43918444256534639 -0.44118424196448941 0 -0.43812936226539828 -0.46068668964276449 0 -0.42057564098021222 -0.44427974735154963 0 -0.43918444256534639 -0.44118424196448941 0 -0.42894023828224448 -0.42776986004131412 0 -0.42057564098021222 -0.44427974735154963 0 -0.39951177656723941 -0.44536924043939857 0 -0.42057564098021222 -0.44427974735154963 0 -0.41236904621998838 -0.46002388974635849 0 -0.49182563042982802 -0.26849984666022259 0 -0.4836512608596566 -0.2910512661412526 0 -0.5 -0.33139711299081198 0 -0.49182563042982802 -0.26849984666022259 0 -0.5 -0.33139711299081198 0 -0.49999999999999972 -0.24594842717919291 0 -0.44435088170999809 -0.26430770419017108 0 -0.46147138058704462 -0.26200666123987998 0 -0.45079035186059652 -0.24728701821004481 0 -0.44435088170999809 -0.26430770419017108 0 -0.43981298953622111 -0.25362310229907731 0 -0.45079035186059652 -0.24728701821004481 0 -0.44435088170999809 -0.26430770419017108 0 -0.45439163254145171 -0.28256448647516108 0 -0.43355407276668539 -0.27886185885587278 0 -0.44435088170999809 -0.26430770419017108 0 -0.46147138058704462 -0.26200666123987998 0 -0.45439163254145171 -0.28256448647516108 0 -0.46147138058704462 -0.26200666123987998 0 -0.47276745845585388 -0.27576362153877759 0 -0.45439163254145171 -0.28256448647516108 0 -0.46147138058704462 -0.26200666123987998 0 -0.46969437889539828 -0.24095406338282691 0 -0.45079035186059652 -0.24728701821004481 0 -0.46147138058704462 -0.26200666123987998 0 -0.47861902030246323 -0.25831528033366469 0 -0.47276745845585388 -0.27576362153877759 0 -0.46147138058704462 -0.26200666123987998 0 -0.47861902030246323 -0.25831528033366469 0 -0.46969437889539828 -0.24095406338282691 0 -0.47861902030246323 -0.25831528033366469 0 -0.49182563042982802 -0.26849984666022259 0 -0.49999999999999972 -0.24594842717919291 0 -0.49182563042982802 -0.26849984666022259 0 -0.49999999999999972 -0.24594842717919291 0 -0.49182563042982802 -0.26849984666022259 0 -0.4836512608596566 -0.2910512661412526 0 -0.47861902030246323 -0.25831528033366469 0 -0.49182563042982802 -0.26849984666022259 0 -0.47276745845585388 -0.27576362153877759 0 -0.49182563042982802 -0.26849984666022259 0 -0.47276745845585388 -0.27576362153877759 0 -0.4836512608596566 -0.2910512661412526 0 -0.47276745845585388 -0.27576362153877759 0 -0.4836512608596566 -0.2910512661412526 0 -0.46797769944258383 -0.29294229754877332 0 -0.4836512608596566 -0.2910512661412526 0 -0.47547689128948489 -0.31360268562228238 0 -0.49146109512584052 -0.32177921152073852 0 -0.4836512608596566 -0.2910512661412526 0 -0.46797769944258383 -0.29294229754877332 0 -0.47547689128948489 -0.31360268562228238 0 -0.4836512608596566 -0.2910512661412526 0 -0.47547689128948489 -0.31360268562228238 0 -0.45671510459409431 -0.30400532084974041 0 -0.46797769944258383 -0.29294229754877332 0 -0.47547689128948489 -0.31360268562228238 0 -0.45671510459409431 -0.30400532084974041 0 -0.47547689128948489 -0.31360268562228238 0 -0.47276745845585388 -0.27576362153877759 0 -0.46797769944258383 -0.29294229754877332 0 -0.45439163254145171 -0.28256448647516108 0 -0.45671510459409431 -0.30400532084974041 0 -0.46797769944258383 -0.29294229754877332 0 -0.45439163254145171 -0.28256448647516108 0 -0.45439163254145171 -0.28256448647516108 0 -0.43795331789870368 -0.29440795607719839 0 -0.43355407276668539 -0.27886185885587278 0 -0.45671510459409431 -0.30400532084974041 0 -0.45439163254145171 -0.28256448647516108 0 -0.43795331789870368 -0.29440795607719839 0 -0.45671510459409431 -0.30400532084974041 0 -0.43795331789870368 -0.29440795607719839 0 -0.43482690234758342 -0.31303995009979418 0 -0.45671510459409431 -0.30400532084974041 0 -0.43795331789870368 -0.29440795607719839 0 -0.5 -0.40151284668718701 0 -0.5 -0.33139711299081198 0 -0.48149581473229153 -0.36560973465004282 0 -0.45671510459409431 -0.30400532084974041 0 -0.45278579599352009 -0.32238556272022872 0 -0.43482690234758342 -0.31303995009979418 0 -0.45278579599352009 -0.32238556272022872 0 -0.43771178228519292 -0.33406823938742902 0 -0.43482690234758342 -0.31303995009979418 0 -0.43771178228519292 -0.33406823938742902 0 -0.46177509087269958 -0.35140316016552808 0 -0.45278579599352009 -0.32238556272022872 0 -0.43771178228519292 -0.33406823938742902 0 -0.46177509087269958 -0.35140316016552808 0 -0.45278579599352009 -0.32238556272022872 0 -0.46862599108109121 -0.33250292289390487 0 -0.46177509087269958 -0.35140316016552808 0 -0.46862599108109121 -0.33250292289390487 0 -0.46177509087269958 -0.35140316016552808 0 -0.45278579599352009 -0.32238556272022872 0 -0.46862599108109121 -0.33250292289390487 0 -0.47547689128948489 -0.31360268562228238 0 -0.45671510459409431 -0.30400532084974041 0 -0.45278579599352009 -0.32238556272022872 0 -0.47547689128948489 -0.31360268562228238 0 -0.47547689128948489 -0.31360268562228238 0 -0.49146109512584052 -0.32177921152073852 0 -0.48341195844574147 -0.33297833353555623 0 -0.47547689128948489 -0.31360268562228238 0 -0.49146109512584052 -0.32177921152073852 0 -0.46862599108109121 -0.33250292289390487 0 -0.47547689128948489 -0.31360268562228238 0 -0.48341195844574147 -0.33297833353555623 0 -0.46862599108109121 -0.33250292289390487 0 -0.47547689128948489 -0.31360268562228238 0 -0.4836512608596566 -0.2910512661412526 0 -0.49146109512584052 -0.32177921152073852 0 -0.5 -0.33139711299081198 0 -0.5 -0.33139711299081198 0 -0.48341195844574147 -0.33297833353555623 0 -0.48149581473229153 -0.36560973465004282 0 -0.46862599108109121 -0.33250292289390487 0 -0.48341195844574147 -0.33297833353555623 0 -0.48149581473229153 -0.36560973465004282 0 -0.49146109512584052 -0.32177921152073852 0 -0.5 -0.33139711299081198 0 -0.48341195844574147 -0.33297833353555623 0 -0.48149581473229153 -0.36560973465004282 0 -0.46177509087269958 -0.35140316016552808 0 -0.46862599108109121 -0.33250292289390487 0 -0.48149581473229153 -0.36560973465004282 0 -0.46177509087269958 -0.35140316016552808 0 -0.45265074823147139 -0.37657536171875539 0 -0.48149581473229153 -0.36560973465004282 0 -0.46177509087269958 -0.35140316016552808 0 -0.45265074823147139 -0.37657536171875539 0 -0.46177509087269958 -0.35140316016552808 0 -0.43771178228519292 -0.33406823938742902 0 -0.46177509087269958 -0.35140316016552808 0 -0.44056108763597429 -0.3579533558312808 0 -0.45265074823147139 -0.37657536171875539 0 -0.42852276756970431 -0.38604195239277661 0 -0.44056108763597429 -0.3579533558312808 0 -0.45265074823147139 -0.37657536171875539 0 -0.46177509087269958 -0.35140316016552808 0 -0.44056108763597429 -0.3579533558312808 0 -0.42852276756970431 -0.38604195239277661 0 -0.44056108763597429 -0.3579533558312808 0 -0.41990857931974251 -0.36610276665878261 0 -0.43771178228519292 -0.33406823938742902 0 -0.44056108763597429 -0.3579533558312808 0 -0.41879455704491281 -0.34124539303842621 0 -0.44056108763597429 -0.3579533558312808 0 -0.41990857931974251 -0.36610276665878261 0 -0.41879455704491281 -0.34124539303842621 0 -0.41990857931974251 -0.36610276665878261 0 -0.40601662662431443 -0.35295086452667018 0 -0.41879455704491281 -0.34124539303842621 0 -0.40201560677793108 -0.3774769889713252 0 -0.41990857931974251 -0.36610276665878261 0 -0.40601662662431443 -0.35295086452667018 0 -0.40201560677793108 -0.3774769889713252 0 -0.38729077945704149 -0.35524901134317322 0 -0.40601662662431443 -0.35295086452667018 0 -0.40201560677793108 -0.3774769889713252 0 -0.37665814286574312 -0.37990398172601098 0 -0.38729077945704149 -0.35524901134317322 0 -0.37665814286574312 -0.37990398172601098 0 -0.38729077945704149 -0.35524901134317322 0 -0.37665814286574312 -0.37990398172601098 0 -0.38729077945704149 -0.35524901134317322 0 -0.36275640467306652 -0.3581498070478073 0 -0.38729077945704149 -0.35524901134317322 0 -0.40601662662431443 -0.35295086452667018 0 -0.39792341604833997 -0.33059404096033551 0 -0.38729077945704149 -0.35524901134317322 0 -0.39792341604833997 -0.33059404096033551 0 -0.38729077945704149 -0.35524901134317322 0 -0.39792341604833997 -0.33059404096033551 0 -0.36732932039706162 -0.33041786332679302 0 -0.39792341604833997 -0.33059404096033551 0 -0.38134659354123812 -0.307898523957155 0 -0.36732932039706162 -0.33041786332679302 0 -0.39792341604833997 -0.33059404096033551 0 -0.40855605263963729 -0.3059390705774972 0 -0.38134659354123812 -0.307898523957155 0 -0.39792341604833997 -0.33059404096033551 0 -0.40855605263963729 -0.3059390705774972 0 -0.40911200216033439 -0.31228840826640791 0 -0.39792341604833997 -0.33059404096033551 0 -0.40855605263963729 -0.3059390705774972 0 -0.39792341604833997 -0.33059404096033551 0 -0.4136484736976806 -0.31673331860933779 0 -0.40911200216033439 -0.31228840826640791 0 -0.40601662662431443 -0.35295086452667018 0 -0.39792341604833997 -0.33059404096033551 0 -0.41879455704491281 -0.34124539303842621 0 -0.39792341604833997 -0.33059404096033551 0 -0.4136484736976806 -0.31673331860933779 0 -0.41879455704491281 -0.34124539303842621 0 -0.43771178228519292 -0.33406823938742902 0 -0.4136484736976806 -0.31673331860933779 0 -0.41879455704491281 -0.34124539303842621 0 -0.43771178228519292 -0.33406823938742902 0 -0.4136484736976806 -0.31673331860933779 0 -0.4136484736976806 -0.31673331860933779 0 -0.43482690234758342 -0.31303995009979418 0 -0.41740364273042052 -0.30836338186200962 0 -0.43771178228519292 -0.33406823938742902 0 -0.4136484736976806 -0.31673331860933779 0 -0.43482690234758342 -0.31303995009979418 0 -0.43482690234758342 -0.31303995009979418 0 -0.42276699757822972 -0.29876201060709601 0 -0.41740364273042052 -0.30836338186200962 0 -0.43795331789870368 -0.29440795607719839 0 -0.43482690234758342 -0.31303995009979418 0 -0.42276699757822972 -0.29876201060709601 0 -0.43795331789870368 -0.29440795607719839 0 -0.41919153120331321 -0.28481059130465641 0 -0.43795331789870368 -0.29440795607719839 0 -0.42276699757822972 -0.29876201060709601 0 -0.41919153120331321 -0.28481059130465641 0 -0.43795331789870368 -0.29440795607719839 0 -0.41919153120331321 -0.28481059130465641 0 -0.43355407276668539 -0.27886185885587278 0 -0.41919153120331321 -0.28481059130465641 0 -0.40855605263963729 -0.3059390705774972 0 -0.41919153120331321 -0.28481059130465641 0 -0.40644872436040308 -0.28187188755443038 0 -0.40855605263963729 -0.3059390705774972 0 -0.42276699757822972 -0.29876201060709601 0 -0.41919153120331321 -0.28481059130465641 0 -0.40855605263963729 -0.3059390705774972 0 -0.40644872436040308 -0.28187188755443038 0 -0.40855605263963729 -0.3059390705774972 0 -0.42276699757822972 -0.29876201060709601 0 -0.41740364273042052 -0.30836338186200962 0 -0.40855605263963729 -0.3059390705774972 0 -0.41740364273042052 -0.30836338186200962 0 -0.40855605263963729 -0.3059390705774972 0 -0.40911200216033439 -0.31228840826640791 0 -0.4136484736976806 -0.31673331860933779 0 -0.41740364273042052 -0.30836338186200962 0 -0.40911200216033439 -0.31228840826640791 0 -0.40855605263963729 -0.3059390705774972 0 -0.40911200216033439 -0.31228840826640791 0 -0.40855605263963729 -0.3059390705774972 0 -0.38134659354123812 -0.307898523957155 0 -0.38868190512856893 -0.29076793821664709 0 -0.38868190512856893 -0.29076793821664709 0 -0.38411619823287307 -0.27170147826800589 0 -0.36000148617615768 -0.29042567095277672 0 -0.38134659354123812 -0.307898523957155 0 -0.38868190512856893 -0.29076793821664709 0 -0.36000148617615768 -0.29042567095277672 0 -0.40644872436040308 -0.28187188755443038 0 -0.40855605263963729 -0.3059390705774972 0 -0.38868190512856893 -0.29076793821664709 0 -0.40644872436040308 -0.28187188755443038 0 -0.38868190512856893 -0.29076793821664709 0 -0.38411619823287307 -0.27170147826800589 0 -0.40644872436040308 -0.28187188755443038 0 -0.38411619823287307 -0.27170147826800589 0 -0.40434139608116931 -0.25780470453136362 0 -0.40644872436040308 -0.28187188755443038 0 -0.40434139608116931 -0.25780470453136362 0 -0.38411619823287307 -0.27170147826800589 0 -0.37575197361103307 -0.25468824818671759 0 -0.40434139608116931 -0.25780470453136362 0 -0.40434139608116931 -0.25780470453136362 0 -0.41554902590341519 -0.25738463926562283 0 -0.41757346997536232 -0.2484262293889628 0 -0.41554902590341519 -0.25738463926562283 0 -0.42735550035764353 -0.26234688883393692 0 -0.41757346997536232 -0.2484262293889628 0 -0.41554902590341519 -0.25738463926562283 0 -0.4164322394753433 -0.26426894640189252 0 -0.42735550035764353 -0.26234688883393692 0 -0.40434139608116931 -0.25780470453136362 0 -0.41554902590341519 -0.25738463926562283 0 -0.40942106570892561 -0.26266998369203809 0 -0.41554902590341519 -0.25738463926562283 0 -0.4164322394753433 -0.26426894640189252 0 -0.40942106570892561 -0.26266998369203809 0 -0.40434139608116931 -0.25780470453136362 0 -0.40942106570892561 -0.26266998369203809 0 -0.41919153120331321 -0.28481059130465641 0 -0.41664065386107579 -0.27214842495183611 0 -0.42735550035764353 -0.26234688883393692 0 -0.40644872436040308 -0.28187188755443038 0 -0.40434139608116931 -0.25780470453136362 0 -0.40942106570892561 -0.26266998369203809 0 -0.40644872436040308 -0.28187188755443038 0 -0.40942106570892561 -0.26266998369203809 0 -0.41223567085143692 -0.27023981065004932 0 -0.4164322394753433 -0.26426894640189252 0 -0.40942106570892561 -0.26266998369203809 0 -0.41223567085143692 -0.27023981065004932 0 -0.40644872436040308 -0.28187188755443038 0 -0.41223567085143692 -0.27023981065004932 0 -0.41664065386107579 -0.27214842495183611 0 -0.41919153120331321 -0.28481059130465641 0 -0.40644872436040308 -0.28187188755443038 0 -0.41664065386107579 -0.27214842495183611 0 -0.4164322394753433 -0.26426894640189252 0 -0.41664065386107579 -0.27214842495183611 0 -0.42735550035764353 -0.26234688883393692 0 -0.4164322394753433 -0.26426894640189252 0 -0.41223567085143692 -0.27023981065004932 0 -0.41664065386107579 -0.27214842495183611 0 -0.41919153120331321 -0.28481059130465641 0 -0.43355407276668539 -0.27886185885587278 0 -0.42735550035764353 -0.26234688883393692 0 -0.41919153120331321 -0.28481059130465641 0 -0.42735550035764353 -0.26234688883393692 0 -0.44435088170999809 -0.26430770419017108 0 -0.43355407276668539 -0.27886185885587278 0 -0.42735550035764353 -0.26234688883393692 0 -0.42735550035764353 -0.26234688883393692 0 -0.43675522421664609 -0.24055079796215631 0 -0.44435088170999809 -0.26430770419017108 0 -0.43981298953622111 -0.25362310229907731 0 -0.42735550035764353 -0.26234688883393692 0 -0.43981298953622111 -0.25362310229907731 0 -0.42735550035764353 -0.26234688883393692 0 -0.43675522421664609 -0.24055079796215631 0 -0.42735550035764353 -0.26234688883393692 0 -0.42594714949772061 -0.24341161695235489 0 -0.41757346997536232 -0.2484262293889628 0 -0.321605543042841 -0.2520468709649149 0 -0.31815674239267339 -0.26673279995548732 0 -0.33180276229614292 -0.27021540228734309 0 -0.321605543042841 -0.2520468709649149 0 -0.31815674239267339 -0.26673279995548732 0 -0.3041448722191199 -0.24594418604843371 0 -0.31815674239267339 -0.26673279995548732 0 -0.33180276229614292 -0.27021540228734309 0 -0.33216861256622698 -0.28752141386254082 0 -0.31815674239267339 -0.26673279995548732 0 -0.31366010549822909 -0.29185156469990758 0 -0.30714843163826189 -0.27769882403321328 0 -0.31815674239267339 -0.26673279995548732 0 -0.33216861256622698 -0.28752141386254082 0 -0.33180276229614292 -0.27021540228734309 0 -0.33906621386656211 -0.25814955588139621 0 -0.34467210906185941 -0.27440287299811139 0 -0.33180276229614292 -0.27021540228734309 0 -0.34467210906185941 -0.27440287299811139 0 -0.33216861256622698 -0.28752141386254082 0 -0.321605543042841 -0.2520468709649149 0 -0.33906621386656211 -0.25814955588139621 0 -0.33303711247551931 -0.24736958926824401 0 -0.321605543042841 -0.2520468709649149 0 -0.33180276229614292 -0.27021540228734309 0 -0.33906621386656211 -0.25814955588139621 0 -0.321605543042841 -0.2520468709649149 0 -0.33906621386656211 -0.25814955588139621 0 -0.36032147040420759 -0.26570232200650051 0 -0.36064145463225761 -0.24097897306022439 0 -0.3449618835911385 -0.24367695190694061 0 -0.33906621386656211 -0.25814955588139621 0 -0.36032147040420759 -0.26570232200650051 0 -0.3449618835911385 -0.24367695190694061 0 -0.38411619823287307 -0.27170147826800589 0 -0.37575197361103307 -0.25468824818671759 0 -0.36032147040420759 -0.26570232200650051 0 -0.37575197361103307 -0.25468824818671759 0 -0.36032147040420759 -0.26570232200650051 0 -0.36064145463225761 -0.24097897306022439 0 -0.36032147040420759 -0.26570232200650051 0 -0.36064145463225761 -0.24097897306022439 0 -0.36032147040420759 -0.26570232200650051 0 -0.36000148617615768 -0.29042567095277672 0 -0.38411619823287307 -0.27170147826800589 0 -0.36032147040420759 -0.26570232200650051 0 -0.36000148617615768 -0.29042567095277672 0 -0.36032147040420759 -0.26570232200650051 0 -0.34467210906185941 -0.27440287299811139 0 -0.36000148617615768 -0.29042567095277672 0 -0.33906621386656211 -0.25814955588139621 0 -0.36032147040420759 -0.26570232200650051 0 -0.34467210906185941 -0.27440287299811139 0 -0.36000148617615768 -0.29042567095277672 0 -0.34618048273978069 -0.30831002776959437 0 -0.33216861256622698 -0.28752141386254082 0 -0.34467210906185941 -0.27440287299811139 0 -0.36000148617615768 -0.29042567095277672 0 -0.33216861256622698 -0.28752141386254082 0 -0.38134659354123812 -0.307898523957155 0 -0.36000148617615768 -0.29042567095277672 0 -0.3625724593571677 -0.31225903398480592 0 -0.36000148617615768 -0.29042567095277672 0 -0.3625724593571677 -0.31225903398480592 0 -0.34618048273978069 -0.30831002776959437 0 -0.33216861256622698 -0.28752141386254082 0 -0.32139997377979451 -0.30684173069112092 0 -0.33341162183061562 -0.31396563519183751 0 -0.34618048273978069 -0.30831002776959437 0 -0.33216861256622698 -0.28752141386254082 0 -0.34618048273978069 -0.30831002776959437 0 -0.33216861256622698 -0.28752141386254082 0 -0.33341162183061562 -0.31396563519183751 0 -0.33216861256622698 -0.28752141386254082 0 -0.31366010549822909 -0.29185156469990758 0 -0.32139997377979451 -0.30684173069112092 0 -0.31815674239267339 -0.26673279995548732 0 -0.33216861256622698 -0.28752141386254082 0 -0.31366010549822909 -0.29185156469990758 0 -0.31366010549822909 -0.29185156469990758 0 -0.32139997377979451 -0.30684173069112092 0 -0.31243575109678401 -0.30867748499449388 0 -0.32139997377979451 -0.30684173069112092 0 -0.31243575109678401 -0.30867748499449388 0 -0.32139997377979451 -0.30684173069112092 0 -0.32589166801161701 -0.32573338768720628 0 -0.33341162183061562 -0.31396563519183751 0 -0.32589166801161701 -0.32573338768720628 0 -0.31243575109678401 -0.30867748499449388 0 -0.32589166801161701 -0.32573338768720628 0 -0.31195147502101839 -0.32643308253027919 0 -0.31243575109678401 -0.30867748499449388 0 -0.32139997377979451 -0.30684173069112092 0 -0.32589166801161701 -0.32573338768720628 0 -0.31243575109678401 -0.30867748499449388 0 -0.32589166801161701 -0.32573338768720628 0 -0.32010600269358191 -0.34022575557550477 0 -0.31195147502101839 -0.32643308253027919 0 -0.32589166801161701 -0.32573338768720628 0 -0.32010600269358191 -0.34022575557550477 0 -0.33934758492644929 -0.34278929037991929 0 -0.32589166801161701 -0.32573338768720628 0 -0.33934758492644929 -0.34278929037991929 0 -0.3460179551924657 -0.32228333012460381 0 -0.32589166801161701 -0.32573338768720628 0 -0.33934758492644929 -0.34278929037991929 0 -0.32589166801161701 -0.32573338768720628 0 -0.33341162183061562 -0.31396563519183751 0 -0.3460179551924657 -0.32228333012460381 0 -0.34618048273978069 -0.30831002776959437 0 -0.33341162183061562 -0.31396563519183751 0 -0.3460179551924657 -0.32228333012460381 0 -0.3625724593571677 -0.31225903398480592 0 -0.3460179551924657 -0.32228333012460381 0 -0.36732932039706162 -0.33041786332679302 0 -0.3625724593571677 -0.31225903398480592 0 -0.34618048273978069 -0.30831002776959437 0 -0.3460179551924657 -0.32228333012460381 0 -0.38134659354123812 -0.307898523957155 0 -0.3625724593571677 -0.31225903398480592 0 -0.36732932039706162 -0.33041786332679302 0 -0.33934758492644929 -0.34278929037991929 0 -0.3460179551924657 -0.32228333012460381 0 -0.36732932039706162 -0.33041786332679302 0 -0.33934758492644929 -0.34278929037991929 0 -0.36275640467306652 -0.3581498070478073 0 -0.34504572998745892 -0.36518038032524719 0 -0.33934758492644929 -0.34278929037991929 0 -0.36732932039706162 -0.33041786332679302 0 -0.36275640467306652 -0.3581498070478073 0 -0.38729077945704149 -0.35524901134317322 0 -0.36732932039706162 -0.33041786332679302 0 -0.36275640467306652 -0.3581498070478073 0 -0.37665814286574312 -0.37990398172601098 0 -0.36275640467306652 -0.3581498070478073 0 -0.36086687040464438 -0.37535831518570001 0 -0.36275640467306652 -0.3581498070478073 0 -0.34504572998745892 -0.36518038032524719 0 -0.36086687040464438 -0.37535831518570001 0 -0.34504572998745892 -0.36518038032524719 0 -0.3329685134668649 -0.36648581275033121 0 -0.33681404828889822 -0.37534394343959387 0 -0.3329685134668649 -0.36648581275033121 0 -0.32868526678646259 -0.37514077752497749 0 -0.33681404828889822 -0.37534394343959387 0 -0.34504572998745892 -0.36518038032524719 0 -0.3329685134668649 -0.36648581275033121 0 -0.32960816033618467 -0.35534837798220642 0 -0.32010600269358191 -0.34022575557550477 0 -0.33934758492644929 -0.34278929037991929 0 -0.32960816033618467 -0.35534837798220642 0 -0.33934758492644929 -0.34278929037991929 0 -0.34504572998745892 -0.36518038032524719 0 -0.32960816033618467 -0.35534837798220642 0 -0.32010600269358191 -0.34022575557550477 0 -0.32960816033618467 -0.35534837798220642 0 -0.31194738769413749 -0.35966463252088449 0 -0.31194738769413749 -0.35966463252088449 0 -0.31324252656163881 -0.37795215509735802 0 -0.32432857135265869 -0.38257269835878199 0 -0.3329685134668649 -0.36648581275033121 0 -0.31194738769413749 -0.35966463252088449 0 -0.32868526678646259 -0.37514077752497749 0 -0.31194738769413749 -0.35966463252088449 0 -0.32868526678646259 -0.37514077752497749 0 -0.32432857135265869 -0.38257269835878199 0 -0.31194738769413749 -0.35966463252088449 0 -0.32432857135265869 -0.38257269835878199 0 -0.3329685134668649 -0.36648581275033121 0 -0.32960816033618467 -0.35534837798220642 0 -0.31194738769413749 -0.35966463252088449 0 -0.31194738769413749 -0.35966463252088449 0 -0.30493427589272681 -0.37012100960406757 0 -0.31324252656163881 -0.37795215509735802 0 -0.31194738769413749 -0.35966463252088449 0 -0.30493427589272681 -0.37012100960406757 0 -0.29385111059052582 -0.36343434683835008 0 -0.30493427589272681 -0.37012100960406757 0 -0.29385111059052582 -0.36343434683835008 0 -0.30069607872460508 -0.3794329039596781 0 -0.31194738769413749 -0.35966463252088449 0 -0.29385111059052582 -0.36343434683835008 0 -0.29956620403561768 -0.3367565666829862 0 -0.31194738769413749 -0.35966463252088449 0 -0.29956620403561768 -0.3367565666829862 0 -0.32010600269358191 -0.34022575557550477 0 -0.31194738769413749 -0.35966463252088449 0 -0.29956620403561768 -0.3367565666829862 0 -0.29385111059052582 -0.36343434683835008 0 -0.2794018865849463 -0.36556943133763609 0 -0.27792004820776678 -0.34864289301255408 0 -0.29385111059052582 -0.36343434683835008 0 -0.27792004820776678 -0.34864289301255408 0 -0.29956620403561768 -0.3367565666829862 0 -0.29385111059052582 -0.36343434683835008 0 -0.30069607872460508 -0.3794329039596781 0 -0.2816987453305011 -0.38165435064659681 0 -0.29385111059052582 -0.36343434683835008 0 -0.2794018865849463 -0.36556943133763609 0 -0.2816987453305011 -0.38165435064659681 0 -0.2794018865849463 -0.36556943133763609 0 -0.26413764221099151 -0.36854613485304349 0 -0.27792004820776678 -0.34864289301255408 0 -0.2794018865849463 -0.36556943133763609 0 -0.26413764221099151 -0.36854613485304349 0 -0.2816987453305011 -0.38165435064659681 0 -0.26413764221099151 -0.36854613485304349 0 -0.25224988298000039 -0.37125021481022441 0 -0.25639014809874938 -0.34604299316079429 0 -0.26413764221099151 -0.36854613485304349 0 -0.25639014809874938 -0.34604299316079429 0 -0.27792004820776678 -0.34864289301255408 0 -0.25639014809874938 -0.34604299316079429 0 -0.27792004820776678 -0.34864289301255408 0 -0.27268523648427628 -0.32474702501503699 0 -0.27792004820776678 -0.34864289301255408 0 -0.27268523648427628 -0.32474702501503699 0 -0.28322484929900571 -0.33328996536476968 0 -0.25639014809874938 -0.34604299316079429 0 -0.25663214697082237 -0.32971286606005717 0 -0.24419962744989621 -0.33687177456890932 0 -0.25639014809874938 -0.34604299316079429 0 -0.25663214697082237 -0.32971286606005717 0 -0.27268523648427628 -0.32474702501503699 0 -0.25639014809874938 -0.34604299316079429 0 -0.27268523648427628 -0.32474702501503699 0 -0.25663214697082237 -0.32971286606005717 0 -0.26569024773276279 -0.31825034613354258 0 -0.24419547508842729 -0.32265219142200241 0 -0.25663214697082237 -0.32971286606005717 0 -0.26569024773276279 -0.31825034613354258 0 -0.27268523648427628 -0.32474702501503699 0 -0.26569024773276279 -0.31825034613354258 0 -0.25425073342367832 -0.31005663012565732 0 -0.24419547508842729 -0.32265219142200241 0 -0.26569024773276279 -0.31825034613354258 0 -0.24419547508842729 -0.32265219142200241 0 -0.26569024773276279 -0.31825034613354258 0 -0.28718502037709898 -0.31384850084508731 0 -0.28245260732232658 -0.32362903274074017 0 -0.26569024773276279 -0.31825034613354258 0 -0.28718502037709898 -0.31384850084508731 0 -0.26569024773276279 -0.31825034613354258 0 -0.28718502037709898 -0.31384850084508731 0 -0.26882154890772958 -0.30708937690896848 0 -0.26569024773276279 -0.31825034613354258 0 -0.27268523648427628 -0.32474702501503699 0 -0.28245260732232658 -0.32362903274074017 0 -0.27268523648427628 -0.32474702501503699 0 -0.28245260732232658 -0.32362903274074017 0 -0.28322484929900571 -0.33328996536476968 0 -0.28718502037709898 -0.31384850084508731 0 -0.29956620403561768 -0.3367565666829862 0 -0.28718502037709898 -0.31384850084508731 0 -0.28245260732232658 -0.32362903274074017 0 -0.29956620403561768 -0.3367565666829862 0 -0.28718502037709898 -0.31384850084508731 0 -0.29956620403561768 -0.3367565666829862 0 -0.3017577492674916 -0.32077221771120468 0 -0.27792004820776678 -0.34864289301255408 0 -0.28322484929900571 -0.33328996536476968 0 -0.29956620403561768 -0.3367565666829862 0 -0.28245260732232658 -0.32362903274074017 0 -0.28322484929900571 -0.33328996536476968 0 -0.29956620403561768 -0.3367565666829862 0 -0.32010600269358191 -0.34022575557550477 0 -0.29956620403561768 -0.3367565666829862 0 -0.31195147502101839 -0.32643308253027919 0 -0.3017577492674916 -0.32077221771120468 0 -0.31195147502101839 -0.32643308253027919 0 -0.31243575109678401 -0.30867748499449388 0 -0.29956620403561768 -0.3367565666829862 0 -0.3017577492674916 -0.32077221771120468 0 -0.31195147502101839 -0.32643308253027919 0 -0.28718502037709898 -0.31384850084508731 0 -0.3017577492674916 -0.32077221771120468 0 -0.31243575109678401 -0.30867748499449388 0 -0.28718502037709898 -0.31384850084508731 0 -0.31243575109678401 -0.30867748499449388 0 -0.31243575109678401 -0.30867748499449388 0 -0.29701126704993841 -0.28912634621640471 0 -0.31243575109678401 -0.30867748499449388 0 -0.29701126704993841 -0.28912634621640471 0 -0.29488911447344252 -0.30259674298754918 0 -0.28718502037709898 -0.31384850084508731 0 -0.31243575109678401 -0.30867748499449388 0 -0.29488911447344252 -0.30259674298754918 0 -0.31366010549822909 -0.29185156469990758 0 -0.31243575109678401 -0.30867748499449388 0 -0.29701126704993841 -0.28912634621640471 0 -0.31366010549822909 -0.29185156469990758 0 -0.29701126704993841 -0.28912634621640471 0 -0.30714843163826189 -0.27769882403321328 0 -0.29701126704993841 -0.28912634621640471 0 -0.28364686668008732 -0.28811290807531642 0 -0.28158678300309209 -0.26957520743831598 0 -0.29701126704993841 -0.28912634621640471 0 -0.28364686668008732 -0.28811290807531642 0 -0.28755843451506208 -0.29826003351066771 0 -0.29701126704993841 -0.28912634621640471 0 -0.28755843451506208 -0.29826003351066771 0 -0.29488911447344252 -0.30259674298754918 0 -0.28364686668008732 -0.28811290807531642 0 -0.28755843451506208 -0.29826003351066771 0 -0.28064677915226038 -0.301751235787594 0 -0.28755843451506208 -0.29826003351066771 0 -0.28780446587748992 -0.30508982001686419 0 -0.28064677915226038 -0.301751235787594 0 -0.28755843451506208 -0.29826003351066771 0 -0.29488911447344252 -0.30259674298754918 0 -0.28780446587748992 -0.30508982001686419 0 -0.28718502037709898 -0.31384850084508731 0 -0.29488911447344252 -0.30259674298754918 0 -0.28780446587748992 -0.30508982001686419 0 -0.28718502037709898 -0.31384850084508731 0 -0.28780446587748992 -0.30508982001686419 0 -0.28064677915226038 -0.301751235787594 0 -0.28718502037709898 -0.31384850084508731 0 -0.28064677915226038 -0.301751235787594 0 -0.28718502037709898 -0.31384850084508731 0 -0.28064677915226038 -0.301751235787594 0 -0.26882154890772958 -0.30708937690896848 0 -0.28064677915226038 -0.301751235787594 0 -0.25743040090093589 -0.29593030821957078 0 -0.28064677915226038 -0.301751235787594 0 -0.26882154890772958 -0.30708937690896848 0 -0.25743040090093589 -0.29593030821957078 0 -0.26569024773276279 -0.31825034613354258 0 -0.26882154890772958 -0.30708937690896848 0 -0.25425073342367832 -0.31005663012565732 0 -0.26882154890772958 -0.30708937690896848 0 -0.25425073342367832 -0.31005663012565732 0 -0.25743040090093589 -0.29593030821957078 0 -0.25425073342367832 -0.31005663012565732 0 -0.25743040090093589 -0.29593030821957078 0 -0.2442806522803305 -0.30294829820572322 0 -0.25743040090093589 -0.29593030821957078 0 -0.27063801769135898 -0.28323270211376511 0 -0.25853725671281141 -0.27993274999468498 0 -0.25743040090093589 -0.29593030821957078 0 -0.25853725671281141 -0.27993274999468498 0 -0.2454513520284935 -0.27585382120546792 0 -0.28364686668008732 -0.28811290807531642 0 -0.28064677915226038 -0.301751235787594 0 -0.27063801769135898 -0.28323270211376511 0 -0.28064677915226038 -0.301751235787594 0 -0.25743040090093589 -0.29593030821957078 0 -0.27063801769135898 -0.28323270211376511 0 -0.28064677915226038 -0.301751235787594 0 -0.27063801769135898 -0.28323270211376511 0 -0.28364686668008732 -0.28811290807531642 0 -0.27063801769135898 -0.28323270211376511 0 -0.28158678300309209 -0.26957520743831598 0 -0.27063801769135898 -0.28323270211376511 0 -0.26062925623045718 -0.26471416843993628 0 -0.28158678300309209 -0.26957520743831598 0 -0.27063801769135898 -0.28323270211376511 0 -0.26062925623045718 -0.26471416843993628 0 -0.27063801769135898 -0.28323270211376511 0 -0.25853725671281141 -0.27993274999468498 0 -0.26062925623045718 -0.26471416843993628 0 -0.26062925623045718 -0.26471416843993628 0 -0.24521023478444801 -0.2602106557147722 0 -0.2454513520284935 -0.27585382120546792 0 -0.25853725671281141 -0.27993274999468498 0 -0.26062925623045718 -0.26471416843993628 0 -0.2454513520284935 -0.27585382120546792 0 -0.26062925623045718 -0.26471416843993628 0 -0.26616229895624582 -0.25002406866022742 0 -0.25062049476955539 -0.24619563476610751 0 -0.26062925623045718 -0.26471416843993628 0 -0.25062049476955539 -0.24619563476610751 0 -0.26062925623045718 -0.26471416843993628 0 -0.24521023478444801 -0.2602106557147722 0 -0.25062049476955539 -0.24619563476610751 0 -0.26616229895624582 -0.25002406866022742 0 -0.27910059834195711 -0.25082361772595813 0 -0.28158678300309209 -0.26957520743831598 0 -0.26062925623045718 -0.26471416843993628 0 -0.26616229895624582 -0.25002406866022742 0 -0.28158678300309209 -0.26957520743831598 0 -0.26616229895624582 -0.25002406866022742 0 -0.28158678300309209 -0.26957520743831598 0 -0.27910059834195711 -0.25082361772595813 0 -0.29105531347898761 -0.25232858781173639 0 -0.28158678300309209 -0.26957520743831598 0 -0.29105531347898761 -0.25232858781173639 0 -0.28158678300309209 -0.26957520743831598 0 -0.29956058895644189 -0.26415049218198272 0 -0.29701126704993841 -0.28912634621640471 0 -0.28158678300309209 -0.26957520743831598 0 -0.29956058895644189 -0.26415049218198272 0 -0.29701126704993841 -0.28912634621640471 0 -0.28158678300309209 -0.26957520743831598 0 -0.29701126704993841 -0.28912634621640471 0 -0.30714843163826189 -0.27769882403321328 0 -0.29956058895644189 -0.26415049218198272 0 -0.31815674239267339 -0.26673279995548732 0 -0.30714843163826189 -0.27769882403321328 0 -0.29956058895644189 -0.26415049218198272 0 -0.31815674239267339 -0.26673279995548732 0 -0.3041448722191199 -0.24594418604843371 0 -0.31815674239267339 -0.26673279995548732 0 -0.29956058895644189 -0.26415049218198272 0 -0.3041448722191199 -0.24594418604843371 0 -0.29105531347898761 -0.25232858781173639 0 -0.29956058895644189 -0.26415049218198272 0 -0.3041448722191199 -0.24594418604843371 0 -0.3890072089015234 -0.5 0 -0.32486585520361128 -0.50000000000000011 0 -0.36043766218581369 -0.47389687249373852 0 -0.32903144193023581 -0.45558040767868702 0 -0.33504152669678949 -0.47640464083056228 0 -0.34521719818996782 -0.45280928166112439 0 -0.33504152669678949 -0.47640464083056228 0 -0.34521719818996782 -0.45280928166112439 0 -0.32903144193023581 -0.45558040767868702 0 -0.33476222865247179 -0.44019158288116222 0 -0.34521719818996782 -0.45280928166112439 0 -0.32903144193023581 -0.45558040767868702 0 -0.33476222865247179 -0.44019158288116222 0 -0.31643111160513948 -0.44048456892867799 0 -0.32903144193023581 -0.45558040767868702 0 -0.31643111160513948 -0.44048456892867799 0 -0.31334318368175701 -0.46150465148192932 0 -0.32903144193023581 -0.45558040767868702 0 -0.31334318368175701 -0.46150465148192932 0 -0.33504152669678949 -0.47640464083056228 0 -0.32486585520361128 -0.50000000000000011 0 -0.33504152669678949 -0.47640464083056228 0 -0.36043766218581369 -0.47389687249373852 0 -0.31334318368175701 -0.46150465148192932 0 -0.31537027636403397 -0.48226582180571909 0 -0.33504152669678949 -0.47640464083056228 0 -0.31537027636403397 -0.48226582180571909 0 -0.32486585520361128 -0.50000000000000011 0 -0.33504152669678949 -0.47640464083056228 0 -0.31537027636403397 -0.48226582180571909 0 -0.32486585520361128 -0.50000000000000011 0 -0.30190305498450132 -0.5 0 -0.32486585520361128 -0.50000000000000011 0 -0.33504152669678949 -0.47640464083056228 0 -0.37523890169680202 -0.44400008610684222 0 -0.36043766218581369 -0.47389687249373852 0 -0.34521719818996782 -0.45280928166112439 0 -0.33504152669678949 -0.47640464083056228 0 -0.36043766218581369 -0.47389687249373852 0 -0.34521719818996782 -0.45280928166112439 0 -0.33476222865247179 -0.44019158288116222 0 -0.34521719818996782 -0.45280928166112439 0 -0.35539286968315009 -0.42921392249168833 0 -0.34521719818996782 -0.45280928166112439 0 -0.35539286968315009 -0.42921392249168833 0 -0.37523890169680202 -0.44400008610684222 0 -0.34521719818996782 -0.45280928166112439 0 -0.35539286968315009 -0.42921392249168833 0 -0.37406314492997172 -0.41927938188615971 0 -0.35539286968315009 -0.42921392249168833 0 -0.37523890169680202 -0.44400008610684222 0 -0.37406314492997172 -0.41927938188615971 0 -0.35539286968315009 -0.42921392249168833 0 -0.38125146789249648 -0.3965050731948016 0 -0.37406314492997172 -0.41927938188615971 0 -0.36602550627444452 -0.40455895210884868 0 -0.35539286968315009 -0.42921392249168833 0 -0.36602550627444452 -0.40455895210884868 0 -0.37406314492997172 -0.41927938188615971 0 -0.35539286968315009 -0.42921392249168833 0 -0.36602550627444452 -0.40455895210884868 0 -0.35000147166255002 -0.41097269869109959 0 -0.35539286968315009 -0.42921392249168833 0 -0.33903031532185662 -0.42333800771544761 0 -0.35000147166255002 -0.41097269869109959 0 -0.35539286968315009 -0.42921392249168833 0 -0.36602550627444452 -0.40455895210884868 0 -0.33476222865247179 -0.44019158288116222 0 -0.35539286968315009 -0.42921392249168833 0 -0.37665814286574312 -0.37990398172601098 0 -0.36086687040464438 -0.37535831518570001 0 -0.36602550627444452 -0.40455895210884868 0 -0.38125146789249648 -0.3965050731948016 0 -0.37665814286574312 -0.37990398172601098 0 -0.36602550627444452 -0.40455895210884868 0 -0.37665814286574312 -0.37990398172601098 0 -0.36602550627444452 -0.40455895210884868 0 -0.35000147166255002 -0.41097269869109959 0 -0.36602550627444452 -0.40455895210884868 0 -0.34945632812370869 -0.38718315747180782 0 -0.35000147166255002 -0.41097269869109959 0 -0.34945632812370869 -0.38718315747180782 0 -0.33462687414079367 -0.40584725897071811 0 -0.34504572998745892 -0.36518038032524719 0 -0.36086687040464438 -0.37535831518570001 0 -0.34945632812370869 -0.38718315747180782 0 -0.36086687040464438 -0.37535831518570001 0 -0.36602550627444452 -0.40455895210884868 0 -0.34945632812370869 -0.38718315747180782 0 -0.34504572998745892 -0.36518038032524719 0 -0.34945632812370869 -0.38718315747180782 0 -0.33681404828889822 -0.37534394343959387 0 -0.33059514926722933 -0.38177268178430201 0 -0.33681404828889822 -0.37534394343959387 0 -0.3367729709694508 -0.38473849125024678 0 -0.32868526678646259 -0.37514077752497749 0 -0.33059514926722933 -0.38177268178430201 0 -0.33681404828889822 -0.37534394343959387 0 -0.34945632812370869 -0.38718315747180782 0 -0.33681404828889822 -0.37534394343959387 0 -0.3367729709694508 -0.38473849125024678 0 -0.34945632812370869 -0.38718315747180782 0 -0.3367729709694508 -0.38473849125024678 0 -0.33472287165705039 -0.39250160933099099 0 -0.3367729709694508 -0.38473849125024678 0 -0.33053994317154839 -0.38733860377463852 0 -0.33472287165705039 -0.39250160933099099 0 -0.33059514926722933 -0.38177268178430201 0 -0.3367729709694508 -0.38473849125024678 0 -0.33053994317154839 -0.38733860377463852 0 -0.33059514926722933 -0.38177268178430201 0 -0.33053994317154839 -0.38733860377463852 0 -0.32556030056490171 -0.38485168352423921 0 -0.34945632812370869 -0.38718315747180782 0 -0.33472287165705039 -0.39250160933099099 0 -0.33462687414079367 -0.40584725897071811 0 -0.33053994317154839 -0.38733860377463852 0 -0.33472287165705039 -0.39250160933099099 0 -0.32504842339910961 -0.39282855298341329 0 -0.33472287165705039 -0.39250160933099099 0 -0.33462687414079367 -0.40584725897071811 0 -0.32504842339910961 -0.39282855298341329 0 -0.33462687414079367 -0.40584725897071811 0 -0.32504842339910961 -0.39282855298341329 0 -0.31210116471775629 -0.40343096570709019 0 -0.32432857135265869 -0.38257269835878199 0 -0.30973638611688709 -0.38754970810637668 0 -0.31210116471775629 -0.40343096570709019 0 -0.32432857135265869 -0.38257269835878199 0 -0.31210116471775629 -0.40343096570709019 0 -0.32504842339910961 -0.39282855298341329 0 -0.32432857135265869 -0.38257269835878199 0 -0.31210116471775629 -0.40343096570709019 0 -0.32504842339910961 -0.39282855298341329 0 -0.32556030056490171 -0.38485168352423921 0 -0.32432857135265869 -0.38257269835878199 0 -0.33053994317154839 -0.38733860377463852 0 -0.32504842339910961 -0.39282855298341329 0 -0.32556030056490171 -0.38485168352423921 0 -0.33059514926722933 -0.38177268178430201 0 -0.32556030056490171 -0.38485168352423921 0 -0.32432857135265869 -0.38257269835878199 0 -0.32556030056490171 -0.38485168352423921 0 -0.32432857135265869 -0.38257269835878199 0 -0.31324252656163881 -0.37795215509735802 0 -0.32432857135265869 -0.38257269835878199 0 -0.30973638611688709 -0.38754970810637668 0 -0.32868526678646259 -0.37514077752497749 0 -0.33059514926722933 -0.38177268178430201 0 -0.32432857135265869 -0.38257269835878199 0 -0.32868526678646259 -0.37514077752497749 0 -0.32432857135265869 -0.38257269835878199 0 -0.33476222865247179 -0.44019158288116222 0 -0.33903031532185662 -0.42333800771544761 0 -0.32164998054191618 -0.42290961231286323 0 -0.33476222865247179 -0.44019158288116222 0 -0.35539286968315009 -0.42921392249168833 0 -0.33903031532185662 -0.42333800771544761 0 -0.33462687414079367 -0.40584725897071811 0 -0.33903031532185662 -0.42333800771544761 0 -0.32164998054191618 -0.42290961231286323 0 -0.35000147166255002 -0.41097269869109959 0 -0.33462687414079367 -0.40584725897071811 0 -0.33903031532185662 -0.42333800771544761 0 -0.33462687414079367 -0.40584725897071811 0 -0.32164998054191618 -0.42290961231286323 0 -0.31210116471775629 -0.40343096570709019 0 -0.31643111160513948 -0.44048456892867799 0 -0.32164998054191618 -0.42290961231286323 0 -0.29987375808285133 -0.42428923305539679 0 -0.33476222865247179 -0.44019158288116222 0 -0.31643111160513948 -0.44048456892867799 0 -0.32164998054191618 -0.42290961231286323 0 -0.31643111160513948 -0.44048456892867799 0 -0.29987375808285133 -0.42428923305539679 0 -0.28764635144794631 -0.4451475004037031 0 -0.32164998054191618 -0.42290961231286323 0 -0.29987375808285133 -0.42428923305539679 0 -0.31210116471775629 -0.40343096570709019 0 -0.29987375808285133 -0.42428923305539679 0 -0.31210116471775629 -0.40343096570709019 0 -0.29987375808285133 -0.42428923305539679 0 -0.31210116471775629 -0.40343096570709019 0 -0.28643865211288833 -0.4049457255293934 0 -0.29987375808285133 -0.42428923305539679 0 -0.28643865211288833 -0.4049457255293934 0 -0.2743636922497168 -0.42737080149350393 0 -0.29987375808285133 -0.42428923305539679 0 -0.2743636922497168 -0.42737080149350393 0 -0.28764635144794631 -0.4451475004037031 0 -0.29987375808285133 -0.42428923305539679 0 -0.28764635144794631 -0.4451475004037031 0 -0.30493427589272681 -0.37012100960406757 0 -0.31324252656163881 -0.37795215509735802 0 -0.30069607872460508 -0.3794329039596781 0 -0.31324252656163881 -0.37795215509735802 0 -0.30069607872460508 -0.3794329039596781 0 -0.30973638611688709 -0.38754970810637668 0 -0.30069607872460508 -0.3794329039596781 0 -0.30973638611688709 -0.38754970810637668 0 -0.29782889034054771 -0.39247835548779098 0 -0.30973638611688709 -0.38754970810637668 0 -0.31210116471775629 -0.40343096570709019 0 -0.29782889034054771 -0.39247835548779098 0 -0.31210116471775629 -0.40343096570709019 0 -0.29782889034054771 -0.39247835548779098 0 -0.28643865211288833 -0.4049457255293934 0 -0.29782889034054771 -0.39247835548779098 0 -0.28643865211288833 -0.4049457255293934 0 -0.2816987453305011 -0.38165435064659681 0 -0.30069607872460508 -0.3794329039596781 0 -0.29782889034054771 -0.39247835548779098 0 -0.2816987453305011 -0.38165435064659681 0 -0.26413764221099151 -0.36854613485304349 0 -0.2816987453305011 -0.38165435064659681 0 -0.26169636854979272 -0.38694459250155128 0 -0.2816987453305011 -0.38165435064659681 0 -0.27353305667371403 -0.39532464527168337 0 -0.26169636854979272 -0.38694459250155128 0 -0.28643865211288833 -0.4049457255293934 0 -0.2816987453305011 -0.38165435064659681 0 -0.27353305667371403 -0.39532464527168337 0 -0.28643865211288833 -0.4049457255293934 0 -0.27353305667371403 -0.39532464527168337 0 -0.2642984607016739 -0.40775391240919201 0 -0.27353305667371403 -0.39532464527168337 0 -0.26169636854979272 -0.38694459250155128 0 -0.2642984607016739 -0.40775391240919201 0 -0.26169636854979272 -0.38694459250155128 0 -0.2642984607016739 -0.40775391240919201 0 -0.24966947659482561 -0.39734555498588747 0 -0.2642984607016739 -0.40775391240919201 0 -0.2438629629398914 -0.41333881958139068 0 -0.24966947659482561 -0.39734555498588747 0 -0.26169636854979272 -0.38694459250155128 0 -0.24966947659482561 -0.39734555498588747 0 -0.24430747118197521 -0.38230295348442611 0 -0.26413764221099151 -0.36854613485304349 0 -0.25224988298000039 -0.37125021481022441 0 -0.26169636854979272 -0.38694459250155128 0 -0.25224988298000039 -0.37125021481022441 0 -0.26169636854979272 -0.38694459250155128 0 -0.24430747118197521 -0.38230295348442611 0 -0.28643865211288833 -0.4049457255293934 0 -0.2743636922497168 -0.42737080149350393 0 -0.2642984607016739 -0.40775391240919201 0 -0.2642984607016739 -0.40775391240919201 0 -0.25716885613217533 -0.42246281826982612 0 -0.2438629629398914 -0.41333881958139068 0 -0.2743636922497168 -0.42737080149350393 0 -0.2642984607016739 -0.40775391240919201 0 -0.25716885613217533 -0.42246281826982612 0 -0.2743636922497168 -0.42737080149350393 0 -0.25716885613217533 -0.42246281826982612 0 -0.25492027885926971 -0.4393078526827362 0 -0.25716885613217533 -0.42246281826982612 0 -0.25492027885926971 -0.4393078526827362 0 -0.24511942690234689 -0.42724708831265179 0 -0.25492027885926971 -0.4393078526827362 0 -0.25905473235802962 -0.45849094464496148 0 -0.24368141576335359 -0.45123202490662578 0 -0.25492027885926971 -0.4393078526827362 0 -0.25905473235802962 -0.45849094464496148 0 -0.27019948841121272 -0.44768856810427993 0 -0.25905473235802962 -0.45849094464496148 0 -0.26092390007487148 -0.48457594695833278 0 -0.24918436622642889 -0.46213550746578491 0 -0.25905473235802962 -0.45849094464496148 0 -0.24368141576335359 -0.45123202490662578 0 -0.24918436622642889 -0.46213550746578491 0 -0.25905473235802962 -0.45849094464496148 0 -0.27541894481304119 -0.46600576775200958 0 -0.27019948841121272 -0.44768856810427993 0 -0.2743636922497168 -0.42737080149350393 0 -0.25492027885926971 -0.4393078526827362 0 -0.27019948841121272 -0.44768856810427993 0 -0.27541894481304119 -0.46600576775200958 0 -0.27019948841121272 -0.44768856810427993 0 -0.28764635144794631 -0.4451475004037031 0 -0.2743636922497168 -0.42737080149350393 0 -0.27019948841121272 -0.44768856810427993 0 -0.28764635144794631 -0.4451475004037031 0 -0.27541894481304119 -0.46600576775200958 0 -0.28764635144794631 -0.4451475004037031 0 -0.29584911624823579 -0.47397313997211371 0 -0.27541894481304119 -0.46600576775200958 0 -0.28764635144794631 -0.4451475004037031 0 -0.31334318368175701 -0.46150465148192932 0 -0.28764635144794631 -0.4451475004037031 0 -0.29584911624823579 -0.47397313997211371 0 -0.31643111160513948 -0.44048456892867799 0 -0.31334318368175701 -0.46150465148192932 0 -0.28764635144794631 -0.4451475004037031 0 -0.31537027636403397 -0.48226582180571909 0 -0.30190305498450132 -0.5 0 -0.29584911624823579 -0.47397313997211371 0 -0.31334318368175701 -0.46150465148192932 0 -0.31537027636403397 -0.48226582180571909 0 -0.29584911624823579 -0.47397313997211371 0 -0.27541894481304119 -0.46600576775200958 0 -0.29584911624823579 -0.47397313997211371 0 -0.28260705417720827 -0.48491097093649121 0 -0.30190305498450132 -0.5 0 -0.29584911624823579 -0.47397313997211371 0 -0.28260705417720827 -0.48491097093649121 0 -0.30190305498450132 -0.5 0 -0.28260705417720827 -0.48491097093649121 0 -0.27894025476539142 -0.49999999999999961 0 -0.27894025476539142 -0.49999999999999961 0 -0.26092390007487148 -0.48457594695833278 0 -0.28260705417720827 -0.48491097093649121 0 -0.27894025476539142 -0.49999999999999961 0 -0.26092390007487148 -0.48457594695833278 0 -0.27541894481304119 -0.46600576775200958 0 -0.28260705417720827 -0.48491097093649121 0 -0.26092390007487148 -0.48457594695833278 0 -0.26092390007487148 -0.48457594695833278 0 -0.24913616691952581 -0.47736902591786851 0 -0.2429075453843515 -0.46915189391666651 0 -0.25905473235802962 -0.45849094464496148 0 -0.27541894481304119 -0.46600576775200958 0 -0.26092390007487148 -0.48457594695833278 0 -0.26092390007487148 -0.48457594695833278 0 -0.2429075453843515 -0.46915189391666651 0 -0.26092390007487148 -0.48457594695833278 0 -0.2429075453843515 -0.46915189391666651 0 -0.24918436622642889 -0.46213550746578491 0 -0.26092390007487148 -0.48457594695833278 0 -0.25027180383143938 -0.48752573070490041 0 -0.24913616691952581 -0.47736902591786851 0 -0.27894025476539142 -0.49999999999999961 0 -0.26092390007487148 -0.48457594695833278 0 -0.25011848757635607 -0.5 0 -0.26092390007487148 -0.48457594695833278 0 -0.25027180383143938 -0.48752573070490041 0 -0.25011848757635607 -0.5 0 -0.25011848757635607 -0.5 0 -0.24090866075500431 -0.48815794994340023 0 -0.22129672038732071 -0.5 0 -0.25027180383143938 -0.48752573070490041 0 -0.25011848757635607 -0.5 0 -0.24090866075500431 -0.48815794994340023 0 -0.24090866075500431 -0.48815794994340023 0 -0.24913616691952581 -0.47736902591786851 0 -0.238282576465801 -0.48071240378587149 0 -0.24913616691952581 -0.47736902591786851 0 -0.2313836433255535 -0.46354066798050908 0 -0.24913616691952581 -0.47736902591786851 0 -0.238282576465801 -0.48071240378587149 0 -0.23350201102140869 -0.4740670760819069 0 -0.25027180383143938 -0.48752573070490041 0 -0.24090866075500431 -0.48815794994340023 0 -0.24913616691952581 -0.47736902591786851 0 -0.24913616691952581 -0.47736902591786851 0 -0.23350201102140869 -0.4740670760819069 0 -0.2313836433255535 -0.46354066798050908 0 -0.24913616691952581 -0.47736902591786851 0 -0.2429075453843515 -0.46915189391666651 0 -0.2313836433255535 -0.46354066798050908 0 -0.24090866075500431 -0.48815794994340023 0 -0.238282576465801 -0.48071240378587149 0 -0.22958346716726541 -0.48325556320031082 0 -0.22958346716726541 -0.48325556320031082 0 -0.23350201102140869 -0.4740670760819069 0 -0.22299105558035059 -0.47288995614595419 0 -0.238282576465801 -0.48071240378587149 0 -0.22958346716726541 -0.48325556320031082 0 -0.23350201102140869 -0.4740670760819069 0 -0.23350201102140869 -0.4740670760819069 0 -0.22299105558035059 -0.47288995614595419 0 -0.2313836433255535 -0.46354066798050908 0 -0.22958346716726541 -0.48325556320031082 0 -0.22299105558035059 -0.47288995614595419 0 -0.21795933004148249 -0.48453144872056753 0 -0.24090866075500431 -0.48815794994340023 0 -0.22958346716726541 -0.48325556320031082 0 -0.22129672038732071 -0.5 0 -0.22958346716726541 -0.48325556320031082 0 -0.22129672038732071 -0.5 0 -0.21795933004148249 -0.48453144872056753 0 -0.25492027885926971 -0.4393078526827362 0 -0.2380774696897632 -0.43756994180133751 0 -0.24368141576335359 -0.45123202490662578 0 -0.2380774696897632 -0.43756994180133751 0 -0.24368141576335359 -0.45123202490662578 0 -0.23228702890826641 -0.4461079392185211 0 -0.24368141576335359 -0.45123202490662578 0 -0.23531816863565189 -0.4527230530044884 0 -0.23228702890826641 -0.4461079392185211 0 -0.24368141576335359 -0.45123202490662578 0 -0.23531816863565189 -0.4527230530044884 0 -0.24037436034496459 -0.45807905611974359 0 -0.23531816863565189 -0.4527230530044884 0 -0.2347748937503211 -0.45721190149026553 0 -0.24037436034496459 -0.45807905611974359 0 -0.24368141576335359 -0.45123202490662578 0 -0.24037436034496459 -0.45807905611974359 0 -0.24918436622642889 -0.46213550746578491 0 -0.2429075453843515 -0.46915189391666651 0 -0.24037436034496459 -0.45807905611974359 0 -0.24918436622642889 -0.46213550746578491 0 -0.2429075453843515 -0.46915189391666651 0 -0.2347748937503211 -0.45721190149026553 0 -0.24037436034496459 -0.45807905611974359 0 -0.2429075453843515 -0.46915189391666651 0 -0.2347748937503211 -0.45721190149026553 0 -0.22489119069383151 -0.45372784087499979 0 -0.2429075453843515 -0.46915189391666651 0 -0.22489119069383151 -0.45372784087499979 0 -0.2313836433255535 -0.46354066798050908 0 -0.21945506492700501 -0.46384303814387351 0 -0.21363111973158011 -0.44971231004315132 0 -0.2313836433255535 -0.46354066798050908 0 -0.21363111973158011 -0.44971231004315132 0 -0.2313836433255535 -0.46354066798050908 0 -0.22489119069383151 -0.45372784087499979 0 -0.21363111973158011 -0.44971231004315132 0 -0.2429075453843515 -0.46915189391666651 0 -0.2313836433255535 -0.46354066798050908 0 -0.22489119069383151 -0.45372784087499979 0 -0.22299105558035059 -0.47288995614595419 0 -0.2313836433255535 -0.46354066798050908 0 -0.21945506492700501 -0.46384303814387351 0 -0.2347748937503211 -0.45721190149026553 0 -0.22489119069383151 -0.45372784087499979 0 -0.22901429322721259 -0.45161725682020748 0 -0.23531816863565189 -0.4527230530044884 0 -0.2347748937503211 -0.45721190149026553 0 -0.22901429322721259 -0.45161725682020748 0 -0.23531816863565189 -0.4527230530044884 0 -0.23228702890826641 -0.4461079392185211 0 -0.22901429322721259 -0.45161725682020748 0 -0.23228702890826641 -0.4461079392185211 0 -0.22901429322721259 -0.45161725682020748 0 -0.22546234604025081 -0.44679857302050491 0 -0.22489119069383151 -0.45372784087499979 0 -0.22901429322721259 -0.45161725682020748 0 -0.22546234604025081 -0.44679857302050491 0 -0.22489119069383151 -0.45372784087499979 0 -0.21457327341448659 -0.44489452769206478 0 -0.22489119069383151 -0.45372784087499979 0 -0.22546234604025081 -0.44679857302050491 0 -0.21457327341448659 -0.44489452769206478 0 -0.22489119069383151 -0.45372784087499979 0 -0.21402611396768359 -0.44769247368947301 0 -0.22546234604025081 -0.44679857302050491 0 -0.22654594395745881 -0.43764530049672951 0 -0.21457327341448659 -0.44489452769206478 0 -0.2380774696897632 -0.43756994180133751 0 -0.23228702890826641 -0.4461079392185211 0 -0.22654594395745881 -0.43764530049672951 0 -0.23228702890826641 -0.4461079392185211 0 -0.22546234604025081 -0.44679857302050491 0 -0.22654594395745881 -0.43764530049672951 0 -0.20361069667558729 -0.44190688474862411 0 -0.21457327341448659 -0.44489452769206478 0 -0.21402611396768359 -0.44769247368947301 0 -0.21457327341448659 -0.44489452769206478 0 -0.20006420893797519 -0.43247311481943979 0 -0.20361069667558729 -0.44190688474862411 0 -0.21457327341448659 -0.44489452769206478 0 -0.20006420893797519 -0.43247311481943979 0 -0.20361069667558729 -0.44190688474862411 0 -0.21402611396768359 -0.44769247368947301 0 -0.22489119069383151 -0.45372784087499979 0 -0.21402611396768359 -0.44769247368947301 0 -0.21363111973158011 -0.44971231004315132 0 -0.22489119069383151 -0.45372784087499979 0 -0.21457327341448659 -0.44489452769206478 0 -0.21402611396768359 -0.44769247368947301 0 -0.21402611396768359 -0.44769247368947301 0 -0.21363111973158011 -0.44971231004315132 0 -0.21457327341448659 -0.44489452769206478 0 -0.21402611396768359 -0.44769247368947301 0 -0.20361069667558729 -0.44190688474862411 0 -0.21363111973158011 -0.44971231004315132 0 -0.1987201423523213 -0.45468909231781818 0 -0.20361069667558729 -0.44190688474862411 0 -0.21402611396768359 -0.44769247368947301 0 -0.21363111973158011 -0.44971231004315132 0 -0.20361069667558729 -0.44190688474862411 0 -0.21363111973158011 -0.44971231004315132 0 -0.21363111973158011 -0.44971231004315132 0 -0.20981444107053679 -0.46922921840587939 0 -0.21363111973158011 -0.44971231004315132 0 -0.1987201423523213 -0.45468909231781818 0 -0.20981444107053679 -0.46922921840587939 0 -0.21945506492700501 -0.46384303814387351 0 -0.21363111973158011 -0.44971231004315132 0 -0.20981444107053679 -0.46922921840587939 0 -0.22299105558035059 -0.47288995614595419 0 -0.21945506492700501 -0.46384303814387351 0 -0.20981444107053679 -0.46922921840587939 0 -0.1957533887458752 -0.46676122251067981 0 -0.1987201423523213 -0.45468909231781818 0 -0.18023692430016239 -0.45598111725166518 0 -0.1957533887458752 -0.46676122251067981 0 -0.1987201423523213 -0.45468909231781818 0 -0.20981444107053679 -0.46922921840587939 0 -0.1987201423523213 -0.45468909231781818 0 -0.19095434586070509 -0.44550465234521258 0 -0.18023692430016239 -0.45598111725166518 0 -0.20361069667558729 -0.44190688474862411 0 -0.19095434586070509 -0.44550465234521258 0 -0.183937719747578 -0.43097887730002737 0 -0.20361069667558729 -0.44190688474862411 0 -0.1987201423523213 -0.45468909231781818 0 -0.19095434586070509 -0.44550465234521258 0 -0.22129672038732071 -0.5 0 -0.2059977624094943 -0.48874612676860779 0 -0.19247495319828539 -0.5 0 -0.22129672038732071 -0.5 0 -0.2059977624094943 -0.48874612676860779 0 -0.21795933004148249 -0.48453144872056753 0 -0.2059977624094943 -0.48874612676860779 0 -0.20981444107053679 -0.46922921840587939 0 -0.2059977624094943 -0.48874612676860779 0 -0.21795933004148249 -0.48453144872056753 0 -0.20981444107053679 -0.46922921840587939 0 -0.2059977624094943 -0.48874612676860779 0 -0.20981444107053679 -0.46922921840587939 0 -0.1954393984618536 -0.48076204243458159 0 -0.22299105558035059 -0.47288995614595419 0 -0.21795933004148249 -0.48453144872056753 0 -0.20981444107053679 -0.46922921840587939 0 -0.1957533887458752 -0.46676122251067981 0 -0.20981444107053679 -0.46922921840587939 0 -0.1954393984618536 -0.48076204243458159 0 -0.1957533887458752 -0.46676122251067981 0 -0.1954393984618536 -0.48076204243458159 0 -0.18114889659705999 -0.48210180921729928 0 -0.1954393984618536 -0.48076204243458159 0 -0.19247495319828539 -0.5 0 -0.18114889659705999 -0.48210180921729928 0 -0.2059977624094943 -0.48874612676860779 0 -0.1954393984618536 -0.48076204243458159 0 -0.19247495319828539 -0.5 0 -0.19247495319828539 -0.5 0 -0.16365318600925011 -0.5 0 -0.18114889659705999 -0.48210180921729928 0 -0.16365318600925011 -0.5 0 -0.16545843938516519 -0.48310810202731208 0 -0.18114889659705999 -0.48210180921729928 0 -0.16365318600925011 -0.5 0 -0.16545843938516519 -0.48310810202731208 0 -0.1512137793845707 -0.48284334400642498 0 -0.16545843938516519 -0.48310810202731208 0 -0.18114889659705999 -0.48210180921729928 0 -0.16581789554978019 -0.46748725488552412 0 -0.16545843938516519 -0.48310810202731208 0 -0.16581789554978019 -0.46748725488552412 0 -0.1512137793845707 -0.48284334400642498 0 -0.1957533887458752 -0.46676122251067981 0 -0.18114889659705999 -0.48210180921729928 0 -0.16581789554978019 -0.46748725488552412 0 -0.1957533887458752 -0.46676122251067981 0 -0.16581789554978019 -0.46748725488552412 0 -0.1957533887458752 -0.46676122251067981 0 -0.18023692430016239 -0.45598111725166518 0 -0.16581789554978019 -0.46748725488552412 0 -0.18023692430016239 -0.45598111725166518 0 -0.183937719747578 -0.43097887730002737 0 -0.19095434586070509 -0.44550465234521258 0 -0.18023692430016239 -0.45598111725166518 0 -0.183937719747578 -0.43097887730002737 0 -0.18023692430016239 -0.45598111725166518 0 -0.16775777081318119 -0.45017361599264022 0 -0.1750360751994843 -0.43696307014575969 0 -0.18023692430016239 -0.45598111725166518 0 -0.1750360751994843 -0.43696307014575969 0 -0.183937719747578 -0.43097887730002737 0 -0.16775777081318119 -0.45017361599264022 0 -0.160568439161904 -0.44167873141547548 0 -0.1750360751994843 -0.43696307014575969 0 -0.16775777081318119 -0.45017361599264022 0 -0.160568439161904 -0.44167873141547548 0 -0.15283372132220191 -0.45115614936358678 0 -0.16775777081318119 -0.45017361599264022 0 -0.16581789554978019 -0.46748725488552412 0 -0.15283372132220191 -0.45115614936358678 0 -0.18023692430016239 -0.45598111725166518 0 -0.16775777081318119 -0.45017361599264022 0 -0.16581789554978019 -0.46748725488552412 0 -0.16581789554978019 -0.46748725488552412 0 -0.13588240235368521 -0.46821328726036848 0 -0.15283372132220191 -0.45115614936358678 0 -0.13487134328735489 -0.44273590319632261 0 -0.13588240235368521 -0.46821328726036848 0 -0.16581789554978019 -0.46748725488552412 0 -0.15283372132220191 -0.45115614936358678 0 -0.13588240235368521 -0.46821328726036848 0 -0.15077741346983109 -0.43880040901475109 0 -0.15283372132220191 -0.45115614936358678 0 -0.13487134328735489 -0.44273590319632261 0 -0.160568439161904 -0.44167873141547548 0 -0.15077741346983109 -0.43880040901475109 0 -0.15283372132220191 -0.45115614936358678 0 -0.13487134328735489 -0.44273590319632261 0 -0.13588240235368521 -0.46821328726036848 0 -0.11532737834136959 -0.44527629091745602 0 -0.13487134328735489 -0.44273590319632261 0 -0.1294305586347588 -0.42997154963942907 0 -0.11532737834136959 -0.44527629091745602 0 -0.13588240235368521 -0.46821328726036848 0 -0.1512137793845707 -0.48284334400642498 0 -0.12128002841142629 -0.4836412110612282 0 -0.13483141882021499 -0.5 0 -0.1512137793845707 -0.48284334400642498 0 -0.12128002841142629 -0.4836412110612282 0 -0.16365318600925011 -0.5 0 -0.13483141882021499 -0.5 0 -0.1512137793845707 -0.48284334400642498 0 -0.16581789554978019 -0.46748725488552412 0 -0.13588240235368521 -0.46821328726036848 0 -0.1512137793845707 -0.48284334400642498 0 -0.14272693356441921 -0.39448137566998831 0 -0.1473986382508729 -0.3873853837161591 0 -0.16409204772596961 -0.40167684486982058 0 -0.14272693356441921 -0.39448137566998831 0 -0.15976670716178071 -0.40775453580570459 0 -0.16409204772596961 -0.40167684486982058 0 -0.14272693356441921 -0.39448137566998831 0 -0.15976670716178071 -0.40775453580570459 0 -0.14272693356441921 -0.39448137566998831 0 -0.14903316462186281 -0.40573914593124211 0 -0.15976670716178071 -0.40775453580570459 0 -0.1473986382508729 -0.3873853837161591 0 -0.16409204772596961 -0.40167684486982058 0 -0.14272693356441921 -0.39448137566998831 0 -0.14903316462186281 -0.40573914593124211 0 -0.13886958497303531 -0.40594428724724352 0 -0.15574238308673979 -0.37827296045787229 0 -0.1473986382508729 -0.3873853837161591 0 -0.14066158518766059 -0.36753639998789428 0 -0.15574238308673979 -0.37827296045787229 0 -0.1473986382508729 -0.3873853837161591 0 -0.16076868245376641 -0.38786146773231972 0 -0.14272693356441921 -0.39448137566998831 0 -0.1256871599670577 -0.38120821553427192 0 -0.1279426818698331 -0.3958868412390425 0 -0.14272693356441921 -0.39448137566998831 0 -0.1256871599670577 -0.38120821553427192 0 -0.1473986382508729 -0.3873853837161591 0 -0.1256871599670577 -0.38120821553427192 0 -0.13070522877577609 -0.3730939225624979 0 -0.1473986382508729 -0.3873853837161591 0 -0.14066158518766059 -0.36753639998789428 0 -0.13070522877577609 -0.3730939225624979 0 -0.1473986382508729 -0.3873853837161591 0 -0.13070522877577609 -0.3730939225624979 0 -0.14272693356441921 -0.39448137566998831 0 -0.1473986382508729 -0.3873853837161591 0 -0.1256871599670577 -0.38120821553427192 0 -0.14272693356441921 -0.39448137566998831 0 -0.1279426818698331 -0.3958868412390425 0 -0.13442513231342529 -0.40073157039449181 0 -0.13886958497303531 -0.40594428724724352 0 -0.13442513231342529 -0.40073157039449181 0 -0.1281613288464136 -0.40661377742169269 0 -0.14272693356441921 -0.39448137566998831 0 -0.13886958497303531 -0.40594428724724352 0 -0.13442513231342529 -0.40073157039449181 0 -0.1279426818698331 -0.3958868412390425 0 -0.13442513231342529 -0.40073157039449181 0 -0.1281613288464136 -0.40661377742169269 0 -0.13886958497303531 -0.40594428724724352 0 -0.1281613288464136 -0.40661377742169269 0 -0.12504180997478631 -0.41687942734639749 0 -0.12504180997478631 -0.41687942734639749 0 -0.1294305586347588 -0.42997154963942907 0 -0.14158066027111429 -0.41779669101183048 0 -0.13886958497303531 -0.40594428724724352 0 -0.12504180997478631 -0.41687942734639749 0 -0.14158066027111429 -0.41779669101183048 0 -0.1294305586347588 -0.42997154963942907 0 -0.14482038803778249 -0.4287561440991749 0 -0.14158066027111429 -0.41779669101183048 0 -0.13487134328735489 -0.44273590319632261 0 -0.1294305586347588 -0.42997154963942907 0 -0.14482038803778249 -0.4287561440991749 0 -0.13487134328735489 -0.44273590319632261 0 -0.14482038803778249 -0.4287561440991749 0 -0.15077741346983109 -0.43880040901475109 0 -0.13487134328735489 -0.44273590319632261 0 -0.14482038803778249 -0.4287561440991749 0 -0.15077741346983109 -0.43880040901475109 0 -0.14482038803778249 -0.4287561440991749 0 -0.1607931755399121 -0.42967511699919603 0 -0.14482038803778249 -0.4287561440991749 0 -0.1547694327882114 -0.41477638500202813 0 -0.1607931755399121 -0.42967511699919603 0 -0.14903316462186281 -0.40573914593124211 0 -0.13886958497303531 -0.40594428724724352 0 -0.1547694327882114 -0.41477638500202813 0 -0.13886958497303531 -0.40594428724724352 0 -0.14158066027111429 -0.41779669101183048 0 -0.1547694327882114 -0.41477638500202813 0 -0.13886958497303531 -0.40594428724724352 0 -0.1547694327882114 -0.41477638500202813 0 -0.14482038803778249 -0.4287561440991749 0 -0.14158066027111429 -0.41779669101183048 0 -0.1547694327882114 -0.41477638500202813 0 -0.14482038803778249 -0.4287561440991749 0 -0.1547694327882114 -0.41477638500202813 0 -0.14903316462186281 -0.40573914593124211 0 -0.1547694327882114 -0.41477638500202813 0 -0.15976670716178071 -0.40775453580570459 0 -0.15976670716178071 -0.40775453580570459 0 -0.17847166469690701 -0.41398743592380599 0 -0.16409204772596961 -0.40167684486982058 0 -0.1547694327882114 -0.41477638500202813 0 -0.17654496309993181 -0.42687232545448001 0 -0.15976670716178071 -0.40775453580570459 0 -0.17735502775610229 -0.42145498754192529 0 -0.1547694327882114 -0.41477638500202813 0 -0.15976670716178071 -0.40775453580570459 0 -0.17735502775610229 -0.42145498754192529 0 -0.15976670716178071 -0.40775453580570459 0 -0.17847166469690701 -0.41398743592380599 0 -0.17735502775610229 -0.42145498754192529 0 -0.1547694327882114 -0.41477638500202813 0 -0.17654496309993181 -0.42687232545448001 0 -0.17735502775610229 -0.42145498754192529 0 -0.1547694327882114 -0.41477638500202813 0 -0.15976670716178071 -0.40775453580570459 0 -0.17847166469690701 -0.41398743592380599 0 -0.16409204772596961 -0.40167684486982058 0 -0.1607931755399121 -0.42967511699919603 0 -0.1750360751994843 -0.43696307014575969 0 -0.17654496309993181 -0.42687232545448001 0 -0.1547694327882114 -0.41477638500202813 0 -0.1607931755399121 -0.42967511699919603 0 -0.17654496309993181 -0.42687232545448001 0 -0.160568439161904 -0.44167873141547548 0 -0.15077741346983109 -0.43880040901475109 0 -0.1607931755399121 -0.42967511699919603 0 -0.160568439161904 -0.44167873141547548 0 -0.1607931755399121 -0.42967511699919603 0 -0.1750360751994843 -0.43696307014575969 0 -0.1750360751994843 -0.43696307014575969 0 -0.17654496309993181 -0.42687232545448001 0 -0.1750360751994843 -0.43696307014575969 0 -0.17654496309993181 -0.42687232545448001 0 -0.183937719747578 -0.43097887730002737 0 -0.17654496309993181 -0.42687232545448001 0 -0.1845211798264115 -0.42703707367954868 0 -0.17735502775610229 -0.42145498754192529 0 -0.17654496309993181 -0.42687232545448001 0 -0.17735502775610229 -0.42145498754192529 0 -0.17654496309993181 -0.42687232545448001 0 -0.1845211798264115 -0.42703707367954868 0 -0.183937719747578 -0.43097887730002737 0 -0.1845211798264115 -0.42703707367954868 0 -0.17735502775610229 -0.42145498754192529 0 -0.1855551444614647 -0.42005170194681368 0 -0.1845211798264115 -0.42703707367954868 0 -0.17735502775610229 -0.42145498754192529 0 -0.1845211798264115 -0.42703707367954868 0 -0.1855551444614647 -0.42005170194681368 0 -0.1845211798264115 -0.42703707367954868 0 -0.183937719747578 -0.43097887730002737 0 -0.17654496309993181 -0.42687232545448001 0 -0.183937719747578 -0.43097887730002737 0 -0.1855551444614647 -0.42005170194681368 0 -0.18932499888558721 -0.39458290578285521 0 -0.17847166469690701 -0.41398743592380599 0 -0.1855551444614647 -0.42005170194681368 0 -0.18932499888558721 -0.39458290578285521 0 -0.17847166469690701 -0.41398743592380599 0 -0.17735502775610229 -0.42145498754192529 0 -0.17847166469690701 -0.41398743592380599 0 -0.17735502775610229 -0.42145498754192529 0 -0.1855551444614647 -0.42005170194681368 0 -0.17847166469690701 -0.41398743592380599 0 -0.1855551444614647 -0.42005170194681368 0 -0.17847166469690701 -0.41398743592380599 0 -0.18231728771020411 -0.38826968711380128 0 -0.18932499888558721 -0.39458290578285521 0 -0.16409204772596961 -0.40167684486982058 0 -0.17702604245516679 -0.38350282565353061 0 -0.18231728771020411 -0.38826968711380128 0 -0.17847166469690701 -0.41398743592380599 0 -0.18231728771020411 -0.38826968711380128 0 -0.17847166469690701 -0.41398743592380599 0 -0.16409204772596961 -0.40167684486982058 0 -0.18231728771020411 -0.38826968711380128 0 -0.18231728771020411 -0.38826968711380128 0 -0.18932499888558721 -0.39458290578285521 0 -0.16409204772596961 -0.40167684486982058 0 -0.16076868245376641 -0.38786146773231972 0 -0.17702604245516679 -0.38350282565353061 0 -0.1473986382508729 -0.3873853837161591 0 -0.16409204772596961 -0.40167684486982058 0 -0.16076868245376641 -0.38786146773231972 0 -0.16409204772596961 -0.40167684486982058 0 -0.17702604245516679 -0.38350282565353061 0 -0.15976670716178071 -0.40775453580570459 0 -0.16409204772596961 -0.40167684486982058 0 -0.15574238308673979 -0.37827296045787229 0 -0.17702604245516679 -0.38350282565353061 0 -0.1552257304935987 -0.36386301273566612 0 -0.15574238308673979 -0.37827296045787229 0 -0.16076868245376641 -0.38786146773231972 0 -0.17702604245516679 -0.38350282565353061 0 -0.18231728771020411 -0.38826968711380128 0 -0.18077394110133321 -0.37823651903734679 0 -0.18559087567824609 -0.36637744422403778 0 -0.17702604245516679 -0.38350282565353061 0 -0.18077394110133321 -0.37823651903734679 0 -0.17857874766657811 -0.37149553804793922 0 -0.18231728771020411 -0.38826968711380128 0 -0.18559087567824609 -0.36637744422403778 0 -0.18231728771020411 -0.38826968711380128 0 -0.19284541047492129 -0.37079932289216277 0 -0.18559087567824609 -0.36637744422403778 0 -0.17702604245516679 -0.38350282565353061 0 -0.18077394110133321 -0.37823651903734679 0 -0.17702604245516679 -0.38350282565353061 0 -0.18231728771020411 -0.38826968711380128 0 -0.17702604245516679 -0.38350282565353061 0 -0.18231728771020411 -0.38826968711380128 0 -0.18077394110133321 -0.37823651903734679 0 -0.19859250258965891 -0.37991303993787029 0 -0.18932499888558721 -0.39458290578285521 0 -0.19284541047492129 -0.37079932289216277 0 -0.18231728771020411 -0.38826968711380128 0 -0.18932499888558721 -0.39458290578285521 0 -0.19284541047492129 -0.37079932289216277 0 -0.18932499888558721 -0.39458290578285521 0 -0.19284541047492129 -0.37079932289216277 0 -0.1975845553156497 -0.38916531815535899 0 -0.20023870502100111 -0.39597900365680028 0 -0.206061729152652 -0.38607745436565089 0 -0.19859250258965891 -0.37991303993787029 0 -0.1975845553156497 -0.38916531815535899 0 -0.206061729152652 -0.38607745436565089 0 -0.19859250258965891 -0.37991303993787029 0 -0.1975845553156497 -0.38916531815535899 0 -0.18932499888558721 -0.39458290578285521 0 -0.1855551444614647 -0.42005170194681368 0 -0.18932499888558721 -0.39458290578285521 0 -0.192642458832438 -0.39757159203805692 0 -0.1975845553156497 -0.38916531815535899 0 -0.18932499888558721 -0.39458290578285521 0 -0.192642458832438 -0.39757159203805692 0 -0.18932499888558721 -0.39458290578285521 0 -0.192642458832438 -0.39757159203805692 0 -0.19841093841887381 -0.40574375978390198 0 -0.20023870502100111 -0.39597900365680028 0 -0.2082147184759284 -0.40011166420317679 0 -0.192642458832438 -0.39757159203805692 0 -0.19841093841887381 -0.40574375978390198 0 -0.20023870502100111 -0.39597900365680028 0 -0.1975845553156497 -0.38916531815535899 0 -0.192642458832438 -0.39757159203805692 0 -0.20023870502100111 -0.39597900365680028 0 -0.2082147184759284 -0.40011166420317679 0 -0.21635816543216199 -0.39142068726087459 0 -0.206061729152652 -0.38607745436565089 0 -0.20023870502100111 -0.39597900365680028 0 -0.2082147184759284 -0.40011166420317679 0 -0.206061729152652 -0.38607745436565089 0 -0.2082147184759284 -0.40011166420317679 0 -0.21635816543216199 -0.39142068726087459 0 -0.22186944776659129 -0.4075849245331768 0 -0.21635816543216199 -0.39142068726087459 0 -0.21683969750729051 -0.37683338469579242 0 -0.206061729152652 -0.38607745436565089 0 -0.19859250258965891 -0.37991303993787029 0 -0.206061729152652 -0.38607745436565089 0 -0.2062955052881244 -0.37168717648572008 0 -0.21683969750729051 -0.37683338469579242 0 -0.206061729152652 -0.38607745436565089 0 -0.2062955052881244 -0.37168717648572008 0 -0.20361069667558729 -0.44190688474862411 0 -0.1845211798264115 -0.42703707367954868 0 -0.183937719747578 -0.43097887730002737 0 -0.20361069667558729 -0.44190688474862411 0 -0.1845211798264115 -0.42703707367954868 0 -0.20006420893797519 -0.43247311481943979 0 -0.20361069667558729 -0.44190688474862411 0 -0.1845211798264115 -0.42703707367954868 0 -0.1855551444614647 -0.42005170194681368 0 -0.20006420893797519 -0.43247311481943979 0 -0.20540366530353599 -0.41500483707466279 0 -0.20361069667558729 -0.44190688474862411 0 -0.183937719747578 -0.43097887730002737 0 -0.1845211798264115 -0.42703707367954868 0 -0.1855551444614647 -0.42005170194681368 0 -0.20006420893797519 -0.43247311481943979 0 -0.1855551444614647 -0.42005170194681368 0 -0.20006420893797519 -0.43247311481943979 0 -0.1855551444614647 -0.42005170194681368 0 -0.19841093841887381 -0.40574375978390198 0 -0.20540366530353599 -0.41500483707466279 0 -0.1855551444614647 -0.42005170194681368 0 -0.192642458832438 -0.39757159203805692 0 -0.19841093841887381 -0.40574375978390198 0 -0.2082147184759284 -0.40011166420317679 0 -0.20540366530353599 -0.41500483707466279 0 -0.22186944776659129 -0.4075849245331768 0 -0.20540366530353599 -0.41500483707466279 0 -0.21822136059053959 -0.42623972611262101 0 -0.22186944776659129 -0.4075849245331768 0 -0.19841093841887381 -0.40574375978390198 0 -0.2082147184759284 -0.40011166420317679 0 -0.20540366530353599 -0.41500483707466279 0 -0.21457327341448659 -0.44489452769206478 0 -0.21822136059053959 -0.42623972611262101 0 -0.20006420893797519 -0.43247311481943979 0 -0.20540366530353599 -0.41500483707466279 0 -0.21822136059053959 -0.42623972611262101 0 -0.21457327341448659 -0.44489452769206478 0 -0.20006420893797519 -0.43247311481943979 0 -0.21822136059053959 -0.42623972611262101 0 -0.22654594395745881 -0.43764530049672951 0 -0.21457327341448659 -0.44489452769206478 0 -0.21822136059053959 -0.42623972611262101 0 -0.2380774696897632 -0.43756994180133751 0 -0.22654594395745881 -0.43764530049672951 0 -0.23156756689063471 -0.42355600922796832 0 -0.22654594395745881 -0.43764530049672951 0 -0.21822136059053959 -0.42623972611262101 0 -0.23156756689063471 -0.42355600922796832 0 -0.21822136059053959 -0.42623972611262101 0 -0.23156756689063471 -0.42355600922796832 0 -0.22186944776659129 -0.4075849245331768 0 -0.21822136059053959 -0.42623972611262101 0 -0.22186944776659129 -0.4075849245331768 0 -0.23156756689063471 -0.42355600922796832 0 -0.22186944776659129 -0.4075849245331768 0 -0.2438629629398914 -0.41333881958139068 0 -0.25716885613217533 -0.42246281826982612 0 -0.2438629629398914 -0.41333881958139068 0 -0.24511942690234689 -0.42724708831265179 0 -0.23156756689063471 -0.42355600922796832 0 -0.2438629629398914 -0.41333881958139068 0 -0.24511942690234689 -0.42724708831265179 0 -0.25492027885926971 -0.4393078526827362 0 -0.2380774696897632 -0.43756994180133751 0 -0.24511942690234689 -0.42724708831265179 0 -0.2380774696897632 -0.43756994180133751 0 -0.23156756689063471 -0.42355600922796832 0 -0.24511942690234689 -0.42724708831265179 0 -0.22641617684339441 -0.38521582376801189 0 -0.2400950597132217 -0.36733896130655103 0 -0.21683969750729051 -0.37683338469579242 0 -0.22641617684339441 -0.38521582376801189 0 -0.22476735659134001 -0.36958500124480798 0 -0.21635816543216199 -0.39142068726087459 0 -0.21683969750729051 -0.37683338469579242 0 -0.22641617684339441 -0.38521582376801189 0 -0.22186944776659129 -0.4075849245331768 0 -0.2438629629398914 -0.41333881958139068 0 -0.23418211960079471 -0.39638749695287762 0 -0.21635816543216199 -0.39142068726087459 0 -0.22186944776659129 -0.4075849245331768 0 -0.23418211960079471 -0.39638749695287762 0 -0.21635816543216199 -0.39142068726087459 0 -0.22641617684339441 -0.38521582376801189 0 -0.23418211960079471 -0.39638749695287762 0 -0.2438629629398914 -0.41333881958139068 0 -0.23418211960079471 -0.39638749695287762 0 -0.24966947659482561 -0.39734555498588747 0 -0.23418211960079471 -0.39638749695287762 0 -0.24966947659482561 -0.39734555498588747 0 -0.24430747118197521 -0.38230295348442611 0 -0.22641617684339441 -0.38521582376801189 0 -0.24430747118197521 -0.38230295348442611 0 -0.2400950597132217 -0.36733896130655103 0 -0.22641617684339441 -0.38521582376801189 0 -0.23418211960079471 -0.39638749695287762 0 -0.24430747118197521 -0.38230295348442611 0 -0.25224988298000039 -0.37125021481022441 0 -0.24430747118197521 -0.38230295348442611 0 -0.2400950597132217 -0.36733896130655103 0 -0.25224988298000039 -0.37125021481022441 0 -0.25639014809874938 -0.34604299316079429 0 -0.2400950597132217 -0.36733896130655103 0 -0.24430747118197521 -0.38230295348442611 0 -0.2400950597132217 -0.36733896130655103 0 -0.22641617684339441 -0.38521582376801189 0 -0.2400950597132217 -0.36733896130655103 0 -0.22476735659134001 -0.36958500124480798 0 -0.2400950597132217 -0.36733896130655103 0 -0.22476735659134001 -0.36958500124480798 0 -0.22590708945400931 -0.35743977964939672 0 -0.22476735659134001 -0.36958500124480798 0 -0.22590708945400931 -0.35743977964939672 0 -0.2152270516707743 -0.36140884024431003 0 -0.21683969750729051 -0.37683338469579242 0 -0.22476735659134001 -0.36958500124480798 0 -0.2152270516707743 -0.36140884024431003 0 -0.2400950597132217 -0.36733896130655103 0 -0.22590708945400931 -0.35743977964939672 0 -0.2344258434381789 -0.34719987740564517 0 -0.22067324411948641 -0.34438496964266069 0 -0.22590708945400931 -0.35743977964939672 0 -0.2152270516707743 -0.36140884024431003 0 -0.22067324411948641 -0.34438496964266069 0 -0.22590708945400931 -0.35743977964939672 0 -0.2344258434381789 -0.34719987740564517 0 -0.2400950597132217 -0.36733896130655103 0 -0.2344258434381789 -0.34719987740564517 0 -0.25639014809874938 -0.34604299316079429 0 -0.2400950597132217 -0.36733896130655103 0 -0.25639014809874938 -0.34604299316079429 0 -0.2400950597132217 -0.36733896130655103 0 -0.2344258434381789 -0.34719987740564517 0 -0.2344258434381789 -0.34719987740564517 0 -0.24419962744989621 -0.33687177456890932 0 -0.23778715658391009 -0.33090853983232171 0 -0.25639014809874938 -0.34604299316079429 0 -0.2344258434381789 -0.34719987740564517 0 -0.24419962744989621 -0.33687177456890932 0 -0.25663214697082237 -0.32971286606005717 0 -0.24419962744989621 -0.33687177456890932 0 -0.24419547508842729 -0.32265219142200241 0 -0.24419962744989621 -0.33687177456890932 0 -0.23778715658391009 -0.33090853983232171 0 -0.24419547508842729 -0.32265219142200241 0 -0.25425073342367832 -0.31005663012565732 0 -0.2437488599192579 -0.31471559698466228 0 -0.24419547508842729 -0.32265219142200241 0 -0.23778715658391009 -0.33090853983232171 0 -0.2373582097799101 -0.3207580622603125 0 -0.2287566271631376 -0.32706079350473888 0 -0.23778715658391009 -0.33090853983232171 0 -0.24419547508842729 -0.32265219142200241 0 -0.2373582097799101 -0.3207580622603125 0 -0.2437488599192579 -0.31471559698466228 0 -0.2373582097799101 -0.3207580622603125 0 -0.2317036575437281 -0.31536370189291268 0 -0.2437488599192579 -0.31471559698466228 0 -0.24419547508842729 -0.32265219142200241 0 -0.2373582097799101 -0.3207580622603125 0 -0.2287566271631376 -0.32706079350473888 0 -0.21916724963714229 -0.31821924673930441 0 -0.2230874108880963 -0.30692170960383269 0 -0.2317036575437281 -0.31536370189291268 0 -0.2287566271631376 -0.32706079350473888 0 -0.2230874108880963 -0.30692170960383269 0 -0.2287566271631376 -0.32706079350473888 0 -0.2230874108880963 -0.30692170960383269 0 -0.2373582097799101 -0.3207580622603125 0 -0.2317036575437281 -0.31536370189291268 0 -0.2287566271631376 -0.32706079350473888 0 -0.2287566271631376 -0.32706079350473888 0 -0.21916724963714229 -0.31821924673930441 0 -0.21856666559767521 -0.33042007436114113 0 -0.22067324411948641 -0.34438496964266069 0 -0.2344258434381789 -0.34719987740564517 0 -0.2287566271631376 -0.32706079350473888 0 -0.2344258434381789 -0.34719987740564517 0 -0.2287566271631376 -0.32706079350473888 0 -0.22067324411948641 -0.34438496964266069 0 -0.2287566271631376 -0.32706079350473888 0 -0.21856666559767521 -0.33042007436114113 0 -0.2344258434381789 -0.34719987740564517 0 -0.23778715658391009 -0.33090853983232171 0 -0.2287566271631376 -0.32706079350473888 0 -0.22067324411948641 -0.34438496964266069 0 -0.2118957578329097 -0.3373488695566203 0 -0.21856666559767521 -0.33042007436114113 0 -0.2118957578329097 -0.3373488695566203 0 -0.21856666559767521 -0.33042007436114113 0 -0.21234044923570031 -0.32508649236238107 0 -0.2118957578329097 -0.3373488695566203 0 -0.20510703195788549 -0.33157904948332062 0 -0.21234044923570031 -0.32508649236238107 0 -0.2118957578329097 -0.3373488695566203 0 -0.2049013712408522 -0.3436075492363303 0 -0.20930378702216079 -0.34977262257378822 0 -0.2118957578329097 -0.3373488695566203 0 -0.20510703195788549 -0.33157904948332062 0 -0.2049013712408522 -0.3436075492363303 0 -0.20951335918653061 -0.31322471290248532 0 -0.19988623365359101 -0.32323215711077807 0 -0.20850656465525261 -0.30512862569465687 0 -0.2128584977107916 -0.31788234704428098 0 -0.20951335918653061 -0.31322471290248532 0 -0.2152384995697002 -0.31043564849226979 0 -0.21916724963714229 -0.31821924673930441 0 -0.2128584977107916 -0.31788234704428098 0 -0.2152384995697002 -0.31043564849226979 0 -0.21916724963714229 -0.31821924673930441 0 -0.21856666559767521 -0.33042007436114113 0 -0.21234044923570031 -0.32508649236238107 0 -0.21916724963714229 -0.31821924673930441 0 -0.2128584977107916 -0.31788234704428098 0 -0.21234044923570031 -0.32508649236238107 0 -0.20510703195788549 -0.33157904948332062 0 -0.2075985173524881 -0.32153064783997481 0 -0.19988623365359101 -0.32323215711077807 0 -0.20510703195788549 -0.33157904948332062 0 -0.21234044923570031 -0.32508649236238107 0 -0.2075985173524881 -0.32153064783997481 0 -0.2128584977107916 -0.31788234704428098 0 -0.21234044923570031 -0.32508649236238107 0 -0.2075985173524881 -0.32153064783997481 0 -0.2128584977107916 -0.31788234704428098 0 -0.2075985173524881 -0.32153064783997481 0 -0.20951335918653061 -0.31322471290248532 0 -0.2075985173524881 -0.32153064783997481 0 -0.20951335918653061 -0.31322471290248532 0 -0.19988623365359101 -0.32323215711077807 0 -0.19988623365359101 -0.32323215711077807 0 -0.1943187352665115 -0.3179075946785227 0 -0.19702326286169131 -0.31065604974424821 0 -0.19988623365359101 -0.32323215711077807 0 -0.1921380516143297 -0.32259295844451069 0 -0.19431364274461621 -0.33433151422275842 0 -0.19988623365359101 -0.32323215711077807 0 -0.1921380516143297 -0.32259295844451069 0 -0.1943187352665115 -0.3179075946785227 0 -0.1943187352665115 -0.3179075946785227 0 -0.18822739293643401 -0.31514921341455371 0 -0.19702326286169131 -0.31065604974424821 0 -0.1921380516143297 -0.32259295844451069 0 -0.1943187352665115 -0.3179075946785227 0 -0.18822739293643401 -0.31514921341455371 0 -0.20510703195788549 -0.33157904948332062 0 -0.19988623365359101 -0.32323215711077807 0 -0.19636582206425621 -0.34701574000147051 0 -0.19988623365359101 -0.32323215711077807 0 -0.19431364274461621 -0.33433151422275842 0 -0.19636582206425621 -0.34701574000147051 0 -0.1921380516143297 -0.32259295844451069 0 -0.18886446364628789 -0.34448520133427418 0 -0.19988623365359101 -0.32323215711077807 0 -0.19636582206425621 -0.34701574000147051 0 -0.1921380516143297 -0.32259295844451069 0 -0.19431364274461621 -0.33433151422275842 0 -0.18886446364628789 -0.34448520133427418 0 -0.1921380516143297 -0.32259295844451069 0 -0.18886446364628789 -0.34448520133427418 0 -0.18215020516022951 -0.33239437603419819 0 -0.20510703195788549 -0.33157904948332062 0 -0.2049013712408522 -0.3436075492363303 0 -0.19636582206425621 -0.34701574000147051 0 -0.19431364274461621 -0.33433151422275842 0 -0.18886446364628789 -0.34448520133427418 0 -0.19636582206425621 -0.34701574000147051 0 -0.19636582206425621 -0.34701574000147051 0 -0.19284541047492129 -0.37079932289216277 0 -0.2015519636881026 -0.35993571975923672 0 -0.18886446364628789 -0.34448520133427418 0 -0.19636582206425621 -0.34701574000147051 0 -0.18559087567824609 -0.36637744422403778 0 -0.19636582206425621 -0.34701574000147051 0 -0.19284541047492129 -0.37079932289216277 0 -0.2049013712408522 -0.3436075492363303 0 -0.19636582206425621 -0.34701574000147051 0 -0.2026889420961874 -0.35072249551377649 0 -0.19636582206425621 -0.34701574000147051 0 -0.2026889420961874 -0.35072249551377649 0 -0.2015519636881026 -0.35993571975923672 0 -0.19636582206425621 -0.34701574000147051 0 -0.19284541047492129 -0.37079932289216277 0 -0.18559087567824609 -0.36637744422403778 0 -0.19859250258965891 -0.37991303993787029 0 -0.19982134551020181 -0.37058381476874752 0 -0.2062955052881244 -0.37168717648572008 0 -0.19982134551020181 -0.37058381476874752 0 -0.2015519636881026 -0.35993571975923672 0 -0.2062955052881244 -0.37168717648572008 0 -0.19859250258965891 -0.37991303993787029 0 -0.19284541047492129 -0.37079932289216277 0 -0.19982134551020181 -0.37058381476874752 0 -0.19284541047492129 -0.37079932289216277 0 -0.19982134551020181 -0.37058381476874752 0 -0.2015519636881026 -0.35993571975923672 0 -0.2015519636881026 -0.35993571975923672 0 -0.2062955052881244 -0.37168717648572008 0 -0.2152270516707743 -0.36140884024431003 0 -0.21683969750729051 -0.37683338469579242 0 -0.2062955052881244 -0.37168717648572008 0 -0.2152270516707743 -0.36140884024431003 0 -0.22067324411948641 -0.34438496964266069 0 -0.2152270516707743 -0.36140884024431003 0 -0.20930378702216079 -0.34977262257378822 0 -0.22067324411948641 -0.34438496964266069 0 -0.2118957578329097 -0.3373488695566203 0 -0.20930378702216079 -0.34977262257378822 0 -0.2049013712408522 -0.3436075492363303 0 -0.2026889420961874 -0.35072249551377649 0 -0.20930378702216079 -0.34977262257378822 0 -0.2026889420961874 -0.35072249551377649 0 -0.2015519636881026 -0.35993571975923672 0 -0.20930378702216079 -0.34977262257378822 0 -0.2015519636881026 -0.35993571975923672 0 -0.2152270516707743 -0.36140884024431003 0 -0.20930378702216079 -0.34977262257378822 0 -0.22034534866352459 -0.25156882083834969 0 -0.2324338056110142 -0.26443309419542133 0 -0.236435548659505 -0.2495192776565486 0 -0.22034534866352459 -0.25156882083834969 0 -0.2324338056110142 -0.26443309419542133 0 -0.21661232801058611 -0.26777782431125602 0 -0.24521023478444801 -0.2602106557147722 0 -0.236435548659505 -0.2495192776565486 0 -0.25062049476955539 -0.24619563476610751 0 -0.2324338056110142 -0.26443309419542133 0 -0.24521023478444801 -0.2602106557147722 0 -0.236435548659505 -0.2495192776565486 0 -0.2454513520284935 -0.27585382120546792 0 -0.22794183053959849 -0.2764925146894433 0 -0.23421402264961161 -0.29010938065154729 0 -0.2324338056110142 -0.26443309419542133 0 -0.2454513520284935 -0.27585382120546792 0 -0.22794183053959849 -0.2764925146894433 0 -0.2324338056110142 -0.26443309419542133 0 -0.24521023478444801 -0.2602106557147722 0 -0.2454513520284935 -0.27585382120546792 0 -0.2324338056110142 -0.26443309419542133 0 -0.22794183053959849 -0.2764925146894433 0 -0.21661232801058611 -0.26777782431125602 0 -0.22794183053959849 -0.2764925146894433 0 -0.23421402264961161 -0.29010938065154729 0 -0.21099764439828719 -0.28428845308352391 0 -0.22641723598897259 -0.29585260471107527 0 -0.23421402264961161 -0.29010938065154729 0 -0.21099764439828719 -0.28428845308352391 0 -0.23421402264961161 -0.29010938065154729 0 -0.21099764439828719 -0.28428845308352391 0 -0.22641723598897259 -0.29585260471107527 0 -0.23421402264961161 -0.29010938065154729 0 -0.2333482958784725 -0.30088112721591448 0 -0.25743040090093589 -0.29593030821957078 0 -0.23421402264961161 -0.29010938065154729 0 -0.25743040090093589 -0.29593030821957078 0 -0.2454513520284935 -0.27585382120546792 0 -0.23421402264961161 -0.29010938065154729 0 -0.25743040090093589 -0.29593030821957078 0 -0.23421402264961161 -0.29010938065154729 0 -0.2442806522803305 -0.30294829820572322 0 -0.23421402264961161 -0.29010938065154729 0 -0.2442806522803305 -0.30294829820572322 0 -0.2333482958784725 -0.30088112721591448 0 -0.25425073342367832 -0.31005663012565732 0 -0.2437488599192579 -0.31471559698466228 0 -0.2442806522803305 -0.30294829820572322 0 -0.2437488599192579 -0.31471559698466228 0 -0.2442806522803305 -0.30294829820572322 0 -0.2333482958784725 -0.30088112721591448 0 -0.2437488599192579 -0.31471559698466228 0 -0.2317036575437281 -0.31536370189291268 0 -0.2230874108880963 -0.30692170960383269 0 -0.2437488599192579 -0.31471559698466228 0 -0.21808070855418979 -0.30077975552656422 0 -0.2437488599192579 -0.31471559698466228 0 -0.2230874108880963 -0.30692170960383269 0 -0.21808070855418979 -0.30077975552656422 0 -0.2437488599192579 -0.31471559698466228 0 -0.2333482958784725 -0.30088112721591448 0 -0.21808070855418979 -0.30077975552656422 0 -0.22641723598897259 -0.29585260471107527 0 -0.2333482958784725 -0.30088112721591448 0 -0.21808070855418979 -0.30077975552656422 0 -0.2230874108880963 -0.30692170960383269 0 -0.2152384995697002 -0.31043564849226979 0 -0.21808070855418979 -0.30077975552656422 0 -0.21916724963714229 -0.31821924673930441 0 -0.2230874108880963 -0.30692170960383269 0 -0.2152384995697002 -0.31043564849226979 0 -0.19988623365359101 -0.32323215711077807 0 -0.20340664524292579 -0.29944857422008558 0 -0.20850656465525261 -0.30512862569465687 0 -0.20951335918653061 -0.31322471290248532 0 -0.2152384995697002 -0.31043564849226979 0 -0.20850656465525261 -0.30512862569465687 0 -0.2152384995697002 -0.31043564849226979 0 -0.21808070855418979 -0.30077975552656422 0 -0.20850656465525261 -0.30512862569465687 0 -0.21808070855418979 -0.30077975552656422 0 -0.20340664524292579 -0.29944857422008558 0 -0.20850656465525261 -0.30512862569465687 0 -0.19988623365359101 -0.32323215711077807 0 -0.20340664524292579 -0.29944857422008558 0 -0.19702326286169131 -0.31065604974424821 0 -0.19988623365359101 -0.32323215711077807 0 -0.20340664524292579 -0.29944857422008558 0 -0.19702326286169131 -0.31065604974424821 0 -0.1921769562784654 -0.29954564452172261 0 -0.18470876058474381 -0.30466033516607 0 -0.18822739293643401 -0.31514921341455371 0 -0.19702326286169131 -0.31065604974424821 0 -0.18470876058474381 -0.30466033516607 0 -0.20340664524292579 -0.29944857422008558 0 -0.19702326286169131 -0.31065604974424821 0 -0.1921769562784654 -0.29954564452172261 0 -0.20340664524292579 -0.29944857422008558 0 -0.1921769562784654 -0.29954564452172261 0 -0.1924125571891217 -0.28684391406846621 0 -0.1924125571891217 -0.28684391406846621 0 -0.21099764439828719 -0.28428845308352391 0 -0.187781266146963 -0.27846752551550041 0 -0.21099764439828719 -0.28428845308352391 0 -0.187781266146963 -0.27846752551550041 0 -0.1921769562784654 -0.29954564452172261 0 -0.1924125571891217 -0.28684391406846621 0 -0.18333355551384439 -0.2961193494097431 0 -0.21808070855418979 -0.30077975552656422 0 -0.1924125571891217 -0.28684391406846621 0 -0.21099764439828719 -0.28428845308352391 0 -0.21808070855418979 -0.30077975552656422 0 -0.1924125571891217 -0.28684391406846621 0 -0.21808070855418979 -0.30077975552656422 0 -0.20340664524292579 -0.29944857422008558 0 -0.1924125571891217 -0.28684391406846621 0 -0.22641723598897259 -0.29585260471107527 0 -0.21808070855418979 -0.30077975552656422 0 -0.21099764439828719 -0.28428845308352391 0 -0.22794183053959849 -0.2764925146894433 0 -0.21099764439828719 -0.28428845308352391 0 -0.21661232801058611 -0.26777782431125602 0 -0.21099764439828719 -0.28428845308352391 0 -0.21661232801058611 -0.26777782431125602 0 -0.20222985791043099 -0.27060265654851667 0 -0.21099764439828719 -0.28428845308352391 0 -0.187781266146963 -0.27846752551550041 0 -0.20222985791043099 -0.27060265654851667 0 -0.187781266146963 -0.27846752551550041 0 -0.20222985791043099 -0.27060265654851667 0 -0.190366896422418 -0.26352559485549448 0 -0.20222985791043099 -0.27060265654851667 0 -0.190366896422418 -0.26352559485549448 0 -0.20506423292446829 -0.25662135480691911 0 -0.190366896422418 -0.26352559485549448 0 -0.20506423292446829 -0.25662135480691911 0 -0.19333962017553821 -0.248131514910678 0 -0.22034534866352459 -0.25156882083834969 0 -0.21661232801058611 -0.26777782431125602 0 -0.20506423292446829 -0.25662135480691911 0 -0.21661232801058611 -0.26777782431125602 0 -0.20222985791043099 -0.27060265654851667 0 -0.20506423292446829 -0.25662135480691911 0 -0.15965491377499469 -0.25543064726611159 0 -0.16674440582405281 -0.27290807261036931 0 -0.15322853599344149 -0.26556998984590241 0 -0.17465013784910891 -0.25651207552981542 0 -0.16674440582405281 -0.27290807261036931 0 -0.15965491377499469 -0.25543064726611159 0 -0.17465013784910891 -0.25651207552981542 0 -0.16674440582405281 -0.27290807261036931 0 -0.15965491377499469 -0.25543064726611159 0 -0.17465013784910891 -0.25651207552981542 0 -0.1689828706444442 -0.24451314150763201 0 -0.190366896422418 -0.26352559485549448 0 -0.17465013784910891 -0.25651207552981542 0 -0.1798856765606357 -0.26785331712779492 0 -0.190366896422418 -0.26352559485549448 0 -0.17465013784910891 -0.25651207552981542 0 -0.19333962017553821 -0.248131514910678 0 -0.17465013784910891 -0.25651207552981542 0 -0.1798856765606357 -0.26785331712779492 0 -0.16674440582405281 -0.27290807261036931 0 -0.1924125571891217 -0.28684391406846621 0 -0.16674440582405281 -0.27290807261036931 0 -0.1924125571891217 -0.28684391406846621 0 -0.187781266146963 -0.27846752551550041 0 -0.16674440582405281 -0.27290807261036931 0 -0.187781266146963 -0.27846752551550041 0 -0.1798856765606357 -0.26785331712779492 0 -0.16674440582405281 -0.27290807261036931 0 -0.187781266146963 -0.27846752551550041 0 -0.190366896422418 -0.26352559485549448 0 -0.1798856765606357 -0.26785331712779492 0 -0.16674440582405281 -0.27290807261036931 0 -0.15322853599344149 -0.26556998984590241 0 -0.16674440582405281 -0.27290807261036931 0 -0.1550378788705517 -0.27846618606257728 0 -0.15322853599344149 -0.26556998984590241 0 -0.16674440582405281 -0.27290807261036931 0 -0.15554810047515569 -0.29612851433944493 0 -0.1550378788705517 -0.27846618606257728 0 -0.1743054916004135 -0.28958820938787949 0 -0.17145255035924889 -0.30276344891616619 0 -0.15554810047515569 -0.29612851433944493 0 -0.16674440582405281 -0.27290807261036931 0 -0.15554810047515569 -0.29612851433944493 0 -0.16674440582405281 -0.27290807261036931 0 -0.1743054916004135 -0.28958820938787949 0 -0.15554810047515569 -0.29612851433944493 0 -0.1924125571891217 -0.28684391406846621 0 -0.16674440582405281 -0.27290807261036931 0 -0.1743054916004135 -0.28958820938787949 0 -0.1924125571891217 -0.28684391406846621 0 -0.18333355551384439 -0.2961193494097431 0 -0.1743054916004135 -0.28958820938787949 0 -0.18333355551384439 -0.2961193494097431 0 -0.1743054916004135 -0.28958820938787949 0 -0.17145255035924889 -0.30276344891616619 0 -0.1921769562784654 -0.29954564452172261 0 -0.18333355551384439 -0.2961193494097431 0 -0.18470876058474381 -0.30466033516607 0 -0.18333355551384439 -0.2961193494097431 0 -0.18470876058474381 -0.30466033516607 0 -0.17145255035924889 -0.30276344891616619 0 -0.18822739293643401 -0.31514921341455371 0 -0.18470876058474381 -0.30466033516607 0 -0.176101252740165 -0.31458491436099778 0 -0.18470876058474381 -0.30466033516607 0 -0.17145255035924889 -0.30276344891616619 0 -0.176101252740165 -0.31458491436099778 0 -0.17145255035924889 -0.30276344891616619 0 -0.1630337360442371 -0.3122293153336928 0 -0.176101252740165 -0.31458491436099778 0 -0.17145255035924889 -0.30276344891616619 0 -0.1630337360442371 -0.3122293153336928 0 -0.15554810047515569 -0.29612851433944493 0 -0.15554810047515569 -0.29612851433944493 0 -0.14435179512625879 -0.31934895606852032 0 -0.12680453395498631 -0.30366356005726919 0 -0.15554810047515569 -0.29612851433944493 0 -0.14435179512625879 -0.31934895606852032 0 -0.1630337360442371 -0.3122293153336928 0 -0.15554810047515569 -0.29612851433944493 0 -0.14435179512625879 -0.31934895606852032 0 -0.12680453395498631 -0.30366356005726919 0 -0.13423108745499809 -0.28713044031283302 0 -0.1167354820443192 -0.28396695224190333 0 -0.12680453395498631 -0.30366356005726919 0 -0.13423108745499809 -0.28713044031283302 0 -0.15554810047515569 -0.29612851433944493 0 -0.13423108745499809 -0.28713044031283302 0 -0.1271297338935537 -0.2787256926290172 0 -0.1167354820443192 -0.28396695224190333 0 -0.15554810047515569 -0.29612851433944493 0 -0.1550378788705517 -0.27846618606257728 0 -0.14463047318955691 -0.27925816745459281 0 -0.13423108745499809 -0.28713044031283302 0 -0.15554810047515569 -0.29612851433944493 0 -0.14463047318955691 -0.27925816745459281 0 -0.1550378788705517 -0.27846618606257728 0 -0.14463047318955691 -0.27925816745459281 0 -0.15322853599344149 -0.26556998984590241 0 -0.14067677043801999 -0.2709693507795754 0 -0.14463047318955691 -0.27925816745459281 0 -0.15322853599344149 -0.26556998984590241 0 -0.14067677043801999 -0.2709693507795754 0 -0.1432056448299911 -0.26366823317634469 0 -0.15322853599344149 -0.26556998984590241 0 -0.13423108745499809 -0.28713044031283302 0 -0.14463047318955691 -0.27925816745459281 0 -0.1334631572726511 -0.27378290125342419 0 -0.14067677043801999 -0.2709693507795754 0 -0.14463047318955691 -0.27925816745459281 0 -0.1334631572726511 -0.27378290125342419 0 -0.13423108745499809 -0.28713044031283302 0 -0.1334631572726511 -0.27378290125342419 0 -0.1271297338935537 -0.2787256926290172 0 -0.1271297338935537 -0.2787256926290172 0 -0.1283879477026251 -0.26471526458834832 0 -0.12176934331358789 -0.27354623725191929 0 -0.1334631572726511 -0.27378290125342419 0 -0.13407346769685671 -0.26585672118356568 0 -0.1283879477026251 -0.26471526458834832 0 -0.1334631572726511 -0.27378290125342419 0 -0.1271297338935537 -0.2787256926290172 0 -0.1283879477026251 -0.26471526458834832 0 -0.1271297338935537 -0.2787256926290172 0 -0.1283879477026251 -0.26471526458834832 0 -0.14067677043801999 -0.2709693507795754 0 -0.13407346769685671 -0.26585672118356568 0 -0.1432056448299911 -0.26366823317634469 0 -0.14067677043801999 -0.2709693507795754 0 -0.1334631572726511 -0.27378290125342419 0 -0.13407346769685671 -0.26585672118356568 0 -0.13766644639883471 -0.26101967496510498 0 -0.13899529729981211 -0.25510841070366391 0 -0.1432056448299911 -0.26366823317634469 0 -0.1283879477026251 -0.26471526458834832 0 -0.12986059017222401 -0.24831713638367231 0 -0.13407346769685671 -0.26585672118356568 0 -0.13766644639883471 -0.26101967496510498 0 -0.1432056448299911 -0.26366823317634469 0 -0.13386281940013811 -0.25905254081286833 0 -0.1283879477026251 -0.26471526458834832 0 -0.12986059017222401 -0.24831713638367231 0 -0.1283879477026251 -0.26471526458834832 0 -0.1242741827618466 -0.2541397074383015 0 -0.12986059017222401 -0.24831713638367231 0 -0.13766644639883471 -0.26101967496510498 0 -0.13386281940013811 -0.25905254081286833 0 -0.13899529729981211 -0.25510841070366391 0 -0.13407346769685671 -0.26585672118356568 0 -0.13766644639883471 -0.26101967496510498 0 -0.13386281940013811 -0.25905254081286833 0 -0.13407346769685671 -0.26585672118356568 0 -0.1283879477026251 -0.26471526458834832 0 -0.13407346769685671 -0.26585672118356568 0 -0.13386281940013811 -0.25905254081286833 0 -0.1283879477026251 -0.26471526458834832 0 -0.1242741827618466 -0.2541397074383015 0 -0.12248716586679501 -0.24844290833317059 0 -0.12986059017222401 -0.24831713638367231 0 -0.13386281940013811 -0.25905254081286833 0 -0.13899529729981211 -0.25510841070366391 0 -0.12986059017222401 -0.24831713638367231 0 -0.13899529729981211 -0.25510841070366391 0 -0.14749630003590489 -0.25643897743172289 0 -0.14247629992536839 -0.24909730877613839 0 -0.14749630003590489 -0.25643897743172289 0 -0.14907944547841331 -0.24819222630045659 0 -0.14247629992536839 -0.24909730877613839 0 -0.13899529729981211 -0.25510841070366391 0 -0.14749630003590489 -0.25643897743172289 0 -0.1432056448299911 -0.26366823317634469 0 -0.14749630003590489 -0.25643897743172289 0 -0.1432056448299911 -0.26366823317634469 0 -0.15322853599344149 -0.26556998984590241 0 -0.15965491377499469 -0.25543064726611159 0 -0.14749630003590489 -0.25643897743172289 0 -0.15322853599344149 -0.26556998984590241 0 -0.15965491377499469 -0.25543064726611159 0 -0.14749630003590489 -0.25643897743172289 0 -0.14907944547841331 -0.24819222630045659 0 -0.16982092744099719 -0.35587359561008369 0 -0.1559981289950638 -0.34325027875330438 0 -0.1552257304935987 -0.36386301273566612 0 -0.16982092744099719 -0.35587359561008369 0 -0.17423280912449629 -0.34302150016927141 0 -0.1559981289950638 -0.34325027875330438 0 -0.17702604245516679 -0.38350282565353061 0 -0.1552257304935987 -0.36386301273566612 0 -0.17702604245516679 -0.38350282565353061 0 -0.17123982128825771 -0.36745612592290988 0 -0.1552257304935987 -0.36386301273566612 0 -0.16982092744099719 -0.35587359561008369 0 -0.17123982128825771 -0.36745612592290988 0 -0.1552257304935987 -0.36386301273566612 0 -0.17702604245516679 -0.38350282565353061 0 -0.17123982128825771 -0.36745612592290988 0 -0.17857874766657811 -0.37149553804793922 0 -0.16982092744099719 -0.35587359561008369 0 -0.17123982128825771 -0.36745612592290988 0 -0.17738936727162191 -0.36276345315216219 0 -0.17123982128825771 -0.36745612592290988 0 -0.17738936727162191 -0.36276345315216219 0 -0.17857874766657811 -0.37149553804793922 0 -0.18077394110133321 -0.37823651903734679 0 -0.17857874766657811 -0.37149553804793922 0 -0.18559087567824609 -0.36637744422403778 0 -0.17738936727162191 -0.36276345315216219 0 -0.18559087567824609 -0.36637744422403778 0 -0.1799690832075008 -0.35433191745642389 0 -0.17738936727162191 -0.36276345315216219 0 -0.17857874766657811 -0.37149553804793922 0 -0.18559087567824609 -0.36637744422403778 0 -0.18886446364628789 -0.34448520133427418 0 -0.18559087567824609 -0.36637744422403778 0 -0.18886446364628789 -0.34448520133427418 0 -0.18559087567824609 -0.36637744422403778 0 -0.1799690832075008 -0.35433191745642389 0 -0.16982092744099719 -0.35587359561008369 0 -0.17738936727162191 -0.36276345315216219 0 -0.1799690832075008 -0.35433191745642389 0 -0.16982092744099719 -0.35587359561008369 0 -0.1799690832075008 -0.35433191745642389 0 -0.17423280912449629 -0.34302150016927141 0 -0.18886446364628789 -0.34448520133427418 0 -0.1799690832075008 -0.35433191745642389 0 -0.17423280912449629 -0.34302150016927141 0 -0.18886446364628789 -0.34448520133427418 0 -0.18215020516022951 -0.33239437603419819 0 -0.17423280912449629 -0.34302150016927141 0 -0.18215020516022951 -0.33239437603419819 0 -0.17423280912449629 -0.34302150016927141 0 -0.16859404629689859 -0.32779363182734411 0 -0.1921380516143297 -0.32259295844451069 0 -0.18822739293643401 -0.31514921341455371 0 -0.18212967061587809 -0.32295401854108879 0 -0.18822739293643401 -0.31514921341455371 0 -0.18212967061587809 -0.32295401854108879 0 -0.176101252740165 -0.31458491436099778 0 -0.1921380516143297 -0.32259295844451069 0 -0.18215020516022951 -0.33239437603419819 0 -0.18212967061587809 -0.32295401854108879 0 -0.18212967061587809 -0.32295401854108879 0 -0.176101252740165 -0.31458491436099778 0 -0.16859404629689859 -0.32779363182734411 0 -0.18215020516022951 -0.33239437603419819 0 -0.18212967061587809 -0.32295401854108879 0 -0.16859404629689859 -0.32779363182734411 0 -0.1630337360442371 -0.3122293153336928 0 -0.16859404629689859 -0.32779363182734411 0 -0.14435179512625879 -0.31934895606852032 0 -0.1630337360442371 -0.3122293153336928 0 -0.176101252740165 -0.31458491436099778 0 -0.16859404629689859 -0.32779363182734411 0 -0.16859404629689859 -0.32779363182734411 0 -0.1559981289950638 -0.34325027875330438 0 -0.14435179512625879 -0.31934895606852032 0 -0.17423280912449629 -0.34302150016927141 0 -0.16859404629689859 -0.32779363182734411 0 -0.1559981289950638 -0.34325027875330438 0 -0.1559981289950638 -0.34325027875330438 0 -0.14435179512625879 -0.31934895606852032 0 -0.13342541853203069 -0.34422319981780142 0 -0.12680453395498631 -0.30366356005726919 0 -0.14435179512625879 -0.31934895606852032 0 -0.12526830131356001 -0.32353748967070423 0 -0.14435179512625879 -0.31934895606852032 0 -0.12526830131356001 -0.32353748967070423 0 -0.13342541853203069 -0.34422319981780142 0 -0.13342541853203069 -0.34422319981780142 0 -0.14066158518766059 -0.36753639998789428 0 -0.1247490458052158 -0.3595283050628999 0 -0.13342541853203069 -0.34422319981780142 0 -0.1552257304935987 -0.36386301273566612 0 -0.1559981289950638 -0.34325027875330438 0 -0.13342541853203069 -0.34422319981780142 0 -0.1552257304935987 -0.36386301273566612 0 -0.13342541853203069 -0.34422319981780142 0 -0.1552257304935987 -0.36386301273566612 0 -0.14066158518766059 -0.36753639998789428 0 -0.15574238308673979 -0.37827296045787229 0 -0.1552257304935987 -0.36386301273566612 0 -0.14066158518766059 -0.36753639998789428 0 -0.14066158518766059 -0.36753639998789428 0 -0.13070522877577609 -0.3730939225624979 0 -0.1247490458052158 -0.3595283050628999 0 -0.13070522877577609 -0.3730939225624979 0 -0.1247490458052158 -0.3595283050628999 0 -0.1086473863696964 -0.36793505539855542 0 -0.1256871599670577 -0.38120821553427192 0 -0.13070522877577609 -0.3730939225624979 0 -0.1086473863696964 -0.36793505539855542 0 -0.1256871599670577 -0.38120821553427192 0 -0.1086473863696964 -0.36793505539855542 0 -0.1086473863696964 -0.36793505539855542 0 -0.096039599718944935 -0.35669018364751132 0 -0.092960481587342741 -0.37195244092254359 0 -0.1086473863696964 -0.36793505539855542 0 -0.092960481587342741 -0.37195244092254359 0 -0.10742662694923021 -0.3805708452442752 0 -0.096039599718944935 -0.35669018364751132 0 -0.110305610160915 -0.3448529475477507 0 -0.08786084290248114 -0.3423117088824969 0 -0.1086473863696964 -0.36793505539855542 0 -0.096039599718944935 -0.35669018364751132 0 -0.110305610160915 -0.3448529475477507 0 -0.13342541853203069 -0.34422319981780142 0 -0.1247490458052158 -0.3595283050628999 0 -0.110305610160915 -0.3448529475477507 0 -0.1247490458052158 -0.3595283050628999 0 -0.1086473863696964 -0.36793505539855542 0 -0.110305610160915 -0.3448529475477507 0 -0.12526830131356001 -0.32353748967070423 0 -0.110305610160915 -0.3448529475477507 0 -0.1061903224375856 -0.3210365855462004 0 -0.12526830131356001 -0.32353748967070423 0 -0.13342541853203069 -0.34422319981780142 0 -0.110305610160915 -0.3448529475477507 0 -0.12680453395498631 -0.30366356005726919 0 -0.12526830131356001 -0.32353748967070423 0 -0.1061903224375856 -0.3210365855462004 0 -0.110305610160915 -0.3448529475477507 0 -0.1061903224375856 -0.3210365855462004 0 -0.08786084290248114 -0.3423117088824969 0 -0.08786084290248114 -0.3423117088824969 0 -0.083109668785099955 -0.32415619277724639 0 -0.069733923189144995 -0.34567741938607233 0 -0.1061903224375856 -0.3210365855462004 0 -0.08786084290248114 -0.3423117088824969 0 -0.083109668785099955 -0.32415619277724639 0 -0.083109668785099955 -0.32415619277724639 0 -0.067303126047953715 -0.31469374986816229 0 -0.086451588842880539 -0.30454906474275911 0 -0.1061903224375856 -0.3210365855462004 0 -0.083109668785099955 -0.32415619277724639 0 -0.086451588842880539 -0.30454906474275911 0 -0.083109668785099955 -0.32415619277724639 0 -0.067303126047953715 -0.31469374986816229 0 -0.062865111161506906 -0.32946088823301328 0 -0.083109668785099955 -0.32415619277724639 0 -0.062865111161506906 -0.32946088823301328 0 -0.069733923189144995 -0.34567741938607233 0 -0.069733923189144995 -0.34567741938607233 0 -0.064839997823263898 -0.36647688369251319 0 -0.056137281099546132 -0.35625218546888943 0 -0.069733923189144995 -0.34567741938607233 0 -0.064839997823263898 -0.36647688369251319 0 -0.080108000319274869 -0.36128906319799509 0 -0.064839997823263898 -0.36647688369251319 0 -0.080108000319274869 -0.36128906319799509 0 -0.075604103743425521 -0.38263538939236358 0 -0.096039599718944935 -0.35669018364751132 0 -0.080108000319274869 -0.36128906319799509 0 -0.092960481587342741 -0.37195244092254359 0 -0.080108000319274869 -0.36128906319799509 0 -0.092960481587342741 -0.37195244092254359 0 -0.075604103743425521 -0.38263538939236358 0 -0.096039599718944935 -0.35669018364751132 0 -0.08786084290248114 -0.3423117088824969 0 -0.080108000319274869 -0.36128906319799509 0 -0.08786084290248114 -0.3423117088824969 0 -0.069733923189144995 -0.34567741938607233 0 -0.080108000319274869 -0.36128906319799509 0 -0.1023624779368162 -0.25949024662377063 0 -0.1091800257290213 -0.25067722211056848 0 -0.098558753875313654 -0.24789525972139931 0 -0.1023624779368162 -0.25949024662377063 0 -0.1091800257290213 -0.25067722211056848 0 -0.116194964507214 -0.25440902568286139 0 -0.1283879477026251 -0.26471526458834832 0 -0.1023624779368162 -0.25949024662377063 0 -0.1283879477026251 -0.26471526458834832 0 -0.1023624779368162 -0.25949024662377063 0 -0.116194964507214 -0.25440902568286139 0 -0.1283879477026251 -0.26471526458834832 0 -0.1023624779368162 -0.25949024662377063 0 -0.1136978234089778 -0.27045772159674702 0 -0.1091800257290213 -0.25067722211056848 0 -0.116194964507214 -0.25440902568286139 0 -0.1162377943832648 -0.24758616958613591 0 -0.116194964507214 -0.25440902568286139 0 -0.1242741827618466 -0.2541397074383015 0 -0.12248716586679501 -0.24844290833317059 0 -0.1283879477026251 -0.26471526458834832 0 -0.116194964507214 -0.25440902568286139 0 -0.1242741827618466 -0.2541397074383015 0 -0.116194964507214 -0.25440902568286139 0 -0.12248716586679501 -0.24844290833317059 0 -0.1162377943832648 -0.24758616958613591 0 -0.1283879477026251 -0.26471526458834832 0 -0.1136978234089778 -0.27045772159674702 0 -0.12176934331358789 -0.27354623725191929 0 -0.1136978234089778 -0.27045772159674702 0 -0.12176934331358789 -0.27354623725191929 0 -0.1167354820443192 -0.28396695224190333 0 -0.1271297338935537 -0.2787256926290172 0 -0.12176934331358789 -0.27354623725191929 0 -0.1167354820443192 -0.28396695224190333 0 -0.1136978234089778 -0.27045772159674702 0 -0.10302154434285531 -0.27778044456234402 0 -0.1167354820443192 -0.28396695224190333 0 -0.1023624779368162 -0.25949024662377063 0 -0.10302154434285531 -0.27778044456234402 0 -0.086333789414968901 -0.27900288966785303 0 -0.1023624779368162 -0.25949024662377063 0 -0.1136978234089778 -0.27045772159674702 0 -0.10302154434285531 -0.27778044456234402 0 -0.10302154434285531 -0.27778044456234402 0 -0.1056000516378074 -0.29440437961735588 0 -0.1167354820443192 -0.28396695224190333 0 -0.10302154434285531 -0.27778044456234402 0 -0.1056000516378074 -0.29440437961735588 0 -0.086333789414968901 -0.27900288966785303 0 -0.12680453395498631 -0.30366356005726919 0 -0.1056000516378074 -0.29440437961735588 0 -0.1167354820443192 -0.28396695224190333 0 -0.12680453395498631 -0.30366356005726919 0 -0.1061903224375856 -0.3210365855462004 0 -0.1056000516378074 -0.29440437961735588 0 -0.1061903224375856 -0.3210365855462004 0 -0.1056000516378074 -0.29440437961735588 0 -0.086451588842880539 -0.30454906474275911 0 -0.1056000516378074 -0.29440437961735588 0 -0.086451588842880539 -0.30454906474275911 0 -0.067303126047953715 -0.31469374986816229 0 -0.086451588842880539 -0.30454906474275911 0 -0.065457436024144 -0.29186381258495547 0 -0.067303126047953715 -0.31469374986816229 0 -0.086451588842880539 -0.30454906474275911 0 -0.065457436024144 -0.29186381258495547 0 -0.086333789414968901 -0.27900288966785303 0 -0.065584614230081106 -0.27488449450000219 0 -0.086451588842880539 -0.30454906474275911 0 -0.065457436024144 -0.29186381258495547 0 -0.086333789414968901 -0.27900288966785303 0 -0.1056000516378074 -0.29440437961735588 0 -0.086451588842880539 -0.30454906474275911 0 -0.086333789414968901 -0.27900288966785303 0 -0.086333789414968901 -0.27900288966785303 0 -0.065584614230081106 -0.27488449450000219 0 -0.076337008171007248 -0.25426522865919321 0 -0.065584614230081106 -0.27488449450000219 0 -0.076337008171007248 -0.25426522865919321 0 -0.050146611966178041 -0.26557433686690751 0 -0.076337008171007248 -0.25426522865919321 0 -0.050311538405198232 -0.24904021069461579 0 -0.1023624779368162 -0.25949024662377063 0 -0.076337008171007248 -0.25426522865919321 0 -0.1023624779368162 -0.25949024662377063 0 -0.076337008171007248 -0.25426522865919321 0 -0.098558753875313654 -0.24789525972139931 0 -0.1023624779368162 -0.25949024662377063 0 -0.086333789414968901 -0.27900288966785303 0 -0.076337008171007248 -0.25426522865919321 0 -0.040507584818940269 -0.25689785710473412 0 -0.050146611966178041 -0.26557433686690751 0 -0.034259808212359383 -0.27015843934167838 0 -0.040507584818940269 -0.25689785710473412 0 -0.034259808212359383 -0.27015843934167838 0 -0.027312380692025431 -0.24281844151573459 0 -0.076337008171007248 -0.25426522865919321 0 -0.050146611966178041 -0.26557433686690751 0 -0.050311538405198232 -0.24904021069461579 0 -0.040507584818940269 -0.25689785710473412 0 -0.050146611966178041 -0.26557433686690751 0 -0.050311538405198232 -0.24904021069461579 0 -0.065584614230081106 -0.27488449450000219 0 -0.050146611966178041 -0.26557433686690751 0 -0.051331141233091182 -0.27999590409223318 0 -0.050146611966178041 -0.26557433686690751 0 -0.051331141233091182 -0.27999590409223318 0 -0.034259808212359383 -0.27015843934167838 0 -0.034259808212359383 -0.27015843934167838 0 -0.041207235732693311 -0.29749843716762209 0 -0.034259808212359383 -0.27015843934167838 0 -0.041207235732693311 -0.29749843716762209 0 -0.02798771820716929 -0.29217411032037521 0 -0.051331141233091182 -0.27999590409223318 0 -0.034259808212359383 -0.27015843934167838 0 -0.041207235732693311 -0.29749843716762209 0 -0.065457436024144 -0.29186381258495547 0 -0.051331141233091182 -0.27999590409223318 0 -0.041207235732693311 -0.29749843716762209 0 -0.065457436024144 -0.29186381258495547 0 -0.065584614230081106 -0.27488449450000219 0 -0.051331141233091182 -0.27999590409223318 0 -0.067303126047953715 -0.31469374986816229 0 -0.065457436024144 -0.29186381258495547 0 -0.041207235732693311 -0.29749843716762209 0 -0.067303126047953715 -0.31469374986816229 0 -0.041207235732693311 -0.29749843716762209 0 -0.048154663253027148 -0.32483843499356602 0 -0.041207235732693311 -0.29749843716762209 0 -0.048154663253027148 -0.32483843499356602 0 -0.041207235732693311 -0.29749843716762209 0 -0.025301071510479091 -0.30986238576575842 0 -0.032440625145272108 -0.32317634371443088 0 -0.041207235732693311 -0.29749843716762209 0 -0.025301071510479091 -0.30986238576575842 0 -0.02798771820716929 -0.29217411032037521 0 -0.025301071510479091 -0.30986238576575842 0 -0.016749543092184391 -0.30093810028322232 0 -0.02798771820716929 -0.29217411032037521 0 -0.025301071510479091 -0.30986238576575842 0 -0.016749543092184391 -0.30093810028322232 0 -0.01739778231088757 -0.3103085395497398 0 -0.016749543092184391 -0.30093810028322232 0 -0.01739778231088757 -0.3103085395497398 0 -0.009768742513827075 -0.31077246722382701 0 -0.016749543092184391 -0.30093810028322232 0 -0.009768742513827075 -0.31077246722382701 0 -0.0076772132487415486 -0.30240502708010691 0 -0.009768742513827075 -0.31077246722382701 0 -0.001218064301224819 -0.30894404495570632 0 -0.0041407617024551502 -0.31424586768833013 0 -0.009768742513827075 -0.31077246722382701 0 -0.001218064301224819 -0.30894404495570632 0 -0.0076772132487415486 -0.30240502708010691 0 -0.0076772132487415486 -0.30240502708010691 0 -0.01161540796570755 -0.29180811576070448 0 0.00096569162923609538 -0.29956240717707422 0 -0.001218064301224819 -0.30894404495570632 0 -0.0076772132487415486 -0.30240502708010691 0 0.00096569162923609538 -0.29956240717707422 0 -0.016749543092184391 -0.30093810028322232 0 -0.0076772132487415486 -0.30240502708010691 0 -0.01161540796570755 -0.29180811576070448 0 -0.01161540796570755 -0.29180811576070448 0 -0.026044981645571941 -0.27805568708560208 0 0.0009930660910825867 -0.28153755441145178 0 -0.01161540796570755 -0.29180811576070448 0 0.00096569162923609538 -0.29956240717707422 0 0.0009930660910825867 -0.28153755441145178 0 -0.01161540796570755 -0.29180811576070448 0 -0.02798771820716929 -0.29217411032037521 0 -0.026044981645571941 -0.27805568708560208 0 -0.016749543092184391 -0.30093810028322232 0 -0.01161540796570755 -0.29180811576070448 0 -0.02798771820716929 -0.29217411032037521 0 -0.034259808212359383 -0.27015843934167838 0 -0.026044981645571941 -0.27805568708560208 0 -0.0175811746425669 -0.26859083412647472 0 -0.034259808212359383 -0.27015843934167838 0 -0.02798771820716929 -0.29217411032037521 0 -0.026044981645571941 -0.27805568708560208 0 -0.0175811746425669 -0.26859083412647472 0 -0.0075244569760477102 -0.25975947445953218 0 0.0009930660910825867 -0.28153755441145178 0 -0.026044981645571941 -0.27805568708560208 0 -0.0175811746425669 -0.26859083412647472 0 0.0009930660910825867 -0.28153755441145178 0 -0.0075244569760477102 -0.25975947445953218 0 0.0009930660910825867 -0.28153755441145178 0 0.0055715618356646087 -0.26366604158818169 0 -0.026044981645571941 -0.27805568708560208 0 0.0009930660910825867 -0.28153755441145178 0 -0.0075244569760477102 -0.25975947445953218 0 -0.0066164347875948808 -0.24271512594326239 0 0.001132853500818054 -0.25333800061779432 0 -0.0075244569760477102 -0.25975947445953218 0 -0.018658851062118859 -0.25680846307733651 0 -0.0066164347875948808 -0.24271512594326239 0 -0.0175811746425669 -0.26859083412647472 0 -0.0075244569760477102 -0.25975947445953218 0 -0.018658851062118859 -0.25680846307733651 0 -0.0075244569760477102 -0.25975947445953218 0 0.0055715618356646087 -0.26366604158818169 0 0.001132853500818054 -0.25333800061779432 0 -0.034259808212359383 -0.27015843934167838 0 -0.0175811746425669 -0.26859083412647472 0 -0.018658851062118859 -0.25680846307733651 0 -0.034259808212359383 -0.27015843934167838 0 -0.018658851062118859 -0.25680846307733651 0 -0.027312380692025431 -0.24281844151573459 0 -0.034259808212359383 -0.27015843934167838 0 -0.027312380692025431 -0.24281844151573459 0 -0.046100809086864009 -0.35178982734772851 0 -0.037655401915703407 -0.36152728290559483 0 -0.035550271703279693 -0.3343112575357679 0 -0.037655401915703407 -0.36152728290559483 0 -0.035550271703279693 -0.3343112575357679 0 -0.022008288242621792 -0.35415087130560541 0 -0.037655401915703407 -0.36152728290559483 0 -0.035550271703279693 -0.3343112575357679 0 -0.037655401915703407 -0.36152728290559483 0 -0.02716549404575451 -0.37465583382112078 0 -0.039760532128127121 -0.38874330827542158 0 -0.037655401915703407 -0.36152728290559483 0 -0.050311500753514267 -0.36745743978744272 0 -0.039760532128127121 -0.38874330827542158 0 -0.046100809086864009 -0.35178982734772851 0 -0.037655401915703407 -0.36152728290559483 0 -0.050311500753514267 -0.36745743978744272 0 -0.064839997823263898 -0.36647688369251319 0 -0.050311500753514267 -0.36745743978744272 0 -0.057374982467581097 -0.37995515103450911 0 -0.064839997823263898 -0.36647688369251319 0 -0.050311500753514267 -0.36745743978744272 0 -0.056137281099546132 -0.35625218546888943 0 -0.069733923189144995 -0.34567741938607233 0 -0.056137281099546132 -0.35625218546888943 0 -0.052145972176286692 -0.34054531023122769 0 -0.046100809086864009 -0.35178982734772851 0 -0.056137281099546132 -0.35625218546888943 0 -0.052145972176286692 -0.34054531023122769 0 -0.046100809086864009 -0.35178982734772851 0 -0.050311500753514267 -0.36745743978744272 0 -0.056137281099546132 -0.35625218546888943 0 -0.056137281099546132 -0.35625218546888943 0 -0.052145972176286692 -0.34054531023122769 0 -0.062865111161506906 -0.32946088823301328 0 -0.052145972176286692 -0.34054531023122769 0 -0.048154663253027148 -0.32483843499356602 0 -0.052145972176286692 -0.34054531023122769 0 -0.048154663253027148 -0.32483843499356602 0 -0.062865111161506906 -0.32946088823301328 0 -0.069733923189144995 -0.34567741938607233 0 -0.052145972176286692 -0.34054531023122769 0 -0.067303126047953715 -0.31469374986816229 0 -0.062865111161506906 -0.32946088823301328 0 -0.048154663253027148 -0.32483843499356602 0 -0.067303126047953715 -0.31469374986816229 0 -0.048154663253027148 -0.32483843499356602 0 -0.041207235732693311 -0.29749843716762209 0 -0.048154663253027148 -0.32483843499356602 0 -0.032440625145272108 -0.32317634371443088 0 -0.052145972176286692 -0.34054531023122769 0 -0.048154663253027148 -0.32483843499356602 0 -0.035550271703279693 -0.3343112575357679 0 -0.048154663253027148 -0.32483843499356602 0 -0.035550271703279693 -0.3343112575357679 0 -0.024989636743453551 -0.33711105981875522 0 -0.048154663253027148 -0.32483843499356602 0 -0.024989636743453551 -0.33711105981875522 0 -0.046100809086864009 -0.35178982734772851 0 -0.052145972176286692 -0.34054531023122769 0 -0.035550271703279693 -0.3343112575357679 0 -0.048154663253027148 -0.32483843499356602 0 -0.032440625145272108 -0.32317634371443088 0 -0.024989636743453551 -0.33711105981875522 0 -0.035550271703279693 -0.3343112575357679 0 -0.024989636743453551 -0.33711105981875522 0 -0.022008288242621792 -0.35415087130560541 0 -0.032440625145272108 -0.32317634371443088 0 -0.024989636743453551 -0.33711105981875522 0 -0.023375309815108269 -0.3243094793304746 0 -0.024989636743453551 -0.33711105981875522 0 -0.016224607972181251 -0.32998156930873279 0 -0.023375309815108269 -0.3243094793304746 0 -0.024989636743453551 -0.33711105981875522 0 -0.016224607972181251 -0.32998156930873279 0 -0.01527391476763015 -0.34097166712999238 0 -0.025301071510479091 -0.30986238576575842 0 -0.032440625145272108 -0.32317634371443088 0 -0.023375309815108269 -0.3243094793304746 0 -0.016224607972181251 -0.32998156930873279 0 -0.023375309815108269 -0.3243094793304746 0 -0.016947001291610472 -0.31891665685398979 0 -0.025301071510479091 -0.30986238576575842 0 -0.023375309815108269 -0.3243094793304746 0 -0.016947001291610472 -0.31891665685398979 0 -0.025301071510479091 -0.30986238576575842 0 -0.01739778231088757 -0.3103085395497398 0 -0.016947001291610472 -0.31891665685398979 0 -0.009768742513827075 -0.31077246722382701 0 -0.016947001291610472 -0.31891665685398979 0 -0.0073811343642794921 -0.32002723683359158 0 -0.01739778231088757 -0.3103085395497398 0 -0.009768742513827075 -0.31077246722382701 0 -0.016947001291610472 -0.31891665685398979 0 -0.016224607972181251 -0.32998156930873279 0 -0.016947001291610472 -0.31891665685398979 0 -0.0073811343642794921 -0.32002723683359158 0 -0.016224607972181251 -0.32998156930873279 0 -0.0073811343642794921 -0.32002723683359158 0 -0.0058317805359695014 -0.33092424562459982 0 -0.00090219304442910116 -0.32233256723130188 0 -0.0073811343642794921 -0.32002723683359158 0 -0.0058317805359695014 -0.33092424562459982 0 -0.00090219304442910116 -0.32233256723130188 0 -0.0073811343642794921 -0.32002723683359158 0 0.001804894369510784 -0.31723972174019571 0 -0.009768742513827075 -0.31077246722382701 0 -0.0041407617024551502 -0.31424586768833013 0 -0.0073811343642794921 -0.32002723683359158 0 -0.001218064301224819 -0.30894404495570632 0 -0.0041407617024551502 -0.31424586768833013 0 0.001804894369510784 -0.31723972174019571 0 -0.0041407617024551502 -0.31424586768833013 0 -0.0073811343642794921 -0.32002723683359158 0 0.001804894369510784 -0.31723972174019571 0 -0.01527391476763015 -0.34097166712999238 0 -0.0058317805359695014 -0.33092424562459982 0 -0.0064528311403182041 -0.34658308637676433 0 -0.0058317805359695014 -0.33092424562459982 0 -0.0064528311403182041 -0.34658308637676433 0 0.0077992483530218036 -0.3211390647268203 0 -0.016224607972181251 -0.32998156930873279 0 -0.01527391476763015 -0.34097166712999238 0 -0.0058317805359695014 -0.33092424562459982 0 -0.0064528311403182041 -0.34658308637676433 0 -0.022008288242621792 -0.35415087130560541 0 0.00064886371917051487 -0.36216327411849342 0 -0.01527391476763015 -0.34097166712999238 0 -0.0064528311403182041 -0.34658308637676433 0 -0.022008288242621792 -0.35415087130560541 0 -0.024989636743453551 -0.33711105981875522 0 -0.01527391476763015 -0.34097166712999238 0 -0.022008288242621792 -0.35415087130560541 0 -0.037655401915703407 -0.36152728290559483 0 -0.022008288242621792 -0.35415087130560541 0 -0.02716549404575451 -0.37465583382112078 0 -0.022008288242621792 -0.35415087130560541 0 -0.02716549404575451 -0.37465583382112078 0 -0.01387345433946211 -0.3712125180067411 0 -0.01387345433946211 -0.3712125180067411 0 0.0081625739511966347 -0.37959504827830032 0 0.00064886371917051487 -0.36216327411849342 0 -0.022008288242621792 -0.35415087130560541 0 -0.01387345433946211 -0.3712125180067411 0 0.00064886371917051487 -0.36216327411849342 0 -0.01387345433946211 -0.3712125180067411 0 -0.01115922559210737 -0.38707622746540138 0 -0.02027795451967947 -0.38093531416619208 0 -0.01387345433946211 -0.3712125180067411 0 -0.01115922559210737 -0.38707622746540138 0 0.0081625739511966347 -0.37959504827830032 0 -0.01115922559210737 -0.38707622746540138 0 -0.0029277384365188671 -0.4052699318625318 0 0.0081625739511966347 -0.37959504827830032 0 -0.01115922559210737 -0.38707622746540138 0 -0.0029277384365188671 -0.4052699318625318 0 -0.028913644101393889 -0.39079667737150542 0 -0.0029277384365188671 -0.4052699318625318 0 -0.028913644101393889 -0.39079667737150542 0 -0.023214404207291869 -0.41016444033399119 0 -0.0029277384365188671 -0.4052699318625318 0 -0.028913644101393889 -0.39079667737150542 0 -0.02716549404575451 -0.37465583382112078 0 -0.028913644101393889 -0.39079667737150542 0 -0.02027795451967947 -0.38093531416619208 0 -0.01115922559210737 -0.38707622746540138 0 -0.028913644101393889 -0.39079667737150542 0 -0.02027795451967947 -0.38093531416619208 0 -0.02716549404575451 -0.37465583382112078 0 -0.01387345433946211 -0.3712125180067411 0 -0.02027795451967947 -0.38093531416619208 0 -0.037655401915703407 -0.36152728290559483 0 -0.039760532128127121 -0.38874330827542158 0 -0.02716549404575451 -0.37465583382112078 0 -0.028913644101393889 -0.39079667737150542 0 -0.039760532128127121 -0.38874330827542158 0 -0.028913644101393889 -0.39079667737150542 0 -0.039760532128127121 -0.38874330827542158 0 -0.041865662340550842 -0.4159593336452484 0 -0.039760532128127121 -0.38874330827542158 0 -0.057655160103584832 -0.39560707321508448 0 -0.041865662340550842 -0.4159593336452484 0 -0.028913644101393889 -0.39079667737150542 0 -0.041865662340550842 -0.4159593336452484 0 -0.023214404207291869 -0.41016444033399119 0 -0.039760532128127121 -0.38874330827542158 0 -0.041865662340550842 -0.4159593336452484 0 -0.039760532128127121 -0.38874330827542158 0 -0.057655160103584832 -0.39560707321508448 0 -0.057374982467581097 -0.37995515103450911 0 -0.050311500753514267 -0.36745743978744272 0 -0.039760532128127121 -0.38874330827542158 0 -0.057374982467581097 -0.37995515103450911 0 -0.041865662340550842 -0.4159593336452484 0 -0.043970792552974543 -0.4431753590150751 0 -0.067819266198780231 -0.42783895221688739 0 -0.0597564897685793 -0.4116565792765573 0 -0.041865662340550842 -0.4159593336452484 0 -0.067819266198780231 -0.42783895221688739 0 -0.057655160103584832 -0.39560707321508448 0 -0.0597564897685793 -0.4116565792765573 0 -0.041865662340550842 -0.4159593336452484 0 -0.041865662340550842 -0.4159593336452484 0 -0.019582647672874771 -0.43040409386159462 0 -0.043970792552974543 -0.4431753590150751 0 -0.041865662340550842 -0.4159593336452484 0 -0.043970792552974543 -0.4431753590150751 0 -0.0029277384365188671 -0.4052699318625318 0 -0.019582647672874771 -0.43040409386159462 0 0.007271525743211698 -0.43680195030579488 0 -0.041865662340550842 -0.4159593336452484 0 -0.019582647672874771 -0.43040409386159462 0 -0.023214404207291869 -0.41016444033399119 0 -0.0029277384365188671 -0.4052699318625318 0 -0.019582647672874771 -0.43040409386159462 0 -0.023214404207291869 -0.41016444033399119 0 -0.019582647672874771 -0.43040409386159462 0 -0.008515115741932441 -0.45386071425803037 0 0.007271525743211698 -0.43680195030579488 0 -0.008515115741932441 -0.45386071425803037 0 0.007271525743211698 -0.43680195030579488 0 -0.008515115741932441 -0.45386071425803037 0 -0.0016783646119623609 -0.47146816853448209 0 -0.02430175722707752 -0.47091947821026497 0 -0.008515115741932441 -0.45386071425803037 0 -0.0016783646119623609 -0.47146816853448209 0 0.01009617260750212 -0.45664112822671599 0 -0.008515115741932441 -0.45386071425803037 0 -0.026275132025953499 -0.45228987198137932 0 -0.02430175722707752 -0.47091947821026497 0 -0.026275132025953499 -0.45228987198137932 0 -0.02430175722707752 -0.47091947821026497 0 -0.035155901142851387 -0.45919402339790533 0 -0.008515115741932441 -0.45386071425803037 0 -0.02430175722707752 -0.47091947821026497 0 -0.019582647672874771 -0.43040409386159462 0 -0.008515115741932441 -0.45386071425803037 0 -0.026275132025953499 -0.45228987198137932 0 -0.019582647672874771 -0.43040409386159462 0 -0.026275132025953499 -0.45228987198137932 0 -0.043970792552974543 -0.4431753590150751 0 -0.005511665807985431 -0.48742496297742588 0 -0.019868654601823851 -0.5 0 0.00049954036642466809 -0.5 0 -0.005511665807985431 -0.48742496297742588 0 -0.017632318765940611 -0.48343645158796872 0 -0.019868654601823851 -0.5 0 -0.0016783646119623609 -0.47146816853448209 0 -0.02430175722707752 -0.47091947821026497 0 -0.005511665807985431 -0.48742496297742588 0 -0.0016783646119623609 -0.47146816853448209 0 -0.017632318765940611 -0.48343645158796872 0 -0.0016783646119623609 -0.47146816853448209 0 -0.02430175722707752 -0.47091947821026497 0 -0.017632318765940611 -0.48343645158796872 0 -0.02430175722707752 -0.47091947821026497 0 -0.030762325635132759 -0.47790065350166733 0 -0.030762325635132759 -0.47790065350166733 0 -0.017632318765940611 -0.48343645158796872 0 -0.02818738061239133 -0.49023327762177787 0 -0.02430175722707752 -0.47091947821026497 0 -0.030762325635132759 -0.47790065350166733 0 -0.017632318765940611 -0.48343645158796872 0 -0.017632318765940611 -0.48343645158796872 0 -0.019868654601823851 -0.5 0 -0.02818738061239133 -0.49023327762177787 0 -0.030762325635132759 -0.47790065350166733 0 -0.02818738061239133 -0.49023327762177787 0 -0.048366117253109672 -0.50000000000000189 0 -0.019868654601823851 -0.5 0 -0.02818738061239133 -0.49023327762177787 0 -0.048366117253109672 -0.50000000000000189 0 -0.02430175722707752 -0.47091947821026497 0 -0.030762325635132759 -0.47790065350166733 0 -0.046075922765399992 -0.47039138438490169 0 -0.02430175722707752 -0.47091947821026497 0 -0.046075922765399992 -0.47039138438490169 0 -0.030762325635132759 -0.47790065350166733 0 -0.046075922765399992 -0.47039138438490169 0 -0.048366117253109672 -0.50000000000000189 0 -0.046075922765399992 -0.47039138438490169 0 -0.076011415961495077 -0.46966535201005721 0 -0.046075922765399992 -0.47039138438490169 0 -0.061384954955985893 -0.48410012709879802 0 -0.076011415961495077 -0.46966535201005721 0 -0.046075922765399992 -0.47039138438490169 0 -0.061384954955985893 -0.48410012709879802 0 -0.048366117253109672 -0.50000000000000189 0 -0.046075922765399992 -0.47039138438490169 0 -0.048366117253109672 -0.50000000000000189 0 -0.061384954955985893 -0.48410012709879802 0 -0.048366117253109672 -0.50000000000000189 0 -0.077187884442144805 -0.5 0 -0.026275132025953499 -0.45228987198137932 0 -0.043970792552974543 -0.4431753590150751 0 -0.035155901142851387 -0.45919402339790533 0 -0.046075922765399992 -0.47039138438490169 0 -0.043970792552974543 -0.4431753590150751 0 -0.035155901142851387 -0.45919402339790533 0 -0.046075922765399992 -0.47039138438490169 0 -0.043970792552974543 -0.4431753590150751 0 -0.02430175722707752 -0.47091947821026497 0 -0.046075922765399992 -0.47039138438490169 0 -0.035155901142851387 -0.45919402339790533 0 -0.046075922765399992 -0.47039138438490169 0 -0.061600278024326667 -0.45470724554984859 0 -0.076011415961495077 -0.46966535201005721 0 -0.046075922765399992 -0.47039138438490169 0 -0.043970792552974543 -0.4431753590150751 0 -0.061600278024326667 -0.45470724554984859 0 -0.043970792552974543 -0.4431753590150751 0 -0.061600278024326667 -0.45470724554984859 0 -0.067819266198780231 -0.42783895221688739 0 -0.061600278024326667 -0.45470724554984859 0 -0.087014034546708835 -0.45018814476886643 0 -0.067819266198780231 -0.42783895221688739 0 -0.061600278024326667 -0.45470724554984859 0 -0.087014034546708835 -0.45018814476886643 0 -0.076011415961495077 -0.46966535201005721 0 -0.087014034546708835 -0.45018814476886643 0 -0.076011415961495077 -0.46966535201005721 0 -0.1059469091575902 -0.46893931963521279 0 -0.061384954955985893 -0.48410012709879802 0 -0.077187884442144805 -0.5 0 -0.091303474093303694 -0.484391001634216 0 -0.061384954955985893 -0.48410012709879802 0 -0.076011415961495077 -0.46966535201005721 0 -0.091303474093303694 -0.484391001634216 0 -0.076011415961495077 -0.46966535201005721 0 -0.1059469091575902 -0.46893931963521279 0 -0.076011415961495077 -0.46966535201005721 0 -0.091303474093303694 -0.484391001634216 0 -0.1059469091575902 -0.46893931963521279 0 -0.077187884442144805 -0.5 0 -0.091303474093303694 -0.484391001634216 0 -0.1060096516311799 -0.5 0 -0.091303474093303694 -0.484391001634216 0 -0.1060096516311799 -0.5 0 -0.12128002841142629 -0.4836412110612282 0 -0.091303474093303694 -0.484391001634216 0 -0.1059469091575902 -0.46893931963521279 0 -0.12128002841142629 -0.4836412110612282 0 -0.13588240235368521 -0.46821328726036848 0 -0.1059469091575902 -0.46893931963521279 0 -0.12128002841142629 -0.4836412110612282 0 -0.13483141882021499 -0.5 0 -0.1060096516311799 -0.5 0 -0.12128002841142629 -0.4836412110612282 0 -0.087014034546708835 -0.45018814476886643 0 -0.11532737834136959 -0.44527629091745602 0 -0.096638511823738033 -0.43000720190504349 0 -0.087014034546708835 -0.45018814476886643 0 -0.1059469091575902 -0.46893931963521279 0 -0.11532737834136959 -0.44527629091745602 0 -0.13588240235368521 -0.46821328726036848 0 -0.1059469091575902 -0.46893931963521279 0 -0.13588240235368521 -0.46821328726036848 0 -0.1059469091575902 -0.46893931963521279 0 -0.11532737834136959 -0.44527629091745602 0 -0.1294305586347588 -0.42997154963942907 0 -0.11532737834136959 -0.44527629091745602 0 -0.11494177189614541 -0.42838484126539328 0 -0.12504180997478631 -0.41687942734639749 0 -0.1294305586347588 -0.42997154963942907 0 -0.11494177189614541 -0.42838484126539328 0 -0.11494177189614541 -0.42838484126539328 0 -0.096638511823738033 -0.43000720190504349 0 -0.1068044647748536 -0.41572727372061319 0 -0.11532737834136959 -0.44527629091745602 0 -0.11494177189614541 -0.42838484126539328 0 -0.096638511823738033 -0.43000720190504349 0 -0.1068044647748536 -0.41572727372061319 0 -0.11681159449945561 -0.40477164295947748 0 -0.1010768150865469 -0.40117295568086858 0 -0.096638511823738033 -0.43000720190504349 0 -0.1068044647748536 -0.41572727372061319 0 -0.087924155184570724 -0.41262770854104508 0 -0.1068044647748536 -0.41572727372061319 0 -0.1010768150865469 -0.40117295568086858 0 -0.087924155184570724 -0.41262770854104508 0 -0.12504180997478631 -0.41687942734639749 0 -0.11494177189614541 -0.42838484126539328 0 -0.1068044647748536 -0.41572727372061319 0 -0.12504180997478631 -0.41687942734639749 0 -0.1068044647748536 -0.41572727372061319 0 -0.11681159449945561 -0.40477164295947748 0 -0.1281613288464136 -0.40661377742169269 0 -0.12504180997478631 -0.41687942734639749 0 -0.11681159449945561 -0.40477164295947748 0 -0.11471423949689739 -0.39074482380819747 0 -0.11681159449945561 -0.40477164295947748 0 -0.1010768150865469 -0.40117295568086858 0 -0.1279426818698331 -0.3958868412390425 0 -0.1281613288464136 -0.40661377742169269 0 -0.11681159449945561 -0.40477164295947748 0 -0.1279426818698331 -0.3958868412390425 0 -0.11471423949689739 -0.39074482380819747 0 -0.11681159449945561 -0.40477164295947748 0 -0.1256871599670577 -0.38120821553427192 0 -0.11471423949689739 -0.39074482380819747 0 -0.10742662694923021 -0.3805708452442752 0 -0.1256871599670577 -0.38120821553427192 0 -0.1086473863696964 -0.36793505539855542 0 -0.10742662694923021 -0.3805708452442752 0 -0.1256871599670577 -0.38120821553427192 0 -0.1279426818698331 -0.3958868412390425 0 -0.11471423949689739 -0.39074482380819747 0 -0.11471423949689739 -0.39074482380819747 0 -0.10742662694923021 -0.3805708452442752 0 -0.096584164484869797 -0.387525597453452 0 -0.092960481587342741 -0.37195244092254359 0 -0.10742662694923021 -0.3805708452442752 0 -0.096584164484869797 -0.387525597453452 0 -0.096584164484869797 -0.387525597453452 0 -0.1010768150865469 -0.40117295568086858 0 -0.084722627589494531 -0.39502430048833831 0 -0.11471423949689739 -0.39074482380819747 0 -0.096584164484869797 -0.387525597453452 0 -0.1010768150865469 -0.40117295568086858 0 -0.084722627589494531 -0.39502430048833831 0 -0.072885746397507209 -0.40454436778453962 0 -0.087924155184570724 -0.41262770854104508 0 -0.1010768150865469 -0.40117295568086858 0 -0.084722627589494531 -0.39502430048833831 0 -0.087924155184570724 -0.41262770854104508 0 -0.096584164484869797 -0.387525597453452 0 -0.084722627589494531 -0.39502430048833831 0 -0.075604103743425521 -0.38263538939236358 0 -0.092960481587342741 -0.37195244092254359 0 -0.096584164484869797 -0.387525597453452 0 -0.075604103743425521 -0.38263538939236358 0 -0.057655160103584832 -0.39560707321508448 0 -0.057374982467581097 -0.37995515103450911 0 -0.075604103743425521 -0.38263538939236358 0 -0.064839997823263898 -0.36647688369251319 0 -0.057374982467581097 -0.37995515103450911 0 -0.075604103743425521 -0.38263538939236358 0 -0.057655160103584832 -0.39560707321508448 0 -0.075604103743425521 -0.38263538939236358 0 -0.072885746397507209 -0.40454436778453962 0 -0.084722627589494531 -0.39502430048833831 0 -0.075604103743425521 -0.38263538939236358 0 -0.072885746397507209 -0.40454436778453962 0 -0.057655160103584832 -0.39560707321508448 0 -0.0597564897685793 -0.4116565792765573 0 -0.072885746397507209 -0.40454436778453962 0 -0.072885746397507209 -0.40454436778453962 0 -0.067819266198780231 -0.42783895221688739 0 -0.087924155184570724 -0.41262770854104508 0 -0.0597564897685793 -0.4116565792765573 0 -0.072885746397507209 -0.40454436778453962 0 -0.067819266198780231 -0.42783895221688739 0 -0.087014034546708835 -0.45018814476886643 0 -0.096638511823738033 -0.43000720190504349 0 -0.067819266198780231 -0.42783895221688739 0 -0.096638511823738033 -0.43000720190504349 0 -0.067819266198780231 -0.42783895221688739 0 -0.087924155184570724 -0.41262770854104508 0 -0.078324349012464572 -0.08059104663241691 0 -0.090323957156708698 -0.1059108988191988 0 -0.078324349012464572 -0.08059104663241691 0 -0.092337310220316479 -0.079232262503998063 0 -0.094456894775858974 -0.093248866077003362 0 -0.078324349012464572 -0.08059104663241691 0 -0.090323957156708698 -0.1059108988191988 0 -0.094456894775858974 -0.093248866077003362 0 -0.092337310220316479 -0.079232262503998063 0 -0.1035844974037087 -0.066635517788513218 0 -0.08460089365977129 -0.062113101816462422 0 -0.078324349012464572 -0.08059104663241691 0 -0.092337310220316479 -0.079232262503998063 0 -0.08460089365977129 -0.062113101816462422 0 -0.078324349012464572 -0.08059104663241691 0 -0.066324740868220447 -0.055271194445635032 0 -0.078324349012464572 -0.08059104663241691 0 -0.066324740868220447 -0.055271194445635032 0 -0.060469628972920637 -0.066418717851295134 0 -0.078324349012464572 -0.08059104663241691 0 -0.08460089365977129 -0.062113101816462422 0 -0.066324740868220447 -0.055271194445635032 0 -0.078324349012464572 -0.08059104663241691 0 -0.060469628972920637 -0.066418717851295134 0 -0.060438156694567632 -0.095421163073878948 0 -0.078324349012464572 -0.08059104663241691 0 -0.073736928178677524 -0.11253570652061751 0 -0.090323957156708698 -0.1059108988191988 0 -0.078324349012464572 -0.08059104663241691 0 -0.073736928178677524 -0.11253570652061751 0 -0.060438156694567632 -0.095421163073878948 0 -0.073736928178677524 -0.11253570652061751 0 -0.060406684416214627 -0.1244236082964626 0 -0.080975825249002487 -0.13682224990224129 0 -0.073736928178677524 -0.11253570652061751 0 -0.060406684416214627 -0.1244236082964626 0 -0.060438156694567632 -0.095421163073878948 0 -0.073736928178677524 -0.11253570652061751 0 -0.086840068971335366 -0.1216249015620096 0 -0.080975825249002487 -0.13682224990224129 0 -0.073736928178677524 -0.11253570652061751 0 -0.086840068971335366 -0.1216249015620096 0 -0.090323957156708698 -0.1059108988191988 0 -0.086840068971335366 -0.1216249015620096 0 -0.090323957156708698 -0.1059108988191988 0 -0.1023235653009528 -0.13123075100598069 0 -0.090323957156708698 -0.1059108988191988 0 -0.10050586714993801 -0.10376008953555139 0 -0.094456894775858974 -0.093248866077003362 0 -0.10050586714993801 -0.10376008953555139 0 -0.1041797110560579 -0.09704194889567444 0 -0.094456894775858974 -0.093248866077003362 0 -0.090323957156708698 -0.1059108988191988 0 -0.10050586714993801 -0.10376008953555139 0 -0.105092468543621 -0.1137256644229936 0 -0.10050586714993801 -0.10376008953555139 0 -0.1078430855207321 -0.1043426494574677 0 -0.1041797110560579 -0.09704194889567444 0 -0.10050586714993801 -0.10376008953555139 0 -0.1078430855207321 -0.1043426494574677 0 -0.105092468543621 -0.1137256644229936 0 -0.1078430855207321 -0.1043426494574677 0 -0.107698178574548 -0.094897150323784152 0 -0.1041797110560579 -0.09704194889567444 0 -0.107698178574548 -0.094897150323784152 0 -0.1041797110560579 -0.09704194889567444 0 -0.090323957156708698 -0.1059108988191988 0 -0.105092468543621 -0.1137256644229936 0 -0.1023235653009528 -0.13123075100598069 0 -0.105092468543621 -0.1137256644229936 0 -0.1120375534338989 -0.1225765663547608 0 -0.1023235653009528 -0.13123075100598069 0 -0.090323957156708698 -0.1059108988191988 0 -0.1023235653009528 -0.13123075100598069 0 -0.1217392022794949 -0.1122883941093334 0 -0.1189949776115268 -0.13306145588073551 0 -0.1217392022794949 -0.1122883941093334 0 -0.1189949776115268 -0.13306145588073551 0 -0.12947548143064089 -0.12187056700056211 0 -0.105092468543621 -0.1137256644229936 0 -0.1120375534338989 -0.1225765663547608 0 -0.1217392022794949 -0.1122883941093334 0 -0.1120375534338989 -0.1225765663547608 0 -0.1217392022794949 -0.1122883941093334 0 -0.1189949776115268 -0.13306145588073551 0 -0.1078430855207321 -0.1043426494574677 0 -0.105092468543621 -0.1137256644229936 0 -0.1217392022794949 -0.1122883941093334 0 -0.1217392022794949 -0.1122883941093334 0 -0.1224525997933185 -0.10688816183417391 0 -0.12947548143064089 -0.12187056700056211 0 -0.1217392022794949 -0.1122883941093334 0 -0.1224525997933185 -0.10688816183417391 0 -0.107698178574548 -0.094897150323784152 0 -0.1217392022794949 -0.1122883941093334 0 -0.1224525997933185 -0.10688816183417391 0 -0.107698178574548 -0.094897150323784152 0 -0.1224525997933185 -0.10688816183417391 0 -0.1148020651827299 -0.090566740629221473 0 -0.1224525997933185 -0.10688816183417391 0 -0.1148020651827299 -0.090566740629221473 0 -0.12546762730328931 -0.084065193497023988 0 -0.107698178574548 -0.094897150323784152 0 -0.1217392022794949 -0.1122883941093334 0 -0.1224525997933185 -0.10688816183417391 0 -0.12546762730328931 -0.084065193497023988 0 -0.1224525997933185 -0.10688816183417391 0 -0.1148020651827299 -0.090566740629221473 0 -0.1078430855207321 -0.1043426494574677 0 -0.107698178574548 -0.094897150323784152 0 -0.1217392022794949 -0.1122883941093334 0 -0.1148020651827299 -0.090566740629221473 0 -0.12546762730328931 -0.084065193497023988 0 -0.1148020651827299 -0.090566740629221473 0 -0.1172858587563728 -0.06993400729535626 0 -0.12546762730328931 -0.084065193497023988 0 -0.107698178574548 -0.094897150323784152 0 -0.1148020651827299 -0.090566740629221473 0 -0.1148020651827299 -0.090566740629221473 0 -0.1035844974037087 -0.066635517788513218 0 -0.107698178574548 -0.094897150323784152 0 -0.1041797110560579 -0.09704194889567444 0 -0.10259589629967281 -0.088577451933574483 0 -0.107698178574548 -0.094897150323784152 0 -0.1148020651827299 -0.090566740629221473 0 -0.10259589629967281 -0.088577451933574483 0 -0.1148020651827299 -0.090566740629221473 0 -0.10259589629967281 -0.088577451933574483 0 -0.1035844974037087 -0.066635517788513218 0 -0.092337310220316479 -0.079232262503998063 0 -0.10259589629967281 -0.088577451933574483 0 -0.1035844974037087 -0.066635517788513218 0 -0.107698178574548 -0.094897150323784152 0 -0.10259589629967281 -0.088577451933574483 0 -0.1041797110560579 -0.09704194889567444 0 -0.10259589629967281 -0.088577451933574483 0 -0.094456894775858974 -0.093248866077003362 0 -0.092337310220316479 -0.079232262503998063 0 -0.10259589629967281 -0.088577451933574483 0 -0.094456894775858974 -0.093248866077003362 0 -0.1172858587563728 -0.06993400729535626 0 -0.12546762730328931 -0.084065193497023988 0 -0.12934471968921851 -0.05471661990301524 0 -0.1035844974037087 -0.066635517788513218 0 -0.1172858587563728 -0.06993400729535626 0 -0.1132303842029177 -0.05368596465900722 0 -0.1148020651827299 -0.090566740629221473 0 -0.1035844974037087 -0.066635517788513218 0 -0.1172858587563728 -0.06993400729535626 0 -0.1132303842029177 -0.05368596465900722 0 -0.1173768081565245 -0.038026315917921882 0 -0.12934471968921851 -0.05471661990301524 0 -0.1172858587563728 -0.06993400729535626 0 -0.1132303842029177 -0.05368596465900722 0 -0.12934471968921851 -0.05471661990301524 0 -0.1173768081565245 -0.038026315917921882 0 -0.1027712514957857 -0.027458266459648412 0 -0.092366929624687399 -0.04270429494780504 0 -0.1132303842029177 -0.05368596465900722 0 -0.1173768081565245 -0.038026315917921882 0 -0.092366929624687399 -0.04270429494780504 0 -0.1035844974037087 -0.066635517788513218 0 -0.1132303842029177 -0.05368596465900722 0 -0.092366929624687399 -0.04270429494780504 0 -0.1035844974037087 -0.066635517788513218 0 -0.092366929624687399 -0.04270429494780504 0 -0.1180746810535893 -0.01844753626820873 0 -0.1092492793166108 -0.0014402969385394621 0 -0.1328376889806758 -0.0045356249474490153 0 -0.1173768081565245 -0.038026315917921882 0 -0.1180746810535893 -0.01844753626820873 0 -0.1332218120751483 -0.025368046309006621 0 -0.1173768081565245 -0.038026315917921882 0 -0.1180746810535893 -0.01844753626820873 0 -0.1027712514957857 -0.027458266459648412 0 -0.1180746810535893 -0.01844753626820873 0 -0.1027712514957857 -0.027458266459648412 0 -0.095385432765258266 -0.01466631917639548 0 -0.1180746810535893 -0.01844753626820873 0 -0.095385432765258266 -0.01466631917639548 0 -0.1092492793166108 -0.0014402969385394621 0 -0.095385432765258266 -0.01466631917639548 0 -0.087018808590096697 0.0050938216017826022 0 -0.1180746810535893 -0.01844753626820873 0 -0.1092492793166108 -0.0014402969385394621 0 -0.095385432765258266 -0.01466631917639548 0 -0.095385432765258266 -0.01466631917639548 0 -0.072696184476927217 -0.010885102084582239 0 -0.095385432765258266 -0.01466631917639548 0 -0.081149361845666151 -0.018773072107096899 0 -0.072696184476927217 -0.010885102084582239 0 -0.095385432765258266 -0.01466631917639548 0 -0.072696184476927217 -0.010885102084582239 0 -0.087018808590096697 0.0050938216017826022 0 -0.1027712514957857 -0.027458266459648412 0 -0.081149361845666151 -0.018773072107096899 0 -0.092366929624687399 -0.04270429494780504 0 -0.1027712514957857 -0.027458266459648412 0 -0.095385432765258266 -0.01466631917639548 0 -0.081149361845666151 -0.018773072107096899 0 -0.081149361845666151 -0.018773072107096899 0 -0.092366929624687399 -0.04270429494780504 0 -0.081149361845666151 -0.018773072107096899 0 -0.07107442954957495 -0.028370671398245239 0 -0.092366929624687399 -0.04270429494780504 0 -0.081149361845666151 -0.018773072107096899 0 -0.07107442954957495 -0.028370671398245239 0 -0.072696184476927217 -0.010885102084582239 0 -0.07107442954957495 -0.028370671398245239 0 -0.072696184476927217 -0.010885102084582239 0 -0.055166833705015662 -0.023232649582786449 0 -0.072696184476927217 -0.010885102084582239 0 -0.087018808590096697 0.0050938216017826022 0 -0.071623562416749581 0.0045980549106218772 0 -0.08460089365977129 -0.062113101816462422 0 -0.092366929624687399 -0.04270429494780504 0 -0.078091964398040462 -0.052544338554258073 0 -0.1035844974037087 -0.066635517788513218 0 -0.08460089365977129 -0.062113101816462422 0 -0.092366929624687399 -0.04270429494780504 0 -0.07107442954957495 -0.028370671398245239 0 -0.092366929624687399 -0.04270429494780504 0 -0.073998132458009735 -0.043044146826783938 0 -0.092366929624687399 -0.04270429494780504 0 -0.073998132458009735 -0.043044146826783938 0 -0.078091964398040462 -0.052544338554258073 0 -0.073998132458009735 -0.043044146826783938 0 -0.066324740868220447 -0.055271194445635032 0 -0.060501101251273649 -0.037416272628711583 0 -0.07107442954957495 -0.028370671398245239 0 -0.073998132458009735 -0.043044146826783938 0 -0.060501101251273649 -0.037416272628711583 0 -0.08460089365977129 -0.062113101816462422 0 -0.078091964398040462 -0.052544338554258073 0 -0.066324740868220447 -0.055271194445635032 0 -0.073998132458009735 -0.043044146826783938 0 -0.078091964398040462 -0.052544338554258073 0 -0.066324740868220447 -0.055271194445635032 0 -0.060501101251273649 -0.037416272628711583 0 -0.060469628972920637 -0.066418717851295134 0 -0.046922209646695967 -0.051626220036632163 0 -0.043257631604117143 -0.069270896644052601 0 -0.060469628972920637 -0.066418717851295134 0 -0.046922209646695967 -0.051626220036632163 0 -0.060501101251273649 -0.037416272628711583 0 -0.060469628972920637 -0.066418717851295134 0 -0.066324740868220447 -0.055271194445635032 0 -0.060501101251273649 -0.037416272628711583 0 -0.060469628972920637 -0.066418717851295134 0 -0.046922209646695967 -0.051626220036632163 0 -0.060501101251273649 -0.037416272628711583 0 -0.048292301956745533 -0.035901867632508709 0 -0.060501101251273649 -0.037416272628711583 0 -0.048292301956745533 -0.035901867632508709 0 -0.055166833705015662 -0.023232649582786449 0 -0.046922209646695967 -0.051626220036632163 0 -0.048292301956745533 -0.035901867632508709 0 -0.036553490115645959 -0.040736307107436982 0 -0.048292301956745533 -0.035901867632508709 0 -0.036553490115645959 -0.040736307107436982 0 -0.042317875065096433 -0.026497888806976389 0 -0.036553490115645959 -0.040736307107436982 0 -0.042317875065096433 -0.026497888806976389 0 -0.028135644298819599 -0.029488124832443331 0 -0.046922209646695967 -0.051626220036632163 0 -0.036553490115645959 -0.040736307107436982 0 -0.031834558351637857 -0.058763572522242173 0 -0.046922209646695967 -0.051626220036632163 0 -0.031834558351637857 -0.058763572522242173 0 -0.043257631604117143 -0.069270896644052601 0 -0.072696184476927217 -0.010885102084582239 0 -0.050006936188596147 -0.0071038849927689794 0 -0.057435565951508283 0.007572134026259187 0 -0.072696184476927217 -0.010885102084582239 0 -0.050006936188596147 -0.0071038849927689794 0 -0.055166833705015662 -0.023232649582786449 0 -0.072696184476927217 -0.010885102084582239 0 -0.050006936188596147 -0.0071038849927689794 0 -0.07107442954957495 -0.028370671398245239 0 -0.060501101251273649 -0.037416272628711583 0 -0.055166833705015662 -0.023232649582786449 0 -0.050006936188596147 -0.0071038849927689794 0 -0.055166833705015662 -0.023232649582786449 0 -0.042152224208721722 -0.017445036051433969 0 -0.048292301956745533 -0.035901867632508709 0 -0.055166833705015662 -0.023232649582786449 0 -0.042317875065096433 -0.026497888806976389 0 -0.042317875065096433 -0.026497888806976389 0 -0.032883828284425258 -0.01991182557922366 0 -0.028135644298819599 -0.029488124832443331 0 -0.032883828284425258 -0.01991182557922366 0 -0.042152224208721722 -0.017445036051433969 0 -0.030385647800475129 -0.0104789312954144 0 -0.055166833705015662 -0.023232649582786449 0 -0.042317875065096433 -0.026497888806976389 0 -0.042152224208721722 -0.017445036051433969 0 -0.042317875065096433 -0.026497888806976389 0 -0.032883828284425258 -0.01991182557922366 0 -0.042152224208721722 -0.017445036051433969 0 -0.050006936188596147 -0.0071038849927689794 0 -0.042152224208721722 -0.017445036051433969 0 -0.030385647800475129 -0.0104789312954144 0 -0.050006936188596147 -0.0071038849927689794 0 -0.027317687900264689 -0.0033226679009582898 0 -0.039400224383949717 0.002898592655123104 0 -0.050006936188596147 -0.0071038849927689794 0 -0.027317687900264689 -0.0033226679009582898 0 -0.050006936188596147 -0.0071038849927689794 0 -0.027317687900264689 -0.0033226679009582898 0 -0.030385647800475129 -0.0104789312954144 0 -0.027317687900264689 -0.0033226679009582898 0 -0.0066317386901698708 0.00012469464361213051 0 -0.027317687900264689 -0.0033226679009582898 0 -0.01550507491235297 -0.01215250645500429 0 -0.0066317386901698708 0.00012469464361213051 0 -0.027317687900264689 -0.0033226679009582898 0 -0.030385647800475129 -0.0104789312954144 0 -0.027317687900264689 -0.0033226679009582898 0 -0.030385647800475129 -0.0104789312954144 0 -0.01550507491235297 -0.01215250645500429 0 -0.030385647800475129 -0.0104789312954144 0 -0.023687745795998069 -0.019166115775067171 0 -0.01550507491235297 -0.01215250645500429 0 -0.023687745795998069 -0.019166115775067171 0 -0.028135644298819599 -0.029488124832443331 0 -0.01131780637347571 -0.027587156843098159 0 -0.023687745795998069 -0.019166115775067171 0 -0.01131780637347571 -0.027587156843098159 0 -0.01550507491235297 -0.01215250645500429 0 -0.032883828284425258 -0.01991182557922366 0 -0.030385647800475129 -0.0104789312954144 0 -0.023687745795998069 -0.019166115775067171 0 -0.032883828284425258 -0.01991182557922366 0 -0.023687745795998069 -0.019166115775067171 0 -0.028135644298819599 -0.029488124832443331 0 -0.01131780637347571 -0.027587156843098159 0 -0.01550507491235297 -0.01215250645500429 0 0.0046877820616839788 -0.014824031110414009 0 -0.01131780637347571 -0.027587156843098159 0 0.0046877820616839788 -0.014824031110414009 0 0.0053656951540007759 -0.033063162948168578 0 -0.01550507491235297 -0.01215250645500429 0 -0.0066317386901698708 0.00012469464361213051 0 0.0046877820616839788 -0.014824031110414009 0 -0.031834558351637857 -0.058763572522242173 0 -0.022148275321143052 -0.045996032354033781 0 -0.011885421224751801 -0.064064825071286663 0 -0.036553490115645959 -0.040736307107436982 0 -0.031834558351637857 -0.058763572522242173 0 -0.022148275321143052 -0.045996032354033781 0 -0.028135644298819599 -0.029488124832443331 0 -0.01131780637347571 -0.027587156843098159 0 -0.022148275321143052 -0.045996032354033781 0 -0.036553490115645959 -0.040736307107436982 0 -0.028135644298819599 -0.029488124832443331 0 -0.022148275321143052 -0.045996032354033781 0 -0.01131780637347571 -0.027587156843098159 0 -0.0047045664312333523 -0.044839655199411681 0 0.0053656951540007759 -0.033063162948168578 0 -0.01131780637347571 -0.027587156843098159 0 -0.022148275321143052 -0.045996032354033781 0 -0.0047045664312333523 -0.044839655199411681 0 -0.022148275321143052 -0.045996032354033781 0 -0.0047045664312333523 -0.044839655199411681 0 -0.011885421224751801 -0.064064825071286663 0 -0.0047045664312333523 -0.044839655199411681 0 -0.011885421224751801 -0.064064825071286663 0 0.01365424766193501 -0.053629682147677271 0 -0.011885421224751801 -0.064064825071286663 0 -0.013645544907761009 -0.085531998212969834 0 0.0048234998987816248 -0.077730636789505952 0 -0.013645544907761009 -0.085531998212969834 0 -0.0040072478643717636 -0.10183159143133461 0 0.0048234998987816248 -0.077730636789505952 0 -0.013645544907761009 -0.085531998212969834 0 -0.030240322197473239 -0.080887153920010876 0 -0.033218262519371197 -0.1039765354773643 0 -0.011885421224751801 -0.064064825071286663 0 -0.013645544907761009 -0.085531998212969834 0 -0.030240322197473239 -0.080887153920010876 0 -0.031834558351637857 -0.058763572522242173 0 -0.011885421224751801 -0.064064825071286663 0 -0.030240322197473239 -0.080887153920010876 0 -0.031834558351637857 -0.058763572522242173 0 -0.030240322197473239 -0.080887153920010876 0 -0.043257631604117143 -0.069270896644052601 0 -0.030240322197473239 -0.080887153920010876 0 -0.043257631604117143 -0.069270896644052601 0 -0.045779869573573558 -0.083971703669948203 0 -0.030240322197473239 -0.080887153920010876 0 -0.045779869573573558 -0.083971703669948203 0 -0.033218262519371197 -0.1039765354773643 0 -0.060469628972920637 -0.066418717851295134 0 -0.060438156694567632 -0.095421163073878948 0 -0.045779869573573558 -0.083971703669948203 0 -0.060469628972920637 -0.066418717851295134 0 -0.060438156694567632 -0.095421163073878948 0 -0.043257631604117143 -0.069270896644052601 0 -0.045779869573573558 -0.083971703669948203 0 -0.060469628972920637 -0.066418717851295134 0 -0.060406684416214627 -0.1244236082964626 0 -0.033218262519371197 -0.1039765354773643 0 -0.036979346329154499 -0.13628255801283559 0 -0.060406684416214627 -0.1244236082964626 0 -0.060438156694567632 -0.095421163073878948 0 -0.060406684416214627 -0.1244236082964626 0 -0.060438156694567632 -0.095421163073878948 0 -0.033218262519371197 -0.1039765354773643 0 -0.045779869573573558 -0.083971703669948203 0 -0.060438156694567632 -0.095421163073878948 0 -0.033218262519371197 -0.1039765354773643 0 -0.033218262519371197 -0.1039765354773643 0 -0.017309506782489201 -0.123850078728917 0 -0.036979346329154499 -0.13628255801283559 0 -0.033218262519371197 -0.1039765354773643 0 -0.017309506782489201 -0.123850078728917 0 -0.0040072478643717636 -0.10183159143133461 0 -0.013645544907761009 -0.085531998212969834 0 -0.033218262519371197 -0.1039765354773643 0 -0.0040072478643717636 -0.10183159143133461 0 -0.017309506782489201 -0.123850078728917 0 -0.0040072478643717636 -0.10183159143133461 0 0.0031716933938910549 -0.1279946343258361 0 -0.017309506782489201 -0.123850078728917 0 -0.01717921683405731 -0.14823796783465029 0 0.0031716933938910549 -0.1279946343258361 0 -0.01717921683405731 -0.14823796783465029 0 -0.037530127062005668 -0.1684813013434644 0 -0.036979346329154499 -0.13628255801283559 0 -0.01717921683405731 -0.14823796783465029 0 0.0031716933938910549 -0.1279946343258361 0 -0.017309506782489201 -0.123850078728917 0 -0.01717921683405731 -0.14823796783465029 0 -0.036979346329154499 -0.13628255801283559 0 -0.01717921683405731 -0.14823796783465029 0 0.0027139176769928391 -0.15513218753068189 0 0.0031716933938910549 -0.1279946343258361 0 -0.01717921683405731 -0.14823796783465029 0 -0.01722054895174626 -0.1770963215750942 0 0.0027139176769928391 -0.15513218753068189 0 -0.01722054895174626 -0.1770963215750942 0 0.002497602333390581 -0.17513408624846249 0 0.0027139176769928391 -0.15513218753068189 0 -0.01722054895174626 -0.1770963215750942 0 -0.001832913880063871 -0.18948146249523201 0 0.002497602333390581 -0.17513408624846249 0 -0.01722054895174626 -0.1770963215750942 0 -0.037530127062005668 -0.1684813013434644 0 -0.033302853336481072 -0.18754690218963591 0 -0.01717921683405731 -0.14823796783465029 0 -0.01722054895174626 -0.1770963215750942 0 -0.037530127062005668 -0.1684813013434644 0 -0.01717921683405731 -0.14823796783465029 0 -0.037530127062005668 -0.1684813013434644 0 -0.037530127062005668 -0.1684813013434644 0 -0.033302853336481072 -0.18754690218963591 0 -0.057881037289954029 -0.1887246348522785 0 -0.037530127062005668 -0.1684813013434644 0 -0.057881037289954029 -0.1887246348522785 0 -0.037530127062005668 -0.1684813013434644 0 -0.060810190144488782 -0.16805426099021489 0 -0.057881037289954029 -0.1887246348522785 0 -0.037530127062005668 -0.1684813013434644 0 -0.060810190144488782 -0.16805426099021489 0 -0.056579123327584392 -0.14853270919562089 0 -0.037530127062005668 -0.1684813013434644 0 -0.056579123327584392 -0.14853270919562089 0 -0.036979346329154499 -0.13628255801283559 0 -0.060406684416214627 -0.1244236082964626 0 -0.056579123327584392 -0.14853270919562089 0 -0.036979346329154499 -0.13628255801283559 0 -0.018658851062118859 -0.25680846307733651 0 -0.027312380692025431 -0.24281844151573459 0 -0.0066164347875948808 -0.24271512594326239 0 -0.027312380692025431 -0.24281844151573459 0 -0.0066164347875948808 -0.24271512594326239 0 -0.013587756073212821 -0.23145694041215881 0 -0.0066164347875948808 -0.24271512594326239 0 -0.013587756073212821 -0.23145694041215881 0 -5.7255641541217699e-05 -0.22481575049984709 0 -0.013587756073212821 -0.23145694041215881 0 -5.7255641541217699e-05 -0.22481575049984709 0 -0.020364953171689779 -0.2154784436897911 0 -0.027312380692025431 -0.24281844151573459 0 -0.020364953171689779 -0.2154784436897911 0 -0.045716601280293701 -0.22611037357766581 0 -0.027312380692025431 -0.24281844151573459 0 -0.020364953171689779 -0.2154784436897911 0 -0.027312380692025431 -0.24281844151573459 0 -0.013587756073212821 -0.23145694041215881 0 -0.020364953171689779 -0.2154784436897911 0 -0.020364953171689779 -0.2154784436897911 0 -0.016089434840982408 -0.19865312791294479 0 -0.037793118537716948 -0.20477912526439751 0 -0.020364953171689779 -0.2154784436897911 0 -0.016089434840982408 -0.19865312791294479 0 -0.020364953171689779 -0.2154784436897911 0 0.0062936657237188491 -0.204298398676966 0 -5.7255641541217699e-05 -0.22481575049984709 0 -0.020364953171689779 -0.2154784436897911 0 0.0062936657237188491 -0.204298398676966 0 -0.020364953171689779 -0.2154784436897911 0 -0.016089434840982408 -0.19865312791294479 0 0.0062936657237188491 -0.204298398676966 0 -0.001832913880063871 -0.18948146249523201 0 -0.016089434840982408 -0.19865312791294479 0 0.0062936657237188491 -0.204298398676966 0 -0.01722054895174626 -0.1770963215750942 0 -0.001832913880063871 -0.18948146249523201 0 -0.016089434840982408 -0.19865312791294479 0 -0.016089434840982408 -0.19865312791294479 0 -0.033302853336481072 -0.18754690218963591 0 -0.037793118537716948 -0.20477912526439751 0 -0.01722054895174626 -0.1770963215750942 0 -0.016089434840982408 -0.19865312791294479 0 -0.033302853336481072 -0.18754690218963591 0 -0.033302853336481072 -0.18754690218963591 0 -0.057881037289954029 -0.1887246348522785 0 -0.037793118537716948 -0.20477912526439751 0 -0.057881037289954029 -0.1887246348522785 0 -0.058392265960447561 -0.2116711257628309 0 -0.037793118537716948 -0.20477912526439751 0 -0.058392265960447561 -0.2116711257628309 0 -0.037793118537716948 -0.20477912526439751 0 -0.045716601280293701 -0.22611037357766581 0 -0.020364953171689779 -0.2154784436897911 0 -0.037793118537716948 -0.20477912526439751 0 -0.045716601280293701 -0.22611037357766581 0 -0.020364953171689779 -0.2154784436897911 0 -0.045716601280293701 -0.22611037357766581 0 -0.058392265960447561 -0.2116711257628309 0 -0.045716601280293701 -0.22611037357766581 0 -0.060993607512492942 -0.23417999460717981 0 -0.045716601280293701 -0.22611037357766581 0 -0.060993607512492942 -0.23417999460717981 0 -0.050311538405198232 -0.24904021069461579 0 -0.027312380692025431 -0.24281844151573459 0 -0.045716601280293701 -0.22611037357766581 0 -0.050311538405198232 -0.24904021069461579 0 -0.040507584818940269 -0.25689785710473412 0 -0.027312380692025431 -0.24281844151573459 0 -0.050311538405198232 -0.24904021069461579 0 -0.076337008171007248 -0.25426522865919321 0 -0.09018656940804276 -0.23970244340782559 0 -0.077621927772497337 -0.22754081379105681 0 -0.076337008171007248 -0.25426522865919321 0 -0.09018656940804276 -0.23970244340782559 0 -0.098558753875313654 -0.24789525972139931 0 -0.076337008171007248 -0.25426522865919321 0 -0.060993607512492942 -0.23417999460717981 0 -0.077621927772497337 -0.22754081379105681 0 -0.076337008171007248 -0.25426522865919321 0 -0.060993607512492942 -0.23417999460717981 0 -0.050311538405198232 -0.24904021069461579 0 -0.058392265960447561 -0.2116711257628309 0 -0.060993607512492942 -0.23417999460717981 0 -0.077621927772497337 -0.22754081379105681 0 -0.077621927772497337 -0.22754081379105681 0 -0.086531593596761991 -0.21834646067388691 0 -0.095287737531006556 -0.22692643726689421 0 -0.09018656940804276 -0.23970244340782559 0 -0.077621927772497337 -0.22754081379105681 0 -0.095287737531006556 -0.22692643726689421 0 -0.078231947517902356 -0.2089679683610926 0 -0.086531593596761991 -0.21834646067388691 0 -0.094984761565641757 -0.2099506232765041 0 -0.086531593596761991 -0.21834646067388691 0 -0.094984761565641757 -0.2099506232765041 0 -0.095287737531006556 -0.22692643726689421 0 -0.078231947517902356 -0.2089679683610926 0 -0.084512984638371202 -0.19259835787734869 0 -0.094984761565641757 -0.2099506232765041 0 -0.077621927772497337 -0.22754081379105681 0 -0.078231947517902356 -0.2089679683610926 0 -0.086531593596761991 -0.21834646067388691 0 -0.058392265960447561 -0.2116711257628309 0 -0.077621927772497337 -0.22754081379105681 0 -0.078231947517902356 -0.2089679683610926 0 -0.057881037289954029 -0.1887246348522785 0 -0.078231947517902356 -0.2089679683610926 0 -0.057881037289954029 -0.1887246348522785 0 -0.058392265960447561 -0.2116711257628309 0 -0.078231947517902356 -0.2089679683610926 0 -0.057881037289954029 -0.1887246348522785 0 -0.078231947517902356 -0.2089679683610926 0 -0.084512984638371202 -0.19259835787734869 0 -0.084512984638371202 -0.19259835787734869 0 -0.10314669495427591 -0.19571450336259141 0 -0.094984761565641757 -0.2099506232765041 0 -0.084512984638371202 -0.19259835787734869 0 -0.10314669495427591 -0.19571450336259141 0 -0.084512984638371202 -0.19259835787734869 0 -0.10314669495427591 -0.19571450336259141 0 -0.097499740239925192 -0.17756222776132391 0 -0.10314669495427591 -0.19571450336259141 0 -0.1217804052701808 -0.19883064884783311 0 -0.1099340451153219 -0.2083697615518178 0 -0.10314669495427591 -0.19571450336259141 0 -0.1217804052701808 -0.19883064884783311 0 -0.10314669495427591 -0.19571450336259141 0 -0.1217804052701808 -0.19883064884783311 0 -0.1111547614368681 -0.1866637091834851 0 -0.1217804052701808 -0.19883064884783311 0 -0.1233319965608866 -0.18518209171568359 0 -0.1217804052701808 -0.19883064884783311 0 -0.1111547614368681 -0.1866637091834851 0 -0.1233319965608866 -0.18518209171568359 0 -0.1217804052701808 -0.19883064884783311 0 -0.1194294974042712 -0.21951038616815799 0 -0.1217804052701808 -0.19883064884783311 0 -0.1194294974042712 -0.21951038616815799 0 -0.1336022333713808 -0.2066532932293349 0 -0.1217804052701808 -0.19883064884783311 0 -0.1099340451153219 -0.2083697615518178 0 -0.1194294974042712 -0.21951038616815799 0 -0.1099340451153219 -0.2083697615518178 0 -0.1055350397646105 -0.21924871097234749 0 -0.1194294974042712 -0.21951038616815799 0 -0.1099340451153219 -0.2083697615518178 0 -0.094984761565641757 -0.2099506232765041 0 -0.1055350397646105 -0.21924871097234749 0 -0.094984761565641757 -0.2099506232765041 0 -0.095287737531006556 -0.22692643726689421 0 -0.1055350397646105 -0.21924871097234749 0 -0.10314669495427591 -0.19571450336259141 0 -0.1099340451153219 -0.2083697615518178 0 -0.094984761565641757 -0.2099506232765041 0 -0.095287737531006556 -0.22692643726689421 0 -0.1080391572068113 -0.23148634659836331 0 -0.10045646802633811 -0.23803719411983229 0 -0.095287737531006556 -0.22692643726689421 0 -0.1080391572068113 -0.23148634659836331 0 -0.1055350397646105 -0.21924871097234749 0 -0.1194294974042712 -0.21951038616815799 0 -0.1170785895383615 -0.2401901234884829 0 -0.1080391572068113 -0.23148634659836331 0 -0.1055350397646105 -0.21924871097234749 0 -0.1194294974042712 -0.21951038616815799 0 -0.1194294974042712 -0.21951038616815799 0 -0.1170785895383615 -0.2401901234884829 0 -0.13133323264182609 -0.23191900817899661 0 -0.1080391572068113 -0.23148634659836331 0 -0.1194294974042712 -0.21951038616815799 0 -0.1170785895383615 -0.2401901234884829 0 -0.1080391572068113 -0.23148634659836331 0 -0.1170785895383615 -0.2401901234884829 0 -0.1102101221105163 -0.24417548360467911 0 -0.1170785895383615 -0.2401901234884829 0 -0.1102101221105163 -0.24417548360467911 0 -0.1170785895383615 -0.2401901234884829 0 -0.13133323264182609 -0.23191900817899661 0 -0.1170785895383615 -0.2401901234884829 0 -0.1263420023613146 -0.23973595795177211 0 -0.13133323264182609 -0.23191900817899661 0 -0.1170785895383615 -0.2401901234884829 0 -0.12248716586679501 -0.24844290833317059 0 -0.1263420023613146 -0.23973595795177211 0 -0.1170785895383615 -0.2401901234884829 0 -0.12248716586679501 -0.24844290833317059 0 -0.1162377943832648 -0.24758616958613591 0 -0.1170785895383615 -0.2401901234884829 0 -0.1162377943832648 -0.24758616958613591 0 -0.1102101221105163 -0.24417548360467911 0 -0.1170785895383615 -0.2401901234884829 0 -0.1162377943832648 -0.24758616958613591 0 -0.1091800257290213 -0.25067722211056848 0 -0.1162377943832648 -0.24758616958613591 0 -0.1102101221105163 -0.24417548360467911 0 -0.1091800257290213 -0.25067722211056848 0 -0.1102101221105163 -0.24417548360467911 0 -0.098558753875313654 -0.24789525972139931 0 -0.1102101221105163 -0.24417548360467911 0 -0.10045646802633811 -0.23803719411983229 0 -0.098558753875313654 -0.24789525972139931 0 -0.1080391572068113 -0.23148634659836331 0 -0.1102101221105163 -0.24417548360467911 0 -0.10045646802633811 -0.23803719411983229 0 -0.09018656940804276 -0.23970244340782559 0 -0.095287737531006556 -0.22692643726689421 0 -0.10045646802633811 -0.23803719411983229 0 -0.09018656940804276 -0.23970244340782559 0 -0.10045646802633811 -0.23803719411983229 0 -0.098558753875313654 -0.24789525972139931 0 -0.088158342659895694 -0.1545252205772327 0 -0.080975825249002487 -0.13682224990224129 0 -0.074887224452879944 -0.158714203955239 0 -0.088158342659895694 -0.1545252205772327 0 -0.080975825249002487 -0.13682224990224129 0 -0.097976009155407245 -0.14674405357600839 0 -0.086840068971335366 -0.1216249015620096 0 -0.080975825249002487 -0.13682224990224129 0 -0.1023235653009528 -0.13123075100598069 0 -0.060406684416214627 -0.1244236082964626 0 -0.056579123327584392 -0.14853270919562089 0 -0.080975825249002487 -0.13682224990224129 0 -0.056579123327584392 -0.14853270919562089 0 -0.080975825249002487 -0.13682224990224129 0 -0.074887224452879944 -0.158714203955239 0 -0.060810190144488782 -0.16805426099021489 0 -0.056579123327584392 -0.14853270919562089 0 -0.074887224452879944 -0.158714203955239 0 -0.060810190144488782 -0.16805426099021489 0 -0.074887224452879944 -0.158714203955239 0 -0.077173438590019849 -0.17581845560447201 0 -0.060810190144488782 -0.16805426099021489 0 -0.057881037289954029 -0.1887246348522785 0 -0.077173438590019849 -0.17581845560447201 0 -0.057881037289954029 -0.1887246348522785 0 -0.084512984638371202 -0.19259835787734869 0 -0.077173438590019849 -0.17581845560447201 0 -0.077173438590019849 -0.17581845560447201 0 -0.087193827187300676 -0.1657661219355783 0 -0.097499740239925192 -0.17756222776132391 0 -0.084512984638371202 -0.19259835787734869 0 -0.077173438590019849 -0.17581845560447201 0 -0.097499740239925192 -0.17756222776132391 0 -0.074887224452879944 -0.158714203955239 0 -0.077173438590019849 -0.17581845560447201 0 -0.087193827187300676 -0.1657661219355783 0 -0.088158342659895694 -0.1545252205772327 0 -0.074887224452879944 -0.158714203955239 0 -0.087193827187300676 -0.1657661219355783 0 -0.088158342659895694 -0.1545252205772327 0 -0.087193827187300676 -0.1657661219355783 0 -0.098250389993782675 -0.16221050177962401 0 -0.098250389993782675 -0.16221050177962401 0 -0.1043997257878647 -0.16923637446500109 0 -0.097499740239925192 -0.17756222776132391 0 -0.087193827187300676 -0.1657661219355783 0 -0.098250389993782675 -0.16221050177962401 0 -0.097499740239925192 -0.17756222776132391 0 -0.098250389993782675 -0.16221050177962401 0 -0.1043997257878647 -0.16923637446500109 0 -0.1118338027586795 -0.16114369408906271 0 -0.1043997257878647 -0.16923637446500109 0 -0.1100149701590715 -0.17602907422999389 0 -0.1118338027586795 -0.16114369408906271 0 -0.098250389993782675 -0.16221050177962401 0 -0.1118338027586795 -0.16114369408906271 0 -0.1065708099154352 -0.15351483559537621 0 -0.10314669495427591 -0.19571450336259141 0 -0.097499740239925192 -0.17756222776132391 0 -0.1111547614368681 -0.1866637091834851 0 -0.1043997257878647 -0.16923637446500109 0 -0.097499740239925192 -0.17756222776132391 0 -0.1100149701590715 -0.17602907422999389 0 -0.097499740239925192 -0.17756222776132391 0 -0.1111547614368681 -0.1866637091834851 0 -0.1100149701590715 -0.17602907422999389 0 -0.1233319965608866 -0.18518209171568359 0 -0.1118338027586795 -0.16114369408906271 0 -0.1100149701590715 -0.17602907422999389 0 -0.1233319965608866 -0.18518209171568359 0 -0.1118338027586795 -0.16114369408906271 0 -0.1233319965608866 -0.18518209171568359 0 -0.12535369976579061 -0.16739819987400659 0 -0.1111547614368681 -0.1866637091834851 0 -0.1100149701590715 -0.17602907422999389 0 -0.1233319965608866 -0.18518209171568359 0 -0.1233319965608866 -0.18518209171568359 0 -0.1118338027586795 -0.16114369408906271 0 -0.12535369976579061 -0.16739819987400659 0 -0.1162507529435588 -0.15383451765213771 0 -0.12737540297069519 -0.1496143080323295 0 -0.12535369976579061 -0.16739819987400659 0 -0.1118338027586795 -0.16114369408906271 0 -0.1162507529435588 -0.15383451765213771 0 -0.12535369976579061 -0.16739819987400659 0 -0.1162507529435588 -0.15383451765213771 0 -0.1189949776115268 -0.13306145588073551 0 -0.1162507529435588 -0.15383451765213771 0 -0.1085430947257477 -0.14364141088004839 0 -0.1189949776115268 -0.13306145588073551 0 -0.1162507529435588 -0.15383451765213771 0 -0.1189949776115268 -0.13306145588073551 0 -0.12737540297069519 -0.1496143080323295 0 -0.1118338027586795 -0.16114369408906271 0 -0.1162507529435588 -0.15383451765213771 0 -0.1065708099154352 -0.15351483559537621 0 -0.1162507529435588 -0.15383451765213771 0 -0.1065708099154352 -0.15351483559537621 0 -0.1085430947257477 -0.14364141088004839 0 -0.1065708099154352 -0.15351483559537621 0 -0.1085430947257477 -0.14364141088004839 0 -0.097976009155407245 -0.14674405357600839 0 -0.098250389993782675 -0.16221050177962401 0 -0.1065708099154352 -0.15351483559537621 0 -0.097976009155407245 -0.14674405357600839 0 -0.088158342659895694 -0.1545252205772327 0 -0.098250389993782675 -0.16221050177962401 0 -0.097976009155407245 -0.14674405357600839 0 -0.080975825249002487 -0.13682224990224129 0 -0.097976009155407245 -0.14674405357600839 0 -0.1023235653009528 -0.13123075100598069 0 -0.1085430947257477 -0.14364141088004839 0 -0.097976009155407245 -0.14674405357600839 0 -0.1023235653009528 -0.13123075100598069 0 -0.1120375534338989 -0.1225765663547608 0 -0.1023235653009528 -0.13123075100598069 0 -0.1189949776115268 -0.13306145588073551 0 -0.1085430947257477 -0.14364141088004839 0 -0.1023235653009528 -0.13123075100598069 0 -0.1189949776115268 -0.13306145588073551 0 -0.1189949776115268 -0.13306145588073551 0 -0.1297898410527995 -0.1388111586287531 0 -0.12737540297069519 -0.1496143080323295 0 -0.14553340740408899 -0.1417599505072758 0 -0.12947548143064089 -0.12187056700056211 0 -0.14024389592194739 -0.14484357968112799 0 -0.12947548143064089 -0.12187056700056211 0 -0.1297898410527995 -0.1388111586287531 0 -0.14024389592194739 -0.14484357968112799 0 -0.12947548143064089 -0.12187056700056211 0 -0.14121807982319731 -0.12515205944179861 0 -0.14553340740408899 -0.1417599505072758 0 -0.12947548143064089 -0.12187056700056211 0 -0.14553340740408899 -0.1417599505072758 0 -0.14024389592194739 -0.14484357968112799 0 -0.12947548143064089 -0.12187056700056211 0 -0.1189949776115268 -0.13306145588073551 0 -0.1297898410527995 -0.1388111586287531 0 -0.12947548143064089 -0.12187056700056211 0 -0.14730783294341351 -0.13132108980390109 0 -0.14121807982319731 -0.12515205944179861 0 -0.14864522162757271 -0.1204300406441904 0 -0.14730783294341351 -0.13132108980390109 0 -0.14121807982319731 -0.12515205944179861 0 -0.14553340740408899 -0.1417599505072758 0 -0.14730783294341351 -0.13132108980390109 0 -0.1502407371861367 -0.1367821699129565 0 -0.14553340740408899 -0.1417599505072758 0 -0.1502407371861367 -0.1367821699129565 0 -0.15498481077981749 -0.13944635696315841 0 -0.14553340740408899 -0.1417599505072758 0 -0.14730783294341351 -0.13132108980390109 0 -0.1502407371861367 -0.1367821699129565 0 -0.15599263878058439 -0.13368779841142731 0 -0.1502407371861367 -0.1367821699129565 0 -0.15498481077981749 -0.13944635696315841 0 -0.15599263878058439 -0.13368779841142731 0 -0.14730783294341351 -0.13132108980390109 0 -0.15599263878058439 -0.13368779841142731 0 -0.15653493526388529 -0.12569814396999929 0 -0.14730783294341351 -0.13132108980390109 0 -0.15653493526388529 -0.12569814396999929 0 -0.14864522162757271 -0.1204300406441904 0 -0.14955136118887491 -0.1541674047508452 0 -0.14024389592194739 -0.14484357968112799 0 -0.1510123104132538 -0.16781659236169411 0 -0.14553340740408899 -0.1417599505072758 0 -0.16159133337753731 -0.16164933401398959 0 -0.14553340740408899 -0.1417599505072758 0 -0.16159133337753731 -0.16164933401398959 0 -0.16005233903330709 -0.146895625454257 0 -0.14955136118887491 -0.1541674047508452 0 -0.14553340740408899 -0.1417599505072758 0 -0.16159133337753731 -0.16164933401398959 0 -0.15498481077981749 -0.13944635696315841 0 -0.14553340740408899 -0.1417599505072758 0 -0.16005233903330709 -0.146895625454257 0 -0.14955136118887491 -0.1541674047508452 0 -0.14553340740408899 -0.1417599505072758 0 -0.14024389592194739 -0.14484357968112799 0 -0.13487508388560751 -0.15011389336773259 0 -0.12737540297069519 -0.1496143080323295 0 -0.13843389400569739 -0.15970231356813 0 -0.13487508388560751 -0.15011389336773259 0 -0.14024389592194739 -0.14484357968112799 0 -0.13843389400569739 -0.15970231356813 0 -0.1297898410527995 -0.1388111586287531 0 -0.14024389592194739 -0.14484357968112799 0 -0.13344714264409011 -0.14629537218934291 0 -0.13487508388560751 -0.15011389336773259 0 -0.14024389592194739 -0.14484357968112799 0 -0.13344714264409011 -0.14629537218934291 0 -0.1297898410527995 -0.1388111586287531 0 -0.13344714264409011 -0.14629537218934291 0 -0.12737540297069519 -0.1496143080323295 0 -0.13487508388560751 -0.15011389336773259 0 -0.13344714264409011 -0.14629537218934291 0 -0.12737540297069519 -0.1496143080323295 0 -0.12737540297069519 -0.1496143080323295 0 -0.12535369976579061 -0.16739819987400659 0 -0.12737540297069519 -0.1496143080323295 0 -0.12535369976579061 -0.16739819987400659 0 -0.13843389400569739 -0.15970231356813 0 -0.12535369976579061 -0.16739819987400659 0 -0.13638152062292799 -0.17570544973761709 0 -0.1418140244712309 -0.16826898388990519 0 -0.12535369976579061 -0.16739819987400659 0 -0.13843389400569739 -0.15970231356813 0 -0.1418140244712309 -0.16826898388990519 0 -0.1233319965608866 -0.18518209171568359 0 -0.12535369976579061 -0.16739819987400659 0 -0.13638152062292799 -0.17570544973761709 0 -0.1233319965608866 -0.18518209171568359 0 -0.13638152062292799 -0.17570544973761709 0 -0.13411943845531679 -0.20089412530530401 0 -0.13638152062292799 -0.17570544973761709 0 -0.14842722486837859 -0.17744704472509251 0 -0.14439054982937269 -0.18863268430775931 0 -0.13638152062292799 -0.17570544973761709 0 -0.14842722486837859 -0.17744704472509251 0 -0.1418140244712309 -0.16826898388990519 0 -0.14842722486837859 -0.17744704472509251 0 -0.1510123104132538 -0.16781659236169411 0 -0.15662805197343499 -0.17403660895442891 0 -0.14842722486837859 -0.17744704472509251 0 -0.15766135805997869 -0.18579874166033039 0 -0.15662805197343499 -0.17403660895442891 0 -0.14842722486837859 -0.17744704472509251 0 -0.15766135805997869 -0.18579874166033039 0 -0.14439054982937269 -0.18863268430775931 0 -0.14024389592194739 -0.14484357968112799 0 -0.1510123104132538 -0.16781659236169411 0 -0.14024389592194739 -0.14484357968112799 0 -0.13843389400569739 -0.15970231356813 0 -0.1510123104132538 -0.16781659236169411 0 -0.13843389400569739 -0.15970231356813 0 -0.1418140244712309 -0.16826898388990519 0 -0.1510123104132538 -0.16781659236169411 0 -0.14842722486837859 -0.17744704472509251 0 -0.1418140244712309 -0.16826898388990519 0 -0.1510123104132538 -0.16781659236169411 0 -0.14955136118887491 -0.1541674047508452 0 -0.1510123104132538 -0.16781659236169411 0 -0.16159133337753731 -0.16164933401398959 0 -0.16159133337753731 -0.16164933401398959 0 -0.17764925935098491 -0.18153871752070391 0 -0.16159133337753731 -0.16164933401398959 0 -0.15662805197343499 -0.17403660895442891 0 -0.16444803314802689 -0.17747133201103779 0 -0.16159133337753731 -0.16164933401398959 0 -0.17764925935098491 -0.18153871752070391 0 -0.1740622006658066 -0.1634997031023129 0 -0.1510123104132538 -0.16781659236169411 0 -0.16159133337753731 -0.16164933401398959 0 -0.15662805197343499 -0.17403660895442891 0 -0.16159133337753731 -0.16164933401398959 0 -0.1740622006658066 -0.1634997031023129 0 -0.16841794613693639 -0.15398432498066969 0 -0.16159133337753731 -0.16164933401398959 0 -0.16444803314802689 -0.17747133201103779 0 -0.17764925935098491 -0.18153871752070391 0 -0.15766135805997869 -0.18579874166033039 0 -0.16444803314802689 -0.17747133201103779 0 -0.16472217877848369 -0.18747137097830241 0 -0.15766135805997869 -0.18579874166033039 0 -0.15662805197343499 -0.17403660895442891 0 -0.16444803314802689 -0.17747133201103779 0 -0.16444803314802689 -0.17747133201103779 0 -0.16472217877848369 -0.18747137097830241 0 -0.17764925935098491 -0.18153871752070391 0 -0.17764925935098491 -0.18153871752070391 0 -0.1869074104786799 -0.17975145451301969 0 -0.18859728359124239 -0.1676237322365576 0 -0.17764925935098491 -0.18153871752070391 0 -0.18859728359124239 -0.1676237322365576 0 -0.17764925935098491 -0.18153871752070391 0 -0.1869074104786799 -0.17975145451301969 0 -0.18320890121531899 -0.18842490253504129 0 -0.1869074104786799 -0.17975145451301969 0 -0.18320890121531899 -0.18842490253504129 0 -0.19027249701494259 -0.1851011725777541 0 -0.17764925935098491 -0.18153871752070391 0 -0.1795411375779708 -0.19068614495890299 0 -0.18320890121531899 -0.18842490253504129 0 -0.17764925935098491 -0.18153871752070391 0 -0.18320890121531899 -0.18842490253504129 0 -0.1764692799665879 -0.15315814638178979 0 -0.18827464426681639 -0.14942721672257439 0 -0.18859728359124239 -0.1676237322365576 0 -0.17764925935098491 -0.18153871752070391 0 -0.1740622006658066 -0.1634997031023129 0 -0.18859728359124239 -0.1676237322365576 0 -0.1740622006658066 -0.1634997031023129 0 -0.1764692799665879 -0.15315814638178979 0 -0.16841794613693639 -0.15398432498066969 0 -0.1740622006658066 -0.1634997031023129 0 -0.1764692799665879 -0.15315814638178979 0 -0.18859728359124239 -0.1676237322365576 0 -0.1764692799665879 -0.15315814638178979 0 -0.180755246074599 -0.14151727266289829 0 -0.16991457764144299 -0.14471881595099939 0 -0.1764692799665879 -0.15315814638178979 0 -0.180755246074599 -0.14151727266289829 0 -0.18827464426681639 -0.14942721672257439 0 -0.180755246074599 -0.14151727266289829 0 -0.1905407067900616 -0.13818508804660909 0 -0.18827464426681639 -0.14942721672257439 0 -0.180755246074599 -0.14151727266289829 0 -0.1822527331883948 -0.12907647366409919 0 -0.1905407067900616 -0.13818508804660909 0 -0.1822527331883948 -0.12907647366409919 0 -0.1726737386495483 -0.13542962138973511 0 -0.16604875234675329 -0.12572787132487651 0 -0.180755246074599 -0.14151727266289829 0 -0.1822527331883948 -0.12907647366409919 0 -0.1726737386495483 -0.13542962138973511 0 -0.180755246074599 -0.14151727266289829 0 -0.1726737386495483 -0.13542962138973511 0 -0.16991457764144299 -0.14471881595099939 0 -0.1726737386495483 -0.13542962138973511 0 -0.16353301508193499 -0.1377836444587929 0 -0.16991457764144299 -0.14471881595099939 0 -0.1726737386495483 -0.13542962138973511 0 -0.16604875234675329 -0.12572787132487651 0 -0.16353301508193499 -0.1377836444587929 0 -0.15599263878058439 -0.13368779841142731 0 -0.16604875234675329 -0.12572787132487651 0 -0.15653493526388529 -0.12569814396999929 0 -0.15599263878058439 -0.13368779841142731 0 -0.16604875234675329 -0.12572787132487651 0 -0.16353301508193499 -0.1377836444587929 0 -0.15498481077981749 -0.13944635696315841 0 -0.15599263878058439 -0.13368779841142731 0 -0.16353301508193499 -0.1377836444587929 0 -0.15498481077981749 -0.13944635696315841 0 -0.16353301508193499 -0.1377836444587929 0 -0.16005233903330709 -0.146895625454257 0 -0.16159133337753731 -0.16164933401398959 0 -0.16005233903330709 -0.146895625454257 0 -0.16841794613693639 -0.15398432498066969 0 -0.1764692799665879 -0.15315814638178979 0 -0.16841794613693639 -0.15398432498066969 0 -0.16991457764144299 -0.14471881595099939 0 -0.16005233903330709 -0.146895625454257 0 -0.16841794613693639 -0.15398432498066969 0 -0.16991457764144299 -0.14471881595099939 0 -0.16353301508193499 -0.1377836444587929 0 -0.16005233903330709 -0.146895625454257 0 -0.16991457764144299 -0.14471881595099939 0 -0.15965491377499469 -0.25543064726611159 0 -0.14907944547841331 -0.24819222630045659 0 -0.15740270059959749 -0.2438800476368832 0 -0.14907944547841331 -0.24819222630045659 0 -0.1502163218576803 -0.24076696117084939 0 -0.15740270059959749 -0.2438800476368832 0 -0.15407184408393129 -0.23608691360889189 0 -0.1502163218576803 -0.24076696117084939 0 -0.15740270059959749 -0.2438800476368832 0 -0.15407184408393129 -0.23608691360889189 0 -0.1502163218576803 -0.24076696117084939 0 -0.14753577832237449 -0.23554547675199231 0 -0.1502163218576803 -0.24076696117084939 0 -0.14753577832237449 -0.23554547675199231 0 -0.14299184080408489 -0.2401301415560233 0 -0.14753577832237449 -0.23554547675199231 0 -0.14395729684197939 -0.23507938262307571 0 -0.14299184080408489 -0.2401301415560233 0 -0.14395729684197939 -0.23507938262307571 0 -0.14299184080408489 -0.2401301415560233 0 -0.14041607180912841 -0.2343995606514854 0 -0.14907944547841331 -0.24819222630045659 0 -0.1502163218576803 -0.24076696117084939 0 -0.14299184080408489 -0.2401301415560233 0 -0.14907944547841331 -0.24819222630045659 0 -0.14299184080408489 -0.2401301415560233 0 -0.14247629992536839 -0.24909730877613839 0 -0.14299184080408489 -0.2401301415560233 0 -0.14247629992536839 -0.24909730877613839 0 -0.13689093969794841 -0.24483947655105001 0 -0.12986059017222401 -0.24831713638367231 0 -0.1263420023613146 -0.23973595795177211 0 -0.13133323264182609 -0.23191900817899661 0 -0.12986059017222401 -0.24831713638367231 0 -0.13133323264182609 -0.23191900817899661 0 -0.13899529729981211 -0.25510841070366391 0 -0.14247629992536839 -0.24909730877613839 0 -0.13689093969794841 -0.24483947655105001 0 -0.13899529729981211 -0.25510841070366391 0 -0.13689093969794841 -0.24483947655105001 0 -0.12986059017222401 -0.24831713638367231 0 -0.13689093969794841 -0.24483947655105001 0 -0.12986059017222401 -0.24831713638367231 0 -0.1333532388381308 -0.2378391476307968 0 -0.12986059017222401 -0.24831713638367231 0 -0.1333532388381308 -0.2378391476307968 0 -0.13133323264182609 -0.23191900817899661 0 -0.12248716586679501 -0.24844290833317059 0 -0.12986059017222401 -0.24831713638367231 0 -0.1263420023613146 -0.23973595795177211 0 -0.13689093969794841 -0.24483947655105001 0 -0.1333532388381308 -0.2378391476307968 0 -0.13824289161345399 -0.2390514727566633 0 -0.14299184080408489 -0.2401301415560233 0 -0.13689093969794841 -0.24483947655105001 0 -0.13824289161345399 -0.2390514727566633 0 -0.1333532388381308 -0.2378391476307968 0 -0.13824289161345399 -0.2390514727566633 0 -0.14041607180912841 -0.2343995606514854 0 -0.14299184080408489 -0.2401301415560233 0 -0.13824289161345399 -0.2390514727566633 0 -0.14041607180912841 -0.2343995606514854 0 -0.13133323264182609 -0.23191900817899661 0 -0.14278509979020329 -0.2258512123221125 0 -0.1333532388381308 -0.2378391476307968 0 -0.14041607180912841 -0.2343995606514854 0 -0.14278509979020329 -0.2258512123221125 0 -0.1194294974042712 -0.21951038616815799 0 -0.13133323264182609 -0.23191900817899661 0 -0.1336022333713808 -0.2066532932293349 0 -0.1333532388381308 -0.2378391476307968 0 -0.13133323264182609 -0.23191900817899661 0 -0.14278509979020329 -0.2258512123221125 0 -0.1333532388381308 -0.2378391476307968 0 -0.14278509979020329 -0.2258512123221125 0 -0.13133323264182609 -0.23191900817899661 0 -0.1336022333713808 -0.2066532932293349 0 -0.13133323264182609 -0.23191900817899661 0 -0.14278509979020329 -0.2258512123221125 0 -0.1336022333713808 -0.2066532932293349 0 -0.14278509979020329 -0.2258512123221125 0 -0.15854174025437631 -0.21613154144068569 0 -0.14278509979020329 -0.2258512123221125 0 -0.1548987751341516 -0.22626949649362771 0 -0.15854174025437631 -0.21613154144068569 0 -0.14041607180912841 -0.2343995606514854 0 -0.14278509979020329 -0.2258512123221125 0 -0.14488549643232981 -0.2302423515328014 0 -0.14278509979020329 -0.2258512123221125 0 -0.14488549643232981 -0.2302423515328014 0 -0.14395729684197939 -0.23507938262307571 0 -0.14041607180912841 -0.2343995606514854 0 -0.14488549643232981 -0.2302423515328014 0 -0.14753577832237449 -0.23554547675199231 0 -0.14395729684197939 -0.23507938262307571 0 -0.14488549643232981 -0.2302423515328014 0 -0.14753577832237449 -0.23554547675199231 0 -0.14488549643232981 -0.2302423515328014 0 -0.15023307197390171 -0.23078182764512381 0 -0.14278509979020329 -0.2258512123221125 0 -0.14488549643232981 -0.2302423515328014 0 -0.15023307197390171 -0.23078182764512381 0 -0.15407184408393129 -0.23608691360889189 0 -0.15023307197390171 -0.23078182764512381 0 -0.1548987751341516 -0.22626949649362771 0 -0.14278509979020329 -0.2258512123221125 0 -0.15023307197390171 -0.23078182764512381 0 -0.1548987751341516 -0.22626949649362771 0 -0.15407184408393129 -0.23608691360889189 0 -0.14753577832237449 -0.23554547675199231 0 -0.15023307197390171 -0.23078182764512381 0 -0.14278509979020329 -0.2258512123221125 0 -0.15913006455494419 -0.20507669272113821 0 -0.15854174025437631 -0.21613154144068569 0 -0.14278509979020329 -0.2258512123221125 0 -0.15913006455494419 -0.20507669272113821 0 -0.1336022333713808 -0.2066532932293349 0 -0.13411943845531679 -0.20089412530530401 0 -0.15913006455494419 -0.20507669272113821 0 -0.14278509979020329 -0.2258512123221125 0 -0.1336022333713808 -0.2066532932293349 0 -0.15913006455494419 -0.20507669272113821 0 -0.14278509979020329 -0.2258512123221125 0 -0.1336022333713808 -0.2066532932293349 0 -0.1336022333713808 -0.2066532932293349 0 -0.13056298791104051 -0.20029937433412401 0 -0.1336022333713808 -0.2066532932293349 0 -0.13411943845531679 -0.20089412530530401 0 -0.13638152062292799 -0.17570544973761709 0 -0.13411943845531679 -0.20089412530530401 0 -0.13638152062292799 -0.17570544973761709 0 -0.13411943845531679 -0.20089412530530401 0 -0.14439054982937269 -0.18863268430775931 0 -0.1233319965608866 -0.18518209171568359 0 -0.13411943845531679 -0.20089412530530401 0 -0.13056298791104051 -0.20029937433412401 0 -0.1336022333713808 -0.2066532932293349 0 -0.13411943845531679 -0.20089412530530401 0 -0.13056298791104051 -0.20029937433412401 0 -0.1217804052701808 -0.19883064884783311 0 -0.1336022333713808 -0.2066532932293349 0 -0.13056298791104051 -0.20029937433412401 0 -0.1217804052701808 -0.19883064884783311 0 -0.13056298791104051 -0.20029937433412401 0 -0.13411943845531679 -0.20089412530530401 0 -0.13056298791104051 -0.20029937433412401 0 -0.1233319965608866 -0.18518209171568359 0 -0.13056298791104051 -0.20029937433412401 0 -0.1217804052701808 -0.19883064884783311 0 -0.1233319965608866 -0.18518209171568359 0 -0.13056298791104051 -0.20029937433412401 0 -0.13411943845531679 -0.20089412530530401 0 -0.15004349060885699 -0.19521654722172449 0 -0.15913006455494419 -0.20507669272113821 0 -0.13411943845531679 -0.20089412530530401 0 -0.14439054982937269 -0.18863268430775931 0 -0.15004349060885699 -0.19521654722172449 0 -0.13411943845531679 -0.20089412530530401 0 -0.15913006455494419 -0.20507669272113821 0 -0.15766135805997869 -0.18579874166033039 0 -0.15004349060885699 -0.19521654722172449 0 -0.15913006455494419 -0.20507669272113821 0 -0.15766135805997869 -0.18579874166033039 0 -0.14439054982937269 -0.18863268430775931 0 -0.15004349060885699 -0.19521654722172449 0 -0.16472217877848369 -0.18747137097830241 0 -0.17764925935098491 -0.18153871752070391 0 -0.15913006455494419 -0.20507669272113821 0 -0.15766135805997869 -0.18579874166033039 0 -0.16472217877848369 -0.18747137097830241 0 -0.15913006455494419 -0.20507669272113821 0 -0.17764925935098491 -0.18153871752070391 0 -0.1738679838070635 -0.1974474163276822 0 -0.15913006455494419 -0.20507669272113821 0 -0.17764925935098491 -0.18153871752070391 0 -0.15913006455494419 -0.20507669272113821 0 -0.1795411375779708 -0.19068614495890299 0 -0.18343840593851601 -0.19533354345218459 0 -0.1738679838070635 -0.1974474163276822 0 -0.17764925935098491 -0.18153871752070391 0 -0.1795411375779708 -0.19068614495890299 0 -0.1738679838070635 -0.1974474163276822 0 -0.1795411375779708 -0.19068614495890299 0 -0.18320890121531899 -0.18842490253504129 0 -0.18343840593851601 -0.19533354345218459 0 -0.18320890121531899 -0.18842490253504129 0 -0.18343840593851601 -0.19533354345218459 0 -0.18911287589902251 -0.19110348270108921 0 -0.18343840593851601 -0.19533354345218459 0 -0.1827735105140767 -0.2020712970335668 0 -0.1738679838070635 -0.1974474163276822 0 -0.18343840593851601 -0.19533354345218459 0 -0.1827735105140767 -0.2020712970335668 0 -0.18999011841755239 -0.2018271366383339 0 -0.1827735105140767 -0.2020712970335668 0 -0.1738679838070635 -0.1974474163276822 0 -0.17346302108374489 -0.2074736162012287 0 -0.1827735105140767 -0.2020712970335668 0 -0.17346302108374489 -0.2074736162012287 0 -0.1762413329197581 -0.20793823777887521 0 -0.1827735105140767 -0.2020712970335668 0 -0.17346302108374489 -0.2074736162012287 0 -0.17346302108374489 -0.2074736162012287 0 -0.1762413329197581 -0.20793823777887521 0 -0.17438718133056391 -0.21490213263297331 0 -0.17346302108374489 -0.2074736162012287 0 -0.1762413329197581 -0.20793823777887521 0 -0.1827735105140767 -0.2020712970335668 0 -0.1762413329197581 -0.20793823777887521 0 -0.1851713582226136 -0.20936244981651489 0 -0.1762413329197581 -0.20793823777887521 0 -0.1851713582226136 -0.20936244981651489 0 -0.17996703395240099 -0.21408256924080771 0 -0.1827735105140767 -0.2020712970335668 0 -0.1851713582226136 -0.20936244981651489 0 -0.18999011841755239 -0.2018271366383339 0 -0.1851713582226136 -0.20936244981651489 0 -0.1855783929472016 -0.2183544444031468 0 -0.17996703395240099 -0.21408256924080771 0 -0.1855783929472016 -0.2183544444031468 0 -0.17996703395240099 -0.21408256924080771 0 -0.17853606439381431 -0.21976328761785349 0 -0.17438718133056391 -0.21490213263297331 0 -0.16881194230571239 -0.2174377771350384 0 -0.17289782947544891 -0.22328579831160181 0 -0.17996703395240099 -0.21408256924080771 0 -0.17438718133056391 -0.21490213263297331 0 -0.17853606439381431 -0.21976328761785349 0 -0.17346302108374489 -0.2074736162012287 0 -0.17438718133056391 -0.21490213263297331 0 -0.16881194230571239 -0.2174377771350384 0 -0.1762413329197581 -0.20793823777887521 0 -0.17996703395240099 -0.21408256924080771 0 -0.17438718133056391 -0.21490213263297331 0 -0.17346302108374489 -0.2074736162012287 0 -0.16881194230571239 -0.2174377771350384 0 -0.15854174025437631 -0.21613154144068569 0 -0.17346302108374489 -0.2074736162012287 0 -0.15854174025437631 -0.21613154144068569 0 -0.1738679838070635 -0.1974474163276822 0 -0.17346302108374489 -0.2074736162012287 0 -0.15913006455494419 -0.20507669272113821 0 -0.17346302108374489 -0.2074736162012287 0 -0.15913006455494419 -0.20507669272113821 0 -0.17346302108374489 -0.2074736162012287 0 -0.15913006455494419 -0.20507669272113821 0 -0.15854174025437631 -0.21613154144068569 0 -0.1548987751341516 -0.22626949649362771 0 -0.15854174025437631 -0.21613154144068569 0 -0.16476993938442791 -0.22539579708870239 0 -0.16881194230571239 -0.2174377771350384 0 -0.15854174025437631 -0.21613154144068569 0 -0.16476993938442791 -0.22539579708870239 0 -0.1548987751341516 -0.22626949649362771 0 -0.16476993938442791 -0.22539579708870239 0 -0.16314010433758061 -0.2357930196038735 0 -0.15407184408393129 -0.23608691360889189 0 -0.1548987751341516 -0.22626949649362771 0 -0.16314010433758061 -0.2357930196038735 0 -0.16476993938442791 -0.22539579708870239 0 -0.17289782947544891 -0.22328579831160181 0 -0.17292584987371629 -0.23308652215822431 0 -0.16476993938442791 -0.22539579708870239 0 -0.17292584987371629 -0.23308652215822431 0 -0.16314010433758061 -0.2357930196038735 0 -0.16881194230571239 -0.2174377771350384 0 -0.16476993938442791 -0.22539579708870239 0 -0.17289782947544891 -0.22328579831160181 0 -0.17289782947544891 -0.22328579831160181 0 -0.17853606439381431 -0.21976328761785349 0 -0.18097459028151011 -0.22688018099271751 0 -0.17438718133056391 -0.21490213263297331 0 -0.17289782947544891 -0.22328579831160181 0 -0.17853606439381431 -0.21976328761785349 0 -0.1855783929472016 -0.2183544444031468 0 -0.18097459028151011 -0.22688018099271751 0 -0.19108480636538611 -0.2303104274648117 0 -0.1855783929472016 -0.2183544444031468 0 -0.17853606439381431 -0.21976328761785349 0 -0.18097459028151011 -0.22688018099271751 0 -0.18097459028151011 -0.22688018099271751 0 -0.18255586987416511 -0.24011607844926161 0 -0.19108480636538611 -0.2303104274648117 0 -0.18097459028151011 -0.22688018099271751 0 -0.17292584987371629 -0.23308652215822431 0 -0.18255586987416511 -0.24011607844926161 0 -0.17289782947544891 -0.22328579831160181 0 -0.18097459028151011 -0.22688018099271751 0 -0.17292584987371629 -0.23308652215822431 0 -0.17292584987371629 -0.23308652215822431 0 -0.18255586987416511 -0.24011607844926161 0 -0.1689828706444442 -0.24451314150763201 0 -0.17465013784910891 -0.25651207552981542 0 -0.18255586987416511 -0.24011607844926161 0 -0.19333962017553821 -0.248131514910678 0 -0.17465013784910891 -0.25651207552981542 0 -0.18255586987416511 -0.24011607844926161 0 -0.17465013784910891 -0.25651207552981542 0 -0.18255586987416511 -0.24011607844926161 0 -0.1689828706444442 -0.24451314150763201 0 -0.17292584987371629 -0.23308652215822431 0 -0.1689828706444442 -0.24451314150763201 0 -0.16314010433758061 -0.2357930196038735 0 -0.1689828706444442 -0.24451314150763201 0 -0.16314010433758061 -0.2357930196038735 0 -0.15740270059959749 -0.2438800476368832 0 -0.15407184408393129 -0.23608691360889189 0 -0.16314010433758061 -0.2357930196038735 0 -0.15740270059959749 -0.2438800476368832 0 -0.15965491377499469 -0.25543064726611159 0 -0.1689828706444442 -0.24451314150763201 0 -0.15740270059959749 -0.2438800476368832 0 -0.22034534866352459 -0.25156882083834969 0 -0.20606287599639411 -0.2350581513089488 0 -0.22546330077918009 -0.23600322275100441 0 -0.22034534866352459 -0.25156882083834969 0 -0.20506423292446829 -0.25662135480691911 0 -0.20606287599639411 -0.2350581513089488 0 -0.18255586987416511 -0.24011607844926161 0 -0.19333962017553821 -0.248131514910678 0 -0.19108480636538611 -0.2303104274648117 0 -0.20506423292446829 -0.25662135480691911 0 -0.20606287599639411 -0.2350581513089488 0 -0.19333962017553821 -0.248131514910678 0 -0.20606287599639411 -0.2350581513089488 0 -0.19333962017553821 -0.248131514910678 0 -0.19108480636538611 -0.2303104274648117 0 -0.20606287599639411 -0.2350581513089488 0 -0.19108480636538611 -0.2303104274648117 0 -0.1973961316058237 -0.21293242563576281 0 -0.1855783929472016 -0.2183544444031468 0 -0.19108480636538611 -0.2303104274648117 0 -0.1973961316058237 -0.21293242563576281 0 -0.20606287599639411 -0.2350581513089488 0 -0.21994960524630641 -0.21625649254609061 0 -0.22546330077918009 -0.23600322275100441 0 -0.20606287599639411 -0.2350581513089488 0 -0.1973961316058237 -0.21293242563576281 0 -0.21994960524630641 -0.21625649254609061 0 -0.21426435954320969 -0.20407550326809679 0 -0.1973961316058237 -0.21293242563576281 0 -0.20292234024371211 -0.19949839682645401 0 -0.21426435954320969 -0.20407550326809679 0 -0.1973961316058237 -0.21293242563576281 0 -0.21994960524630641 -0.21625649254609061 0 -0.1973961316058237 -0.21293242563576281 0 -0.21994960524630641 -0.21625649254609061 0 -0.1851713582226136 -0.20936244981651489 0 -0.1855783929472016 -0.2183544444031468 0 -0.1973961316058237 -0.21293242563576281 0 -0.1851713582226136 -0.20936244981651489 0 -0.1973961316058237 -0.21293242563576281 0 -0.18999011841755239 -0.2018271366383339 0 -0.1973961316058237 -0.21293242563576281 0 -0.20292234024371211 -0.19949839682645401 0 -0.18999011841755239 -0.2018271366383339 0 -0.18911287589902251 -0.19110348270108921 0 -0.21792124551611061 -0.1894437769951878 0 -0.2005157216113411 -0.18597742792514241 0 -0.18343840593851601 -0.19533354345218459 0 -0.18999011841755239 -0.2018271366383339 0 -0.18911287589902251 -0.19110348270108921 0 -0.20292234024371211 -0.19949839682645401 0 -0.18999011841755239 -0.2018271366383339 0 -0.18911287589902251 -0.19110348270108921 0 -0.18320890121531899 -0.18842490253504129 0 -0.18911287589902251 -0.19110348270108921 0 -0.19027249701494259 -0.1851011725777541 0 -0.20292234024371211 -0.19949839682645401 0 -0.18911287589902251 -0.19110348270108921 0 -0.21792124551611061 -0.1894437769951878 0 -0.18911287589902251 -0.19110348270108921 0 -0.21792124551611061 -0.1894437769951878 0 -0.21426435954320969 -0.20407550326809679 0 -0.20292234024371211 -0.19949839682645401 0 -0.21792124551611061 -0.1894437769951878 0 -0.21426435954320969 -0.20407550326809679 0 -0.21792124551611061 -0.1894437769951878 0 -0.2331324751040956 -0.20224642433698881 0 -0.21792124551611061 -0.1894437769951878 0 -0.2331324751040956 -0.20224642433698881 0 -0.24672961513319869 -0.18778407128928681 0 -0.21792124551611061 -0.1894437769951878 0 -0.24672961513319869 -0.18778407128928681 0 -0.2331324751040956 -0.20224642433698881 0 -0.24672961513319869 -0.18778407128928681 0 -0.2558930838302339 -0.2053443488280175 0 -0.2331324751040956 -0.20224642433698881 0 -0.2425030788867891 -0.21958055945641841 0 -0.2558930838302339 -0.2053443488280175 0 -0.21426435954320969 -0.20407550326809679 0 -0.2331324751040956 -0.20224642433698881 0 -0.21994960524630641 -0.21625649254609061 0 -0.2331324751040956 -0.20224642433698881 0 -0.21994960524630641 -0.21625649254609061 0 -0.2425030788867891 -0.21958055945641841 0 -0.21994960524630641 -0.21625649254609061 0 -0.2425030788867891 -0.21958055945641841 0 -0.21994960524630641 -0.21625649254609061 0 -0.23159805210655679 -0.2266484627629872 0 -0.22546330077918009 -0.23600322275100441 0 -0.23159805210655679 -0.2266484627629872 0 -0.24178099063369299 -0.2350961355948428 0 -0.22546330077918009 -0.23600322275100441 0 -0.21994960524630641 -0.21625649254609061 0 -0.23159805210655679 -0.2266484627629872 0 -0.2425030788867891 -0.21958055945641841 0 -0.2425030788867891 -0.21958055945641841 0 -0.24178099063369299 -0.2350961355948428 0 -0.25275962445406269 -0.22816449224536481 0 -0.23159805210655679 -0.2266484627629872 0 -0.2425030788867891 -0.21958055945641841 0 -0.24178099063369299 -0.2350961355948428 0 -0.24178099063369299 -0.2350961355948428 0 -0.236435548659505 -0.2495192776565486 0 -0.22546330077918009 -0.23600322275100441 0 -0.24178099063369299 -0.2350961355948428 0 -0.25635803611058161 -0.23711282013613891 0 -0.25062049476955539 -0.24619563476610751 0 -0.24178099063369299 -0.2350961355948428 0 -0.236435548659505 -0.2495192776565486 0 -0.25062049476955539 -0.24619563476610751 0 -0.22034534866352459 -0.25156882083834969 0 -0.236435548659505 -0.2495192776565486 0 -0.22546330077918009 -0.23600322275100441 0 -0.20935651924267171 -0.13938142583181759 0 -0.20915408519049941 -0.16221022774000071 0 -0.2155148523682778 -0.15080699859717861 0 -0.20935651924267171 -0.13938142583181759 0 -0.20915408519049941 -0.16221022774000071 0 -0.20935651924267171 -0.13938142583181759 0 -0.1995453078315034 -0.1537087469524139 0 -0.20915408519049941 -0.16221022774000071 0 -0.2155148523682778 -0.15080699859717861 0 -0.20935651924267171 -0.13938142583181759 0 -0.221949173907629 -0.14029643971218539 0 -0.20935651924267171 -0.13938142583181759 0 -0.20955895329484439 -0.1165526239236345 0 -0.20935651924267171 -0.13938142583181759 0 -0.19718573380718499 -0.13093639328335929 0 -0.20955895329484439 -0.1165526239236345 0 -0.20935651924267171 -0.13938142583181759 0 -0.221949173907629 -0.14029643971218539 0 -0.20955895329484439 -0.1165526239236345 0 -0.221949173907629 -0.14029643971218539 0 -0.20955895329484439 -0.1165526239236345 0 -0.20935651924267171 -0.13938142583181759 0 -0.19718573380718499 -0.13093639328335929 0 -0.19774325201282811 -0.1425933862487879 0 -0.1822527331883948 -0.12907647366409919 0 -0.19718573380718499 -0.13093639328335929 0 -0.1905407067900616 -0.13818508804660909 0 -0.1822527331883948 -0.12907647366409919 0 -0.19718573380718499 -0.13093639328335929 0 -0.19175556425135781 -0.11916533178162519 0 -0.19718573380718499 -0.13093639328335929 0 -0.1905407067900616 -0.13818508804660909 0 -0.19774325201282811 -0.1425933862487879 0 -0.1905407067900616 -0.13818508804660909 0 -0.19774325201282811 -0.1425933862487879 0 -0.18827464426681639 -0.14942721672257439 0 -0.20935651924267171 -0.13938142583181759 0 -0.19774325201282811 -0.1425933862487879 0 -0.1995453078315034 -0.1537087469524139 0 -0.19774325201282811 -0.1425933862487879 0 -0.1995453078315034 -0.1537087469524139 0 -0.18827464426681639 -0.14942721672257439 0 -0.1995453078315034 -0.1537087469524139 0 -0.18859728359124239 -0.1676237322365576 0 -0.1995453078315034 -0.1537087469524139 0 -0.18827464426681639 -0.14942721672257439 0 -0.18859728359124239 -0.1676237322365576 0 -0.18859728359124239 -0.1676237322365576 0 -0.19981949309142821 -0.16850092237113801 0 -0.19632033848830291 -0.17919967770349729 0 -0.1995453078315034 -0.1537087469524139 0 -0.19981949309142821 -0.16850092237113801 0 -0.20915408519049941 -0.16221022774000071 0 -0.1995453078315034 -0.1537087469524139 0 -0.18859728359124239 -0.1676237322365576 0 -0.19981949309142821 -0.16850092237113801 0 -0.19981949309142821 -0.16850092237113801 0 -0.19632033848830291 -0.17919967770349729 0 -0.20895165113832709 -0.18503902964818381 0 -0.1869074104786799 -0.17975145451301969 0 -0.19027249701494259 -0.1851011725777541 0 -0.19632033848830291 -0.17919967770349729 0 -0.18911287589902251 -0.19110348270108921 0 -0.19027249701494259 -0.1851011725777541 0 -0.2005157216113411 -0.18597742792514241 0 -0.1869074104786799 -0.17975145451301969 0 -0.18859728359124239 -0.1676237322365576 0 -0.19632033848830291 -0.17919967770349729 0 -0.19632033848830291 -0.17919967770349729 0 -0.2005157216113411 -0.18597742792514241 0 -0.20895165113832709 -0.18503902964818381 0 -0.19027249701494259 -0.1851011725777541 0 -0.19632033848830291 -0.17919967770349729 0 -0.2005157216113411 -0.18597742792514241 0 -0.19981949309142821 -0.16850092237113801 0 -0.20895165113832709 -0.18503902964818381 0 -0.20915408519049941 -0.16221022774000071 0 -0.20895165113832709 -0.18503902964818381 0 -0.2150956848423034 -0.17775842574100731 0 -0.20915408519049941 -0.16221022774000071 0 -0.21792124551611061 -0.1894437769951878 0 -0.2005157216113411 -0.18597742792514241 0 -0.20895165113832709 -0.18503902964818381 0 -0.20895165113832709 -0.18503902964818381 0 -0.20915408519049941 -0.16221022774000071 0 -0.21792124551611061 -0.1894437769951878 0 -0.20895165113832709 -0.18503902964818381 0 -0.2150956848423034 -0.17775842574100731 0 -0.20915408519049941 -0.16221022774000071 0 -0.2213256625455296 -0.15980878728911929 0 -0.2243557575242765 -0.174340668580657 0 -0.2150956848423034 -0.17775842574100731 0 -0.20915408519049941 -0.16221022774000071 0 -0.2243557575242765 -0.174340668580657 0 -0.2155148523682778 -0.15080699859717861 0 -0.20915408519049941 -0.16221022774000071 0 -0.2213256625455296 -0.15980878728911929 0 -0.2213256625455296 -0.15980878728911929 0 -0.2343393945204133 -0.16404025550073639 0 -0.2243557575242765 -0.174340668580657 0 -0.21792124551611061 -0.1894437769951878 0 -0.24672961513319869 -0.18778407128928681 0 -0.2243557575242765 -0.174340668580657 0 -0.21792124551611061 -0.1894437769951878 0 -0.2150956848423034 -0.17775842574100731 0 -0.2243557575242765 -0.174340668580657 0 -0.24672961513319869 -0.18778407128928681 0 -0.2343393945204133 -0.16404025550073639 0 -0.25564846528820961 -0.16524042538427319 0 -0.24672961513319869 -0.18778407128928681 0 -0.2343393945204133 -0.16404025550073639 0 -0.2243557575242765 -0.174340668580657 0 -0.24672961513319869 -0.18778407128928681 0 -0.2343393945204133 -0.16404025550073639 0 -0.2343393945204133 -0.16404025550073639 0 -0.24023528997376051 -0.14585890559731859 0 -0.25564846528820961 -0.16524042538427319 0 -0.2155148523682778 -0.15080699859717861 0 -0.2213256625455296 -0.15980878728911929 0 -0.221949173907629 -0.14029643971218539 0 -0.2343393945204133 -0.16404025550073639 0 -0.221949173907629 -0.14029643971218539 0 -0.2343393945204133 -0.16404025550073639 0 -0.24023528997376051 -0.14585890559731859 0 -0.221949173907629 -0.14029643971218539 0 -0.2213256625455296 -0.15980878728911929 0 -0.2343393945204133 -0.16404025550073639 0 -0.221949173907629 -0.14029643971218539 0 -0.23410309284448119 -0.12510076468175541 0 -0.221949173907629 -0.14029643971218539 0 -0.20955895329484439 -0.1165526239236345 0 -0.24023528997376051 -0.14585890559731859 0 -0.23410309284448119 -0.12510076468175541 0 -0.221949173907629 -0.14029643971218539 0 -0.24023528997376051 -0.14585890559731859 0 -0.23410309284448119 -0.12510076468175541 0 -0.25178080866201508 -0.13018226465235741 0 -0.23410309284448119 -0.12510076468175541 0 -0.23073525363363651 -0.10718028510081599 0 -0.25035907759500148 -0.11053406910422039 0 -0.23410309284448119 -0.12510076468175541 0 -0.25035907759500148 -0.11053406910422039 0 -0.25178080866201508 -0.13018226465235741 0 -0.23646821218412289 -0.080415600811007446 0 -0.25035907759500148 -0.11053406910422039 0 -0.26254630575318572 -0.094791966200589994 0 -0.23073525363363651 -0.10718028510081599 0 -0.23646821218412289 -0.080415600811007446 0 -0.25035907759500148 -0.11053406910422039 0 -0.23073525363363651 -0.10718028510081599 0 -0.23646821218412289 -0.080415600811007446 0 -0.23410309284448119 -0.12510076468175541 0 -0.23073525363363651 -0.10718028510081599 0 -0.20955895329484439 -0.1165526239236345 0 -0.2201133340650204 -0.076738749318366384 0 -0.2100307546492495 -0.063346853727588179 0 -0.2422011707346092 -0.053650916521198987 0 -0.23646821218412289 -0.080415600811007446 0 -0.2422011707346092 -0.053650916521198987 0 -0.25681841563442281 -0.068098833519700683 0 -0.23646821218412289 -0.080415600811007446 0 -0.2422011707346092 -0.053650916521198987 0 -0.23073525363363651 -0.10718028510081599 0 -0.23646821218412289 -0.080415600811007446 0 -0.20979485397204681 -0.089949738825611331 0 -0.23646821218412289 -0.080415600811007446 0 -0.2201133340650204 -0.076738749318366384 0 -0.20979485397204681 -0.089949738825611331 0 -0.23646821218412289 -0.080415600811007446 0 -0.2201133340650204 -0.076738749318366384 0 -0.2422011707346092 -0.053650916521198987 0 -0.2201133340650204 -0.076738749318366384 0 -0.2100307546492495 -0.063346853727588179 0 -0.20979485397204681 -0.089949738825611331 0 -0.2100307546492495 -0.063346853727588179 0 -0.20979485397204681 -0.089949738825611331 0 -0.19063032351846751 -0.080279024559612333 0 -0.2100307546492495 -0.063346853727588179 0 -0.20979485397204681 -0.089949738825611331 0 -0.19063032351846751 -0.080279024559612333 0 -0.20009463840665609 -0.098415824241623318 0 -0.18812090293700501 -0.09532846700542584 0 -0.20979485397204681 -0.089949738825611331 0 -0.19063032351846751 -0.080279024559612333 0 -0.20009463840665609 -0.098415824241623318 0 -0.19063032351846751 -0.080279024559612333 0 -0.20009463840665609 -0.098415824241623318 0 -0.19063032351846751 -0.080279024559612333 0 -0.1811660086302789 -0.062142224877601328 0 -0.1950295137205561 -0.056705819227055247 0 -0.2100307546492495 -0.063346853727588179 0 -0.19063032351846751 -0.080279024559612333 0 -0.1950295137205561 -0.056705819227055247 0 -0.20955895329484439 -0.1165526239236345 0 -0.20009463840665609 -0.098415824241623318 0 -0.20979485397204681 -0.089949738825611331 0 -0.20955895329484439 -0.1165526239236345 0 -0.20009463840665609 -0.098415824241623318 0 -0.23073525363363651 -0.10718028510081599 0 -0.20979485397204681 -0.089949738825611331 0 -0.20955895329484439 -0.1165526239236345 0 -0.20979485397204681 -0.089949738825611331 0 -0.20955895329484439 -0.1165526239236345 0 -0.20955895329484439 -0.1165526239236345 0 -0.20009463840665609 -0.098415824241623318 0 -0.1916806886110905 -0.10741739834963809 0 -0.20009463840665609 -0.098415824241623318 0 -0.18812090293700501 -0.09532846700542584 0 -0.1916806886110905 -0.10741739834963809 0 -0.20955895329484439 -0.1165526239236345 0 -0.1916806886110905 -0.10741739834963809 0 -0.19175556425135781 -0.11916533178162519 0 -0.19718573380718499 -0.13093639328335929 0 -0.20955895329484439 -0.1165526239236345 0 -0.19175556425135781 -0.11916533178162519 0 -0.1822527331883948 -0.12907647366409919 0 -0.19175556425135781 -0.11916533178162519 0 -0.17785610450042111 -0.11302077890682249 0 -0.1822527331883948 -0.12907647366409919 0 -0.16604875234675329 -0.12572787132487651 0 -0.17785610450042111 -0.11302077890682249 0 -0.1916806886110905 -0.10741739834963809 0 -0.19175556425135781 -0.11916533178162519 0 -0.17785610450042111 -0.11302077890682249 0 -0.16604875234675329 -0.12572787132487651 0 -0.17785610450042111 -0.11302077890682249 0 -0.1641292241013457 -0.1102656124128861 0 -0.1641292241013457 -0.1102656124128861 0 -0.15768877375356369 -0.11820798640943631 0 -0.15214242559669161 -0.1096206058435869 0 -0.16604875234675329 -0.12572787132487651 0 -0.1641292241013457 -0.1102656124128861 0 -0.15768877375356369 -0.11820798640943631 0 -0.16604875234675329 -0.12572787132487651 0 -0.15653493526388529 -0.12569814396999929 0 -0.15768877375356369 -0.11820798640943631 0 -0.15739520382451011 -0.098804643783871271 0 -0.169520080018112 -0.099626215075730926 0 -0.16398215915944361 -0.086681679303089343 0 -0.1641292241013457 -0.1102656124128861 0 -0.15739520382451011 -0.098804643783871271 0 -0.15214242559669161 -0.1096206058435869 0 -0.1641292241013457 -0.1102656124128861 0 -0.15739520382451011 -0.098804643783871271 0 -0.169520080018112 -0.099626215075730926 0 -0.17785610450042111 -0.11302077890682249 0 -0.1641292241013457 -0.1102656124128861 0 -0.169520080018112 -0.099626215075730926 0 -0.169520080018112 -0.099626215075730926 0 -0.18046868858205459 -0.1009216743131173 0 -0.1777301755667561 -0.089608413563138173 0 -0.17785610450042111 -0.11302077890682249 0 -0.169520080018112 -0.099626215075730926 0 -0.18046868858205459 -0.1009216743131173 0 -0.1916806886110905 -0.10741739834963809 0 -0.17785610450042111 -0.11302077890682249 0 -0.18046868858205459 -0.1009216743131173 0 -0.18812090293700501 -0.09532846700542584 0 -0.1916806886110905 -0.10741739834963809 0 -0.18046868858205459 -0.1009216743131173 0 -0.18812090293700501 -0.09532846700542584 0 -0.18046868858205459 -0.1009216743131173 0 -0.1777301755667561 -0.089608413563138173 0 -0.19063032351846751 -0.080279024559612333 0 -0.18812090293700501 -0.09532846700542584 0 -0.1777301755667561 -0.089608413563138173 0 -0.19063032351846751 -0.080279024559612333 0 -0.1777301755667561 -0.089608413563138173 0 -0.17142961949124991 -0.073713731196273488 0 -0.19063032351846751 -0.080279024559612333 0 -0.17142961949124991 -0.073713731196273488 0 -0.1811660086302789 -0.062142224877601328 0 -0.19063032351846751 -0.080279024559612333 0 -0.1811660086302789 -0.062142224877601328 0 -0.17142961949124991 -0.073713731196273488 0 -0.16266040003168161 -0.061393105318518763 0 -0.1811660086302789 -0.062142224877601328 0 -0.17142961949124991 -0.073713731196273488 0 -0.15862215626743861 -0.076130609232455515 0 -0.16266040003168161 -0.061393105318518763 0 -0.1777301755667561 -0.089608413563138173 0 -0.17142961949124991 -0.073713731196273488 0 -0.16398215915944361 -0.086681679303089343 0 -0.169520080018112 -0.099626215075730926 0 -0.1777301755667561 -0.089608413563138173 0 -0.16398215915944361 -0.086681679303089343 0 -0.17142961949124991 -0.073713731196273488 0 -0.15862215626743861 -0.076130609232455515 0 -0.16398215915944361 -0.086681679303089343 0 -0.15862215626743861 -0.076130609232455515 0 -0.16398215915944361 -0.086681679303089343 0 -0.15097458898733229 -0.08613538093662404 0 -0.15739520382451011 -0.098804643783871271 0 -0.16398215915944361 -0.086681679303089343 0 -0.15097458898733229 -0.08613538093662404 0 -0.15862215626743861 -0.076130609232455515 0 -0.15097458898733229 -0.08613538093662404 0 -0.1440640136674857 -0.072729149407771865 0 -0.15097458898733229 -0.08613538093662404 0 -0.1440640136674857 -0.072729149407771865 0 -0.13982208917186051 -0.087815956166251444 0 -0.15097458898733229 -0.08613538093662404 0 -0.13982208917186051 -0.087815956166251444 0 -0.14475438403868751 -0.098631251618059926 0 -0.1440640136674857 -0.072729149407771865 0 -0.16266040003168161 -0.061393105318518763 0 -0.15862215626743861 -0.076130609232455515 0 -0.1440640136674857 -0.072729149407771865 0 -0.16266040003168161 -0.061393105318518763 0 -0.1440640136674857 -0.072729149407771865 0 -0.1472467018807915 -0.057084483431297919 0 -0.16266040003168161 -0.061393105318518763 0 -0.12546762730328931 -0.084065193497023988 0 -0.12934471968921851 -0.05471661990301524 0 -0.1440640136674857 -0.072729149407771865 0 -0.12546762730328931 -0.084065193497023988 0 -0.12934471968921851 -0.05471661990301524 0 -0.1440640136674857 -0.072729149407771865 0 -0.12546762730328931 -0.084065193497023988 0 -0.1440640136674857 -0.072729149407771865 0 -0.13982208917186051 -0.087815956166251444 0 -0.12546762730328931 -0.084065193497023988 0 -0.13982208917186051 -0.087815956166251444 0 -0.12546762730328931 -0.084065193497023988 0 -0.1338498318625071 -0.097518805371776429 0 -0.1224525997933185 -0.10688816183417391 0 -0.1338498318625071 -0.097518805371776429 0 -0.13890794366311049 -0.1120456288097065 0 -0.1224525997933185 -0.10688816183417391 0 -0.12546762730328931 -0.084065193497023988 0 -0.1338498318625071 -0.097518805371776429 0 -0.13982208917186051 -0.087815956166251444 0 -0.1338498318625071 -0.097518805371776429 0 -0.14475438403868751 -0.098631251618059926 0 -0.1338498318625071 -0.097518805371776429 0 -0.13890794366311049 -0.1120456288097065 0 -0.14475438403868751 -0.098631251618059926 0 -0.1224525997933185 -0.10688816183417391 0 -0.12947548143064089 -0.12187056700056211 0 -0.1224525997933185 -0.10688816183417391 0 -0.12947548143064089 -0.12187056700056211 0 -0.13890794366311049 -0.1120456288097065 0 -0.1217392022794949 -0.1122883941093334 0 -0.12947548143064089 -0.12187056700056211 0 -0.14121807982319731 -0.12515205944179861 0 -0.12947548143064089 -0.12187056700056211 0 -0.13890794366311049 -0.1120456288097065 0 -0.13890794366311049 -0.1120456288097065 0 -0.14864522162757271 -0.1204300406441904 0 -0.15214242559669161 -0.1096206058435869 0 -0.14121807982319731 -0.12515205944179861 0 -0.13890794366311049 -0.1120456288097065 0 -0.14864522162757271 -0.1204300406441904 0 -0.15653493526388529 -0.12569814396999929 0 -0.15768877375356369 -0.11820798640943631 0 -0.14864522162757271 -0.1204300406441904 0 -0.15768877375356369 -0.11820798640943631 0 -0.14864522162757271 -0.1204300406441904 0 -0.15214242559669161 -0.1096206058435869 0 -0.15739520382451011 -0.098804643783871271 0 -0.15214242559669161 -0.1096206058435869 0 -0.14475438403868751 -0.098631251618059926 0 -0.15739520382451011 -0.098804643783871271 0 -0.15097458898733229 -0.08613538093662404 0 -0.14475438403868751 -0.098631251618059926 0 -0.13890794366311049 -0.1120456288097065 0 -0.15214242559669161 -0.1096206058435869 0 -0.14475438403868751 -0.098631251618059926 0 -0.14807590325430159 -0.025679528053137592 0 -0.1332218120751483 -0.025368046309006621 0 -0.1483427444044246 -0.041606249098828853 0 -0.14807590325430159 -0.025679528053137592 0 -0.14677310839608509 -0.015026012531294959 0 -0.1639659481415483 -0.020717804273419949 0 -0.14807590325430159 -0.025679528053137592 0 -0.1483427444044246 -0.041606249098828853 0 -0.1639659481415483 -0.020717804273419949 0 -0.14807590325430159 -0.025679528053137592 0 -0.14677310839608509 -0.015026012531294959 0 -0.1332218120751483 -0.025368046309006621 0 -0.14677310839608509 -0.015026012531294959 0 -0.1328376889806758 -0.0045356249474490153 0 -0.15609440124032559 0.0047749055323952367 0 -0.14677310839608509 -0.015026012531294959 0 -0.1639659481415483 -0.020717804273419949 0 -0.15609440124032559 0.0047749055323952367 0 -0.14677310839608509 -0.015026012531294959 0 -0.1328376889806758 -0.0045356249474490153 0 -0.1332218120751483 -0.025368046309006621 0 -0.1180746810535893 -0.01844753626820873 0 -0.1328376889806758 -0.0045356249474490153 0 -0.1332218120751483 -0.025368046309006621 0 -0.1332218120751483 -0.025368046309006621 0 -0.12934471968921851 -0.05471661990301524 0 -0.1483427444044246 -0.041606249098828853 0 -0.1332218120751483 -0.025368046309006621 0 -0.12934471968921851 -0.05471661990301524 0 -0.1173768081565245 -0.038026315917921882 0 -0.1332218120751483 -0.025368046309006621 0 -0.12934471968921851 -0.05471661990301524 0 -0.1440640136674857 -0.072729149407771865 0 -0.12934471968921851 -0.05471661990301524 0 -0.1472467018807915 -0.057084483431297919 0 -0.12934471968921851 -0.05471661990301524 0 -0.1472467018807915 -0.057084483431297919 0 -0.1483427444044246 -0.041606249098828853 0 -0.1472467018807915 -0.057084483431297919 0 -0.1483427444044246 -0.041606249098828853 0 -0.1592665508843874 -0.047834378770416797 0 -0.1483427444044246 -0.041606249098828853 0 -0.1592665508843874 -0.047834378770416797 0 -0.1639659481415483 -0.020717804273419949 0 -0.17183749504277099 -0.046210514079235217 0 -0.1592665508843874 -0.047834378770416797 0 -0.1639659481415483 -0.020717804273419949 0 -0.17183749504277099 -0.046210514079235217 0 -0.1639659481415483 -0.020717804273419949 0 -0.17183749504277099 -0.046210514079235217 0 -0.17917964964285321 -0.037387356032462953 0 -0.1639659481415483 -0.020717804273419949 0 -0.1472467018807915 -0.057084483431297919 0 -0.16266040003168161 -0.061393105318518763 0 -0.1592665508843874 -0.047834378770416797 0 -0.17183749504277099 -0.046210514079235217 0 -0.16266040003168161 -0.061393105318518763 0 -0.1592665508843874 -0.047834378770416797 0 -0.16266040003168161 -0.061393105318518763 0 -0.18125678639587739 -0.050057061229265648 0 -0.17183749504277099 -0.046210514079235217 0 -0.16266040003168161 -0.061393105318518763 0 -0.18125678639587739 -0.050057061229265648 0 -0.16266040003168161 -0.061393105318518763 0 -0.18125678639587739 -0.050057061229265648 0 -0.1811660086302789 -0.062142224877601328 0 -0.18125678639587739 -0.050057061229265648 0 -0.1811660086302789 -0.062142224877601328 0 -0.1950295137205561 -0.056705819227055247 0 -0.17183749504277099 -0.046210514079235217 0 -0.18125678639587739 -0.050057061229265648 0 -0.17917964964285321 -0.037387356032462953 0 -0.18125678639587739 -0.050057061229265648 0 -0.17917964964285321 -0.037387356032462953 0 -0.19190149542132501 -0.042350857187124877 0 -0.17917964964285321 -0.037387356032462953 0 -0.1869365232127444 -0.027600543393269079 0 -0.19190149542132501 -0.042350857187124877 0 -0.1869365232127444 -0.027600543393269079 0 -0.1639659481415483 -0.020717804273419949 0 -0.1826470072517046 -0.0098753555905821966 0 -0.17917964964285321 -0.037387356032462953 0 -0.1869365232127444 -0.027600543393269079 0 -0.1639659481415483 -0.020717804273419949 0 -0.1639659481415483 -0.020717804273419949 0 -0.15609440124032559 0.0047749055323952367 0 -0.1639659481415483 -0.020717804273419949 0 -0.1826470072517046 -0.0098753555905821966 0 -0.15609440124032559 0.0047749055323952367 0 -0.1826470072517046 -0.0098753555905821966 0 -0.19747980701729501 -0.019726098398009151 0 -0.2043054799363804 -0.0060843420320624807 0 -0.1826470072517046 -0.0098753555905821966 0 -0.2043054799363804 -0.0060843420320624807 0 -0.18261243882222461 0.01005588960001042 0 -0.1869365232127444 -0.027600543393269079 0 -0.19747980701729501 -0.019726098398009151 0 -0.20285639350838061 -0.033168263581153913 0 -0.1869365232127444 -0.027600543393269079 0 -0.1826470072517046 -0.0098753555905821966 0 -0.19747980701729501 -0.019726098398009151 0 -0.21122428464212559 -0.021905556521401959 0 -0.20285639350838061 -0.033168263581153913 0 -0.22234566500339789 -0.037745103495155433 0 -0.19747980701729501 -0.019726098398009151 0 -0.21122428464212559 -0.021905556521401959 0 -0.2043054799363804 -0.0060843420320624807 0 -0.19747980701729501 -0.019726098398009151 0 -0.21122428464212559 -0.021905556521401959 0 -0.20285639350838061 -0.033168263581153913 0 -0.2043054799363804 -0.0060843420320624807 0 -0.22611980461073999 -0.01648528713172652 0 -0.2043054799363804 -0.0060843420320624807 0 -0.22611980461073999 -0.01648528713172652 0 -0.22560710032771991 0.005678747890459441 0 -0.21122428464212559 -0.021905556521401959 0 -0.2043054799363804 -0.0060843420320624807 0 -0.22611980461073999 -0.01648528713172652 0 -0.18125678639587739 -0.050057061229265648 0 -0.1950295137205561 -0.056705819227055247 0 -0.19190149542132501 -0.042350857187124877 0 -0.1950295137205561 -0.056705819227055247 0 -0.19190149542132501 -0.042350857187124877 0 -0.20443276446058181 -0.046663379443615531 0 -0.1869365232127444 -0.027600543393269079 0 -0.19190149542132501 -0.042350857187124877 0 -0.20285639350838061 -0.033168263581153913 0 -0.19190149542132501 -0.042350857187124877 0 -0.20285639350838061 -0.033168263581153913 0 -0.20443276446058181 -0.046663379443615531 0 -0.20285639350838061 -0.033168263581153913 0 -0.20443276446058181 -0.046663379443615531 0 -0.22234566500339789 -0.037745103495155433 0 -0.2100307546492495 -0.063346853727588179 0 -0.20443276446058181 -0.046663379443615531 0 -0.22234566500339789 -0.037745103495155433 0 -0.2100307546492495 -0.063346853727588179 0 -0.1950295137205561 -0.056705819227055247 0 -0.20443276446058181 -0.046663379443615531 0 -0.2100307546492495 -0.063346853727588179 0 -0.22234566500339789 -0.037745103495155433 0 -0.2422011707346092 -0.053650916521198987 0 -0.22234566500339789 -0.037745103495155433 0 -0.2422011707346092 -0.053650916521198987 0 -0.2479341292850992 -0.026886232231391329 0 -0.2422011707346092 -0.053650916521198987 0 -0.2479341292850992 -0.026886232231391329 0 -0.22234566500339789 -0.037745103495155433 0 -0.22611980461073999 -0.01648528713172652 0 -0.2479341292850992 -0.026886232231391329 0 -0.21122428464212559 -0.021905556521401959 0 -0.22234566500339789 -0.037745103495155433 0 -0.22611980461073999 -0.01648528713172652 0 -0.22611980461073999 -0.01648528713172652 0 -0.2479341292850992 -0.026886232231391329 0 -0.2520988178639067 -0.0074431167796321571 0 -0.22611980461073999 -0.01648528713172652 0 -0.2479341292850992 -0.026886232231391329 0 -0.22611980461073999 -0.01648528713172652 0 -0.2520988178639067 -0.0074431167796321571 0 -0.22560710032771991 0.005678747890459441 0 -0.2520988178639067 -0.0074431167796321571 0 -0.26744476073908419 -0.01110442416298311 0 -0.26860117861025579 0.00098416649955779712 0 -0.2520988178639067 -0.0074431167796321571 0 -0.26311887229054209 -0.02266011179098831 0 -0.26744476073908419 -0.01110442416298311 0 -0.2479341292850992 -0.026886232231391329 0 -0.26311887229054209 -0.02266011179098831 0 -0.27004504470236129 -0.037428590099042772 0 -0.2479341292850992 -0.026886232231391329 0 -0.2520988178639067 -0.0074431167796321571 0 -0.2479341292850992 -0.026886232231391329 0 -0.2520988178639067 -0.0074431167796321571 0 -0.26311887229054209 -0.02266011179098831 0 -0.26311887229054209 -0.02266011179098831 0 -0.27812689448094963 -0.019133287700887919 0 -0.27004504470236129 -0.037428590099042772 0 -0.27812689448094963 -0.019133287700887919 0 -0.28714408105252032 -0.032577858456204423 0 -0.27004504470236129 -0.037428590099042772 0 -0.26311887229054209 -0.02266011179098831 0 -0.27812689448094963 -0.019133287700887919 0 -0.26744476073908419 -0.01110442416298311 0 -0.26744476073908419 -0.01110442416298311 0 -0.27871756099426093 -0.0061602514197482616 0 -0.26860117861025579 0.00098416649955779712 0 -0.27812689448094963 -0.019133287700887919 0 -0.26744476073908419 -0.01110442416298311 0 -0.27871756099426093 -0.0061602514197482616 0 -0.27812689448094963 -0.019133287700887919 0 -0.27871756099426093 -0.0061602514197482616 0 -0.29458949306733412 -0.01100266496878353 0 -0.27871756099426093 -0.0061602514197482616 0 -0.29458949306733412 -0.01100266496878353 0 -0.28533747578866669 0.0057230835820348174 0 -0.27812689448094963 -0.019133287700887919 0 -0.30295050935360612 -0.029081723329544212 0 -0.27812689448094963 -0.019133287700887919 0 -0.30295050935360612 -0.029081723329544212 0 -0.28714408105252032 -0.032577858456204423 0 -0.27812689448094963 -0.019133287700887919 0 -0.29458949306733412 -0.01100266496878353 0 -0.30295050935360612 -0.029081723329544212 0 -0.29458949306733412 -0.01100266496878353 0 -0.30401961152946011 -0.02688584229340954 0 -0.30295050935360612 -0.029081723329544212 0 -0.30401961152946011 -0.02688584229340954 0 -0.31240634161385089 -0.0057222447989648366 0 -0.29458949306733412 -0.01100266496878353 0 -0.31240634161385089 -0.0057222447989648366 0 -0.30297757949018539 0.007638752858504072 0 -0.29458949306733412 -0.01100266496878353 0 -0.30401961152946011 -0.02688584229340954 0 -0.31240634161385089 -0.0057222447989648366 0 -0.30145485788886489 -0.040659874347175107 0 -0.31254463314138209 -0.043423673959677993 0 -0.3142668755368847 -0.058513305834347162 0 -0.29215596011962303 -0.047970947966694967 0 -0.3142668755368847 -0.058513305834347162 0 -0.30145485788886489 -0.040659874347175107 0 -0.29215596011962303 -0.047970947966694967 0 -0.3142668755368847 -0.058513305834347162 0 -0.29215596011962303 -0.047970947966694967 0 -0.30175079220615802 -0.072328583115536582 0 -0.3142668755368847 -0.058513305834347162 0 -0.30295050935360612 -0.029081723329544212 0 -0.30145485788886489 -0.040659874347175107 0 -0.28714408105252032 -0.032577858456204423 0 -0.30401961152946011 -0.02688584229340954 0 -0.30295050935360612 -0.029081723329544212 0 -0.32777412422626262 -0.0390301589582005 0 -0.31118103115252888 -0.038048857648649452 0 -0.30145485788886489 -0.040659874347175107 0 -0.31254463314138209 -0.043423673959677993 0 -0.30295050935360612 -0.029081723329544212 0 -0.31118103115252888 -0.038048857648649452 0 -0.30145485788886489 -0.040659874347175107 0 -0.28714408105252032 -0.032577858456204423 0 -0.29215596011962303 -0.047970947966694967 0 -0.27004504470236129 -0.037428590099042772 0 -0.30145485788886489 -0.040659874347175107 0 -0.28714408105252032 -0.032577858456204423 0 -0.29215596011962303 -0.047970947966694967 0 -0.29215596011962303 -0.047970947966694967 0 -0.27789706822258131 -0.04941846168909643 0 -0.27801674594407089 -0.068170108414033689 0 -0.26485964355612568 -0.043465575651673333 0 -0.25681841563442281 -0.068098833519700683 0 -0.27801674594407089 -0.068170108414033689 0 -0.26485964355612568 -0.043465575651673333 0 -0.27801674594407089 -0.068170108414033689 0 -0.27789706822258131 -0.04941846168909643 0 -0.26485964355612568 -0.043465575651673333 0 -0.27801674594407089 -0.068170108414033689 0 -0.29215596011962303 -0.047970947966694967 0 -0.27004504470236129 -0.037428590099042772 0 -0.29215596011962303 -0.047970947966694967 0 -0.27789706822258131 -0.04941846168909643 0 -0.27004504470236129 -0.037428590099042772 0 -0.27789706822258131 -0.04941846168909643 0 -0.27004504470236129 -0.037428590099042772 0 -0.26485964355612568 -0.043465575651673333 0 -0.2479341292850992 -0.026886232231391329 0 -0.27004504470236129 -0.037428590099042772 0 -0.2422011707346092 -0.053650916521198987 0 -0.2479341292850992 -0.026886232231391329 0 -0.26485964355612568 -0.043465575651673333 0 -0.2479341292850992 -0.026886232231391329 0 -0.27004504470236129 -0.037428590099042772 0 -0.26485964355612568 -0.043465575651673333 0 -0.2422011707346092 -0.053650916521198987 0 -0.26485964355612568 -0.043465575651673333 0 -0.25681841563442281 -0.068098833519700683 0 -0.23646821218412289 -0.080415600811007446 0 -0.25681841563442281 -0.068098833519700683 0 -0.26254630575318572 -0.094791966200589994 0 -0.27801674594407089 -0.068170108414033689 0 -0.26254630575318572 -0.094791966200589994 0 -0.29117384833201709 -0.092874641176393546 0 -0.25681841563442281 -0.068098833519700683 0 -0.27801674594407089 -0.068170108414033689 0 -0.26254630575318572 -0.094791966200589994 0 -0.25035907759500148 -0.11053406910422039 0 -0.26254630575318572 -0.094791966200589994 0 -0.27369537867224503 -0.1236054940636331 0 -0.25035907759500148 -0.11053406910422039 0 -0.27369537867224503 -0.1236054940636331 0 -0.25178080866201508 -0.13018226465235741 0 -0.26254630575318572 -0.094791966200589994 0 -0.27369537867224503 -0.1236054940636331 0 -0.29117384833201709 -0.092874641176393546 0 -0.26254630575318572 -0.094791966200589994 0 -0.29117384833201709 -0.092874641176393546 0 -0.27369537867224503 -0.1236054940636331 0 -0.30497834778869343 -0.11879476393898181 0 -0.29117384833201709 -0.092874641176393546 0 -0.30497834778869343 -0.11879476393898181 0 -0.29117384833201709 -0.092874641176393546 0 -0.30497834778869343 -0.11879476393898181 0 -0.29117384833201709 -0.092874641176393546 0 -0.31893998107111909 -0.091015008936587732 0 -0.27801674594407089 -0.068170108414033689 0 -0.29117384833201709 -0.092874641176393546 0 -0.30175079220615802 -0.072328583115536582 0 -0.29215596011962303 -0.047970947966694967 0 -0.27801674594407089 -0.068170108414033689 0 -0.30175079220615802 -0.072328583115536582 0 -0.27801674594407089 -0.068170108414033689 0 -0.29117384833201709 -0.092874641176393546 0 -0.29117384833201709 -0.092874641176393546 0 -0.31893998107111909 -0.091015008936587732 0 -0.29117384833201709 -0.092874641176393546 0 -0.30175079220615802 -0.072328583115536582 0 -0.31893998107111909 -0.091015008936587732 0 -0.30175079220615802 -0.072328583115536582 0 -0.32546576123013438 -0.072794242535447515 0 -0.3142668755368847 -0.058513305834347162 0 -0.30175079220615802 -0.072328583115536582 0 -0.32546576123013438 -0.072794242535447515 0 -0.31893998107111909 -0.091015008936587732 0 -0.31893998107111909 -0.091015008936587732 0 -0.34670611381022132 -0.089155376696784874 0 -0.32546576123013438 -0.072794242535447515 0 -0.31893998107111909 -0.091015008936587732 0 -0.34670611381022132 -0.089155376696784874 0 -0.32546576123013438 -0.072794242535447515 0 -0.34294043252230322 -0.067360517808828457 0 -0.33354078605449028 -0.05595373285123989 0 -0.32546576123013438 -0.072794242535447515 0 -0.34294043252230322 -0.067360517808828457 0 -0.34670611381022132 -0.089155376696784874 0 -0.30497834778869343 -0.11879476393898181 0 -0.31893998107111909 -0.091015008936587732 0 -0.32523960744037689 -0.1206118987466869 0 -0.31893998107111909 -0.091015008936587732 0 -0.32523960744037689 -0.1206118987466869 0 -0.33683020317735352 -0.1059637480566113 0 -0.31893998107111909 -0.091015008936587732 0 -0.33683020317735352 -0.1059637480566113 0 -0.34670611381022132 -0.089155376696784874 0 -0.32523960744037689 -0.1206118987466869 0 -0.33683020317735352 -0.1059637480566113 0 -0.34402086294113682 -0.1222008738331825 0 -0.33683020317735352 -0.1059637480566113 0 -0.34402086294113682 -0.1222008738331825 0 -0.35728216684826802 -0.1045491834428703 0 -0.34402086294113682 -0.1222008738331825 0 -0.35728216684826802 -0.1045491834428703 0 -0.36897713571108831 -0.12237000583843879 0 -0.33683020317735352 -0.1059637480566113 0 -0.35728216684826802 -0.1045491834428703 0 -0.34670611381022132 -0.089155376696784874 0 -0.35728216684826802 -0.1045491834428703 0 -0.37447224654932348 -0.087295744456982016 0 -0.37559741639245869 -0.099820891001506623 0 -0.35728216684826802 -0.1045491834428703 0 -0.36897713571108831 -0.12237000583843879 0 -0.37559741639245869 -0.099820891001506623 0 -0.36897713571108831 -0.12237000583843879 0 -0.37559741639245869 -0.099820891001506623 0 -0.34294043252230322 -0.067360517808828457 0 -0.35773910467776371 -0.076290427236474348 0 -0.36152716330438861 -0.062988128982389244 0 -0.34294043252230322 -0.067360517808828457 0 -0.35773910467776371 -0.076290427236474348 0 -0.34670611381022132 -0.089155376696784874 0 -0.35773910467776371 -0.076290427236474348 0 -0.37447224654932348 -0.087295744456982016 0 -0.36983424897275441 -0.075868126045547782 0 -0.34670611381022132 -0.089155376696784874 0 -0.37447224654932348 -0.087295744456982016 0 -0.35728216684826802 -0.1045491834428703 0 -0.34670611381022132 -0.089155376696784874 0 -0.37447224654932348 -0.087295744456982016 0 -0.35773910467776371 -0.076290427236474348 0 -0.34670611381022132 -0.089155376696784874 0 -0.37447224654932348 -0.087295744456982016 0 -0.36152716330438861 -0.062988128982389244 0 -0.37125930115982392 -0.066336840340026348 0 -0.37742135397157561 -0.058927030215513078 0 -0.35773910467776371 -0.076290427236474348 0 -0.36983424897275441 -0.075868126045547782 0 -0.36152716330438861 -0.062988128982389244 0 -0.36983424897275441 -0.075868126045547782 0 -0.36152716330438861 -0.062988128982389244 0 -0.37125930115982392 -0.066336840340026348 0 -0.36983424897275441 -0.075868126045547782 0 -0.37125930115982392 -0.066336840340026348 0 -0.37756310197991422 -0.067820863111880944 0 -0.35259773909891912 -0.048978594586856793 0 -0.37742135397157561 -0.058927030215513078 0 -0.36152716330438861 -0.062988128982389244 0 -0.35259773909891912 -0.048978594586856793 0 -0.37742135397157561 -0.058927030215513078 0 -0.35259773909891912 -0.048978594586856793 0 -0.36880897750199221 -0.044472365969784503 0 -0.37742135397157561 -0.058927030215513078 0 -0.34294043252230322 -0.067360517808828457 0 -0.36152716330438861 -0.062988128982389244 0 -0.35259773909891912 -0.048978594586856793 0 -0.35259773909891912 -0.048978594586856793 0 -0.35815685679970699 -0.036951470706269321 0 -0.34178614926716461 -0.036127270120801552 0 -0.35815685679970699 -0.036951470706269321 0 -0.35728857169086342 -0.024793009515726591 0 -0.34178614926716461 -0.036127270120801552 0 -0.35259773909891912 -0.048978594586856793 0 -0.35815685679970699 -0.036951470706269321 0 -0.36880897750199221 -0.044472365969784503 0 -0.35815685679970699 -0.036951470706269321 0 -0.36880897750199221 -0.044472365969784503 0 -0.37030284643959538 -0.030386113338177138 0 -0.36880897750199221 -0.044472365969784503 0 -0.37030284643959538 -0.030386113338177138 0 -0.38563118903302868 -0.044120874695869533 0 -0.37030284643959538 -0.030386113338177138 0 -0.37279099411456218 -0.01345874891065147 0 -0.35728857169086342 -0.024793009515726591 0 -0.37279099411456218 -0.01345874891065147 0 -0.35838807856779309 -0.01094225345210836 0 -0.35728857169086342 -0.024793009515726591 0 -0.37279099411456218 -0.01345874891065147 0 -0.35728857169086342 -0.024793009515726591 0 -0.35815685679970699 -0.036951470706269321 0 -0.37030284643959538 -0.030386113338177138 0 -0.35728857169086342 -0.024793009515726591 0 -0.37279099411456218 -0.01345874891065147 0 -0.35918071581129568 0.003338870615967294 0 -0.37180987954083178 -0.0023840389534433991 0 -0.37279099411456218 -0.01345874891065147 0 -0.35918071581129568 0.003338870615967294 0 -0.37279099411456218 -0.01345874891065147 0 -0.35838807856779309 -0.01094225345210836 0 -0.35918071581129568 0.003338870615967294 0 -0.35838807856779309 -0.01094225345210836 0 -0.34048686778571402 -0.01002932277235691 0 -0.35918071581129568 0.003338870615967294 0 -0.35838807856779309 -0.01094225345210836 0 -0.35728857169086342 -0.024793009515726591 0 -0.34048686778571402 -0.01002932277235691 0 -0.35728857169086342 -0.024793009515726591 0 -0.33642102940149898 -0.023906093267090041 0 -0.34178614926716461 -0.036127270120801552 0 -0.35728857169086342 -0.024793009515726591 0 -0.33642102940149898 -0.023906093267090041 0 -0.34048686778571402 -0.01002932277235691 0 -0.35728857169086342 -0.024793009515726591 0 -0.34178614926716461 -0.036127270120801552 0 -0.33642102940149898 -0.023906093267090041 0 -0.34048686778571402 -0.01002932277235691 0 -0.32168226029662911 -0.021641663818973089 0 -0.33642102940149898 -0.023906093267090041 0 -0.32168226029662911 -0.021641663818973089 0 -0.32777412422626262 -0.0390301589582005 0 -0.31240634161385089 -0.0057222447989648366 0 -0.34048686778571402 -0.01002932277235691 0 -0.33519624187438168 0.0073911367791017982 0 -0.31240634161385089 -0.0057222447989648366 0 -0.34048686778571402 -0.01002932277235691 0 -0.32168226029662911 -0.021641663818973089 0 -0.30401961152946011 -0.02688584229340954 0 -0.32168226029662911 -0.021641663818973089 0 -0.32777412422626262 -0.0390301589582005 0 -0.30401961152946011 -0.02688584229340954 0 -0.31240634161385089 -0.0057222447989648366 0 -0.32168226029662911 -0.021641663818973089 0 -0.31118103115252888 -0.038048857648649452 0 -0.32777412422626262 -0.0390301589582005 0 -0.31254463314138209 -0.043423673959677993 0 -0.30295050935360612 -0.029081723329544212 0 -0.32777412422626262 -0.0390301589582005 0 -0.30295050935360612 -0.029081723329544212 0 -0.31118103115252888 -0.038048857648649452 0 -0.32777412422626262 -0.0390301589582005 0 -0.32777412422626262 -0.0390301589582005 0 -0.3142668755368847 -0.058513305834347162 0 -0.33354078605449028 -0.05595373285123989 0 -0.32546576123013438 -0.072794242535447515 0 -0.3142668755368847 -0.058513305834347162 0 -0.33354078605449028 -0.05595373285123989 0 -0.32777412422626262 -0.0390301589582005 0 -0.31254463314138209 -0.043423673959677993 0 -0.3142668755368847 -0.058513305834347162 0 -0.35259773909891912 -0.048978594586856793 0 -0.32777412422626262 -0.0390301589582005 0 -0.33354078605449028 -0.05595373285123989 0 -0.34294043252230322 -0.067360517808828457 0 -0.35259773909891912 -0.048978594586856793 0 -0.33354078605449028 -0.05595373285123989 0 -0.35259773909891912 -0.048978594586856793 0 -0.32777412422626262 -0.0390301589582005 0 -0.34178614926716461 -0.036127270120801552 0 -0.35259773909891912 -0.048978594586856793 0 -0.32777412422626262 -0.0390301589582005 0 -0.33642102940149898 -0.023906093267090041 0 -0.32777412422626262 -0.0390301589582005 0 -0.34178614926716461 -0.036127270120801552 0 -0.3041448722191199 -0.24594418604843371 0 -0.30978712179813522 -0.22949728732725169 0 -0.31799808483916181 -0.2411422576484635 0 -0.29727910994219192 -0.23575784551110429 0 -0.3041448722191199 -0.24594418604843371 0 -0.30978712179813522 -0.22949728732725169 0 -0.29727910994219192 -0.23575784551110429 0 -0.3041448722191199 -0.24594418604843371 0 -0.29727910994219192 -0.23575784551110429 0 -0.30978712179813522 -0.22949728732725169 0 -0.28742183716270342 -0.2262009568469989 0 -0.30978712179813522 -0.22949728732725169 0 -0.29783995011851089 -0.2194150348496792 0 -0.28742183716270342 -0.2262009568469989 0 -0.30978712179813522 -0.22949728732725169 0 -0.28742183716270342 -0.2262009568469989 0 -0.30978712179813522 -0.22949728732725169 0 -0.29783995011851089 -0.2194150348496792 0 -0.30738459695217918 -0.21718876747995969 0 -0.30978712179813522 -0.22949728732725169 0 -0.30738459695217918 -0.21718876747995969 0 -0.31881255300738059 -0.21671924693249919 0 -0.29727910994219192 -0.23575784551110429 0 -0.28742183716270342 -0.2262009568469989 0 -0.28479260734663342 -0.23918036946146551 0 -0.29783995011851089 -0.2194150348496792 0 -0.28742183716270342 -0.2262009568469989 0 -0.28780295875891332 -0.21373041176748861 0 -0.28742183716270342 -0.2262009568469989 0 -0.28479260734663342 -0.23918036946146551 0 -0.27745667118683481 -0.2303742557919819 0 -0.29727910994219192 -0.23575784551110429 0 -0.3041448722191199 -0.24594418604843371 0 -0.28479260734663342 -0.23918036946146551 0 -0.3041448722191199 -0.24594418604843371 0 -0.28479260734663342 -0.23918036946146551 0 -0.29105531347898761 -0.25232858781173639 0 -0.3041448722191199 -0.24594418604843371 0 -0.28479260734663342 -0.23918036946146551 0 -0.27910059834195711 -0.25082361772595813 0 -0.29105531347898761 -0.25232858781173639 0 -0.28479260734663342 -0.23918036946146551 0 -0.27910059834195711 -0.25082361772595813 0 -0.28479260734663342 -0.23918036946146551 0 -0.27190598892482643 -0.24300985525804519 0 -0.28479260734663342 -0.23918036946146551 0 -0.26544034247414688 -0.2324165528744975 0 -0.26965743467848302 -0.23172145874425271 0 -0.28479260734663342 -0.23918036946146551 0 -0.27190598892482643 -0.24300985525804519 0 -0.26544034247414688 -0.2324165528744975 0 -0.28479260734663342 -0.23918036946146551 0 -0.26544034247414688 -0.2324165528744975 0 -0.27190598892482643 -0.24300985525804519 0 -0.26209743224707122 -0.24175178633900329 0 -0.26544034247414688 -0.2324165528744975 0 -0.26616229895624582 -0.25002406866022742 0 -0.27190598892482643 -0.24300985525804519 0 -0.26209743224707122 -0.24175178633900329 0 -0.26616229895624582 -0.25002406866022742 0 -0.27910059834195711 -0.25082361772595813 0 -0.27190598892482643 -0.24300985525804519 0 -0.26616229895624582 -0.25002406866022742 0 -0.26209743224707122 -0.24175178633900329 0 -0.25062049476955539 -0.24619563476610751 0 -0.26209743224707122 -0.24175178633900329 0 -0.25635803611058161 -0.23711282013613891 0 -0.26544034247414688 -0.2324165528744975 0 -0.26209743224707122 -0.24175178633900329 0 -0.25635803611058161 -0.23711282013613891 0 -0.25062049476955539 -0.24619563476610751 0 -0.2425030788867891 -0.21958055945641841 0 -0.26505655252727162 -0.22290462636674691 0 -0.2425030788867891 -0.21958055945641841 0 -0.25275962445406269 -0.22816449224536481 0 -0.26505655252727162 -0.22290462636674691 0 -0.24178099063369299 -0.2350961355948428 0 -0.25635803611058161 -0.23711282013613891 0 -0.25275962445406269 -0.22816449224536481 0 -0.25635803611058161 -0.23711282013613891 0 -0.25275962445406269 -0.22816449224536481 0 -0.25990363889151569 -0.230149622905687 0 -0.25635803611058161 -0.23711282013613891 0 -0.26544034247414688 -0.2324165528744975 0 -0.25990363889151569 -0.230149622905687 0 -0.25275962445406269 -0.22816449224536481 0 -0.25990363889151569 -0.230149622905687 0 -0.26505655252727162 -0.22290462636674691 0 -0.26544034247414688 -0.2324165528744975 0 -0.25990363889151569 -0.230149622905687 0 -0.26505655252727162 -0.22290462636674691 0 -0.28742183716270342 -0.2262009568469989 0 -0.26505655252727162 -0.22290462636674691 0 -0.27731170009132827 -0.21627492452582681 0 -0.28742183716270342 -0.2262009568469989 0 -0.26505655252727162 -0.22290462636674691 0 -0.27745667118683481 -0.2303742557919819 0 -0.28742183716270342 -0.2262009568469989 0 -0.26505655252727162 -0.22290462636674691 0 -0.26505655252727162 -0.22290462636674691 0 -0.26965743467848302 -0.23172145874425271 0 -0.27745667118683481 -0.2303742557919819 0 -0.26505655252727162 -0.22290462636674691 0 -0.26965743467848302 -0.23172145874425271 0 -0.26544034247414688 -0.2324165528744975 0 -0.26505655252727162 -0.22290462636674691 0 -0.26965743467848302 -0.23172145874425271 0 -0.28479260734663342 -0.23918036946146551 0 -0.26965743467848302 -0.23172145874425271 0 -0.27745667118683481 -0.2303742557919819 0 -0.27731170009132827 -0.21627492452582681 0 -0.27889140137048429 -0.20547930169925091 0 -0.2692213235026461 -0.2097498562016967 0 -0.27889140137048429 -0.20547930169925091 0 -0.2692213235026461 -0.2097498562016967 0 -0.26895387969391249 -0.19874607958864121 0 -0.26505655252727162 -0.22290462636674691 0 -0.27731170009132827 -0.21627492452582681 0 -0.2692213235026461 -0.2097498562016967 0 -0.2425030788867891 -0.21958055945641841 0 -0.26505655252727162 -0.22290462636674691 0 -0.2558930838302339 -0.2053443488280175 0 -0.26505655252727162 -0.22290462636674691 0 -0.2692213235026461 -0.2097498562016967 0 -0.2558930838302339 -0.2053443488280175 0 -0.26505655252727162 -0.22290462636674691 0 -0.2558930838302339 -0.2053443488280175 0 -0.2692213235026461 -0.2097498562016967 0 -0.2558930838302339 -0.2053443488280175 0 -0.26895387969391249 -0.19874607958864121 0 -0.24672961513319869 -0.18778407128928681 0 -0.2558930838302339 -0.2053443488280175 0 -0.26488608838063321 -0.18673804186629739 0 -0.2558930838302339 -0.2053443488280175 0 -0.26895387969391249 -0.19874607958864121 0 -0.26488608838063321 -0.18673804186629739 0 -0.24672961513319869 -0.18778407128928681 0 -0.2558930838302339 -0.2053443488280175 0 -0.26895387969391249 -0.19874607958864121 0 -0.28304256162806768 -0.18569201244330849 0 -0.26488608838063321 -0.18673804186629739 0 -0.27889140137048429 -0.20547930169925091 0 -0.26895387969391249 -0.19874607958864121 0 -0.28304256162806768 -0.18569201244330849 0 -0.27889140137048429 -0.20547930169925091 0 -0.28911777557334062 -0.20256576901859091 0 -0.28304256162806768 -0.18569201244330849 0 -0.28911777557334062 -0.20256576901859091 0 -0.29790138856021631 -0.19527404180787339 0 -0.28304256162806768 -0.18569201244330849 0 -0.28911777557334062 -0.20256576901859091 0 -0.29680323592062319 -0.21045775082669721 0 -0.29790138856021631 -0.19527404180787339 0 -0.27889140137048429 -0.20547930169925091 0 -0.28911777557334062 -0.20256576901859091 0 -0.28780295875891332 -0.21373041176748861 0 -0.27731170009132827 -0.21627492452582681 0 -0.27889140137048429 -0.20547930169925091 0 -0.28780295875891332 -0.21373041176748861 0 -0.28742183716270342 -0.2262009568469989 0 -0.27731170009132827 -0.21627492452582681 0 -0.28780295875891332 -0.21373041176748861 0 -0.29783995011851089 -0.2194150348496792 0 -0.28780295875891332 -0.21373041176748861 0 -0.29680323592062319 -0.21045775082669721 0 -0.28911777557334062 -0.20256576901859091 0 -0.28780295875891332 -0.21373041176748861 0 -0.29680323592062319 -0.21045775082669721 0 -0.29680323592062319 -0.21045775082669721 0 -0.30833498950677912 -0.20651753618236421 0 -0.29790138856021631 -0.19527404180787339 0 -0.29783995011851089 -0.2194150348496792 0 -0.29680323592062319 -0.21045775082669721 0 -0.30738459695217918 -0.21718876747995969 0 -0.29680323592062319 -0.21045775082669721 0 -0.30738459695217918 -0.21718876747995969 0 -0.30833498950677912 -0.20651753618236421 0 -0.30738459695217918 -0.21718876747995969 0 -0.30833498950677912 -0.20651753618236421 0 -0.31881255300738059 -0.21671924693249919 0 -0.30833498950677912 -0.20651753618236421 0 -0.31050256092394762 -0.19564790771855189 0 -0.31860560167632801 -0.20381750232860391 0 -0.30833498950677912 -0.20651753618236421 0 -0.31050256092394762 -0.19564790771855189 0 -0.29790138856021631 -0.19527404180787339 0 -0.31050256092394762 -0.19564790771855189 0 -0.30625136290989119 -0.18373979370991739 0 -0.31490619419907862 -0.18734503595755911 0 -0.31050256092394762 -0.19564790771855189 0 -0.29790138856021631 -0.19527404180787339 0 -0.30625136290989119 -0.18373979370991739 0 -0.29790138856021631 -0.19527404180787339 0 -0.30625136290989119 -0.18373979370991739 0 -0.29490002076634642 -0.1794017484400742 0 -0.30625136290989119 -0.18373979370991739 0 -0.30349762954369541 -0.1682442892330703 0 -0.29490002076634642 -0.1794017484400742 0 -0.30625136290989119 -0.18373979370991739 0 -0.30349762954369541 -0.1682442892330703 0 -0.31657483267561809 -0.17672596605131971 0 -0.30349762954369541 -0.1682442892330703 0 -0.31741543256185423 -0.16479217701914381 0 -0.31657483267561809 -0.17672596605131971 0 -0.30349762954369541 -0.1682442892330703 0 -0.30830209044621532 -0.15354430447070211 0 -0.31741543256185423 -0.16479217701914381 0 -0.30349762954369541 -0.1682442892330703 0 -0.29376119264398037 -0.15698484165748061 0 -0.30830209044621532 -0.15354430447070211 0 -0.30349762954369541 -0.1682442892330703 0 -0.28532509986994459 -0.16774940849170969 0 -0.29376119264398037 -0.15698484165748061 0 -0.30349762954369541 -0.1682442892330703 0 -0.28532509986994459 -0.16774940849170969 0 -0.29490002076634642 -0.1794017484400742 0 -0.28532509986994459 -0.16774940849170969 0 -0.29376119264398037 -0.15698484165748061 0 -0.27645626152443259 -0.1539552036150218 0 -0.28532509986994459 -0.16774940849170969 0 -0.28304256162806768 -0.18569201244330849 0 -0.29490002076634642 -0.1794017484400742 0 -0.29790138856021631 -0.19527404180787339 0 -0.28304256162806768 -0.18569201244330849 0 -0.29490002076634642 -0.1794017484400742 0 -0.28532509986994459 -0.16774940849170969 0 -0.28304256162806768 -0.18569201244330849 0 -0.272150956555335 -0.17191828696484451 0 -0.28304256162806768 -0.18569201244330849 0 -0.272150956555335 -0.17191828696484451 0 -0.26488608838063321 -0.18673804186629739 0 -0.28304256162806768 -0.18569201244330849 0 -0.26488608838063321 -0.18673804186629739 0 -0.272150956555335 -0.17191828696484451 0 -0.26488608838063321 -0.18673804186629739 0 -0.25564846528820961 -0.16524042538427319 0 -0.24672961513319869 -0.18778407128928681 0 -0.26488608838063321 -0.18673804186629739 0 -0.24672961513319869 -0.18778407128928681 0 -0.26488608838063321 -0.18673804186629739 0 -0.25564846528820961 -0.16524042538427319 0 -0.272150956555335 -0.17191828696484451 0 -0.25564846528820961 -0.16524042538427319 0 -0.27645626152443259 -0.1539552036150218 0 -0.28532509986994459 -0.16774940849170969 0 -0.272150956555335 -0.17191828696484451 0 -0.27645626152443259 -0.1539552036150218 0 -0.24023528997376051 -0.14585890559731859 0 -0.25564846528820961 -0.16524042538427319 0 -0.25956324082413262 -0.1437684586625208 0 -0.25564846528820961 -0.16524042538427319 0 -0.27645626152443259 -0.1539552036150218 0 -0.25956324082413262 -0.1437684586625208 0 -0.24023528997376051 -0.14585890559731859 0 -0.25956324082413262 -0.1437684586625208 0 -0.25178080866201508 -0.13018226465235741 0 -0.27369537867224503 -0.1236054940636331 0 -0.25956324082413262 -0.1437684586625208 0 -0.25178080866201508 -0.13018226465235741 0 -0.27369537867224503 -0.1236054940636331 0 -0.27645626152443259 -0.1539552036150218 0 -0.25956324082413262 -0.1437684586625208 0 -0.27369537867224503 -0.1236054940636331 0 -0.30497834778869343 -0.11879476393898181 0 -0.29522488183561407 -0.14143100247689919 0 -0.27369537867224503 -0.1236054940636331 0 -0.27645626152443259 -0.1539552036150218 0 -0.29522488183561407 -0.14143100247689919 0 -0.29376119264398037 -0.15698484165748061 0 -0.27645626152443259 -0.1539552036150218 0 -0.29522488183561407 -0.14143100247689919 0 -0.29522488183561407 -0.14143100247689919 0 -0.30830209044621532 -0.15354430447070211 0 -0.30667103642056331 -0.1422419992399663 0 -0.29376119264398037 -0.15698484165748061 0 -0.29522488183561407 -0.14143100247689919 0 -0.30830209044621532 -0.15354430447070211 0 -0.30830209044621532 -0.15354430447070211 0 -0.30667103642056331 -0.1422419992399663 0 -0.31878284724537082 -0.14471488670156951 0 -0.30497834778869343 -0.11879476393898181 0 -0.31878284724537082 -0.14471488670156951 0 -0.30497834778869343 -0.11879476393898181 0 -0.29522488183561407 -0.14143100247689919 0 -0.30667103642056331 -0.1422419992399663 0 -0.30497834778869343 -0.11879476393898181 0 -0.30667103642056331 -0.1422419992399663 0 -0.31878284724537082 -0.14471488670156951 0 -0.32523960744037689 -0.1206118987466869 0 -0.31878284724537082 -0.14471488670156951 0 -0.33320322939556601 -0.13783936602235869 0 -0.30497834778869343 -0.11879476393898181 0 -0.32523960744037689 -0.1206118987466869 0 -0.31878284724537082 -0.14471488670156951 0 -0.30830209044621532 -0.15354430447070211 0 -0.31878284724537082 -0.14471488670156951 0 -0.31847225422548869 -0.15437437033437121 0 -0.31878284724537082 -0.14471488670156951 0 -0.31847225422548869 -0.15437437033437121 0 -0.32784765956392042 -0.1520283381912676 0 -0.31878284724537082 -0.14471488670156951 0 -0.32784765956392042 -0.1520283381912676 0 -0.33320322939556601 -0.13783936602235869 0 -0.33949775091749967 -0.1476995910036954 0 -0.33320322939556601 -0.13783936602235869 0 -0.34989659758625979 -0.13783560896354061 0 -0.32784765956392042 -0.1520283381912676 0 -0.33949775091749967 -0.1476995910036954 0 -0.33320322939556601 -0.13783936602235869 0 -0.32784765956392042 -0.1520283381912676 0 -0.33949775091749967 -0.1476995910036954 0 -0.35169228256389878 -0.1684053924569372 0 -0.34402086294113682 -0.1222008738331825 0 -0.33320322939556601 -0.13783936602235869 0 -0.34989659758625979 -0.13783560896354061 0 -0.32523960744037689 -0.1206118987466869 0 -0.34402086294113682 -0.1222008738331825 0 -0.33320322939556601 -0.13783936602235869 0 -0.34402086294113682 -0.1222008738331825 0 -0.36897713571108831 -0.12237000583843879 0 -0.34989659758625979 -0.13783560896354061 0 -0.36897713571108831 -0.12237000583843879 0 -0.36235685502971771 -0.14491912067537099 0 -0.37923062673594887 -0.14195129383739491 0 -0.36897713571108831 -0.12237000583843879 0 -0.34989659758625979 -0.13783560896354061 0 -0.36235685502971771 -0.14491912067537099 0 -0.36897713571108831 -0.12237000583843879 0 -0.36235685502971771 -0.14491912067537099 0 -0.36235685502971771 -0.14491912067537099 0 -0.37684040880866942 -0.1633129553024005 0 -0.37923062673594887 -0.14195129383739491 0 -0.33949775091749967 -0.1476995910036954 0 -0.34989659758625979 -0.13783560896354061 0 -0.35040537713500031 -0.1536566348225662 0 -0.36235685502971771 -0.14491912067537099 0 -0.35573657434834721 -0.16746823551230319 0 -0.34989659758625979 -0.13783560896354061 0 -0.36235685502971771 -0.14491912067537099 0 -0.35040537713500031 -0.1536566348225662 0 -0.36235685502971771 -0.14491912067537099 0 -0.35040537713500031 -0.1536566348225662 0 -0.35573657434834721 -0.16746823551230319 0 -0.33949775091749967 -0.1476995910036954 0 -0.35040537713500031 -0.1536566348225662 0 -0.35169228256389878 -0.1684053924569372 0 -0.34670424567217151 -0.17017656349798671 0 -0.35169228256389878 -0.1684053924569372 0 -0.34111056873151679 -0.1659605813372495 0 -0.34670424567217151 -0.17017656349798671 0 -0.34821976698055612 -0.17282348558368749 0 -0.34338478819498092 -0.17234507601074639 0 -0.34670424567217151 -0.17017656349798671 0 -0.35169228256389878 -0.1684053924569372 0 -0.34821976698055612 -0.17282348558368749 0 -0.35040537713500031 -0.1536566348225662 0 -0.35573657434834721 -0.16746823551230319 0 -0.35169228256389878 -0.1684053924569372 0 -0.35573657434834721 -0.16746823551230319 0 -0.37553690556387698 -0.18478244672260671 0 -0.37684040880866942 -0.1633129553024005 0 -0.36235685502971771 -0.14491912067537099 0 -0.35573657434834721 -0.16746823551230319 0 -0.37684040880866942 -0.1633129553024005 0 -0.35894028752152091 -0.18339960487853099 0 -0.3660014566284488 -0.192419289638213 0 -0.37553690556387698 -0.18478244672260671 0 -0.35573657434834721 -0.16746823551230319 0 -0.35169228256389878 -0.1684053924569372 0 -0.37553690556387698 -0.18478244672260671 0 -0.35169228256389878 -0.1684053924569372 0 -0.35894028752152091 -0.18339960487853099 0 -0.37553690556387698 -0.18478244672260671 0 -0.35169228256389878 -0.1684053924569372 0 -0.37553690556387698 -0.18478244672260671 0 -0.35894028752152091 -0.18339960487853099 0 -0.35189520504490041 -0.1775562037165454 0 -0.34829695600912841 -0.18412265571200251 0 -0.35894028752152091 -0.18339960487853099 0 -0.34829695600912841 -0.18412265571200251 0 -0.35209263104133492 -0.18864246181282601 0 -0.35169228256389878 -0.1684053924569372 0 -0.35894028752152091 -0.18339960487853099 0 -0.35189520504490041 -0.1775562037165454 0 -0.35169228256389878 -0.1684053924569372 0 -0.35189520504490041 -0.1775562037165454 0 -0.34821976698055612 -0.17282348558368749 0 -0.35189520504490041 -0.1775562037165454 0 -0.34689165199008037 -0.17725208820324809 0 -0.34829695600912841 -0.18412265571200251 0 -0.35189520504490041 -0.1775562037165454 0 -0.34821976698055612 -0.17282348558368749 0 -0.34689165199008037 -0.17725208820324809 0 -0.34689165199008037 -0.17725208820324809 0 -0.34266154372083629 -0.1794130199932587 0 -0.34338478819498092 -0.17234507601074639 0 -0.34821976698055612 -0.17282348558368749 0 -0.34689165199008037 -0.17725208820324809 0 -0.34338478819498092 -0.17234507601074639 0 -0.34689165199008037 -0.17725208820324809 0 -0.34829695600912841 -0.18412265571200251 0 -0.34266154372083629 -0.1794130199932587 0 -0.34829695600912841 -0.18412265571200251 0 -0.34187352999394949 -0.18698191980458681 0 -0.34266154372083629 -0.1794130199932587 0 -0.34187352999394949 -0.18698191980458681 0 -0.33596092855674498 -0.18146886931366821 0 -0.34266154372083629 -0.1794130199932587 0 -0.34187352999394949 -0.18698191980458681 0 -0.33596092855674498 -0.18146886931366821 0 -0.33558143724109002 -0.18823746460332411 0 -0.33596092855674498 -0.18146886931366821 0 -0.33001682493009199 -0.18437411246951649 0 -0.33558143724109002 -0.18823746460332411 0 -0.33596092855674498 -0.18146886931366821 0 -0.33001682493009199 -0.18437411246951649 0 -0.32842064571111829 -0.17631350444565921 0 -0.33596092855674498 -0.18146886931366821 0 -0.32842064571111829 -0.17631350444565921 0 -0.33718608822850349 -0.1742500688005256 0 -0.32842064571111829 -0.17631350444565921 0 -0.33718608822850349 -0.1742500688005256 0 -0.33222539251883831 -0.1707103624389775 0 -0.33596092855674498 -0.18146886931366821 0 -0.33718608822850349 -0.1742500688005256 0 -0.34266154372083629 -0.1794130199932587 0 -0.33718608822850349 -0.1742500688005256 0 -0.34266154372083629 -0.1794130199932587 0 -0.34338478819498092 -0.17234507601074639 0 -0.34670424567217151 -0.17017656349798671 0 -0.34338478819498092 -0.17234507601074639 0 -0.34111056873151679 -0.1659605813372495 0 -0.32784765956392042 -0.1520283381912676 0 -0.35169228256389878 -0.1684053924569372 0 -0.34338478819498092 -0.17234507601074639 0 -0.34111056873151679 -0.1659605813372495 0 -0.33592386766261217 -0.16684753652930959 0 -0.32784765956392042 -0.1520283381912676 0 -0.35169228256389878 -0.1684053924569372 0 -0.34111056873151679 -0.1659605813372495 0 -0.33718608822850349 -0.1742500688005256 0 -0.34338478819498092 -0.17234507601074639 0 -0.33592386766261217 -0.16684753652930959 0 -0.32784765956392042 -0.1520283381912676 0 -0.34111056873151679 -0.1659605813372495 0 -0.33592386766261217 -0.16684753652930959 0 -0.32784765956392042 -0.1520283381912676 0 -0.33592386766261217 -0.16684753652930959 0 -0.32737096847311942 -0.16543033998041559 0 -0.32842064571111829 -0.17631350444565921 0 -0.33222539251883831 -0.1707103624389775 0 -0.32737096847311942 -0.16543033998041559 0 -0.33222539251883831 -0.1707103624389775 0 -0.33592386766261217 -0.16684753652930959 0 -0.32737096847311942 -0.16543033998041559 0 -0.33718608822850349 -0.1742500688005256 0 -0.33222539251883831 -0.1707103624389775 0 -0.33592386766261217 -0.16684753652930959 0 -0.32842064571111829 -0.17631350444565921 0 -0.32737096847311942 -0.16543033998041559 0 -0.32255985715936591 -0.17097494591943499 0 -0.32737096847311942 -0.16543033998041559 0 -0.32255985715936591 -0.17097494591943499 0 -0.31741543256185423 -0.16479217701914381 0 -0.31847225422548869 -0.15437437033437121 0 -0.32737096847311942 -0.16543033998041559 0 -0.31741543256185423 -0.16479217701914381 0 -0.31847225422548869 -0.15437437033437121 0 -0.32784765956392042 -0.1520283381912676 0 -0.32737096847311942 -0.16543033998041559 0 -0.30830209044621532 -0.15354430447070211 0 -0.31847225422548869 -0.15437437033437121 0 -0.31741543256185423 -0.16479217701914381 0 -0.32255985715936591 -0.17097494591943499 0 -0.31741543256185423 -0.16479217701914381 0 -0.31657483267561809 -0.17672596605131971 0 -0.31657483267561809 -0.17672596605131971 0 -0.31490619419907862 -0.18734503595755911 0 -0.32306097875706108 -0.18511260889489789 0 -0.30625136290989119 -0.18373979370991739 0 -0.31657483267561809 -0.17672596605131971 0 -0.31490619419907862 -0.18734503595755911 0 -0.33001682493009199 -0.18437411246951649 0 -0.32842064571111829 -0.17631350444565921 0 -0.32306097875706108 -0.18511260889489789 0 -0.33001682493009199 -0.18437411246951649 0 -0.32306097875706108 -0.18511260889489789 0 -0.32872834525512168 -0.1911549109944958 0 -0.32842064571111829 -0.17631350444565921 0 -0.31657483267561809 -0.17672596605131971 0 -0.32306097875706108 -0.18511260889489789 0 -0.32842064571111829 -0.17631350444565921 0 -0.32255985715936591 -0.17097494591943499 0 -0.31657483267561809 -0.17672596605131971 0 -0.32103572001977232 -0.19378865403462589 0 -0.31860560167632801 -0.20381750232860391 0 -0.32863107302975542 -0.20007308442701779 0 -0.32306097875706108 -0.18511260889489789 0 -0.32103572001977232 -0.19378865403462589 0 -0.32872834525512168 -0.1911549109944958 0 -0.32103572001977232 -0.19378865403462589 0 -0.32863107302975542 -0.20007308442701779 0 -0.32872834525512168 -0.1911549109944958 0 -0.31490619419907862 -0.18734503595755911 0 -0.32306097875706108 -0.18511260889489789 0 -0.32103572001977232 -0.19378865403462589 0 -0.31050256092394762 -0.19564790771855189 0 -0.31490619419907862 -0.18734503595755911 0 -0.32103572001977232 -0.19378865403462589 0 -0.31050256092394762 -0.19564790771855189 0 -0.32103572001977232 -0.19378865403462589 0 -0.31860560167632801 -0.20381750232860391 0 -0.30833498950677912 -0.20651753618236421 0 -0.31860560167632801 -0.20381750232860391 0 -0.31881255300738059 -0.21671924693249919 0 -0.31881255300738059 -0.21671924693249919 0 -0.32664018768389508 -0.2090114453303816 0 -0.33076499134807108 -0.21676950541735321 0 -0.31860560167632801 -0.20381750232860391 0 -0.31881255300738059 -0.21671924693249919 0 -0.32664018768389508 -0.2090114453303816 0 -0.31860560167632801 -0.20381750232860391 0 -0.32664018768389508 -0.2090114453303816 0 -0.32863107302975542 -0.20007308442701779 0 -0.32664018768389508 -0.2090114453303816 0 -0.33558832955162182 -0.20773929069107169 0 -0.32863107302975542 -0.20007308442701779 0 -0.33558832955162182 -0.20773929069107169 0 -0.33076499134807108 -0.21676950541735321 0 -0.34111395319793619 -0.21785694353806051 0 -0.32664018768389508 -0.2090114453303816 0 -0.33558832955162182 -0.20773929069107169 0 -0.33076499134807108 -0.21676950541735321 0 -0.33558832955162182 -0.20773929069107169 0 -0.34111395319793619 -0.21785694353806051 0 -0.3453093568425864 -0.2082068221414414 0 -0.33558832955162182 -0.20773929069107169 0 -0.33970925064725088 -0.20328533953124911 0 -0.3453093568425864 -0.2082068221414414 0 -0.33558832955162182 -0.20773929069107169 0 -0.33970925064725088 -0.20328533953124911 0 -0.33585382007098941 -0.20077236504587551 0 -0.33970925064725088 -0.20328533953124911 0 -0.34129640957335872 -0.19742056904244601 0 -0.3453093568425864 -0.2082068221414414 0 -0.34129640957335872 -0.19742056904244601 0 -0.33585382007098941 -0.20077236504587551 0 -0.33404403755296003 -0.1953435415375929 0 -0.33970925064725088 -0.20328533953124911 0 -0.34129640957335872 -0.19742056904244601 0 -0.33585382007098941 -0.20077236504587551 0 -0.33558832955162182 -0.20773929069107169 0 -0.33585382007098941 -0.20077236504587551 0 -0.32863107302975542 -0.20007308442701779 0 -0.33404403755296003 -0.1953435415375929 0 -0.32863107302975542 -0.20007308442701779 0 -0.32872834525512168 -0.1911549109944958 0 -0.33585382007098941 -0.20077236504587551 0 -0.33404403755296003 -0.1953435415375929 0 -0.32863107302975542 -0.20007308442701779 0 -0.33001682493009199 -0.18437411246951649 0 -0.32872834525512168 -0.1911549109944958 0 -0.33558143724109002 -0.18823746460332411 0 -0.33404403755296003 -0.1953435415375929 0 -0.32872834525512168 -0.1911549109944958 0 -0.33558143724109002 -0.18823746460332411 0 -0.34187352999394949 -0.18698191980458681 0 -0.33558143724109002 -0.18823746460332411 0 -0.33961163682269241 -0.1922954905488003 0 -0.34129640957335872 -0.19742056904244601 0 -0.33404403755296003 -0.1953435415375929 0 -0.33961163682269241 -0.1922954905488003 0 -0.33404403755296003 -0.1953435415375929 0 -0.33558143724109002 -0.18823746460332411 0 -0.33961163682269241 -0.1922954905488003 0 -0.34129640957335872 -0.19742056904244601 0 -0.33961163682269241 -0.1922954905488003 0 -0.34526276975210352 -0.1934939577560516 0 -0.34187352999394949 -0.18698191980458681 0 -0.33961163682269241 -0.1922954905488003 0 -0.34526276975210352 -0.1934939577560516 0 -0.34829695600912841 -0.18412265571200251 0 -0.34187352999394949 -0.18698191980458681 0 -0.34526276975210352 -0.1934939577560516 0 -0.34829695600912841 -0.18412265571200251 0 -0.34526276975210352 -0.1934939577560516 0 -0.35209263104133492 -0.18864246181282601 0 -0.34526276975210352 -0.1934939577560516 0 -0.35209263104133492 -0.18864246181282601 0 -0.35587051088258659 -0.19355362890471861 0 -0.34526276975210352 -0.1934939577560516 0 -0.35587051088258659 -0.19355362890471861 0 -0.36377803555613603 -0.20148173635735769 0 -0.34526276975210352 -0.1934939577560516 0 -0.3487011982511129 -0.19955991321014249 0 -0.36377803555613603 -0.20148173635735769 0 -0.34526276975210352 -0.1934939577560516 0 -0.36377803555613603 -0.20148173635735769 0 -0.34129640957335872 -0.19742056904244601 0 -0.3487011982511129 -0.19955991321014249 0 -0.35327499321814432 -0.2051560438269881 0 -0.34129640957335872 -0.19742056904244601 0 -0.34526276975210352 -0.1934939577560516 0 -0.3487011982511129 -0.19955991321014249 0 -0.3487011982511129 -0.19955991321014249 0 -0.36377803555613603 -0.20148173635735769 0 -0.35327499321814432 -0.2051560438269881 0 -0.35894028752152091 -0.18339960487853099 0 -0.35209263104133492 -0.18864246181282601 0 -0.35587051088258659 -0.19355362890471861 0 -0.35894028752152091 -0.18339960487853099 0 -0.35587051088258659 -0.19355362890471861 0 -0.3660014566284488 -0.192419289638213 0 -0.35587051088258659 -0.19355362890471861 0 -0.3660014566284488 -0.192419289638213 0 -0.36377803555613603 -0.20148173635735769 0 -0.3660014566284488 -0.192419289638213 0 -0.36377803555613603 -0.20148173635735769 0 -0.37588154361812343 -0.19887903132785081 0 -0.3660014566284488 -0.192419289638213 0 -0.37588154361812343 -0.19887903132785081 0 -0.37553690556387698 -0.18478244672260671 0 -0.36377803555613603 -0.20148173635735769 0 -0.37225143279059031 -0.21482428559243491 0 -0.38229330136016848 -0.20946951495866381 0 -0.36377803555613603 -0.20148173635735769 0 -0.38229330136016848 -0.20946951495866381 0 -0.37588154361812343 -0.19887903132785081 0 -0.36377803555613603 -0.20148173635735769 0 -0.38229330136016848 -0.20946951495866381 0 -0.36377803555613603 -0.20148173635735769 0 -0.37225143279059031 -0.21482428559243491 0 -0.36100226487316511 -0.213101231886203 0 -0.37225143279059031 -0.21482428559243491 0 -0.36100226487316511 -0.213101231886203 0 -0.36096143886030768 -0.216255624113948 0 -0.36100226487316511 -0.213101231886203 0 -0.36096143886030768 -0.216255624113948 0 -0.34129640957335872 -0.19742056904244601 0 -0.36096143886030768 -0.216255624113948 0 -0.3453093568425864 -0.2082068221414414 0 -0.34129640957335872 -0.19742056904244601 0 -0.36096143886030768 -0.216255624113948 0 -0.35327499321814432 -0.2051560438269881 0 -0.34129640957335872 -0.19742056904244601 0 -0.36096143886030768 -0.216255624113948 0 -0.36096143886030768 -0.216255624113948 0 -0.3453093568425864 -0.2082068221414414 0 -0.34953699429839002 -0.21764378297314749 0 -0.36100226487316511 -0.213101231886203 0 -0.36096143886030768 -0.216255624113948 0 -0.35327499321814432 -0.2051560438269881 0 -0.36377803555613603 -0.20148173635735769 0 -0.36100226487316511 -0.213101231886203 0 -0.35327499321814432 -0.2051560438269881 0 -0.34111395319793619 -0.21785694353806051 0 -0.3453093568425864 -0.2082068221414414 0 -0.34953699429839002 -0.21764378297314749 0 -0.36096143886030768 -0.216255624113948 0 -0.3507632282927296 -0.2282557420991401 0 -0.36064145463225761 -0.24097897306022439 0 -0.34111395319793619 -0.21785694353806051 0 -0.34953699429839002 -0.21764378297314749 0 -0.3507632282927296 -0.2282557420991401 0 -0.36096143886030768 -0.216255624113948 0 -0.34953699429839002 -0.21764378297314749 0 -0.3507632282927296 -0.2282557420991401 0 -0.36096143886030768 -0.216255624113948 0 -0.36064145463225761 -0.24097897306022439 0 -0.36096143886030768 -0.216255624113948 0 -0.36064145463225761 -0.24097897306022439 0 -0.38265141747073828 -0.237030164322656 0 -0.37225143279059031 -0.21482428559243491 0 -0.36096143886030768 -0.216255624113948 0 -0.38265141747073828 -0.237030164322656 0 -0.36096143886030768 -0.216255624113948 0 -0.38265141747073828 -0.237030164322656 0 -0.37575197361103307 -0.25468824818671759 0 -0.36064145463225761 -0.24097897306022439 0 -0.38265141747073828 -0.237030164322656 0 -0.3507632282927296 -0.2282557420991401 0 -0.36064145463225761 -0.24097897306022439 0 -0.3449618835911385 -0.24367695190694061 0 -0.3507632282927296 -0.2282557420991401 0 -0.3449618835911385 -0.24367695190694061 0 -0.33215240643356703 -0.2327936178075044 0 -0.33906621386656211 -0.25814955588139621 0 -0.3449618835911385 -0.24367695190694061 0 -0.33303711247551931 -0.24736958926824401 0 -0.3449618835911385 -0.24367695190694061 0 -0.33303711247551931 -0.24736958926824401 0 -0.33215240643356703 -0.2327936178075044 0 -0.34111395319793619 -0.21785694353806051 0 -0.3507632282927296 -0.2282557420991401 0 -0.33215240643356703 -0.2327936178075044 0 -0.33076499134807108 -0.21676950541735321 0 -0.34111395319793619 -0.21785694353806051 0 -0.33215240643356703 -0.2327936178075044 0 -0.31881255300738059 -0.21671924693249919 0 -0.33076499134807108 -0.21676950541735321 0 -0.33215240643356703 -0.2327936178075044 0 -0.30978712179813522 -0.22949728732725169 0 -0.31881255300738059 -0.21671924693249919 0 -0.33215240643356703 -0.2327936178075044 0 -0.30978712179813522 -0.22949728732725169 0 -0.33215240643356703 -0.2327936178075044 0 -0.30978712179813522 -0.22949728732725169 0 -0.33215240643356703 -0.2327936178075044 0 -0.31799808483916181 -0.2411422576484635 0 -0.321605543042841 -0.2520468709649149 0 -0.3041448722191199 -0.24594418604843371 0 -0.321605543042841 -0.2520468709649149 0 -0.3041448722191199 -0.24594418604843371 0 -0.31799808483916181 -0.2411422576484635 0 -0.321605543042841 -0.2520468709649149 0 -0.33303711247551931 -0.24736958926824401 0 -0.31799808483916181 -0.2411422576484635 0 -0.33303711247551931 -0.24736958926824401 0 -0.33215240643356703 -0.2327936178075044 0 -0.31799808483916181 -0.2411422576484635 0 -0.42735550035764353 -0.26234688883393692 0 -0.42594714949772061 -0.24341161695235489 0 -0.43675522421664609 -0.24055079796215631 0 -0.42594714949772061 -0.24341161695235489 0 -0.42958450082264371 -0.22987168660959351 0 -0.41846705211630753 -0.23586248196712509 0 -0.42594714949772061 -0.24341161695235489 0 -0.43675522421664609 -0.24055079796215631 0 -0.42958450082264371 -0.22987168660959351 0 -0.42301071828972442 -0.21738859055680121 0 -0.43628499168384449 -0.2156960781545651 0 -0.44663990801559339 -0.2336176801253261 0 -0.42301071828972442 -0.21738859055680121 0 -0.44663990801559339 -0.2336176801253261 0 -0.42958450082264371 -0.22987168660959351 0 -0.42301071828972442 -0.21738859055680121 0 -0.44663990801559339 -0.2336176801253261 0 -0.42958450082264371 -0.22987168660959351 0 -0.41519653399342238 -0.2236644900847817 0 -0.42301071828972442 -0.21738859055680121 0 -0.42958450082264371 -0.22987168660959351 0 -0.41519653399342238 -0.2236644900847817 0 -0.42958450082264371 -0.22987168660959351 0 -0.41519653399342238 -0.2236644900847817 0 -0.41846705211630753 -0.23586248196712509 0 -0.41519653399342238 -0.2236644900847817 0 -0.41846705211630753 -0.23586248196712509 0 -0.4025749816226864 -0.23763099904566601 0 -0.41519653399342238 -0.2236644900847817 0 -0.40080856716420182 -0.21745729355996851 0 -0.42301071828972442 -0.21738859055680121 0 -0.41519653399342238 -0.2236644900847817 0 -0.40080856716420182 -0.21745729355996851 0 -0.41846705211630753 -0.23586248196712509 0 -0.41757346997536232 -0.2484262293889628 0 -0.4025749816226864 -0.23763099904566601 0 -0.40434139608116931 -0.25780470453136362 0 -0.41757346997536232 -0.2484262293889628 0 -0.4025749816226864 -0.23763099904566601 0 -0.42594714949772061 -0.24341161695235489 0 -0.41846705211630753 -0.23586248196712509 0 -0.41757346997536232 -0.2484262293889628 0 -0.40434139608116931 -0.25780470453136362 0 -0.4025749816226864 -0.23763099904566601 0 -0.38265141747073828 -0.237030164322656 0 -0.40434139608116931 -0.25780470453136362 0 -0.4025749816226864 -0.23763099904566601 0 -0.40434139608116931 -0.25780470453136362 0 -0.38265141747073828 -0.237030164322656 0 -0.37575197361103307 -0.25468824818671759 0 -0.40434139608116931 -0.25780470453136362 0 -0.38265141747073828 -0.237030164322656 0 -0.37225143279059031 -0.21482428559243491 0 -0.38265141747073828 -0.237030164322656 0 -0.38811594008167721 -0.2232824514958778 0 -0.4025749816226864 -0.23763099904566601 0 -0.38811594008167721 -0.2232824514958778 0 -0.40080856716420182 -0.21745729355996851 0 -0.4025749816226864 -0.23763099904566601 0 -0.40080856716420182 -0.21745729355996851 0 -0.41519653399342238 -0.2236644900847817 0 -0.4025749816226864 -0.23763099904566601 0 -0.40080856716420182 -0.21745729355996851 0 -0.4025749816226864 -0.23763099904566601 0 -0.38265141747073828 -0.237030164322656 0 -0.38811594008167721 -0.2232824514958778 0 -0.40080856716420182 -0.21745729355996851 0 -0.38229330136016848 -0.20946951495866381 0 -0.39938152856385678 -0.20115950098827401 0 -0.40080856716420182 -0.21745729355996851 0 -0.38229330136016848 -0.20946951495866381 0 -0.40080856716420182 -0.21745729355996851 0 -0.39938152856385678 -0.20115950098827401 0 -0.38811594008167721 -0.2232824514958778 0 -0.40080856716420182 -0.21745729355996851 0 -0.38229330136016848 -0.20946951495866381 0 -0.38229330136016848 -0.20946951495866381 0 -0.37588154361812343 -0.19887903132785081 0 -0.39938152856385678 -0.20115950098827401 0 -0.37225143279059031 -0.21482428559243491 0 -0.38811594008167721 -0.2232824514958778 0 -0.38229330136016848 -0.20946951495866381 0 -0.39938152856385678 -0.20115950098827401 0 -0.37553690556387698 -0.18478244672260671 0 -0.37588154361812343 -0.19887903132785081 0 -0.39938152856385678 -0.20115950098827401 0 -0.37553690556387698 -0.18478244672260671 0 -0.39938152856385678 -0.20115950098827401 0 -0.39722466396437028 -0.176526578067117 0 -0.39938152856385678 -0.20115950098827401 0 -0.40863033494604112 -0.1911625320935624 0 -0.39722466396437028 -0.176526578067117 0 -0.40863033494604112 -0.1911625320935624 0 -0.43147275120953088 -0.19338077090383671 0 -0.40863033494604112 -0.1911625320935624 0 -0.43147275120953088 -0.19338077090383671 0 -0.42521488109412531 -0.19952274005728979 0 -0.40863033494604112 -0.1911625320935624 0 -0.41848821524951108 -0.20187670192626439 0 -0.42521488109412531 -0.19952274005728979 0 -0.40863033494604112 -0.1911625320935624 0 -0.43147275120953088 -0.19338077090383671 0 -0.41974774590474989 -0.18725396513743389 0 -0.39938152856385678 -0.20115950098827401 0 -0.40863033494604112 -0.1911625320935624 0 -0.41308886592915761 -0.20327574270844001 0 -0.40863033494604112 -0.1911625320935624 0 -0.41848821524951108 -0.20187670192626439 0 -0.41308886592915761 -0.20327574270844001 0 -0.40080856716420182 -0.21745729355996851 0 -0.39938152856385678 -0.20115950098827401 0 -0.42301071828972442 -0.21738859055680121 0 -0.39938152856385678 -0.20115950098827401 0 -0.42301071828972442 -0.21738859055680121 0 -0.39938152856385678 -0.20115950098827401 0 -0.41308886592915761 -0.20327574270844001 0 -0.42301071828972442 -0.21738859055680121 0 -0.41308886592915761 -0.20327574270844001 0 -0.4235631570382431 -0.2092731176860215 0 -0.42301071828972442 -0.21738859055680121 0 -0.41848821524951108 -0.20187670192626439 0 -0.41308886592915761 -0.20327574270844001 0 -0.4235631570382431 -0.2092731176860215 0 -0.41848821524951108 -0.20187670192626439 0 -0.4235631570382431 -0.2092731176860215 0 -0.42521488109412531 -0.19952274005728979 0 -0.4235631570382431 -0.2092731176860215 0 -0.43256460158225701 -0.2053710756585036 0 -0.42521488109412531 -0.19952274005728979 0 -0.4235631570382431 -0.2092731176860215 0 -0.42301071828972442 -0.21738859055680121 0 -0.43628499168384449 -0.2156960781545651 0 -0.43628499168384449 -0.2156960781545651 0 -0.43256460158225701 -0.2053710756585036 0 -0.44147501844432702 -0.20976870875186751 0 -0.4235631570382431 -0.2092731176860215 0 -0.43628499168384449 -0.2156960781545651 0 -0.43256460158225701 -0.2053710756585036 0 -0.43246397714440687 -0.1999134680741278 0 -0.43147275120953088 -0.19338077090383671 0 -0.44060367469171441 -0.2013792856768811 0 -0.43256460158225701 -0.2053710756585036 0 -0.43246397714440687 -0.1999134680741278 0 -0.44060367469171441 -0.2013792856768811 0 -0.43256460158225701 -0.2053710756585036 0 -0.43246397714440687 -0.1999134680741278 0 -0.42521488109412531 -0.19952274005728979 0 -0.43246397714440687 -0.1999134680741278 0 -0.43147275120953088 -0.19338077090383671 0 -0.42521488109412531 -0.19952274005728979 0 -0.43071875396461701 -0.18963367478939469 0 -0.43147275120953088 -0.19338077090383671 0 -0.438439995368756 -0.18468663740517291 0 -0.43147275120953088 -0.19338077090383671 0 -0.42660545105720848 -0.1870121373222815 0 -0.41974774590474989 -0.18725396513743389 0 -0.43071875396461701 -0.18963367478939469 0 -0.43147275120953088 -0.19338077090383671 0 -0.42660545105720848 -0.1870121373222815 0 -0.4083032530198375 -0.16554902637267399 0 -0.39506779936487968 -0.15189365514596029 0 -0.42667954627462717 -0.155401709175023 0 -0.42633281737392481 -0.1791464658388511 0 -0.43722875770743053 -0.18167051041055771 0 -0.42667954627462717 -0.155401709175023 0 -0.42633281737392481 -0.1791464658388511 0 -0.42660545105720848 -0.1870121373222815 0 -0.41974774590474989 -0.18725396513743389 0 -0.43071875396461701 -0.18963367478939469 0 -0.42633281737392481 -0.1791464658388511 0 -0.42660545105720848 -0.1870121373222815 0 -0.43071875396461701 -0.18963367478939469 0 -0.43722875770743053 -0.18167051041055771 0 -0.43071875396461701 -0.18963367478939469 0 -0.42633281737392481 -0.1791464658388511 0 -0.43722875770743053 -0.18167051041055771 0 -0.43071875396461701 -0.18963367478939469 0 -0.43722875770743053 -0.18167051041055771 0 -0.438439995368756 -0.18468663740517291 0 -0.43722875770743053 -0.18167051041055771 0 -0.42667954627462717 -0.155401709175023 0 -0.44028998524704172 -0.16197905616152439 0 -0.43722875770743053 -0.18167051041055771 0 -0.42667954627462717 -0.155401709175023 0 -0.42633281737392481 -0.1791464658388511 0 -0.41838719633879312 -0.17365273000241371 0 -0.42667954627462717 -0.155401709175023 0 -0.4083032530198375 -0.16554902637267399 0 -0.41838719633879312 -0.17365273000241371 0 -0.42667954627462717 -0.155401709175023 0 -0.4083032530198375 -0.16554902637267399 0 -0.41045863883475842 -0.17882896633464021 0 -0.41838719633879312 -0.17365273000241371 0 -0.41045863883475842 -0.17882896633464021 0 -0.41838719633879312 -0.17365273000241371 0 -0.41974774590474989 -0.18725396513743389 0 -0.42633281737392481 -0.1791464658388511 0 -0.41838719633879312 -0.17365273000241371 0 -0.41974774590474989 -0.18725396513743389 0 -0.40863033494604112 -0.1911625320935624 0 -0.41045863883475842 -0.17882896633464021 0 -0.41974774590474989 -0.18725396513743389 0 -0.39938152856385678 -0.20115950098827401 0 -0.39722466396437028 -0.176526578067117 0 -0.37553690556387698 -0.18478244672260671 0 -0.40863033494604112 -0.1911625320935624 0 -0.41045863883475842 -0.17882896633464021 0 -0.39722466396437028 -0.176526578067117 0 -0.4083032530198375 -0.16554902637267399 0 -0.41045863883475842 -0.17882896633464021 0 -0.39722466396437028 -0.176526578067117 0 -0.39722466396437028 -0.176526578067117 0 -0.37553690556387698 -0.18478244672260671 0 -0.37684040880866942 -0.1633129553024005 0 -0.39722466396437028 -0.176526578067117 0 -0.37684040880866942 -0.1633129553024005 0 -0.39506779936487968 -0.15189365514596029 0 -0.4083032530198375 -0.16554902637267399 0 -0.39722466396437028 -0.176526578067117 0 -0.39506779936487968 -0.15189365514596029 0 -0.39722466396437028 -0.176526578067117 0 -0.39506779936487968 -0.15189365514596029 0 -0.37684040880866942 -0.1633129553024005 0 -0.39506779936487968 -0.15189365514596029 0 -0.37923062673594887 -0.14195129383739491 0 -0.36897713571108831 -0.12237000583843879 0 -0.37923062673594887 -0.14195129383739491 0 -0.39291093476538907 -0.12726073222480369 0 -0.39506779936487968 -0.15189365514596029 0 -0.37923062673594887 -0.14195129383739491 0 -0.39291093476538907 -0.12726073222480369 0 -0.39506779936487968 -0.15189365514596029 0 -0.39291093476538907 -0.12726073222480369 0 -0.41613033484182471 -0.12913290793948809 0 -0.39506779936487968 -0.15189365514596029 0 -0.39291093476538907 -0.12726073222480369 0 -0.39506779936487968 -0.15189365514596029 0 -0.41613033484182471 -0.12913290793948809 0 -0.42667954627462717 -0.155401709175023 0 -0.41613033484182471 -0.12913290793948809 0 -0.42667954627462717 -0.155401709175023 0 -0.41613033484182471 -0.12913290793948809 0 -0.42667954627462717 -0.155401709175023 0 -0.442227751715213 -0.1391242993871086 0 -0.42667954627462717 -0.155401709175023 0 -0.442227751715213 -0.1391242993871086 0 -0.44028998524704172 -0.16197905616152439 0 -0.41613033484182471 -0.12913290793948809 0 -0.442227751715213 -0.1391242993871086 0 -0.4308404588406185 -0.1096599677822222 0 -0.442227751715213 -0.1391242993871086 0 -0.47405533025657998 -0.1366235239104871 0 -0.45564204398200592 -0.1591470171605229 0 -0.442227751715213 -0.1391242993871086 0 -0.47405533025657998 -0.1366235239104871 0 -0.45211754138960392 -0.11865177594692861 0 -0.442227751715213 -0.1391242993871086 0 -0.45564204398200592 -0.1591470171605229 0 -0.44028998524704172 -0.16197905616152439 0 -0.47405533025657998 -0.1366235239104871 0 -0.45564204398200592 -0.1591470171605229 0 -0.47405533025657998 -0.1366235239104871 0 -0.49246861653115409 -0.1141000306604512 0 -0.49015618858327292 -0.13165222629794129 0 -0.5 -0.145328878505285 0 -0.5 -0.11797557409059781 0 -0.47405533025657998 -0.1366235239104871 0 -0.49015618858327292 -0.13165222629794129 0 -0.49246861653115409 -0.1141000306604512 0 -0.49015618858327292 -0.13165222629794129 0 -0.5 -0.145328878505285 0 -0.48226508969241538 -0.15517016027828831 0 -0.47405533025657998 -0.1366235239104871 0 -0.48226508969241538 -0.15517016027828831 0 -0.45564204398200592 -0.1591470171605229 0 -0.47405533025657998 -0.1366235239104871 0 -0.49015618858327292 -0.13165222629794129 0 -0.48226508969241538 -0.15517016027828831 0 -0.48226508969241538 -0.15517016027828831 0 -0.5 -0.17268218291997239 0 -0.47031908558910712 -0.17659837351313731 0 -0.48226508969241538 -0.15517016027828831 0 -0.47031908558910712 -0.17659837351313731 0 -0.45564204398200592 -0.1591470171605229 0 -0.5 -0.145328878505285 0 -0.48226508969241538 -0.15517016027828831 0 -0.5 -0.17268218291997239 0 -0.5 -0.17268218291997239 0 -0.47031908558910712 -0.17659837351313731 0 -0.47715758373651113 -0.19781724852438529 0 -0.47031908558910712 -0.17659837351313731 0 -0.45253462865068989 -0.1791746224815442 0 -0.45431516747302092 -0.19559900971411101 0 -0.47031908558910712 -0.17659837351313731 0 -0.45564204398200592 -0.1591470171605229 0 -0.45253462865068989 -0.1791746224815442 0 -0.43722875770743053 -0.18167051041055771 0 -0.45564204398200592 -0.1591470171605229 0 -0.43722875770743053 -0.18167051041055771 0 -0.45564204398200592 -0.1591470171605229 0 -0.44028998524704172 -0.16197905616152439 0 -0.438439995368756 -0.18468663740517291 0 -0.45253462865068989 -0.1791746224815442 0 -0.45431516747302092 -0.19559900971411101 0 -0.43722875770743053 -0.18167051041055771 0 -0.45564204398200592 -0.1591470171605229 0 -0.45253462865068989 -0.1791746224815442 0 -0.43722875770743053 -0.18167051041055771 0 -0.438439995368756 -0.18468663740517291 0 -0.45253462865068989 -0.1791746224815442 0 -0.43722875770743053 -0.18167051041055771 0 -0.438439995368756 -0.18468663740517291 0 -0.43147275120953088 -0.19338077090383671 0 -0.438439995368756 -0.18468663740517291 0 -0.45431516747302092 -0.19559900971411101 0 -0.43147275120953088 -0.19338077090383671 0 -0.44060367469171441 -0.2013792856768811 0 -0.45431516747302092 -0.19559900971411101 0 -0.43147275120953088 -0.19338077090383671 0 -0.45431516747302092 -0.19559900971411101 0 -0.44060367469171441 -0.2013792856768811 0 -0.45384264049849021 -0.2082556583683495 0 -0.45431516747302092 -0.19559900971411101 0 -0.44060367469171441 -0.2013792856768811 0 -0.44147501844432702 -0.20976870875186751 0 -0.45384264049849021 -0.2082556583683495 0 -0.43256460158225701 -0.2053710756585036 0 -0.44060367469171441 -0.2013792856768811 0 -0.44147501844432702 -0.20976870875186751 0 -0.43628499168384449 -0.2156960781545651 0 -0.44147501844432702 -0.20976870875186751 0 -0.45045654673292318 -0.2187572961488706 0 -0.44147501844432702 -0.20976870875186751 0 -0.45384264049849021 -0.2082556583683495 0 -0.45045654673292318 -0.2187572961488706 0 -0.46833538391976859 -0.21554473672438779 0 -0.45384264049849021 -0.2082556583683495 0 -0.47715758373651113 -0.19781724852438529 0 -0.46833538391976859 -0.21554473672438779 0 -0.45384264049849021 -0.2082556583683495 0 -0.45045654673292318 -0.2187572961488706 0 -0.47031908558910712 -0.17659837351313731 0 -0.45431516747302092 -0.19559900971411101 0 -0.47715758373651113 -0.19781724852438529 0 -0.45431516747302092 -0.19559900971411101 0 -0.47715758373651113 -0.19781724852438529 0 -0.45384264049849021 -0.2082556583683495 0 -0.45431516747302092 -0.19559900971411101 0 -0.47715758373651113 -0.19781724852438529 0 -0.5 -0.17268218291997239 0 -0.47715758373651113 -0.19781724852438529 0 -0.50000000000000111 -0.2000354873346597 0 -0.47715758373651113 -0.19781724852438529 0 -0.50000000000000111 -0.2000354873346597 0 -0.47715758373651113 -0.19781724852438529 0 -0.50000000000000111 -0.2000354873346597 0 -0.48593090526916088 -0.21189114720113819 0 -0.50000000000000111 -0.2000354873346597 0 -0.48593090526916088 -0.21189114720113819 0 -0.5 -0.2229919572569263 0 -0.46833538391976859 -0.21554473672438779 0 -0.47715758373651113 -0.19781724852438529 0 -0.48593090526916088 -0.21189114720113819 0 -0.46833538391976859 -0.21554473672438779 0 -0.48593090526916088 -0.21189114720113819 0 -0.48112821724282889 -0.22569836959849571 0 -0.46833538391976859 -0.21554473672438779 0 -0.48112821724282889 -0.22569836959849571 0 -0.45986052465829053 -0.23042947751312781 0 -0.48112821724282889 -0.22569836959849571 0 -0.46969437889539828 -0.24095406338282691 0 -0.45986052465829053 -0.23042947751312781 0 -0.48593090526916088 -0.21189114720113819 0 -0.48112821724282889 -0.22569836959849571 0 -0.5 -0.2229919572569263 0 -0.48112821724282889 -0.22569836959849571 0 -0.5 -0.2229919572569263 0 -0.49999999999999972 -0.24594842717919291 0 -0.48112821724282889 -0.22569836959849571 0 -0.49999999999999972 -0.24594842717919291 0 -0.46969437889539828 -0.24095406338282691 0 -0.47861902030246323 -0.25831528033366469 0 -0.49999999999999972 -0.24594842717919291 0 -0.46969437889539828 -0.24095406338282691 0 -0.46969437889539828 -0.24095406338282691 0 -0.45986052465829053 -0.23042947751312781 0 -0.45079035186059652 -0.24728701821004481 0 -0.46833538391976859 -0.21554473672438779 0 -0.45986052465829053 -0.23042947751312781 0 -0.45045654673292318 -0.2187572961488706 0 -0.43628499168384449 -0.2156960781545651 0 -0.44663990801559339 -0.2336176801253261 0 -0.45045654673292318 -0.2187572961488706 0 -0.45986052465829053 -0.23042947751312781 0 -0.44663990801559339 -0.2336176801253261 0 -0.45045654673292318 -0.2187572961488706 0 -0.43675522421664609 -0.24055079796215631 0 -0.42958450082264371 -0.22987168660959351 0 -0.44663990801559339 -0.2336176801253261 0 -0.45986052465829053 -0.23042947751312781 0 -0.44663990801559339 -0.2336176801253261 0 -0.45079035186059652 -0.24728701821004481 0 -0.43675522421664609 -0.24055079796215631 0 -0.44663990801559339 -0.2336176801253261 0 -0.45079035186059652 -0.24728701821004481 0 -0.43981298953622111 -0.25362310229907731 0 -0.43675522421664609 -0.24055079796215631 0 -0.45079035186059652 -0.24728701821004481 0 -0.40774988407501978 -0.03954551048919993 0 -0.41247713727797558 -0.055520511343444823 0 -0.42909330875423318 -0.038565162215915022 0 -0.40774988407501978 -0.03954551048919993 0 -0.42909330875423318 -0.038565162215915022 0 -0.41713055015575268 -0.026517216194404211 0 -0.41247713727797558 -0.055520511343444823 0 -0.42909330875423318 -0.038565162215915022 0 -0.43870944549150731 -0.061152412754872112 0 -0.43571281056801853 -0.019232132624920711 0 -0.41835622924697913 -0.010329231447849269 0 -0.41713055015575268 -0.026517216194404211 0 -0.42909330875423318 -0.038565162215915022 0 -0.43571281056801853 -0.019232132624920711 0 -0.44710465525824861 -0.02947548475730468 0 -0.42909330875423318 -0.038565162215915022 0 -0.43571281056801853 -0.019232132624920711 0 -0.41713055015575268 -0.026517216194404211 0 -0.43571281056801853 -0.019232132624920711 0 -0.41713055015575268 -0.026517216194404211 0 -0.43571281056801853 -0.019232132624920711 0 -0.43073537275873691 -0.0059291936424985554 0 -0.41835622924697913 -0.010329231447849269 0 -0.43073537275873691 -0.0059291936424985554 0 -0.44180668973186432 -0.0051654507905552951 0 -0.43561880314536899 0.0060778636305521688 0 -0.43571281056801853 -0.019232132624920711 0 -0.43073537275873691 -0.0059291936424985554 0 -0.44180668973186432 -0.0051654507905552951 0 -0.43073537275873691 -0.0059291936424985554 0 -0.41835622924697913 -0.010329231447849269 0 -0.42359784139670509 0.0050356193962432594 0 -0.41835622924697913 -0.010329231447849269 0 -0.4054445393806132 -0.023145388418947879 0 -0.40034224439658073 -0.010585148858779061 0 -0.41835622924697913 -0.010329231447849269 0 -0.40034224439658073 -0.010585148858779061 0 -0.40246949919523839 0.0082400476876908005 0 -0.40774988407501978 -0.03954551048919993 0 -0.41713055015575268 -0.026517216194404211 0 -0.4054445393806132 -0.023145388418947879 0 -0.41835622924697913 -0.010329231447849269 0 -0.41713055015575268 -0.026517216194404211 0 -0.4054445393806132 -0.023145388418947879 0 -0.4054445393806132 -0.023145388418947879 0 -0.39351450160097878 -0.0201153105677285 0 -0.40034224439658073 -0.010585148858779061 0 -0.4054445393806132 -0.023145388418947879 0 -0.39351450160097878 -0.0201153105677285 0 -0.39557382680836828 -0.031779912955726339 0 -0.39351450160097878 -0.0201153105677285 0 -0.38419986444758519 -0.027539420797905251 0 -0.39557382680836828 -0.031779912955726339 0 -0.39351450160097878 -0.0201153105677285 0 -0.40034224439658073 -0.010585148858779061 0 -0.38233539472329148 -0.0064805669941802226 0 -0.40034224439658073 -0.010585148858779061 0 -0.38233539472329148 -0.0064805669941802226 0 -0.40246949919523839 0.0082400476876908005 0 -0.37279099411456218 -0.01345874891065147 0 -0.38233539472329148 -0.0064805669941802226 0 -0.37180987954083178 -0.0023840389534433991 0 -0.38233539472329148 -0.0064805669941802226 0 -0.37293241351417789 0.0070642894750902749 0 -0.37180987954083178 -0.0023840389534433991 0 -0.37279099411456218 -0.01345874891065147 0 -0.38233539472329148 -0.0064805669941802226 0 -0.38233539472329148 -0.0064805669941802226 0 -0.38419986444758519 -0.027539420797905251 0 -0.37030284643959538 -0.030386113338177138 0 -0.37279099411456218 -0.01345874891065147 0 -0.38419986444758519 -0.027539420797905251 0 -0.39351450160097878 -0.0201153105677285 0 -0.38233539472329148 -0.0064805669941802226 0 -0.38419986444758519 -0.027539420797905251 0 -0.37279099411456218 -0.01345874891065147 0 -0.38233539472329148 -0.0064805669941802226 0 -0.38419986444758519 -0.027539420797905251 0 -0.37279099411456218 -0.01345874891065147 0 -0.38419986444758519 -0.027539420797905251 0 -0.38419986444758519 -0.027539420797905251 0 -0.38563118903302868 -0.044120874695869533 0 -0.39557382680836828 -0.031779912955726339 0 -0.37030284643959538 -0.030386113338177138 0 -0.38419986444758519 -0.027539420797905251 0 -0.38563118903302868 -0.044120874695869533 0 -0.38563118903302868 -0.044120874695869533 0 -0.39557382680836828 -0.031779912955726339 0 -0.38708290872159412 -0.060700542793745572 0 -0.38419986444758519 -0.027539420797905251 0 -0.38563118903302868 -0.044120874695869533 0 -0.39557382680836828 -0.031779912955726339 0 -0.38708290872159412 -0.060700542793745572 0 -0.40774988407501978 -0.03954551048919993 0 -0.39557382680836828 -0.031779912955726339 0 -0.38708290872159412 -0.060700542793745572 0 -0.40774988407501978 -0.03954551048919993 0 -0.4054445393806132 -0.023145388418947879 0 -0.39557382680836828 -0.031779912955726339 0 -0.41247713727797558 -0.055520511343444823 0 -0.38708290872159412 -0.060700542793745572 0 -0.40282094984934602 -0.068207719325610594 0 -0.40774988407501978 -0.03954551048919993 0 -0.41247713727797558 -0.055520511343444823 0 -0.38708290872159412 -0.060700542793745572 0 -0.36880897750199221 -0.044472365969784503 0 -0.38563118903302868 -0.044120874695869533 0 -0.37742135397157561 -0.058927030215513078 0 -0.38563118903302868 -0.044120874695869533 0 -0.38708290872159412 -0.060700542793745572 0 -0.37742135397157561 -0.058927030215513078 0 -0.38563118903302868 -0.044120874695869533 0 -0.38708290872159412 -0.060700542793745572 0 -0.38708290872159412 -0.060700542793745572 0 -0.37742135397157561 -0.058927030215513078 0 -0.37756310197991422 -0.067820863111880944 0 -0.38708290872159412 -0.060700542793745572 0 -0.38859720556640898 -0.077994886382490192 0 -0.38221769707382519 -0.077271776164573258 0 -0.37125930115982392 -0.066336840340026348 0 -0.37742135397157561 -0.058927030215513078 0 -0.37756310197991422 -0.067820863111880944 0 -0.38708290872159412 -0.060700542793745572 0 -0.37756310197991422 -0.067820863111880944 0 -0.38221769707382519 -0.077271776164573258 0 -0.38708290872159412 -0.060700542793745572 0 -0.38221769707382519 -0.077271776164573258 0 -0.38708290872159412 -0.060700542793745572 0 -0.38859720556640898 -0.077994886382490192 0 -0.38859720556640898 -0.077994886382490192 0 -0.38221769707382519 -0.077271776164573258 0 -0.36983424897275441 -0.075868126045547782 0 -0.38221769707382519 -0.077271776164573258 0 -0.36983424897275441 -0.075868126045547782 0 -0.37756310197991422 -0.067820863111880944 0 -0.38221769707382519 -0.077271776164573258 0 -0.37447224654932348 -0.087295744456982016 0 -0.38221769707382519 -0.077271776164573258 0 -0.37559741639245869 -0.099820891001506623 0 -0.38859720556640898 -0.077994886382490192 0 -0.38400097317129162 -0.090041729153619493 0 -0.39075407016589853 -0.102627809303647 0 -0.38859720556640898 -0.077994886382490192 0 -0.39075407016589853 -0.102627809303647 0 -0.38221769707382519 -0.077271776164573258 0 -0.38400097317129162 -0.090041729153619493 0 -0.37559741639245869 -0.099820891001506623 0 -0.37447224654932348 -0.087295744456982016 0 -0.36983424897275441 -0.075868126045547782 0 -0.38221769707382519 -0.077271776164573258 0 -0.38221769707382519 -0.077271776164573258 0 -0.37559741639245869 -0.099820891001506623 0 -0.38859720556640898 -0.077994886382490192 0 -0.38221769707382519 -0.077271776164573258 0 -0.38400097317129162 -0.090041729153619493 0 -0.38859720556640898 -0.077994886382490192 0 -0.40132082857303591 -0.09088318252997965 0 -0.41644790417480693 -0.081151732205845081 0 -0.38859720556640898 -0.077994886382490192 0 -0.40132082857303591 -0.09088318252997965 0 -0.39075407016589853 -0.102627809303647 0 -0.38859720556640898 -0.077994886382490192 0 -0.41644790417480693 -0.081151732205845081 0 -0.38859720556640898 -0.077994886382490192 0 -0.40282094984934602 -0.068207719325610594 0 -0.41644790417480693 -0.081151732205845081 0 -0.38708290872159412 -0.060700542793745572 0 -0.38859720556640898 -0.077994886382490192 0 -0.40282094984934602 -0.068207719325610594 0 -0.36897713571108831 -0.12237000583843879 0 -0.39291093476538907 -0.12726073222480369 0 -0.38088045108206647 -0.1136183514720918 0 -0.36897713571108831 -0.12237000583843879 0 -0.38088045108206647 -0.1136183514720918 0 -0.37559741639245869 -0.099820891001506623 0 -0.39291093476538907 -0.12726073222480369 0 -0.38088045108206647 -0.1136183514720918 0 -0.39075407016589853 -0.102627809303647 0 -0.38088045108206647 -0.1136183514720918 0 -0.37559741639245869 -0.099820891001506623 0 -0.39075407016589853 -0.102627809303647 0 -0.38400097317129162 -0.090041729153619493 0 -0.37559741639245869 -0.099820891001506623 0 -0.39075407016589853 -0.102627809303647 0 -0.40132082857303591 -0.09088318252997965 0 -0.40558112340902219 -0.102864106703953 0 -0.39075407016589853 -0.102627809303647 0 -0.39291093476538907 -0.12726073222480369 0 -0.39075407016589853 -0.102627809303647 0 -0.39291093476538907 -0.12726073222480369 0 -0.40558112340902219 -0.102864106703953 0 -0.39075407016589853 -0.102627809303647 0 -0.39291093476538907 -0.12726073222480369 0 -0.41613033484182471 -0.12913290793948809 0 -0.40558112340902219 -0.102864106703953 0 -0.41613033484182471 -0.12913290793948809 0 -0.40558112340902219 -0.102864106703953 0 -0.41613033484182471 -0.12913290793948809 0 -0.40558112340902219 -0.102864106703953 0 -0.4308404588406185 -0.1096599677822222 0 -0.40132082857303591 -0.09088318252997965 0 -0.40558112340902219 -0.102864106703953 0 -0.41934985093689181 -0.09617965485727327 0 -0.40558112340902219 -0.102864106703953 0 -0.41934985093689181 -0.09617965485727327 0 -0.4308404588406185 -0.1096599677822222 0 -0.41934985093689181 -0.09617965485727327 0 -0.4308404588406185 -0.1096599677822222 0 -0.44429860278320482 -0.084308578029200193 0 -0.41247713727797558 -0.055520511343444823 0 -0.40282094984934602 -0.068207719325610594 0 -0.41644790417480693 -0.081151732205845081 0 -0.40132082857303591 -0.09088318252997965 0 -0.41934985093689181 -0.09617965485727327 0 -0.41644790417480693 -0.081151732205845081 0 -0.41644790417480693 -0.081151732205845081 0 -0.44429860278320482 -0.084308578029200193 0 -0.41934985093689181 -0.09617965485727327 0 -0.41644790417480693 -0.081151732205845081 0 -0.44429860278320482 -0.084308578029200193 0 -0.41644790417480693 -0.081151732205845081 0 -0.44429860278320482 -0.084308578029200193 0 -0.43870944549150731 -0.061152412754872112 0 -0.41247713727797558 -0.055520511343444823 0 -0.41644790417480693 -0.081151732205845081 0 -0.43870944549150731 -0.061152412754872112 0 -0.44429860278320482 -0.084308578029200193 0 -0.45986649556946141 -0.071395959556615041 0 -0.43870944549150731 -0.061152412754872112 0 -0.44429860278320482 -0.084308578029200193 0 -0.4538577501736053 -0.10155966270297689 0 -0.47214930139160249 -0.087465423852555305 0 -0.44429860278320482 -0.084308578029200193 0 -0.47214930139160249 -0.087465423852555305 0 -0.44429860278320482 -0.084308578029200193 0 -0.45986649556946141 -0.071395959556615041 0 -0.47214930139160249 -0.087465423852555305 0 -0.45986649556946141 -0.071395959556615041 0 -0.48153406372156288 -0.071409188265663628 0 -0.46449210768020599 -0.051705893172169413 0 -0.4308404588406185 -0.1096599677822222 0 -0.45211754138960392 -0.11865177594692861 0 -0.4538577501736053 -0.10155966270297689 0 -0.442227751715213 -0.1391242993871086 0 -0.4308404588406185 -0.1096599677822222 0 -0.45211754138960392 -0.11865177594692861 0 -0.4308404588406185 -0.1096599677822222 0 -0.44429860278320482 -0.084308578029200193 0 -0.4538577501736053 -0.10155966270297689 0 -0.4538577501736053 -0.10155966270297689 0 -0.469422062641071 -0.11061403092063039 0 -0.47214930139160249 -0.087465423852555305 0 -0.45211754138960392 -0.11865177594692861 0 -0.4538577501736053 -0.10155966270297689 0 -0.469422062641071 -0.11061403092063039 0 -0.47405533025657998 -0.1366235239104871 0 -0.45211754138960392 -0.11865177594692861 0 -0.469422062641071 -0.11061403092063039 0 -0.47405533025657998 -0.1366235239104871 0 -0.469422062641071 -0.11061403092063039 0 -0.47970655467315049 -0.11576640692234549 0 -0.47405533025657998 -0.1366235239104871 0 -0.47970655467315049 -0.11576640692234549 0 -0.49246861653115409 -0.1141000306604512 0 -0.469422062641071 -0.11061403092063039 0 -0.48288020926379688 -0.1017280421978134 0 -0.47214930139160249 -0.087465423852555305 0 -0.469422062641071 -0.11061403092063039 0 -0.47970655467315049 -0.11576640692234549 0 -0.48288020926379688 -0.1017280421978134 0 -0.5 -0.11797557409059781 0 -0.49246861653115409 -0.1141000306604512 0 -0.50000000000000044 -0.090622269675910472 0 -0.48288020926379688 -0.1017280421978134 0 -0.49246861653115409 -0.1141000306604512 0 -0.50000000000000044 -0.090622269675910472 0 -0.49015618858327292 -0.13165222629794129 0 -0.5 -0.11797557409059781 0 -0.49246861653115409 -0.1141000306604512 0 -0.47970655467315049 -0.11576640692234549 0 -0.48288020926379688 -0.1017280421978134 0 -0.49246861653115409 -0.1141000306604512 0 -0.45986649556946141 -0.071395959556615041 0 -0.48153406372156288 -0.071409188265663628 0 -0.47214930139160249 -0.087465423852555305 0 -0.47214930139160249 -0.087465423852555305 0 -0.50000000000000044 -0.090622269675910472 0 -0.48153406372156288 -0.071409188265663628 0 -0.47214930139160249 -0.087465423852555305 0 -0.50000000000000044 -0.090622269675910472 0 -0.48288020926379688 -0.1017280421978134 0 -0.47214930139160249 -0.087465423852555305 0 -0.50000000000000044 -0.090622269675910472 0 -0.48153406372156288 -0.071409188265663628 0 -0.50000000000000044 -0.090622269675910472 0 -0.5 -0.069198834770784923 0 -0.48153406372156288 -0.071409188265663628 0 -0.5 -0.069198834770784923 0 -0.48258928650995209 -0.05284139437197545 0 -0.5 -0.069198834770784923 0 -0.5 -0.047775399865659367 0 -0.48258928650995209 -0.05284139437197545 0 -0.5 -0.047775399865659367 0 -0.48169904489321169 -0.03473049394062213 0 -0.50000000000000044 -0.026351964960533911 0 -0.5 -0.047775399865659367 0 -0.48169904489321169 -0.03473049394062213 0 -0.48258928650995209 -0.05284139437197545 0 -0.48169904489321169 -0.03473049394062213 0 -0.46449210768020599 -0.051705893172169413 0 -0.48169904489321169 -0.03473049394062213 0 -0.48258928650995209 -0.05284139437197545 0 -0.46449210768020599 -0.051705893172169413 0 -0.48169904489321169 -0.03473049394062213 0 -0.46915747016573112 -0.035157151818124219 0 -0.46449210768020599 -0.051705893172169413 0 -0.48169904489321169 -0.03473049394062213 0 -0.46915747016573112 -0.035157151818124219 0 -0.47499869741002743 -0.02686275547864575 0 -0.48153406372156288 -0.071409188265663628 0 -0.48258928650995209 -0.05284139437197545 0 -0.46449210768020599 -0.051705893172169413 0 -0.45986649556946141 -0.071395959556615041 0 -0.46449210768020599 -0.051705893172169413 0 -0.43870944549150731 -0.061152412754872112 0 -0.46449210768020599 -0.051705893172169413 0 -0.45873557444283192 -0.034472498616010677 0 -0.44611027316733542 -0.042046332074062498 0 -0.46915747016573112 -0.035157151818124219 0 -0.46449210768020599 -0.051705893172169413 0 -0.45873557444283192 -0.034472498616010677 0 -0.46915747016573112 -0.035157151818124219 0 -0.45873557444283192 -0.034472498616010677 0 -0.46586192640237878 -0.028014117883173109 0 -0.42909330875423318 -0.038565162215915022 0 -0.44611027316733542 -0.042046332074062498 0 -0.44710465525824861 -0.02947548475730468 0 -0.45873557444283192 -0.034472498616010677 0 -0.44611027316733542 -0.042046332074062498 0 -0.44710465525824861 -0.02947548475730468 0 -0.42909330875423318 -0.038565162215915022 0 -0.44611027316733542 -0.042046332074062498 0 -0.43870944549150731 -0.061152412754872112 0 -0.46449210768020599 -0.051705893172169413 0 -0.44611027316733542 -0.042046332074062498 0 -0.43870944549150731 -0.061152412754872112 0 -0.43571281056801853 -0.019232132624920711 0 -0.44180668973186432 -0.0051654507905552951 0 -0.45429507098028449 -0.01194704905543767 0 -0.43571281056801853 -0.019232132624920711 0 -0.45429507098028449 -0.01194704905543767 0 -0.44980449113335391 -0.0021121160436215081 0 -0.44180668973186432 -0.0051654507905552951 0 -0.45429507098028449 -0.01194704905543767 0 -0.44980449113335391 -0.0021121160436215081 0 -0.44180668973186432 -0.0051654507905552951 0 -0.44563122467031402 0.0059141659804821389 0 -0.43571281056801853 -0.019232132624920711 0 -0.45331494151808982 -0.018336145587236469 0 -0.45429507098028449 -0.01194704905543767 0 -0.43571281056801853 -0.019232132624920711 0 -0.44710465525824861 -0.02947548475730468 0 -0.45331494151808982 -0.018336145587236469 0 -0.45331494151808982 -0.018336145587236469 0 -0.46049706392553469 -0.015873022880298609 0 -0.45966102309898232 -0.024200637425682729 0 -0.44710465525824861 -0.02947548475730468 0 -0.45331494151808982 -0.018336145587236469 0 -0.45966102309898232 -0.024200637425682729 0 -0.45873557444283192 -0.034472498616010677 0 -0.44710465525824861 -0.02947548475730468 0 -0.45966102309898232 -0.024200637425682729 0 -0.45873557444283192 -0.034472498616010677 0 -0.45966102309898232 -0.024200637425682729 0 -0.46586192640237878 -0.028014117883173109 0 -0.45966102309898232 -0.024200637425682729 0 -0.46586192640237878 -0.028014117883173109 0 -0.46598050672304048 -0.018790879433634951 0 -0.46049706392553469 -0.015873022880298609 0 -0.45966102309898232 -0.024200637425682729 0 -0.46598050672304048 -0.018790879433634951 0 -0.45429507098028449 -0.01194704905543767 0 -0.45702259458146932 0.0058326548029490888 0 -0.45429507098028449 -0.01194704905543767 0 -0.46923377730727528 -0.0060904028995010136 0 -0.45702259458146932 0.0058326548029490888 0 -0.46049706392553469 -0.015873022880298609 0 -0.45429507098028449 -0.01194704905543767 0 -0.46923377730727528 -0.0060904028995010136 0 -0.45429507098028449 -0.01194704905543767 0 -0.46923377730727528 -0.0060904028995010136 0 -0.46049706392553469 -0.015873022880298609 0 -0.46598050672304048 -0.018790879433634951 0 -0.46923377730727528 -0.0060904028995010136 0 -0.44980449113335391 -0.0021121160436215081 0 -0.45429507098028449 -0.01194704905543767 0 -0.45702259458146932 0.0058326548029490888 0 -0.45331494151808982 -0.018336145587236469 0 -0.46049706392553469 -0.015873022880298609 0 -0.45429507098028449 -0.01194704905543767 0 -0.45331494151808982 -0.018336145587236469 0 -0.45429507098028449 -0.01194704905543767 0 -0.46923377730727528 -0.0060904028995010136 0 -0.48417248363426568 -0.0002337567435632274 0 -0.47499869741002743 -0.02686275547864575 0 -0.48417248363426568 -0.0002337567435632274 0 -0.47499869741002743 -0.02686275547864575 0 -0.48417248363426568 -0.0002337567435632274 0 -0.47499869741002743 -0.02686275547864575 0 -0.48575177281506499 -0.017510912948459759 0 -0.46923377730727528 -0.0060904028995010136 0 -0.48417248363426568 -0.0002337567435632274 0 -0.46598050672304048 -0.018790879433634951 0 -0.46923377730727528 -0.0060904028995010136 0 -0.47499869741002743 -0.02686275547864575 0 -0.46586192640237878 -0.028014117883173109 0 -0.46598050672304048 -0.018790879433634951 0 -0.47499869741002743 -0.02686275547864575 0 -0.46915747016573112 -0.035157151818124219 0 -0.46586192640237878 -0.028014117883173109 0 -0.47499869741002743 -0.02686275547864575 0 -0.47499869741002743 -0.02686275547864575 0 -0.48533887430613049 -0.024214814269200691 0 -0.48575177281506499 -0.017510912948459759 0 -0.48169904489321169 -0.03473049394062213 0 -0.47499869741002743 -0.02686275547864575 0 -0.48533887430613049 -0.024214814269200691 0 -0.48169904489321169 -0.03473049394062213 0 -0.49890598210621789 -0.017755094709075169 0 -0.50000000000000044 -0.026351964960533911 0 -0.48169904489321169 -0.03473049394062213 0 -0.48533887430613049 -0.024214814269200691 0 -0.49890598210621789 -0.017755094709075169 0 -0.48169904489321169 -0.03473049394062213 0 -0.49890598210621789 -0.017755094709075169 0 -0.48533887430613049 -0.024214814269200691 0 -0.48575177281506499 -0.017510912948459759 0 -0.49890598210621789 -0.017755094709075169 0 -0.49890598210621789 -0.017755094709075169 0 -0.50000000000000044 -0.026351964960533911 0 -0.48417248363426568 -0.0002337567435632274 0 -0.48575177281506499 -0.017510912948459759 0 -0.49890598210621789 -0.017755094709075169 0 -0.49890598210621789 -0.017755094709075169 0 -0.4960820783836718 0.0044353411542801379 0 -0.48417248363426568 -0.0002337567435632274 0 -0.49890598210621789 -0.017755094709075169 0 -0.4960820783836718 0.0044353411542801379 0 -0.49890598210621789 -0.017755094709075169 0 -0.4999999999999975 0.0059713430055264981 0 -0.4960820783836718 0.0044353411542801379 0 -0.48417248363426568 -0.0002337567435632274 0 -0.49330336195520469 0.02627069205382802 0 -0.4999999999999975 0.0059713430055264981 0 -0.4960820783836718 0.0044353411542801379 0 -0.5 0.021583573423249462 0 -0.4960820783836718 0.0044353411542801379 0 -0.49330336195520469 0.02627069205382802 0 -0.48417248363426568 -0.0002337567435632274 0 -0.4960820783836718 0.0044353411542801379 0 -0.49330336195520469 0.02627069205382802 0 -0.48417248363426568 -0.0002337567435632274 0 -0.49330336195520469 0.02627069205382802 0 -0.48126065169423338 0.016750951296508401 0 -0.4999999999999975 0.0059713430055264981 0 -0.4960820783836718 0.0044353411542801379 0 -0.48417248363426568 -0.0002337567435632274 0 -0.4960820783836718 0.0044353411542801379 0 -0.49330336195520469 0.02627069205382802 0 -0.47599809063618581 0.029095690118167299 0 -0.4922460630897183 0.034579021574999168 0 -0.4960820783836718 0.0044353411542801379 0 -0.5 0.021583573423249462 0 -0.49330336195520469 0.02627069205382802 0 -0.49330336195520469 0.02627069205382802 0 -0.4922460630897183 0.034579021574999168 0 -0.49330336195520469 0.02627069205382802 0 -0.49668125762428489 0.036075801667292767 0 -0.5 0.021583573423249462 0 -0.49330336195520469 0.02627069205382802 0 -0.49668125762428489 0.036075801667292767 0 -0.47599809063618581 0.029095690118167299 0 -0.47156867055127832 0.01187117975760116 0 -0.45975011818265288 0.0236123586613361 0 -0.49330336195520469 0.02627069205382802 0 -0.48126065169423338 0.016750951296508401 0 -0.47599809063618581 0.029095690118167299 0 -0.48126065169423338 0.016750951296508401 0 -0.47599809063618581 0.029095690118167299 0 -0.47156867055127832 0.01187117975760116 0 -0.48417248363426568 -0.0002337567435632274 0 -0.48126065169423338 0.016750951296508401 0 -0.47156867055127832 0.01187117975760116 0 -0.46923377730727528 -0.0060904028995010136 0 -0.48417248363426568 -0.0002337567435632274 0 -0.47156867055127832 0.01187117975760116 0 -0.49150890907471317 0.051777578788957002 0 -0.499999999999999 0.045709205407559073 0 -0.5 0.06253327329700431 0 -0.49150890907471317 0.051777578788957002 0 -0.48122062655303022 0.057966151400956817 0 -0.5 0.06253327329700431 0 -0.49150890907471317 0.051777578788957002 0 -0.48552602806631029 0.048283161356978938 0 -0.48122062655303022 0.057966151400956817 0 -0.49150890907471317 0.051777578788957002 0 -0.48552602806631029 0.048283161356978938 0 -0.4913584995422004 0.041553558921507167 0 -0.48552602806631029 0.048283161356978938 0 -0.4913584995422004 0.041553558921507167 0 -0.47801607709529781 0.041835356316494751 0 -0.4913584995422004 0.041553558921507167 0 -0.4922460630897183 0.034579021574999168 0 -0.47801607709529781 0.041835356316494751 0 -0.4913584995422004 0.041553558921507167 0 -0.499999999999999 0.045709205407559073 0 -0.49668125762428489 0.036075801667292767 0 -0.49150890907471317 0.051777578788957002 0 -0.4913584995422004 0.041553558921507167 0 -0.499999999999999 0.045709205407559073 0 -0.499999999999999 0.045709205407559073 0 -0.49668125762428489 0.036075801667292767 0 -0.50000000000000078 0.037195803840972493 0 -0.499999999999999 0.045709205407559073 0 -0.49668125762428489 0.036075801667292767 0 -0.49668125762428489 0.036075801667292767 0 -0.4922460630897183 0.034579021574999168 0 -0.4913584995422004 0.041553558921507167 0 -0.49668125762428489 0.036075801667292767 0 -0.4922460630897183 0.034579021574999168 0 -0.5 0.021583573423249462 0 -0.49668125762428489 0.036075801667292767 0 -0.50000000000000078 0.037195803840972493 0 -0.49330336195520469 0.02627069205382802 0 -0.49668125762428489 0.036075801667292767 0 -0.4922460630897183 0.034579021574999168 0 -0.49668125762428489 0.036075801667292767 0 -0.50000000000000078 0.037195803840972493 0 -0.4913584995422004 0.041553558921507167 0 -0.4922460630897183 0.034579021574999168 0 -0.47599809063618581 0.029095690118167299 0 -0.4922460630897183 0.034579021574999168 0 -0.47599809063618581 0.029095690118167299 0 -0.47801607709529781 0.041835356316494751 0 -0.45975011818265288 0.0236123586613361 0 -0.47599809063618581 0.029095690118167299 0 -0.4922460630897183 0.034579021574999168 0 -0.47801607709529781 0.041835356316494751 0 -0.48122062655303022 0.057966151400956817 0 -0.46422370482429481 0.053390298463279279 0 -0.46723920560533022 0.07243091205056626 0 -0.48552602806631029 0.048283161356978938 0 -0.47801607709529781 0.041835356316494751 0 -0.48122062655303022 0.057966151400956817 0 -0.47801607709529781 0.041835356316494751 0 -0.48122062655303022 0.057966151400956817 0 -0.46422370482429481 0.053390298463279279 0 -0.46422370482429481 0.053390298463279279 0 -0.45834658937366329 0.049093372711744 0 -0.44267059145821402 0.073824171072702255 0 -0.46422370482429481 0.053390298463279279 0 -0.45834658937366329 0.049093372711744 0 -0.46422370482429481 0.053390298463279279 0 -0.45834658937366329 0.049093372711744 0 -0.46071967688461679 0.045349537771039443 0 -0.45834658937366329 0.049093372711744 0 -0.46071967688461679 0.045349537771039443 0 -0.46422370482429481 0.053390298463279279 0 -0.45975011818265288 0.0236123586613361 0 -0.47801607709529781 0.041835356316494751 0 -0.46422370482429481 0.053390298463279279 0 -0.45975011818265288 0.0236123586613361 0 -0.46071967688461679 0.045349537771039443 0 -0.4532279141438405 0.03482273616335383 0 -0.45975011818265288 0.0236123586613361 0 -0.46422370482429481 0.053390298463279279 0 -0.46071967688461679 0.045349537771039443 0 -0.45975011818265288 0.0236123586613361 0 -0.45834658937366329 0.049093372711744 0 -0.46071967688461679 0.045349537771039443 0 -0.4532279141438405 0.03482273616335383 0 -0.45834658937366329 0.049093372711744 0 -0.44047509652042471 0.036027017540652587 0 -0.45834658937366329 0.049093372711744 0 -0.4532279141438405 0.03482273616335383 0 -0.44047509652042471 0.036027017540652587 0 -0.4532279141438405 0.03482273616335383 0 -0.44047509652042471 0.036027017540652587 0 -0.44746020137229708 0.02721190424379297 0 -0.45834658937366329 0.049093372711744 0 -0.44047509652042471 0.036027017540652587 0 -0.43649015472064689 0.056633228663465943 0 -0.45834658937366329 0.049093372711744 0 -0.44267059145821402 0.073824171072702255 0 -0.45834658937366329 0.049093372711744 0 -0.43649015472064689 0.056633228663465943 0 -0.44267059145821402 0.073824171072702255 0 -0.45702259458146932 0.0058326548029490888 0 -0.45732743008720877 0.022794754995289119 0 -0.45061302568719519 0.014457287400348731 0 -0.47156867055127832 0.01187117975760116 0 -0.45702259458146932 0.0058326548029490888 0 -0.45975011818265288 0.0236123586613361 0 -0.45702259458146932 0.0058326548029490888 0 -0.45975011818265288 0.0236123586613361 0 -0.46923377730727528 -0.0060904028995010136 0 -0.47156867055127832 0.01187117975760116 0 -0.45702259458146932 0.0058326548029490888 0 -0.47599809063618581 0.029095690118167299 0 -0.45975011818265288 0.0236123586613361 0 -0.45702259458146932 0.0058326548029490888 0 -0.45975011818265288 0.0236123586613361 0 -0.45732743008720877 0.022794754995289119 0 -0.4532279141438405 0.03482273616335383 0 -0.45975011818265288 0.0236123586613361 0 -0.45370132454046241 0.02592935011534556 0 -0.45975011818265288 0.0236123586613361 0 -0.45370132454046241 0.02592935011534556 0 -0.45732743008720877 0.022794754995289119 0 -0.45975011818265288 0.0236123586613361 0 -0.45732743008720877 0.022794754995289119 0 -0.45370132454046241 0.02592935011534556 0 -0.45732743008720877 0.022794754995289119 0 -0.45074095891631227 0.021204996512955779 0 -0.45732743008720877 0.022794754995289119 0 -0.45074095891631227 0.021204996512955779 0 -0.45061302568719519 0.014457287400348731 0 -0.45074095891631227 0.021204996512955779 0 -0.44746020137229708 0.02721190424379297 0 -0.4409342151200053 0.016881434685688961 0 -0.44047509652042471 0.036027017540652587 0 -0.44746020137229708 0.02721190424379297 0 -0.4409342151200053 0.016881434685688961 0 -0.45074095891631227 0.021204996512955779 0 -0.4409342151200053 0.016881434685688961 0 -0.45061302568719519 0.014457287400348731 0 -0.4532279141438405 0.03482273616335383 0 -0.45370132454046241 0.02592935011534556 0 -0.44746020137229708 0.02721190424379297 0 -0.45370132454046241 0.02592935011534556 0 -0.45074095891631227 0.021204996512955779 0 -0.44746020137229708 0.02721190424379297 0 -0.4409342151200053 0.016881434685688961 0 -0.44563122467031402 0.0059141659804821389 0 -0.43561880314536899 0.0060778636305521688 0 -0.4409342151200053 0.016881434685688961 0 -0.45061302568719519 0.014457287400348731 0 -0.44563122467031402 0.0059141659804821389 0 -0.45702259458146932 0.0058326548029490888 0 -0.45061302568719519 0.014457287400348731 0 -0.44563122467031402 0.0059141659804821389 0 -0.44980449113335391 -0.0021121160436215081 0 -0.45702259458146932 0.0058326548029490888 0 -0.44563122467031402 0.0059141659804821389 0 -0.44180668973186432 -0.0051654507905552951 0 -0.44563122467031402 0.0059141659804821389 0 -0.43561880314536899 0.0060778636305521688 0 -0.43073537275873691 -0.0059291936424985554 0 -0.43561880314536899 0.0060778636305521688 0 -0.42359784139670509 0.0050356193962432594 0 -0.4409342151200053 0.016881434685688961 0 -0.43561880314536899 0.0060778636305521688 0 -0.42260360366718641 0.022960662369560569 0 -0.43561880314536899 0.0060778636305521688 0 -0.42359784139670509 0.0050356193962432594 0 -0.42260360366718641 0.022960662369560569 0 -0.42359784139670509 0.0050356193962432594 0 -0.42260360366718641 0.022960662369560569 0 -0.42260360366718641 0.022960662369560569 0 -0.40246949919523839 0.0082400476876908005 0 -0.41835622924697913 -0.010329231447849269 0 -0.42359784139670509 0.0050356193962432594 0 -0.40246949919523839 0.0082400476876908005 0 -0.42359784139670509 0.0050356193962432594 0 -0.42260360366718641 0.022960662369560569 0 -0.40246949919523839 0.0082400476876908005 0 -0.42260360366718641 0.022960662369560569 0 -0.40246949919523839 0.0082400476876908005 0 -0.4006569271450014 0.029101629221092499 0 -0.44047509652042471 0.036027017540652587 0 -0.4409342151200053 0.016881434685688961 0 -0.42260360366718641 0.022960662369560569 0 -0.44047509652042471 0.036027017540652587 0 -0.42260360366718641 0.022960662369560569 0 -0.44047509652042471 0.036027017540652587 0 -0.43649015472064689 0.056633228663465943 0 -0.42139348399369952 0.044777825917180478 0 -0.44047509652042471 0.036027017540652587 0 -0.42260360366718641 0.022960662369560569 0 -0.42139348399369952 0.044777825917180478 0 -0.42260360366718641 0.022960662369560569 0 -0.42139348399369952 0.044777825917180478 0 -0.43649015472064689 0.056633228663465943 0 -0.42139348399369952 0.044777825917180478 0 -0.42018336432021219 0.066594989464800358 0 -0.42139348399369952 0.044777825917180478 0 -0.39835701383225569 0.048175149076846981 0 -0.42018336432021219 0.066594989464800358 0 -0.42139348399369952 0.044777825917180478 0 -0.42018336432021219 0.066594989464800358 0 -0.42139348399369952 0.044777825917180478 0 -0.39835701383225569 0.048175149076846981 0 -0.4006569271450014 0.029101629221092499 0 -0.42260360366718641 0.022960662369560569 0 -0.42139348399369952 0.044777825917180478 0 -0.4006569271450014 0.029101629221092499 0 -0.39835701383225569 0.048175149076846981 0 -0.37863350987998812 0.035797582514910387 0 -0.4006569271450014 0.029101629221092499 0 -0.39835701383225569 0.048175149076846981 0 -0.3978108475107649 0.065663713218744924 0 -0.42018336432021219 0.066594989464800358 0 -0.39835701383225569 0.048175149076846981 0 -0.3767825674583356 0.056936657269455522 0 -0.3978108475107649 0.065663713218744924 0 -0.39835701383225569 0.048175149076846981 0 -0.3767825674583356 0.056936657269455522 0 -0.37863350987998812 0.035797582514910387 0 -0.3767825674583356 0.056936657269455522 0 -0.37863350987998812 0.035797582514910387 0 -0.37863350987998812 0.035797582514910387 0 -0.37688104160310898 0.017624964106173799 0 -0.37159774160155429 0.027305265212969821 0 -0.37863350987998812 0.035797582514910387 0 -0.37688104160310898 0.017624964106173799 0 -0.38048445230164052 0.01465850776036517 0 -0.37863350987998812 0.035797582514910387 0 -0.38048445230164052 0.01465850776036517 0 -0.4006569271450014 0.029101629221092499 0 -0.37863350987998812 0.035797582514910387 0 -0.38048445230164052 0.01465850776036517 0 -0.38233539472329148 -0.0064805669941802226 0 -0.38048445230164052 0.01465850776036517 0 -0.37293241351417789 0.0070642894750902749 0 -0.38233539472329148 -0.0064805669941802226 0 -0.38048445230164052 0.01465850776036517 0 -0.37688104160310898 0.017624964106173799 0 -0.38048445230164052 0.01465850776036517 0 -0.37293241351417789 0.0070642894750902749 0 -0.38233539472329148 -0.0064805669941802226 0 -0.38048445230164052 0.01465850776036517 0 -0.40246949919523839 0.0082400476876908005 0 -0.38233539472329148 -0.0064805669941802226 0 -0.40246949919523839 0.0082400476876908005 0 -0.38048445230164052 0.01465850776036517 0 -0.40246949919523839 0.0082400476876908005 0 -0.4006569271450014 0.029101629221092499 0 -0.39103012734040232 0.10096169542520771 0 -0.39980658623765442 0.1011693976195637 0 -0.39582712391627961 0.1179058292095949 0 -0.39103012734040232 0.10096169542520771 0 -0.39980658623765442 0.1011693976195637 0 -0.38687045175237877 0.093247991815406439 0 -0.39980658623765442 0.1011693976195637 0 -0.39582712391627961 0.1179058292095949 0 -0.41131859562731382 0.12328576779461781 0 -0.39980658623765442 0.1011693976195637 0 -0.41131859562731382 0.12328576779461781 0 -0.39582712391627961 0.1179058292095949 0 -0.41131859562731382 0.12328576779461781 0 -0.3950198144529844 0.12920219619802431 0 -0.39582712391627961 0.1179058292095949 0 -0.38936317880585419 0.12181311613409319 0 -0.3950198144529844 0.12920219619802431 0 -0.38316466271376559 0.11205638266858969 0 -0.36981286132130131 0.1365356428047925 0 -0.39582712391627961 0.1179058292095949 0 -0.38459625805884401 0.10693452532773549 0 -0.39582712391627961 0.1179058292095949 0 -0.38316466271376559 0.11205638266858969 0 -0.38459625805884401 0.10693452532773549 0 -0.38316466271376559 0.11205638266858969 0 -0.38936317880585419 0.12181311613409319 0 -0.38344111414038751 0.128088056460164 0 -0.39582712391627961 0.1179058292095949 0 -0.38316466271376559 0.11205638266858969 0 -0.38936317880585419 0.12181311613409319 0 -0.38316466271376559 0.11205638266858969 0 -0.38459625805884401 0.10693452532773549 0 -0.37158912676135991 0.1162494321253334 0 -0.38459625805884401 0.10693452532773549 0 -0.37336539220141057 0.095963221445873742 0 -0.37158912676135991 0.1162494321253334 0 -0.39103012734040232 0.10096169542520771 0 -0.39582712391627961 0.1179058292095949 0 -0.38459625805884401 0.10693452532773549 0 -0.39103012734040232 0.10096169542520771 0 -0.38459625805884401 0.10693452532773549 0 -0.38396555733825938 0.099276858503555887 0 -0.39103012734040232 0.10096169542520771 0 -0.38396555733825938 0.099276858503555887 0 -0.38687045175237877 0.093247991815406439 0 -0.38396555733825938 0.099276858503555887 0 -0.38687045175237877 0.093247991815406439 0 -0.37336539220141057 0.095963221445873742 0 -0.38459625805884401 0.10693452532773549 0 -0.37336539220141057 0.095963221445873742 0 -0.38459625805884401 0.10693452532773549 0 -0.38396555733825938 0.099276858503555887 0 -0.37336539220141057 0.095963221445873742 0 -0.38090110015791512 0.086178545015863653 0 -0.37507397982987423 0.07644993935766467 0 -0.37336539220141057 0.095963221445873742 0 -0.38090110015791512 0.086178545015863653 0 -0.38687045175237877 0.093247991815406439 0 -0.37336539220141057 0.095963221445873742 0 -0.38090110015791512 0.086178545015863653 0 -0.38829457684799501 0.079053027444509594 0 -0.37507397982987423 0.07644993935766467 0 -0.38090110015791512 0.086178545015863653 0 -0.38829457684799501 0.079053027444509594 0 -0.38687045175237877 0.093247991815406439 0 -0.3767825674583356 0.056936657269455522 0 -0.38829457684799501 0.079053027444509594 0 -0.37507397982987423 0.07644993935766467 0 -0.3767825674583356 0.056936657269455522 0 -0.38829457684799501 0.079053027444509594 0 -0.3978108475107649 0.065663713218744924 0 -0.3767825674583356 0.056936657269455522 0 -0.37507397982987423 0.07644993935766467 0 -0.3767825674583356 0.056936657269455522 0 -0.38829457684799501 0.079053027444509594 0 -0.38829457684799501 0.079053027444509594 0 -0.40543671509502632 0.077558742838112191 0 -0.3978108475107649 0.065663713218744924 0 -0.39980658623765442 0.1011693976195637 0 -0.38829457684799501 0.079053027444509594 0 -0.38687045175237877 0.093247991815406439 0 -0.39980658623765442 0.1011693976195637 0 -0.38829457684799501 0.079053027444509594 0 -0.39980658623765442 0.1011693976195637 0 -0.38829457684799501 0.079053027444509594 0 -0.40543671509502632 0.077558742838112191 0 -0.39980658623765442 0.1011693976195637 0 -0.40543671509502632 0.077558742838112191 0 -0.41897324464672497 0.08841215301242028 0 -0.40543671509502632 0.077558742838112191 0 -0.3978108475107649 0.065663713218744924 0 -0.42018336432021219 0.066594989464800358 0 -0.40543671509502632 0.077558742838112191 0 -0.41897324464672497 0.08841215301242028 0 -0.42018336432021219 0.066594989464800358 0 -0.41897324464672497 0.08841215301242028 0 -0.42018336432021219 0.066594989464800358 0 -0.43649015472064689 0.056633228663465943 0 -0.42018336432021219 0.066594989464800358 0 -0.42891561317000287 0.078021478202746325 0 -0.43649015472064689 0.056633228663465943 0 -0.42891561317000287 0.078021478202746325 0 -0.44267059145821402 0.073824171072702255 0 -0.41897324464672497 0.08841215301242028 0 -0.42018336432021219 0.066594989464800358 0 -0.42891561317000287 0.078021478202746325 0 -0.42891561317000287 0.078021478202746325 0 -0.42699459354276381 0.098554969433660142 0 -0.44267059145821402 0.073824171072702255 0 -0.41897324464672497 0.08841215301242028 0 -0.42891561317000287 0.078021478202746325 0 -0.42699459354276381 0.098554969433660142 0 -0.42699459354276381 0.098554969433660142 0 -0.44267059145821402 0.073824171072702255 0 -0.39980658623765442 0.1011693976195637 0 -0.41897324464672497 0.08841215301242028 0 -0.41350785131075413 0.10097761836664861 0 -0.42699459354276381 0.098554969433660142 0 -0.41350785131075413 0.10097761836664861 0 -0.41131859562731382 0.12328576779461781 0 -0.41897324464672497 0.08841215301242028 0 -0.42699459354276381 0.098554969433660142 0 -0.41350785131075413 0.10097761836664861 0 -0.39980658623765442 0.1011693976195637 0 -0.41350785131075413 0.10097761836664861 0 -0.41131859562731382 0.12328576779461781 0 -0.42699459354276381 0.098554969433660142 0 -0.41131859562731382 0.12328576779461781 0 -0.41131859562731382 0.12328576779461781 0 -0.44247843779432988 0.1095302018873829 0 -0.44192001225592692 0.1285010564052502 0 -0.42699459354276381 0.098554969433660142 0 -0.41131859562731382 0.12328576779461781 0 -0.44247843779432988 0.1095302018873829 0 -0.44247843779432988 0.1095302018873829 0 -0.46128000817061909 0.1121198179989838 0 -0.44192001225592692 0.1285010564052502 0 -0.46128000817061909 0.1121198179989838 0 -0.44192001225592692 0.1285010564052502 0 -0.42699459354276381 0.098554969433660142 0 -0.44247843779432988 0.1095302018873829 0 -0.45355047344276139 0.093699775339335434 0 -0.44247843779432988 0.1095302018873829 0 -0.46128000817061909 0.1121198179989838 0 -0.45355047344276139 0.093699775339335434 0 -0.46128000817061909 0.1121198179989838 0 -0.45355047344276139 0.093699775339335434 0 -0.48064000408531149 0.09573857959271731 0 -0.42699459354276381 0.098554969433660142 0 -0.44267059145821402 0.073824171072702255 0 -0.45355047344276139 0.093699775339335434 0 -0.45355047344276139 0.093699775339335434 0 -0.46723920560533022 0.07243091205056626 0 -0.48064000408531149 0.09573857959271731 0 -0.44267059145821402 0.073824171072702255 0 -0.45355047344276139 0.093699775339335434 0 -0.46723920560533022 0.07243091205056626 0 -0.46422370482429481 0.053390298463279279 0 -0.44267059145821402 0.073824171072702255 0 -0.46723920560533022 0.07243091205056626 0 -0.46422370482429481 0.053390298463279279 0 -0.46723920560533022 0.07243091205056626 0 -0.48122062655303022 0.057966151400956817 0 -0.46723920560533022 0.07243091205056626 0 -0.48444054956174643 0.074124494931942425 0 -0.46723920560533022 0.07243091205056626 0 -0.48444054956174643 0.074124494931942425 0 -0.48064000408531149 0.09573857959271731 0 -0.50000000000000266 0.079357341186449548 0 -0.48444054956174643 0.074124494931942425 0 -0.48064000408531149 0.09573857959271731 0 -0.50000000000000266 0.079357341186449548 0 -0.48064000408531149 0.09573857959271731 0 -0.5 0.1044010982252164 0 -0.50000000000000266 0.079357341186449548 0 -0.48064000408531149 0.09573857959271731 0 -0.50000000000000266 0.079357341186449548 0 -0.48444054956174643 0.074124494931942425 0 -0.5 0.06253327329700431 0 -0.48122062655303022 0.057966151400956817 0 -0.48444054956174643 0.074124494931942425 0 -0.5 0.06253327329700431 0 -0.46128000817061909 0.1121198179989838 0 -0.48279509364318468 0.12080028796464599 0 -0.47019617766372063 0.1380611687641714 0 -0.46128000817061909 0.1121198179989838 0 -0.48279509364318468 0.12080028796464599 0 -0.48064000408531149 0.09573857959271731 0 -0.46128000817061909 0.1121198179989838 0 -0.48064000408531149 0.09573857959271731 0 -0.48279509364318468 0.12080028796464599 0 -0.48064000408531149 0.09573857959271731 0 -0.5 0.1044010982252164 0 -0.48279509364318468 0.12080028796464599 0 -0.5 0.1044010982252164 0 -0.5 0.12944485526398319 0 -0.48279509364318468 0.12080028796464599 0 -0.5 0.12944485526398319 0 -0.48604267523529338 0.1400784644714346 0 -0.48279509364318468 0.12080028796464599 0 -0.48604267523529338 0.1400784644714346 0 -0.47019617766372063 0.1380611687641714 0 -0.48604267523529338 0.1400784644714346 0 -0.47019617766372063 0.1380611687641714 0 -0.47722210486956168 0.15759739806162251 0 -0.47019617766372063 0.1380611687641714 0 -0.47722210486956168 0.15759739806162251 0 -0.46117847421650621 0.154008203834019 0 -0.48604267523529338 0.1400784644714346 0 -0.5 0.15448861230274999 0 -0.47722210486956168 0.15759739806162251 0 -0.5 0.12944485526398319 0 -0.48604267523529338 0.1400784644714346 0 -0.5 0.15448861230274999 0 -0.5 0.15448861230274999 0 -0.47722210486956168 0.15759739806162251 0 -0.48351286272778238 0.1715963902124259 0 -0.5 0.15448861230274999 0 -0.5 0.17953236934151681 0 -0.48351286272778238 0.1715963902124259 0 -0.5 0.17953236934151681 0 -0.48351286272778238 0.1715963902124259 0 -0.47458586777458189 0.19367222462949901 0 -0.48351286272778238 0.1715963902124259 0 -0.46575634099476831 0.17269134672674111 0 -0.47458586777458189 0.19367222462949901 0 -0.47722210486956168 0.15759739806162251 0 -0.48351286272778238 0.1715963902124259 0 -0.46575634099476831 0.17269134672674111 0 -0.47722210486956168 0.15759739806162251 0 -0.46575634099476831 0.17269134672674111 0 -0.46117847421650621 0.154008203834019 0 -0.44959872155142039 0.1671316879471024 0 -0.45002570755367238 0.15149505301549279 0 -0.46117847421650621 0.154008203834019 0 -0.46575634099476831 0.17269134672674111 0 -0.44959872155142039 0.1671316879471024 0 -0.46117847421650621 0.154008203834019 0 -0.46575634099476831 0.17269134672674111 0 -0.44917173554916812 0.182768322878712 0 -0.44959872155142039 0.1671316879471024 0 -0.46575634099476831 0.17269134672674111 0 -0.44917173554916812 0.182768322878712 0 -0.47458586777458189 0.19367222462949901 0 -0.44917173554916812 0.182768322878712 0 -0.44959872155142039 0.1671316879471024 0 -0.44917173554916812 0.182768322878712 0 -0.44421641628853431 0.18064224932709699 0 -0.44959872155142039 0.1671316879471024 0 -0.44917173554916812 0.182768322878712 0 -0.44421641628853431 0.18064224932709699 0 -0.44421641628853431 0.18064224932709699 0 -0.44959872155142039 0.1671316879471024 0 -0.44044881958412518 0.17141168269269649 0 -0.43920335118410142 0.17819602675372009 0 -0.44421641628853431 0.18064224932709699 0 -0.44044881958412518 0.17141168269269649 0 -0.43920335118410142 0.17819602675372009 0 -0.44044881958412518 0.17141168269269649 0 -0.43559171438882938 0.17497662636149031 0 -0.44917173554916812 0.182768322878712 0 -0.44421641628853431 0.18064224932709699 0 -0.44050363174608342 0.1877625854641162 0 -0.43964888363658888 0.18266176741168991 0 -0.43714282702898621 0.1850588579192021 0 -0.43616142929847612 0.18096905285605239 0 -0.43920335118410142 0.17819602675372009 0 -0.44421641628853431 0.18064224932709699 0 -0.43964888363658888 0.18266176741168991 0 -0.43920335118410142 0.17819602675372009 0 -0.43964888363658888 0.18266176741168991 0 -0.43616142929847612 0.18096905285605239 0 -0.43964888363658888 0.18266176741168991 0 -0.44050363174608342 0.1877625854641162 0 -0.43714282702898621 0.1850588579192021 0 -0.43752663078338527 0.18879391992782341 0 -0.44050363174608342 0.1877625854641162 0 -0.43714282702898621 0.1850588579192021 0 -0.44421641628853431 0.18064224932709699 0 -0.43964888363658888 0.18266176741168991 0 -0.44050363174608342 0.1877625854641162 0 -0.44959872155142039 0.1671316879471024 0 -0.44091859196536898 0.15956295855373989 0 -0.45002570755367238 0.15149505301549279 0 -0.44959872155142039 0.1671316879471024 0 -0.45002570755367238 0.15149505301549279 0 -0.44044881958412518 0.17141168269269649 0 -0.44091859196536898 0.15956295855373989 0 -0.4328942085784494 0.16779510037891079 0 -0.44959872155142039 0.1671316879471024 0 -0.44044881958412518 0.17141168269269649 0 -0.44091859196536898 0.15956295855373989 0 -0.44091859196536898 0.15956295855373989 0 -0.45002570755367238 0.15149505301549279 0 -0.43900064201726169 0.14641225238890429 0 -0.45002570755367238 0.15149505301549279 0 -0.43900064201726169 0.14641225238890429 0 -0.45393350364628449 0.13843292540113691 0 -0.46128000817061909 0.1121198179989838 0 -0.44192001225592692 0.1285010564052502 0 -0.45393350364628449 0.13843292540113691 0 -0.43900064201726169 0.14641225238890429 0 -0.44192001225592692 0.1285010564052502 0 -0.45393350364628449 0.13843292540113691 0 -0.46128000817061909 0.1121198179989838 0 -0.47019617766372063 0.1380611687641714 0 -0.45393350364628449 0.13843292540113691 0 -0.47019617766372063 0.1380611687641714 0 -0.45393350364628449 0.13843292540113691 0 -0.46117847421650621 0.154008203834019 0 -0.45002570755367238 0.15149505301549279 0 -0.45393350364628449 0.13843292540113691 0 -0.46117847421650621 0.154008203834019 0 -0.47993662372660462 0.23872573632670871 0 -0.5 0.22803608132453049 0 -0.5 0.25149603626877748 0 -0.47993662372660462 0.23872573632670871 0 -0.5 0.22803608132453049 0 -0.48597362379357317 0.21662791820345639 0 -0.47993662372660462 0.23872573632670871 0 -0.48597362379357317 0.21662791820345639 0 -0.46772067323941541 0.22093564349740999 0 -0.48597362379357317 0.21662791820345639 0 -0.47458586777458189 0.19367222462949901 0 -0.46772067323941541 0.22093564349740999 0 -0.5 0.22803608132453049 0 -0.48597362379357317 0.21662791820345639 0 -0.49999999999999661 0.20457612638028361 0 -0.48597362379357317 0.21662791820345639 0 -0.49999999999999661 0.20457612638028361 0 -0.47458586777458189 0.19367222462949901 0 -0.5 0.17953236934151681 0 -0.49999999999999661 0.20457612638028361 0 -0.47458586777458189 0.19367222462949901 0 -0.49999999999999661 0.20457612638028361 0 -0.47458586777458189 0.19367222462949901 0 -0.44917173554916812 0.182768322878712 0 -0.47458586777458189 0.19367222462949901 0 -0.44839735859592827 0.21112674599657971 0 -0.44917173554916812 0.182768322878712 0 -0.47458586777458189 0.19367222462949901 0 -0.44050363174608342 0.1877625854641162 0 -0.44839735859592827 0.21112674599657971 0 -0.4372196780724788 0.1917167107770823 0 -0.44917173554916812 0.182768322878712 0 -0.44050363174608342 0.1877625854641162 0 -0.44839735859592827 0.21112674599657971 0 -0.44917173554916812 0.182768322878712 0 -0.44839735859592827 0.21112674599657971 0 -0.44050363174608342 0.1877625854641162 0 -0.4372196780724788 0.1917167107770823 0 -0.43752663078338527 0.18879391992782341 0 -0.44050363174608342 0.1877625854641162 0 -0.4372196780724788 0.1917167107770823 0 -0.44839735859592827 0.21112674599657971 0 -0.43416486815127148 0.22080448282352519 0 -0.4372196780724788 0.1917167107770823 0 -0.47458586777458189 0.19367222462949901 0 -0.44839735859592827 0.21112674599657971 0 -0.46772067323941541 0.22093564349740999 0 -0.47993662372660462 0.23872573632670871 0 -0.46772067323941541 0.22093564349740999 0 -0.44762298164268821 0.23948516911444739 0 -0.47993662372660462 0.23872573632670871 0 -0.44762298164268821 0.23948516911444739 0 -0.47451806798994201 0.26322601374090121 0 -0.44839735859592827 0.21112674599657971 0 -0.46772067323941541 0.22093564349740999 0 -0.44762298164268821 0.23948516911444739 0 -0.44839735859592827 0.21112674599657971 0 -0.44762298164268821 0.23948516911444739 0 -0.43416486815127148 0.22080448282352519 0 -0.44839735859592827 0.21112674599657971 0 -0.44762298164268821 0.23948516911444739 0 -0.44762298164268821 0.23948516911444739 0 -0.43111005823006537 0.24989225486996819 0 -0.43416486815127148 0.22080448282352519 0 -0.41449150783961669 0.23178483534738811 0 -0.40516101789932918 0.25657686647302069 0 -0.41449150783961669 0.23178483534738811 0 -0.42127337807423859 0.25538243113189962 0 -0.41449150783961669 0.23178483534738811 0 -0.42127337807423859 0.25538243113189962 0 -0.40516101789932918 0.25657686647302069 0 -0.43111005823006537 0.24989225486996819 0 -0.43416486815127148 0.22080448282352519 0 -0.43111005823006537 0.24989225486996819 0 -0.41449150783961669 0.23178483534738811 0 -0.42127337807423859 0.25538243113189962 0 -0.43416486815127148 0.22080448282352519 0 -0.41449150783961669 0.23178483534738811 0 -0.42323307867727789 0.2085576203049605 0 -0.43111005823006537 0.24989225486996819 0 -0.43416486815127148 0.22080448282352519 0 -0.41449150783961669 0.23178483534738811 0 -0.41449150783961669 0.23178483534738811 0 -0.411779545069277 0.2223485295757994 0 -0.42323307867727789 0.2085576203049605 0 -0.41449150783961669 0.23178483534738811 0 -0.42323307867727789 0.2085576203049605 0 -0.41449150783961669 0.23178483534738811 0 -0.411779545069277 0.2223485295757994 0 -0.39394669757350109 0.24382060887220011 0 -0.41449150783961669 0.23178483534738811 0 -0.411779545069277 0.2223485295757994 0 -0.411779545069277 0.2223485295757994 0 -0.42323307867727789 0.2085576203049605 0 -0.40562059566259118 0.2009183940043042 0 -0.411779545069277 0.2223485295757994 0 -0.40562059566259118 0.2009183940043042 0 -0.411779545069277 0.2223485295757994 0 -0.42323307867727789 0.2085576203049605 0 -0.43416486815127148 0.22080448282352519 0 -0.4372196780724788 0.1917167107770823 0 -0.43416486815127148 0.22080448282352519 0 -0.42323307867727789 0.2085576203049605 0 -0.4372196780724788 0.1917167107770823 0 -0.42323307867727789 0.2085576203049605 0 -0.4372196780724788 0.1917167107770823 0 -0.42635617302409867 0.194223951352094 0 -0.42323307867727789 0.2085576203049605 0 -0.4372196780724788 0.1917167107770823 0 -0.42323307867727789 0.2085576203049605 0 -0.42635617302409867 0.194223951352094 0 -0.4166065925566268 0.19908117032758671 0 -0.4372196780724788 0.1917167107770823 0 -0.42635617302409867 0.194223951352094 0 -0.43229589057517748 0.1862945300621548 0 -0.43752663078338527 0.18879391992782341 0 -0.4372196780724788 0.1917167107770823 0 -0.43229589057517748 0.1862945300621548 0 -0.43752663078338527 0.18879391992782341 0 -0.4372196780724788 0.1917167107770823 0 -0.42635617302409867 0.194223951352094 0 -0.43229589057517748 0.1862945300621548 0 -0.42244345738572647 0.18687153280430699 0 -0.42635617302409867 0.194223951352094 0 -0.4166065925566268 0.19908117032758671 0 -0.42244345738572647 0.18687153280430699 0 -0.42323307867727789 0.2085576203049605 0 -0.4166065925566268 0.19908117032758671 0 -0.40562059566259118 0.2009183940043042 0 -0.4166065925566268 0.19908117032758671 0 -0.40562059566259118 0.2009183940043042 0 -0.40954823910814447 0.18506874507416241 0 -0.4166065925566268 0.19908117032758671 0 -0.42244345738572647 0.18687153280430699 0 -0.40954823910814447 0.18506874507416241 0 -0.40562059566259118 0.2009183940043042 0 -0.40954823910814447 0.18506874507416241 0 -0.39102612134795067 0.18661935449828099 0 -0.40562059566259118 0.2009183940043042 0 -0.38506034502119069 0.20301610738122439 0 -0.39102612134795067 0.18661935449828099 0 -0.38506034502119069 0.20301610738122439 0 -0.39102612134795067 0.18661935449828099 0 -0.36552010806709312 0.18556192848613429 0 -0.38506034502119069 0.20301610738122439 0 -0.38670174456980372 0.21966233083923811 0 -0.36337373143998608 0.21007507132680489 0 -0.38506034502119069 0.20301610738122439 0 -0.3981197690397193 0.2152595651325839 0 -0.38670174456980372 0.21966233083923811 0 -0.411779545069277 0.2223485295757994 0 -0.40562059566259118 0.2009183940043042 0 -0.3981197690397193 0.2152595651325839 0 -0.40562059566259118 0.2009183940043042 0 -0.38506034502119069 0.20301610738122439 0 -0.3981197690397193 0.2152595651325839 0 -0.411779545069277 0.2223485295757994 0 -0.39394669757350109 0.24382060887220011 0 -0.411779545069277 0.2223485295757994 0 -0.39470913989012851 0.22700592405250461 0 -0.39394669757350109 0.24382060887220011 0 -0.411779545069277 0.2223485295757994 0 -0.3981197690397193 0.2152595651325839 0 -0.39470913989012851 0.22700592405250461 0 -0.3981197690397193 0.2152595651325839 0 -0.39470913989012851 0.22700592405250461 0 -0.38670174456980372 0.21966233083923811 0 -0.39470913989012851 0.22700592405250461 0 -0.38670174456980372 0.21966233083923811 0 -0.3814742957151267 0.23294076884828391 0 -0.38670174456980372 0.21966233083923811 0 -0.3814742957151267 0.23294076884828391 0 -0.37178884445503979 0.22341194030271799 0 -0.39470913989012851 0.22700592405250461 0 -0.3814742957151267 0.23294076884828391 0 -0.39394669757350109 0.24382060887220011 0 -0.3814742957151267 0.23294076884828391 0 -0.37681523902969338 0.2467608340689659 0 -0.39394669757350109 0.24382060887220011 0 -0.41449150783961669 0.23178483534738811 0 -0.39394669757350109 0.24382060887220011 0 -0.40516101789932918 0.25657686647302069 0 -0.41590092260170231 0.14284063790722051 0 -0.41467039575103398 0.1500371762055403 0 -0.42256001634123319 0.14488229481151479 0 -0.41467039575103398 0.1500371762055403 0 -0.42068818570174599 0.1517799267685073 0 -0.41524073712425991 0.16000258553599539 0 -0.41467039575103398 0.1500371762055403 0 -0.42068818570174599 0.1517799267685073 0 -0.42256001634123319 0.14488229481151479 0 -0.41467039575103398 0.1500371762055403 0 -0.41524073712425991 0.16000258553599539 0 -0.40353914639416899 0.15208429384309691 0 -0.41590092260170231 0.14284063790722051 0 -0.41467039575103398 0.1500371762055403 0 -0.40857560433094781 0.14118732076691759 0 -0.41467039575103398 0.1500371762055403 0 -0.40857560433094781 0.14118732076691759 0 -0.40353914639416899 0.15208429384309691 0 -0.41131859562731382 0.12328576779461781 0 -0.40857560433094781 0.14118732076691759 0 -0.40452956594258321 0.13399629002772881 0 -0.41131859562731382 0.12328576779461781 0 -0.41590092260170231 0.14284063790722051 0 -0.40857560433094781 0.14118732076691759 0 -0.41131859562731382 0.12328576779461781 0 -0.42256001634123319 0.14488229481151479 0 -0.41131859562731382 0.12328576779461781 0 -0.41590092260170231 0.14284063790722051 0 -0.42256001634123319 0.14488229481151479 0 -0.41131859562731382 0.12328576779461781 0 -0.40452956594258321 0.13399629002772881 0 -0.44192001225592692 0.1285010564052502 0 -0.42256001634123319 0.14488229481151479 0 -0.41131859562731382 0.12328576779461781 0 -0.44192001225592692 0.1285010564052502 0 -0.42256001634123319 0.14488229481151479 0 -0.43900064201726169 0.14641225238890429 0 -0.44192001225592692 0.1285010564052502 0 -0.42256001634123319 0.14488229481151479 0 -0.43900064201726169 0.14641225238890429 0 -0.42256001634123319 0.14488229481151479 0 -0.42948471513832692 0.15818572401865691 0 -0.42068818570174599 0.1517799267685073 0 -0.42256001634123319 0.14488229481151479 0 -0.42948471513832692 0.15818572401865691 0 -0.42256001634123319 0.14488229481151479 0 -0.42948471513832692 0.15818572401865691 0 -0.44091859196536898 0.15956295855373989 0 -0.43900064201726169 0.14641225238890429 0 -0.42948471513832692 0.15818572401865691 0 -0.44091859196536898 0.15956295855373989 0 -0.4328942085784494 0.16779510037891079 0 -0.42948471513832692 0.15818572401865691 0 -0.44044881958412518 0.17141168269269649 0 -0.4328942085784494 0.16779510037891079 0 -0.43559171438882938 0.17497662636149031 0 -0.4328942085784494 0.16779510037891079 0 -0.42346371439967723 0.168004284044277 0 -0.42948471513832692 0.15818572401865691 0 -0.4328942085784494 0.16779510037891079 0 -0.42346371439967723 0.168004284044277 0 -0.42925076329899509 0.17651126912607171 0 -0.42346371439967723 0.168004284044277 0 -0.42948471513832692 0.15818572401865691 0 -0.41524073712425991 0.16000258553599539 0 -0.43229589057517748 0.1862945300621548 0 -0.43616142929847612 0.18096905285605239 0 -0.42925076329899509 0.17651126912607171 0 -0.43229589057517748 0.1862945300621548 0 -0.43714282702898621 0.1850588579192021 0 -0.43616142929847612 0.18096905285605239 0 -0.43752663078338527 0.18879391992782341 0 -0.43229589057517748 0.1862945300621548 0 -0.43714282702898621 0.1850588579192021 0 -0.4328942085784494 0.16779510037891079 0 -0.43559171438882938 0.17497662636149031 0 -0.42925076329899509 0.17651126912607171 0 -0.43920335118410142 0.17819602675372009 0 -0.43616142929847612 0.18096905285605239 0 -0.43559171438882938 0.17497662636149031 0 -0.43616142929847612 0.18096905285605239 0 -0.43559171438882938 0.17497662636149031 0 -0.42925076329899509 0.17651126912607171 0 -0.42346371439967723 0.168004284044277 0 -0.42925076329899509 0.17651126912607171 0 -0.42016428207785572 0.17826634611534231 0 -0.42925076329899509 0.17651126912607171 0 -0.42244345738572647 0.18687153280430699 0 -0.42016428207785572 0.17826634611534231 0 -0.43229589057517748 0.1862945300621548 0 -0.42925076329899509 0.17651126912607171 0 -0.42244345738572647 0.18687153280430699 0 -0.40954823910814447 0.18506874507416241 0 -0.41361810673140642 0.17185107207761621 0 -0.39901361529928969 0.16907473057497049 0 -0.42244345738572647 0.18687153280430699 0 -0.42016428207785572 0.17826634611534231 0 -0.40954823910814447 0.18506874507416241 0 -0.42346371439967723 0.168004284044277 0 -0.42016428207785572 0.17826634611534231 0 -0.41361810673140642 0.17185107207761621 0 -0.42016428207785572 0.17826634611534231 0 -0.40954823910814447 0.18506874507416241 0 -0.41361810673140642 0.17185107207761621 0 -0.41524073712425991 0.16000258553599539 0 -0.41361810673140642 0.17185107207761621 0 -0.39901361529928969 0.16907473057497049 0 -0.42068818570174599 0.1517799267685073 0 -0.42948471513832692 0.15818572401865691 0 -0.41524073712425991 0.16000258553599539 0 -0.42346371439967723 0.168004284044277 0 -0.41524073712425991 0.16000258553599539 0 -0.41361810673140642 0.17185107207761621 0 -0.41524073712425991 0.16000258553599539 0 -0.39901361529928969 0.16907473057497049 0 -0.40353914639416899 0.15208429384309691 0 -0.39901361529928969 0.16907473057497049 0 -0.38482012880806687 0.15928097787663259 0 -0.40353914639416899 0.15208429384309691 0 -0.40954823910814447 0.18506874507416241 0 -0.39901361529928969 0.16907473057497049 0 -0.39102612134795067 0.18661935449828099 0 -0.39102612134795067 0.18661935449828099 0 -0.37919018726606651 0.17411559992979431 0 -0.36552010806709312 0.18556192848613429 0 -0.39901361529928969 0.16907473057497049 0 -0.39102612134795067 0.18661935449828099 0 -0.37919018726606651 0.17411559992979431 0 -0.37919018726606651 0.17411559992979431 0 -0.38482012880806687 0.15928097787663259 0 -0.36766648469420021 0.1610487856454636 0 -0.39901361529928969 0.16907473057497049 0 -0.37919018726606651 0.17411559992979431 0 -0.38482012880806687 0.15928097787663259 0 -0.38482012880806687 0.15928097787663259 0 -0.37932955826446868 0.1456256995963873 0 -0.39090720235838178 0.14317503519488339 0 -0.38482012880806687 0.15928097787663259 0 -0.37932955826446868 0.1456256995963873 0 -0.36766648469420021 0.1610487856454636 0 -0.38482012880806687 0.15928097787663259 0 -0.39090720235838178 0.14317503519488339 0 -0.40353914639416899 0.15208429384309691 0 -0.40857560433094781 0.14118732076691759 0 -0.40107787866518307 0.14219015268594201 0 -0.40353914639416899 0.15208429384309691 0 -0.39090720235838178 0.14317503519488339 0 -0.40107787866518307 0.14219015268594201 0 -0.40353914639416899 0.15208429384309691 0 -0.41131859562731382 0.12328576779461781 0 -0.40452956594258321 0.13399629002772881 0 -0.3950198144529844 0.12920219619802431 0 -0.40857560433094781 0.14118732076691759 0 -0.40107787866518307 0.14219015268594201 0 -0.40452956594258321 0.13399629002772881 0 -0.40107787866518307 0.14219015268594201 0 -0.40452956594258321 0.13399629002772881 0 -0.3950198144529844 0.12920219619802431 0 -0.39090720235838178 0.14317503519488339 0 -0.40107787866518307 0.14219015268594201 0 -0.3950198144529844 0.12920219619802431 0 -0.37932955826446868 0.1456256995963873 0 -0.38344111414038751 0.128088056460164 0 -0.36981286132130131 0.1365356428047925 0 -0.38316466271376559 0.11205638266858969 0 -0.38344111414038751 0.128088056460164 0 -0.36981286132130131 0.1365356428047925 0 -0.38936317880585419 0.12181311613409319 0 -0.3950198144529844 0.12920219619802431 0 -0.38344111414038751 0.128088056460164 0 -0.37932955826446868 0.1456256995963873 0 -0.39090720235838178 0.14317503519488339 0 -0.38344111414038751 0.128088056460164 0 -0.39090720235838178 0.14317503519488339 0 -0.3950198144529844 0.12920219619802431 0 -0.38344111414038751 0.128088056460164 0 -0.36981286132130131 0.1365356428047925 0 -0.37158912676135991 0.1162494321253334 0 -0.35624543278902698 0.1246179120644431 0 -0.36981286132130131 0.1365356428047925 0 -0.37158912676135991 0.1162494321253334 0 -0.34580233259674747 0.14208825583931489 0 -0.35624543278902698 0.1246179120644431 0 -0.33974952812225329 0.1226975489845159 0 -0.36981286132130131 0.1365356428047925 0 -0.34580233259674747 0.14208825583931489 0 -0.35624543278902698 0.1246179120644431 0 -0.36981286132130131 0.1365356428047925 0 -0.34580233259674747 0.14208825583931489 0 -0.35740530264887233 0.15928372356703829 0 -0.34580233259674747 0.14208825583931489 0 -0.35740530264887233 0.15928372356703829 0 -0.34023666363690203 0.16117843010542299 0 -0.36981286132130131 0.1365356428047925 0 -0.36766648469420021 0.1610487856454636 0 -0.35740530264887233 0.15928372356703829 0 -0.36981286132130131 0.1365356428047925 0 -0.35740530264887233 0.15928372356703829 0 -0.37932955826446868 0.1456256995963873 0 -0.36981286132130131 0.1365356428047925 0 -0.36766648469420021 0.1610487856454636 0 -0.36981286132130131 0.1365356428047925 0 -0.36766648469420021 0.1610487856454636 0 -0.36766648469420021 0.1610487856454636 0 -0.35632802460037888 0.17570101640931621 0 -0.35740530264887233 0.15928372356703829 0 -0.37919018726606651 0.17411559992979431 0 -0.36766648469420021 0.1610487856454636 0 -0.36552010806709312 0.18556192848613429 0 -0.36766648469420021 0.1610487856454636 0 -0.36552010806709312 0.18556192848613429 0 -0.35632802460037888 0.17570101640931621 0 -0.36766648469420021 0.1610487856454636 0 -0.36552010806709312 0.18556192848613429 0 -0.35632802460037888 0.17570101640931621 0 -0.34499774397644839 0.18203180432928701 0 -0.35740530264887233 0.15928372356703829 0 -0.36552010806709312 0.18556192848613429 0 -0.35454900862539729 0.185239985658079 0 -0.35632802460037888 0.17570101640931621 0 -0.35454900862539729 0.185239985658079 0 -0.35632802460037888 0.17570101640931621 0 -0.34499774397644839 0.18203180432928701 0 -0.34499774397644839 0.18203180432928701 0 -0.34727826824847569 0.19013869868501859 0 -0.34098004688355987 0.18939787047978829 0 -0.35454900862539729 0.185239985658079 0 -0.34499774397644839 0.18203180432928701 0 -0.34727826824847569 0.19013869868501859 0 -0.34499774397644839 0.18203180432928701 0 -0.35740530264887233 0.15928372356703829 0 -0.34499774397644839 0.18203180432928701 0 -0.35740530264887233 0.15928372356703829 0 -0.34023666363690203 0.16117843010542299 0 -0.34499774397644839 0.18203180432928701 0 -0.34023666363690203 0.16117843010542299 0 -0.32664256249564932 0.1693616124939081 0 -0.34023666363690203 0.16117843010542299 0 -0.32664256249564932 0.1693616124939081 0 -0.32633537646679162 0.1531267542975665 0 -0.34499774397644839 0.18203180432928701 0 -0.33393738788578781 0.18400998556694351 0 -0.32664256249564932 0.1693616124939081 0 -0.33393738788578781 0.18400998556694351 0 -0.32409164738369062 0.18664122878144609 0 -0.32664256249564932 0.1693616124939081 0 -0.34499774397644839 0.18203180432928701 0 -0.32664256249564932 0.1693616124939081 0 -0.34499774397644839 0.18203180432928701 0 -0.33393738788578781 0.18400998556694351 0 -0.34098004688355987 0.18939787047978829 0 -0.34499774397644839 0.18203180432928701 0 -0.34098004688355987 0.18939787047978829 0 -0.32664256249564932 0.1693616124939081 0 -0.30445932994677272 0.1704116507041907 0 -0.30995217817374399 0.1833459098967346 0 -0.32409164738369062 0.18664122878144609 0 -0.32664256249564932 0.1693616124939081 0 -0.30995217817374399 0.1833459098967346 0 -0.32664256249564932 0.1693616124939081 0 -0.30828738101485009 0.1566914206585292 0 -0.32664256249564932 0.1693616124939081 0 -0.30828738101485009 0.1566914206585292 0 -0.30445932994677272 0.1704116507041907 0 -0.32664256249564932 0.1693616124939081 0 -0.32633537646679162 0.1531267542975665 0 -0.30828738101485009 0.1566914206585292 0 -0.32633537646679162 0.1531267542975665 0 -0.30828738101485009 0.1566914206585292 0 -0.32633537646679162 0.1531267542975665 0 -0.31265804899462329 0.1335309411573897 0 -0.30828738101485009 0.1566914206585292 0 -0.32633537646679162 0.1531267542975665 0 -0.31265804899462329 0.1335309411573897 0 -0.32976347551344021 0.13450620195519941 0 -0.31265804899462329 0.1335309411573897 0 -0.32976347551344021 0.13450620195519941 0 -0.32506615603551459 0.1211059287090778 0 -0.34580233259674747 0.14208825583931489 0 -0.32976347551344021 0.13450620195519941 0 -0.33974952812225329 0.1226975489845159 0 -0.32976347551344021 0.13450620195519941 0 -0.33974952812225329 0.1226975489845159 0 -0.32506615603551459 0.1211059287090778 0 -0.34580233259674747 0.14208825583931489 0 -0.34023666363690203 0.16117843010542299 0 -0.32633537646679162 0.1531267542975665 0 -0.34580233259674747 0.14208825583931489 0 -0.32633537646679162 0.1531267542975665 0 -0.32976347551344021 0.13450620195519941 0 -0.34805031185967189 0.24248250917218181 0 -0.33794474823729193 0.2462943468213025 0 -0.35908097818577422 0.2591013570081464 0 -0.34805031185967189 0.24248250917218181 0 -0.3612273548128791 0.23458821416747561 0 -0.35908097818577422 0.2591013570081464 0 -0.34805031185967189 0.24248250917218181 0 -0.34764946497557359 0.23283323941427819 0 -0.34221103321679153 0.2385079899849393 0 -0.34805031185967189 0.24248250917218181 0 -0.3612273548128791 0.23458821416747561 0 -0.34764946497557359 0.23283323941427819 0 -0.37681523902969338 0.2467608340689659 0 -0.3612273548128791 0.23458821416747561 0 -0.36830935552651811 0.25143577335329698 0 -0.3814742957151267 0.23294076884828391 0 -0.37681523902969338 0.2467608340689659 0 -0.3612273548128791 0.23458821416747561 0 -0.3612273548128791 0.23458821416747561 0 -0.35908097818577422 0.2591013570081464 0 -0.36830935552651811 0.25143577335329698 0 -0.3612273548128791 0.23458821416747561 0 -0.35908097818577422 0.2591013570081464 0 -0.3612273548128791 0.23458821416747561 0 -0.37178884445503979 0.22341194030271799 0 -0.36337373143998608 0.21007507132680489 0 -0.3612273548128791 0.23458821416747561 0 -0.36337373143998608 0.21007507132680489 0 -0.3814742957151267 0.23294076884828391 0 -0.3612273548128791 0.23458821416747561 0 -0.37178884445503979 0.22341194030271799 0 -0.3612273548128791 0.23458821416747561 0 -0.35141444431575902 0.22306473820722361 0 -0.36337373143998608 0.21007507132680489 0 -0.3612273548128791 0.23458821416747561 0 -0.34764946497557359 0.23283323941427819 0 -0.35141444431575902 0.22306473820722361 0 -0.34764946497557359 0.23283323941427819 0 -0.35141444431575902 0.22306473820722361 0 -0.34102276926112213 0.22489529070786601 0 -0.35141444431575902 0.22306473820722361 0 -0.34607628053686801 0.21460203565195371 0 -0.34102276926112213 0.22489529070786601 0 -0.35141444431575902 0.22306473820722361 0 -0.34607628053686801 0.21460203565195371 0 -0.36337373143998608 0.21007507132680489 0 -0.34727991033162731 0.20530378236896829 0 -0.36337373143998608 0.21007507132680489 0 -0.35299810048411262 0.1955574155522416 0 -0.34607628053686801 0.21460203565195371 0 -0.34727991033162731 0.20530378236896829 0 -0.36337373143998608 0.21007507132680489 0 -0.38670174456980372 0.21966233083923811 0 -0.37178884445503979 0.22341194030271799 0 -0.36337373143998608 0.21007507132680489 0 -0.38506034502119069 0.20301610738122439 0 -0.36552010806709312 0.18556192848613429 0 -0.36337373143998608 0.21007507132680489 0 -0.36552010806709312 0.18556192848613429 0 -0.36337373143998608 0.21007507132680489 0 -0.36552010806709312 0.18556192848613429 0 -0.36337373143998608 0.21007507132680489 0 -0.35299810048411262 0.1955574155522416 0 -0.36552010806709312 0.18556192848613429 0 -0.35454900862539729 0.185239985658079 0 -0.35299810048411262 0.1955574155522416 0 -0.35454900862539729 0.185239985658079 0 -0.35299810048411262 0.1955574155522416 0 -0.34727826824847569 0.19013869868501859 0 -0.34727991033162731 0.20530378236896829 0 -0.35299810048411262 0.1955574155522416 0 -0.34153593217659961 0.1975479952421258 0 -0.35299810048411262 0.1955574155522416 0 -0.34727826824847569 0.19013869868501859 0 -0.34153593217659961 0.1975479952421258 0 -0.34098004688355987 0.18939787047978829 0 -0.34153593217659961 0.1975479952421258 0 -0.33297493868959022 0.19261741175028779 0 -0.34727826824847569 0.19013869868501859 0 -0.34098004688355987 0.18939787047978829 0 -0.34153593217659961 0.1975479952421258 0 -0.33393738788578781 0.18400998556694351 0 -0.34098004688355987 0.18939787047978829 0 -0.33297493868959022 0.19261741175028779 0 -0.34153593217659961 0.1975479952421258 0 -0.33135688024324478 0.20154783922908609 0 -0.33781900714914742 0.2078462307375302 0 -0.34153593217659961 0.1975479952421258 0 -0.33135688024324478 0.20154783922908609 0 -0.33297493868959022 0.19261741175028779 0 -0.33135688024324478 0.20154783922908609 0 -0.33297493868959022 0.19261741175028779 0 -0.32562076130593087 0.19579907721391751 0 -0.33393738788578781 0.18400998556694351 0 -0.32409164738369062 0.18664122878144609 0 -0.33297493868959022 0.19261741175028779 0 -0.32409164738369062 0.18664122878144609 0 -0.3158441129583357 0.19609071224125529 0 -0.32562076130593087 0.19579907721391751 0 -0.32409164738369062 0.18664122878144609 0 -0.33297493868959022 0.19261741175028779 0 -0.32562076130593087 0.19579907721391751 0 -0.32409164738369062 0.18664122878144609 0 -0.3158441129583357 0.19609071224125529 0 -0.30995217817374399 0.1833459098967346 0 -0.33135688024324478 0.20154783922908609 0 -0.32562076130593087 0.19579907721391751 0 -0.32284366557461458 0.2030691807055732 0 -0.3158441129583357 0.19609071224125529 0 -0.32562076130593087 0.19579907721391751 0 -0.32284366557461458 0.2030691807055732 0 -0.33135688024324478 0.20154783922908609 0 -0.32284366557461458 0.2030691807055732 0 -0.32974235247203471 0.20971933264668041 0 -0.32284366557461458 0.2030691807055732 0 -0.32309307152136058 0.2117085688005903 0 -0.32974235247203471 0.20971933264668041 0 -0.32284366557461458 0.2030691807055732 0 -0.32309307152136058 0.2117085688005903 0 -0.31146680227267282 0.21051333787707549 0 -0.3158441129583357 0.19609071224125529 0 -0.32284366557461458 0.2030691807055732 0 -0.31146680227267282 0.21051333787707549 0 -0.31969273554359678 0.21814188674397739 0 -0.32309307152136058 0.2117085688005903 0 -0.31146680227267282 0.21051333787707549 0 -0.31969273554359678 0.21814188674397739 0 -0.31399116159765178 0.2242394991592663 0 -0.31146680227267282 0.21051333787707549 0 -0.31969273554359678 0.21814188674397739 0 -0.32309307152136058 0.2117085688005903 0 -0.32779366962027479 0.21771707584397321 0 -0.32309307152136058 0.2117085688005903 0 -0.32779366962027479 0.21771707584397321 0 -0.32974235247203471 0.20971933264668041 0 -0.32779366962027479 0.21771707584397321 0 -0.33554782072356631 0.2164271005633292 0 -0.32974235247203471 0.20971933264668041 0 -0.33554782072356631 0.2164271005633292 0 -0.32974235247203471 0.20971933264668041 0 -0.33781900714914742 0.2078462307375302 0 -0.33135688024324478 0.20154783922908609 0 -0.32974235247203471 0.20971933264668041 0 -0.33781900714914742 0.2078462307375302 0 -0.34607628053686801 0.21460203565195371 0 -0.34727991033162731 0.20530378236896829 0 -0.33781900714914742 0.2078462307375302 0 -0.34727991033162731 0.20530378236896829 0 -0.34153593217659961 0.1975479952421258 0 -0.33781900714914742 0.2078462307375302 0 -0.34607628053686801 0.21460203565195371 0 -0.33554782072356631 0.2164271005633292 0 -0.34102276926112213 0.22489529070786601 0 -0.34607628053686801 0.21460203565195371 0 -0.33554782072356631 0.2164271005633292 0 -0.33781900714914742 0.2078462307375302 0 -0.33554782072356631 0.2164271005633292 0 -0.34102276926112213 0.22489529070786601 0 -0.33260315228546189 0.22356054498719019 0 -0.34102276926112213 0.22489529070786601 0 -0.33549124767505062 0.23033144909356271 0 -0.33260315228546189 0.22356054498719019 0 -0.34764946497557359 0.23283323941427819 0 -0.34102276926112213 0.22489529070786601 0 -0.34065898509287063 0.2335008221618228 0 -0.34102276926112213 0.22489529070786601 0 -0.34065898509287063 0.2335008221618228 0 -0.33549124767505062 0.23033144909356271 0 -0.34065898509287063 0.2335008221618228 0 -0.33549124767505062 0.23033144909356271 0 -0.33652024277756748 0.23657383169933541 0 -0.33549124767505062 0.23033144909356271 0 -0.32884294156018778 0.2300653484284946 0 -0.33260315228546189 0.22356054498719019 0 -0.33549124767505062 0.23033144909356271 0 -0.33257807015149399 0.23409763316890411 0 -0.33652024277756748 0.23657383169933541 0 -0.33549124767505062 0.23033144909356271 0 -0.33257807015149399 0.23409763316890411 0 -0.32884294156018778 0.2300653484284946 0 -0.33257807015149399 0.23409763316890411 0 -0.32884294156018778 0.2300653484284946 0 -0.32569176798966343 0.23644239556402641 0 -0.32884294156018778 0.2300653484284946 0 -0.33260315228546189 0.22356054498719019 0 -0.32427538827444891 0.2241086856597799 0 -0.32779366962027479 0.21771707584397321 0 -0.33260315228546189 0.22356054498719019 0 -0.32427538827444891 0.2241086856597799 0 -0.32779366962027479 0.21771707584397321 0 -0.33554782072356631 0.2164271005633292 0 -0.33260315228546189 0.22356054498719019 0 -0.31969273554359678 0.21814188674397739 0 -0.32779366962027479 0.21771707584397321 0 -0.32427538827444891 0.2241086856597799 0 -0.31969273554359678 0.21814188674397739 0 -0.32427538827444891 0.2241086856597799 0 -0.31399116159765178 0.2242394991592663 0 -0.32427538827444891 0.2241086856597799 0 -0.31399116159765178 0.2242394991592663 0 -0.32179559908096572 0.23008328318664331 0 -0.31399116159765178 0.2242394991592663 0 -0.32179559908096572 0.23008328318664331 0 -0.31617673598287649 0.23556048712164909 0 -0.32179559908096572 0.23008328318664331 0 -0.32569176798966343 0.23644239556402641 0 -0.31617673598287649 0.23556048712164909 0 -0.32884294156018778 0.2300653484284946 0 -0.32427538827444891 0.2241086856597799 0 -0.32179559908096572 0.23008328318664331 0 -0.32884294156018778 0.2300653484284946 0 -0.32179559908096572 0.23008328318664331 0 -0.32569176798966343 0.23644239556402641 0 -0.32569176798966343 0.23644239556402641 0 -0.31993371780797092 0.24194747632618219 0 -0.31617673598287649 0.23556048712164909 0 -0.32569176798966343 0.23644239556402641 0 -0.31993371780797092 0.24194747632618219 0 -0.32714903080060409 0.2445555323191671 0 -0.31993371780797092 0.24194747632618219 0 -0.31617673598287649 0.23556048712164909 0 -0.30806477178239122 0.2443534105402905 0 -0.31993371780797092 0.24194747632618219 0 -0.30806477178239122 0.2443534105402905 0 -0.32082041548708717 0.25046015867422061 0 -0.31993371780797092 0.24194747632618219 0 -0.32714903080060409 0.2445555323191671 0 -0.32082041548708717 0.25046015867422061 0 -0.32714903080060409 0.2445555323191671 0 -0.33794474823729193 0.2462943468213025 0 -0.32082041548708717 0.25046015867422061 0 -0.32714903080060409 0.2445555323191671 0 -0.33418067921754202 0.24401359616721591 0 -0.33794474823729193 0.2462943468213025 0 -0.32714903080060409 0.2445555323191671 0 -0.33418067921754202 0.24401359616721591 0 -0.33189285830438731 0.23933692380093519 0 -0.32569176798966343 0.23644239556402641 0 -0.32714903080060409 0.2445555323191671 0 -0.33189285830438731 0.23933692380093519 0 -0.33257807015149399 0.23409763316890411 0 -0.32569176798966343 0.23644239556402641 0 -0.33189285830438731 0.23933692380093519 0 -0.33257807015149399 0.23409763316890411 0 -0.33189285830438731 0.23933692380093519 0 -0.33652024277756748 0.23657383169933541 0 -0.33189285830438731 0.23933692380093519 0 -0.33699881885759331 0.2412777967071307 0 -0.33652024277756748 0.23657383169933541 0 -0.33418067921754202 0.24401359616721591 0 -0.33189285830438731 0.23933692380093519 0 -0.33699881885759331 0.2412777967071307 0 -0.33699881885759331 0.2412777967071307 0 -0.34221103321679153 0.2385079899849393 0 -0.34018829172972048 0.2435699076369495 0 -0.33699881885759331 0.2412777967071307 0 -0.33652024277756748 0.23657383169933541 0 -0.34221103321679153 0.2385079899849393 0 -0.34805031185967189 0.24248250917218181 0 -0.34221103321679153 0.2385079899849393 0 -0.34018829172972048 0.2435699076369495 0 -0.34065898509287063 0.2335008221618228 0 -0.33652024277756748 0.23657383169933541 0 -0.34221103321679153 0.2385079899849393 0 -0.34764946497557359 0.23283323941427819 0 -0.34065898509287063 0.2335008221618228 0 -0.34221103321679153 0.2385079899849393 0 -0.34805031185967189 0.24248250917218181 0 -0.34018829172972048 0.2435699076369495 0 -0.33794474823729193 0.2462943468213025 0 -0.33418067921754202 0.24401359616721591 0 -0.33699881885759331 0.2412777967071307 0 -0.33794474823729193 0.2462943468213025 0 -0.33699881885759331 0.2412777967071307 0 -0.34018829172972048 0.2435699076369495 0 -0.33794474823729193 0.2462943468213025 0 -0.33418067921754202 0.24401359616721591 0 -0.33794474823729193 0.2462943468213025 0 -0.34018829172972048 0.2435699076369495 0 -0.33794474823729193 0.2462943468213025 0 -0.29240119724970248 0.2340162237067446 0 -0.29273814627298023 0.25310047739325697 0 -0.29240119724970248 0.2340162237067446 0 -0.2780346769370437 0.2336175214183823 0 -0.27739300119014232 0.2498976087937482 0 -0.29240119724970248 0.2340162237067446 0 -0.27739300119014232 0.2498976087937482 0 -0.29240119724970248 0.2340162237067446 0 -0.27739300119014232 0.2498976087937482 0 -0.29273814627298023 0.25310047739325697 0 -0.30806477178239122 0.2443534105402905 0 -0.30673882452670043 0.2321813265546544 0 -0.29240119724970248 0.2340162237067446 0 -0.30806477178239122 0.2443534105402905 0 -0.29240119724970248 0.2340162237067446 0 -0.29273814627298023 0.25310047739325697 0 -0.31617673598287649 0.23556048712164909 0 -0.30806477178239122 0.2443534105402905 0 -0.30673882452670043 0.2321813265546544 0 -0.30306025602087988 0.2227370122453215 0 -0.29240119724970248 0.2340162237067446 0 -0.30673882452670043 0.2321813265546544 0 -0.30306025602087988 0.2227370122453215 0 -0.29240119724970248 0.2340162237067446 0 -0.31399116159765178 0.2242394991592663 0 -0.31617673598287649 0.23556048712164909 0 -0.30673882452670043 0.2321813265546544 0 -0.31399116159765178 0.2242394991592663 0 -0.30306025602087988 0.2227370122453215 0 -0.31146680227267282 0.21051333787707549 0 -0.31399116159765178 0.2242394991592663 0 -0.30673882452670043 0.2321813265546544 0 -0.30306025602087988 0.2227370122453215 0 -0.30306025602087988 0.2227370122453215 0 -0.29240119724970248 0.2340162237067446 0 -0.29196610192620198 0.20937312057234081 0 -0.29240119724970248 0.2340162237067446 0 -0.29196610192620198 0.20937312057234081 0 -0.27972206359127388 0.21956341316192629 0 -0.29240119724970248 0.2340162237067446 0 -0.29196610192620198 0.20937312057234081 0 -0.29240119724970248 0.2340162237067446 0 -0.27972206359127388 0.21956341316192629 0 -0.2780346769370437 0.2336175214183823 0 -0.29196610192620198 0.20937312057234081 0 -0.27749404969024849 0.2026482187120813 0 -0.27972206359127388 0.21956341316192629 0 -0.30306025602087988 0.2227370122453215 0 -0.29196610192620198 0.20937312057234081 0 -0.31146680227267282 0.21051333787707549 0 -0.29196610192620198 0.20937312057234081 0 -0.31146680227267282 0.21051333787707549 0 -0.30415204038673038 0.19681061960506871 0 -0.30415204038673038 0.19681061960506871 0 -0.30995217817374399 0.1833459098967346 0 -0.29153100660269771 0.1847300174379371 0 -0.3158441129583357 0.19609071224125529 0 -0.31146680227267282 0.21051333787707549 0 -0.30415204038673038 0.19681061960506871 0 -0.3158441129583357 0.19609071224125529 0 -0.30415204038673038 0.19681061960506871 0 -0.30995217817374399 0.1833459098967346 0 -0.29196610192620198 0.20937312057234081 0 -0.29153100660269771 0.1847300174379371 0 -0.29196610192620198 0.20937312057234081 0 -0.30415204038673038 0.19681061960506871 0 -0.29153100660269771 0.1847300174379371 0 -0.29196610192620198 0.20937312057234081 0 -0.27749404969024849 0.2026482187120813 0 -0.29153100660269771 0.1847300174379371 0 -0.27749404969024849 0.2026482187120813 0 -0.27416887309146498 0.18877632338230771 0 -0.29153100660269771 0.1847300174379371 0 -0.27749404969024849 0.2026482187120813 0 -0.27416887309146498 0.18877632338230771 0 -0.26090277770307602 0.200712592166394 0 -0.27749404969024849 0.2026482187120813 0 -0.26090277770307602 0.200712592166394 0 -0.27416887309146498 0.18877632338230771 0 -0.26090277770307602 0.200712592166394 0 -0.26250790677840119 0.18018522526811359 0 -0.26090277770307602 0.200712592166394 0 -0.24431150571590329 0.1987769656207086 0 -0.25379456404049172 0.18919542510943149 0 -0.26090277770307602 0.200712592166394 0 -0.24431150571590329 0.1987769656207086 0 -0.25379456404049172 0.18919542510943149 0 -0.26090277770307602 0.200712592166394 0 -0.26250790677840119 0.18018522526811359 0 -0.26090277770307602 0.200712592166394 0 -0.25665430688663771 0.21589195771650829 0 -0.26850715206498998 0.21269075461861989 0 -0.26090277770307602 0.200712592166394 0 -0.25665430688663771 0.21589195771650829 0 -0.24431150571590329 0.1987769656207086 0 -0.25665430688663771 0.21589195771650829 0 -0.26850715206498998 0.21269075461861989 0 -0.26881658971272943 0.22577333514778911 0 -0.27749404969024849 0.2026482187120813 0 -0.26090277770307602 0.200712592166394 0 -0.26850715206498998 0.21269075461861989 0 -0.27749404969024849 0.2026482187120813 0 -0.26850715206498998 0.21269075461861989 0 -0.27972206359127388 0.21956341316192629 0 -0.27972206359127388 0.21956341316192629 0 -0.2780346769370437 0.2336175214183823 0 -0.26881658971272943 0.22577333514778911 0 -0.2780346769370437 0.2336175214183823 0 -0.26881658971272943 0.22577333514778911 0 -0.26856127774889971 0.2391786728789041 0 -0.26850715206498998 0.21269075461861989 0 -0.27972206359127388 0.21956341316192629 0 -0.26881658971272943 0.22577333514778911 0 -0.25665430688663771 0.21589195771650829 0 -0.26881658971272943 0.22577333514778911 0 -0.2561550017687102 0.23160506951541199 0 -0.25665430688663771 0.21589195771650829 0 -0.2561550017687102 0.23160506951541199 0 -0.24021544137663131 0.22700409590258699 0 -0.26881658971272943 0.22577333514778911 0 -0.2561550017687102 0.23160506951541199 0 -0.26856127774889971 0.2391786728789041 0 -0.2561550017687102 0.23160506951541199 0 -0.25727145084114272 0.24379712609696269 0 -0.26856127774889971 0.2391786728789041 0 -0.2561550017687102 0.23160506951541199 0 -0.25727145084114272 0.24379712609696269 0 -0.2474478051010339 0.2420611433304935 0 -0.25727145084114272 0.24379712609696269 0 -0.24747775448132589 0.25266819895304049 0 -0.2474478051010339 0.2420611433304935 0 -0.25727145084114272 0.24379712609696269 0 -0.26856127774889971 0.2391786728789041 0 -0.26434182981645687 0.25094058488530963 0 -0.2780346769370437 0.2336175214183823 0 -0.26856127774889971 0.2391786728789041 0 -0.27739300119014232 0.2498976087937482 0 -0.26856127774889971 0.2391786728789041 0 -0.27739300119014232 0.2498976087937482 0 -0.26434182981645687 0.25094058488530963 0 -0.2908231157046009 0.14463620932889709 0 -0.30828738101485009 0.1566914206585292 0 -0.29109591127919399 0.16008691430353339 0 -0.2908231157046009 0.14463620932889709 0 -0.29109591127919399 0.16008691430353339 0 -0.2908231157046009 0.14463620932889709 0 -0.29109591127919399 0.16008691430353339 0 -0.2779468474066632 0.15148251576725141 0 -0.2908231157046009 0.14463620932889709 0 -0.27939502406493882 0.13674764045049589 0 -0.2908231157046009 0.14463620932889709 0 -0.2779468474066632 0.15148251576725141 0 -0.27939502406493882 0.13674764045049589 0 -0.2908231157046009 0.14463620932889709 0 -0.29044183311698268 0.1230409734749877 0 -0.2908231157046009 0.14463620932889709 0 -0.27939502406493882 0.13674764045049589 0 -0.29044183311698268 0.1230409734749877 0 -0.27939502406493882 0.13674764045049589 0 -0.27576356919880768 0.1225160009322438 0 -0.29044183311698268 0.1230409734749877 0 -0.31265804899462329 0.1335309411573897 0 -0.2908231157046009 0.14463620932889709 0 -0.29044183311698268 0.1230409734749877 0 -0.2908231157046009 0.14463620932889709 0 -0.30828738101485009 0.1566914206585292 0 -0.31265804899462329 0.1335309411573897 0 -0.2908231157046009 0.14463620932889709 0 -0.30828738101485009 0.1566914206585292 0 -0.30828738101485009 0.1566914206585292 0 -0.29109591127919399 0.16008691430353339 0 -0.30828738101485009 0.1566914206585292 0 -0.30445932994677272 0.1704116507041907 0 -0.29109591127919399 0.16008691430353339 0 -0.30445932994677272 0.1704116507041907 0 -0.30995217817374399 0.1833459098967346 0 -0.29153100660269771 0.1847300174379371 0 -0.29153100660269771 0.1847300174379371 0 -0.29109591127919399 0.16008691430353339 0 -0.27840862468290162 0.17560556332701219 0 -0.27416887309146498 0.18877632338230771 0 -0.29153100660269771 0.1847300174379371 0 -0.27840862468290162 0.17560556332701219 0 -0.29153100660269771 0.1847300174379371 0 -0.29109591127919399 0.16008691430353339 0 -0.30445932994677272 0.1704116507041907 0 -0.29153100660269771 0.1847300174379371 0 -0.29109591127919399 0.16008691430353339 0 -0.29109591127919399 0.16008691430353339 0 -0.26893969921605648 0.16446299607051951 0 -0.2779468474066632 0.15148251576725141 0 -0.29109591127919399 0.16008691430353339 0 -0.26893969921605648 0.16446299607051951 0 -0.27840862468290162 0.17560556332701219 0 -0.29109591127919399 0.16008691430353339 0 -0.26893969921605648 0.16446299607051951 0 -0.26893969921605648 0.16446299607051951 0 -0.27840862468290162 0.17560556332701219 0 -0.26250790677840119 0.18018522526811359 0 -0.27416887309146498 0.18877632338230771 0 -0.27840862468290162 0.17560556332701219 0 -0.26250790677840119 0.18018522526811359 0 -0.26250790677840119 0.18018522526811359 0 -0.2467834871529184 0.16883907783750191 0 -0.24745606596458641 0.17710691738250969 0 -0.25379456404049172 0.18919542510943149 0 -0.26250790677840119 0.18018522526811359 0 -0.24745606596458641 0.17710691738250969 0 -0.26893969921605648 0.16446299607051951 0 -0.25702012596221718 0.15826425787540541 0 -0.2467834871529184 0.16883907783750191 0 -0.26893969921605648 0.16446299607051951 0 -0.26250790677840119 0.18018522526811359 0 -0.2467834871529184 0.16883907783750191 0 -0.26893969921605648 0.16446299607051951 0 -0.2467834871529184 0.16883907783750191 0 -0.25702012596221718 0.15826425787540541 0 -0.24827633448406999 0.15132421157691051 0 -0.2467834871529184 0.16883907783750191 0 -0.26893969921605648 0.16446299607051951 0 -0.25702012596221718 0.15826425787540541 0 -0.26449536115126959 0.14886007275210431 0 -0.2597301887922594 0.1353712897314211 0 -0.24603781378442921 0.1363995227782519 0 -0.24827633448406999 0.15132421157691051 0 -0.25702012596221718 0.15826425787540541 0 -0.26449536115126959 0.14886007275210431 0 -0.24827633448406999 0.15132421157691051 0 -0.26449536115126959 0.14886007275210431 0 -0.2597301887922594 0.1353712897314211 0 -0.24827633448406999 0.15132421157691051 0 -0.26893969921605648 0.16446299607051951 0 -0.26449536115126959 0.14886007275210431 0 -0.2779468474066632 0.15148251576725141 0 -0.26449536115126959 0.14886007275210431 0 -0.2779468474066632 0.15148251576725141 0 -0.27939502406493882 0.13674764045049589 0 -0.26449536115126959 0.14886007275210431 0 -0.27939502406493882 0.13674764045049589 0 -0.2597301887922594 0.1353712897314211 0 -0.27939502406493882 0.13674764045049589 0 -0.2597301887922594 0.1353712897314211 0 -0.27576356919880768 0.1225160009322438 0 -0.2597301887922594 0.1353712897314211 0 -0.2500144574684745 0.12364619665035551 0 -0.24603781378442921 0.1363995227782519 0 -0.2597301887922594 0.1353712897314211 0 -0.2500144574684745 0.12364619665035551 0 -0.26339902018305139 0.1145885199036198 0 -0.2500144574684745 0.12364619665035551 0 -0.26339902018305139 0.1145885199036198 0 -0.2455730396100507 0.1086139258876115 0 -0.2597301887922594 0.1353712897314211 0 -0.26339902018305139 0.1145885199036198 0 -0.26706785157384311 0.093805750075818567 0 -0.2414497811422408 0.085208171387366111 0 -0.2455730396100507 0.1086139258876115 0 -0.26339902018305139 0.1145885199036198 0 -0.26706785157384311 0.093805750075818567 0 -0.2455730396100507 0.1086139258876115 0 -0.26339902018305139 0.1145885199036198 0 -0.26706785157384311 0.093805750075818567 0 -0.26339902018305139 0.1145885199036198 0 -0.26706785157384311 0.093805750075818567 0 -0.2773465649204101 0.11107939640154969 0 -0.26706785157384311 0.093805750075818567 0 -0.2773465649204101 0.11107939640154969 0 -0.29006055052936841 0.1014457376210782 0 -0.26706785157384311 0.093805750075818567 0 -0.29006055052936841 0.1014457376210782 0 -0.2597301887922594 0.1353712897314211 0 -0.26339902018305139 0.1145885199036198 0 -0.27576356919880768 0.1225160009322438 0 -0.26339902018305139 0.1145885199036198 0 -0.2773465649204101 0.11107939640154969 0 -0.27576356919880768 0.1225160009322438 0 -0.2773465649204101 0.11107939640154969 0 -0.27576356919880768 0.1225160009322438 0 -0.29044183311698268 0.1230409734749877 0 -0.2773465649204101 0.11107939640154969 0 -0.29044183311698268 0.1230409734749877 0 -0.29006055052936841 0.1014457376210782 0 -0.29044183311698268 0.1230409734749877 0 -0.29006055052936841 0.1014457376210782 0 -0.30424606503231522 0.091110553564450844 0 -0.31262733714930852 0.10894420350565601 0 -0.31862562682325118 0.093992716884604019 0 -0.29006055052936841 0.1014457376210782 0 -0.30424606503231522 0.091110553564450844 0 -0.31262733714930852 0.10894420350565601 0 -0.29006055052936841 0.1014457376210782 0 -0.31262733714930852 0.10894420350565601 0 -0.29044183311698268 0.1230409734749877 0 -0.29006055052936841 0.1014457376210782 0 -0.31262733714930852 0.10894420350565601 0 -0.31265804899462329 0.1335309411573897 0 -0.29044183311698268 0.1230409734749877 0 -0.31262733714930852 0.10894420350565601 0 -0.3120214944027036 0.078117048994577443 0 -0.28952648700128519 0.071212916832001746 0 -0.3120214944027036 0.078117048994577443 0 -0.28952648700128519 0.071212916832001746 0 -0.30773782166686692 0.060427841934973789 0 -0.28952648700128519 0.071212916832001746 0 -0.30773782166686692 0.060427841934973789 0 -0.3120214944027036 0.078117048994577443 0 -0.30424606503231522 0.091110553564450844 0 -0.31862562682325118 0.093992716884604019 0 -0.3120214944027036 0.078117048994577443 0 -0.30424606503231522 0.091110553564450844 0 -0.28952648700128519 0.071212916832001746 0 -0.29006055052936841 0.1014457376210782 0 -0.28952648700128519 0.071212916832001746 0 -0.27927712631947071 0.07728237853553302 0 -0.29006055052936841 0.1014457376210782 0 -0.28952648700128519 0.071212916832001746 0 -0.29006055052936841 0.1014457376210782 0 -0.30424606503231522 0.091110553564450844 0 -0.28952648700128519 0.071212916832001746 0 -0.28952648700128519 0.071212916832001746 0 -0.27927712631947071 0.07728237853553302 0 -0.28952648700128519 0.071212916832001746 0 -0.28937319319092208 0.062514917485086363 0 -0.30773782166686692 0.060427841934973789 0 -0.28952648700128519 0.071212916832001746 0 -0.27882152888025158 0.067927731621984386 0 -0.27927712631947071 0.07728237853553302 0 -0.28952648700128519 0.071212916832001746 0 -0.28937319319092208 0.062514917485086363 0 -0.28952648700128519 0.071212916832001746 0 -0.27882152888025158 0.067927731621984386 0 -0.28937319319092208 0.062514917485086363 0 -0.27882152888025158 0.067927731621984386 0 -0.27987580464235512 0.058307586470057647 0 -0.28952648700128519 0.071212916832001746 0 -0.28937319319092208 0.062514917485086363 0 -0.27882152888025158 0.067927731621984386 0 -0.28937319319092208 0.062514917485086363 0 -0.27882152888025158 0.067927731621984386 0 -0.27882152888025158 0.067927731621984386 0 -0.27092067420187799 0.07198072806288755 0 -0.27200544833213092 0.065835825595902231 0 -0.27882152888025158 0.067927731621984386 0 -0.27200544833213092 0.065835825595902231 0 -0.27987580464235512 0.058307586470057647 0 -0.27882152888025158 0.067927731621984386 0 -0.27092067420187799 0.07198072806288755 0 -0.27882152888025158 0.067927731621984386 0 -0.27200544833213092 0.065835825595902231 0 -0.27882152888025158 0.067927731621984386 0 -0.27927712631947071 0.07728237853553302 0 -0.27092067420187799 0.07198072806288755 0 -0.27092067420187799 0.07198072806288755 0 -0.26840011722172408 0.073273728489490278 0 -0.27200544833213092 0.065835825595902231 0 -0.27092067420187799 0.07198072806288755 0 -0.26840011722172408 0.073273728489490278 0 -0.26840011722172408 0.073273728489490278 0 -0.27200544833213092 0.065835825595902231 0 -0.26137302110268912 0.070629898140295994 0 -0.27092067420187799 0.07198072806288755 0 -0.27200544833213092 0.065835825595902231 0 -0.26706785157384311 0.093805750075818567 0 -0.27927712631947071 0.07728237853553302 0 -0.27092067420187799 0.07198072806288755 0 -0.26706785157384311 0.093805750075818567 0 -0.29006055052936841 0.1014457376210782 0 -0.27927712631947071 0.07728237853553302 0 -0.26706785157384311 0.093805750075818567 0 -0.27092067420187799 0.07198072806288755 0 -0.26840011722172408 0.073273728489490278 0 -0.26706785157384311 0.093805750075818567 0 -0.27092067420187799 0.07198072806288755 0 -0.26014884675160588 0.081156863371451782 0 -0.25276639289259578 0.074270958708192392 0 -0.2414497811422408 0.085208171387366111 0 -0.26706785157384311 0.093805750075818567 0 -0.2414497811422408 0.085208171387366111 0 -0.26706785157384311 0.093805750075818567 0 -0.26014884675160588 0.081156863371451782 0 -0.2414497811422408 0.085208171387366111 0 -0.26706785157384311 0.093805750075818567 0 -0.26840011722172408 0.073273728489490278 0 -0.26014884675160588 0.081156863371451782 0 -0.27200544833213092 0.065835825595902231 0 -0.25626457959536209 0.061004835420003511 0 -0.27200544833213092 0.065835825595902231 0 -0.26137302110268912 0.070629898140295994 0 -0.25626457959536209 0.061004835420003511 0 -0.26014884675160588 0.081156863371451782 0 -0.26137302110268912 0.070629898140295994 0 -0.25276639289259578 0.074270958708192392 0 -0.26840011722172408 0.073273728489490278 0 -0.26014884675160588 0.081156863371451782 0 -0.26137302110268912 0.070629898140295994 0 -0.26137302110268912 0.070629898140295994 0 -0.25276639289259578 0.074270958708192392 0 -0.25626457959536209 0.061004835420003511 0 -0.25276639289259578 0.074270958708192392 0 -0.25626457959536209 0.061004835420003511 0 -0.24227965263950299 0.067380038872434392 0 -0.25626457959536209 0.061004835420003511 0 -0.2542126422301646 0.050625017747445523 0 -0.2433042830864994 0.055027202448312627 0 -0.27200544833213092 0.065835825595902231 0 -0.25626457959536209 0.061004835420003511 0 -0.2651417014209449 0.054722139262564452 0 -0.25626457959536209 0.061004835420003511 0 -0.2651417014209449 0.054722139262564452 0 -0.2542126422301646 0.050625017747445523 0 -0.2651417014209449 0.054722139262564452 0 -0.2542126422301646 0.050625017747445523 0 -0.26162582723184902 0.04307546478074338 0 -0.2542126422301646 0.050625017747445523 0 -0.26162582723184902 0.04307546478074338 0 -0.247206080807887 0.04269664093361468 0 -0.25178836883168471 0.034885037221451053 0 -0.26162582723184902 0.04307546478074338 0 -0.247206080807887 0.04269664093361468 0 -0.26162582723184902 0.04307546478074338 0 -0.27273940582057532 0.038010300948733478 0 -0.2620428070555047 0.028656771280111019 0 -0.25178836883168471 0.034885037221451053 0 -0.26162582723184902 0.04307546478074338 0 -0.2620428070555047 0.028656771280111019 0 -0.27273940582057532 0.038010300948733478 0 -0.2620428070555047 0.028656771280111019 0 -0.28442180529788041 0.031306164250049527 0 -0.26162582723184902 0.04307546478074338 0 -0.27273940582057532 0.038010300948733478 0 -0.27512676071156728 0.048154577854375623 0 -0.27273940582057532 0.038010300948733478 0 -0.2810616711643612 0.040831575722560333 0 -0.28442180529788041 0.031306164250049527 0 -0.2810616711643612 0.040831575722560333 0 -0.27512676071156728 0.048154577854375623 0 -0.28288114432081579 0.049878122659754047 0 -0.27273940582057532 0.038010300948733478 0 -0.2810616711643612 0.040831575722560333 0 -0.27512676071156728 0.048154577854375623 0 -0.27512676071156728 0.048154577854375623 0 -0.27987580464235512 0.058307586470057647 0 -0.28288114432081579 0.049878122659754047 0 -0.27200544833213092 0.065835825595902231 0 -0.27512676071156728 0.048154577854375623 0 -0.27987580464235512 0.058307586470057647 0 -0.27200544833213092 0.065835825595902231 0 -0.2651417014209449 0.054722139262564452 0 -0.27512676071156728 0.048154577854375623 0 -0.27200544833213092 0.065835825595902231 0 -0.27512676071156728 0.048154577854375623 0 -0.2651417014209449 0.054722139262564452 0 -0.26162582723184902 0.04307546478074338 0 -0.27512676071156728 0.048154577854375623 0 -0.2520988178639067 -0.0074431167796321571 0 -0.25929054607124369 0.0082633914887152455 0 -0.24728209233149009 0.010337292275029671 0 -0.25929054607124369 0.0082633914887152455 0 -0.26347254424441802 0.019124388374475651 0 -0.24728209233149009 0.010337292275029671 0 -0.2520988178639067 -0.0074431167796321571 0 -0.25929054607124369 0.0082633914887152455 0 -0.26860117861025579 0.00098416649955779712 0 -0.25929054607124369 0.0082633914887152455 0 -0.26347254424441802 0.019124388374475651 0 -0.27376429530001761 0.01271562200855513 0 -0.25178836883168471 0.034885037221451053 0 -0.2620428070555047 0.028656771280111019 0 -0.23627876023149799 0.025111271891335121 0 -0.26347254424441802 0.019124388374475651 0 -0.2620428070555047 0.028656771280111019 0 -0.23627876023149799 0.025111271891335121 0 -0.2620428070555047 0.028656771280111019 0 -0.28442180529788041 0.031306164250049527 0 -0.2620428070555047 0.028656771280111019 0 -0.2736677305144406 0.022308497840373441 0 -0.28442180529788041 0.031306164250049527 0 -0.2736677305144406 0.022308497840373441 0 -0.28347942794475872 0.019370810756825289 0 -0.28442180529788041 0.031306164250049527 0 -0.2736677305144406 0.022308497840373441 0 -0.27376429530001761 0.01271562200855513 0 -0.28347942794475872 0.019370810756825289 0 -0.26347254424441802 0.019124388374475651 0 -0.2620428070555047 0.028656771280111019 0 -0.2736677305144406 0.022308497840373441 0 -0.26347254424441802 0.019124388374475651 0 -0.2736677305144406 0.022308497840373441 0 -0.27376429530001761 0.01271562200855513 0 -0.27871756099426093 -0.0061602514197482616 0 -0.26860117861025579 0.00098416649955779712 0 -0.28533747578866669 0.0057230835820348174 0 -0.27376429530001761 0.01271562200855513 0 -0.26860117861025579 0.00098416649955779712 0 -0.28533747578866669 0.0057230835820348174 0 -0.27376429530001761 0.01271562200855513 0 -0.28533747578866669 0.0057230835820348174 0 -0.28347942794475872 0.019370810756825289 0 -0.25929054607124369 0.0082633914887152455 0 -0.27376429530001761 0.01271562200855513 0 -0.26860117861025579 0.00098416649955779712 0 -0.28533747578866669 0.0057230835820348174 0 -0.2960607194878786 0.019196348206757741 0 -0.30297757949018539 0.007638752858504072 0 -0.29458949306733412 -0.01100266496878353 0 -0.28533747578866669 0.0057230835820348174 0 -0.30297757949018539 0.007638752858504072 0 -0.28533747578866669 0.0057230835820348174 0 -0.2960607194878786 0.019196348206757741 0 -0.28347942794475872 0.019370810756825289 0 -0.2960607194878786 0.019196348206757741 0 -0.28442180529788041 0.031306164250049527 0 -0.30680080354025607 0.033955557219988053 0 -0.2960607194878786 0.019196348206757741 0 -0.28347942794475872 0.019370810756825289 0 -0.28442180529788041 0.031306164250049527 0 -0.2960607194878786 0.019196348206757741 0 -0.30879567230422672 0.021503298297083442 0 -0.30680080354025607 0.033955557219988053 0 -0.30879567230422672 0.021503298297083442 0 -0.30680080354025607 0.033955557219988053 0 -0.31790921299618508 0.027956428645086261 0 -0.2960607194878786 0.019196348206757741 0 -0.30879567230422672 0.021503298297083442 0 -0.30297757949018539 0.007638752858504072 0 -0.31240634161385089 -0.0057222447989648366 0 -0.30297757949018539 0.007638752858504072 0 -0.32079307169824178 0.015441352695479889 0 -0.30879567230422672 0.021503298297083442 0 -0.30297757949018539 0.007638752858504072 0 -0.32079307169824178 0.015441352695479889 0 -0.28937319319092208 0.062514917485086363 0 -0.29579180608457167 0.049562564404477413 0 -0.28896829189487699 0.039581955766697173 0 -0.28937319319092208 0.062514917485086363 0 -0.28288114432081579 0.049878122659754047 0 -0.28896829189487699 0.039581955766697173 0 -0.28937319319092208 0.062514917485086363 0 -0.28896829189487699 0.039581955766697173 0 -0.28937319319092208 0.062514917485086363 0 -0.27987580464235512 0.058307586470057647 0 -0.28288114432081579 0.049878122659754047 0 -0.28896829189487699 0.039581955766697173 0 -0.28442180529788041 0.031306164250049527 0 -0.30680080354025607 0.033955557219988053 0 -0.28442180529788041 0.031306164250049527 0 -0.30680080354025607 0.033955557219988053 0 -0.2810616711643612 0.040831575722560333 0 -0.28288114432081579 0.049878122659754047 0 -0.28896829189487699 0.039581955766697173 0 -0.2810616711643612 0.040831575722560333 0 -0.28896829189487699 0.039581955766697173 0 -0.28442180529788041 0.031306164250049527 0 -0.29579180608457167 0.049562564404477413 0 -0.28896829189487699 0.039581955766697173 0 -0.30089134544467883 0.043598645749890488 0 -0.28896829189487699 0.039581955766697173 0 -0.30089134544467883 0.043598645749890488 0 -0.30680080354025607 0.033955557219988053 0 -0.30089134544467883 0.043598645749890488 0 -0.30680080354025607 0.033955557219988053 0 -0.31071128291635958 0.043931315293977903 0 -0.30680080354025607 0.033955557219988053 0 -0.31071128291635958 0.043931315293977903 0 -0.31993457532337949 0.043767270032501603 0 -0.30568424482829498 0.054147641168173118 0 -0.30773782166686692 0.060427841934973789 0 -0.32199529646567138 0.045780364851266887 0 -0.30089134544467883 0.043598645749890488 0 -0.31071128291635958 0.043931315293977903 0 -0.30568424482829498 0.054147641168173118 0 -0.28937319319092208 0.062514917485086363 0 -0.30568424482829498 0.054147641168173118 0 -0.28937319319092208 0.062514917485086363 0 -0.29579180608457167 0.049562564404477413 0 -0.30568424482829498 0.054147641168173118 0 -0.28937319319092208 0.062514917485086363 0 -0.30568424482829498 0.054147641168173118 0 -0.30773782166686692 0.060427841934973789 0 -0.29579180608457167 0.049562564404477413 0 -0.30089134544467883 0.043598645749890488 0 -0.30568424482829498 0.054147641168173118 0 -0.30773782166686692 0.060427841934973789 0 -0.32594926608280173 0.04964295236320497 0 -0.32439595890415213 0.067658368266007282 0 -0.30568424482829498 0.054147641168173118 0 -0.32199529646567138 0.045780364851266887 0 -0.30773782166686692 0.060427841934973789 0 -0.32594926608280173 0.04964295236320497 0 -0.30773782166686692 0.060427841934973789 0 -0.32594926608280173 0.04964295236320497 0 -0.32199529646567138 0.045780364851266887 0 -0.31071128291635958 0.043931315293977903 0 -0.30568424482829498 0.054147641168173118 0 -0.32199529646567138 0.045780364851266887 0 -0.32594926608280173 0.04964295236320497 0 -0.32199529646567138 0.045780364851266887 0 -0.30680080354025607 0.033955557219988053 0 -0.32917980178263212 0.036604950189924913 0 -0.31790921299618508 0.027956428645086261 0 -0.30680080354025607 0.033955557219988053 0 -0.32917980178263212 0.036604950189924913 0 -0.30680080354025607 0.033955557219988053 0 -0.31993457532337949 0.043767270032501603 0 -0.32215510653609081 0.039847542616729723 0 -0.31071128291635958 0.043931315293977903 0 -0.31993457532337949 0.043767270032501603 0 -0.32199529646567138 0.045780364851266887 0 -0.30680080354025607 0.033955557219988053 0 -0.32215510653609081 0.039847542616729723 0 -0.32917980178263212 0.036604950189924913 0 -0.32772544414696853 0.039029451029497821 0 -0.32215510653609081 0.039847542616729723 0 -0.32917980178263212 0.036604950189924913 0 -0.32199529646567138 0.045780364851266887 0 -0.33098780216453988 0.041167371058066483 0 -0.32199529646567138 0.045780364851266887 0 -0.32643477134560878 0.041205874703609667 0 -0.33098780216453988 0.041167371058066483 0 -0.32594926608280173 0.04964295236320497 0 -0.32199529646567138 0.045780364851266887 0 -0.33098780216453988 0.041167371058066483 0 -0.31993457532337949 0.043767270032501603 0 -0.32199529646567138 0.045780364851266887 0 -0.32215510653609081 0.039847542616729723 0 -0.31993457532337949 0.043767270032501603 0 -0.32199529646567138 0.045780364851266887 0 -0.32199529646567138 0.045780364851266887 0 -0.32215510653609081 0.039847542616729723 0 -0.32643477134560878 0.041205874703609667 0 -0.32772544414696853 0.039029451029497821 0 -0.32215510653609081 0.039847542616729723 0 -0.32643477134560878 0.041205874703609667 0 -0.32772544414696853 0.039029451029497821 0 -0.32643477134560878 0.041205874703609667 0 -0.33018059747926171 0.039130420436908821 0 -0.3319601592047558 0.036934109669199487 0 -0.33785715763142249 0.037632240390070959 0 -0.34557043750802641 0.020136490142583851 0 -0.33098780216453988 0.041167371058066483 0 -0.33275042361872043 0.045615279911210317 0 -0.32594926608280173 0.04964295236320497 0 -0.33098780216453988 0.041167371058066483 0 -0.33275042361872043 0.045615279911210317 0 -0.33275042361872043 0.045615279911210317 0 -0.33785715763142249 0.037632240390070959 0 -0.35838605259323808 0.030433758814998511 0 -0.33098780216453988 0.041167371058066483 0 -0.33275042361872043 0.045615279911210317 0 -0.33785715763142249 0.037632240390070959 0 -0.32643477134560878 0.041205874703609667 0 -0.33018059747926171 0.039130420436908821 0 -0.33098780216453988 0.041167371058066483 0 -0.33018059747926171 0.039130420436908821 0 -0.33098780216453988 0.041167371058066483 0 -0.3319601592047558 0.036934109669199487 0 -0.33018059747926171 0.039130420436908821 0 -0.33098780216453988 0.041167371058066483 0 -0.33098780216453988 0.041167371058066483 0 -0.33785715763142249 0.037632240390070959 0 -0.3319601592047558 0.036934109669199487 0 -0.32917980178263212 0.036604950189924913 0 -0.33216011478563479 0.023180359639787439 0 -0.3319601592047558 0.036934109669199487 0 -0.32917980178263212 0.036604950189924913 0 -0.33018059747926171 0.039130420436908821 0 -0.32917980178263212 0.036604950189924913 0 -0.32772544414696853 0.039029451029497821 0 -0.33018059747926171 0.039130420436908821 0 -0.32917980178263212 0.036604950189924913 0 -0.33018059747926171 0.039130420436908821 0 -0.3319601592047558 0.036934109669199487 0 -0.32917980178263212 0.036604950189924913 0 -0.33018059747926171 0.039130420436908821 0 -0.3319601592047558 0.036934109669199487 0 -0.33098780216453988 0.041167371058066483 0 -0.3319601592047558 0.036934109669199487 0 -0.33785715763142249 0.037632240390070959 0 -0.3319601592047558 0.036934109669199487 0 -0.33785715763142249 0.037632240390070959 0 -0.33275042361872043 0.045615279911210317 0 -0.34136904784005162 0.044048436327715337 0 -0.33708135814915691 0.046902885840503762 0 -0.34136904784005162 0.044048436327715337 0 -0.34037971421262808 0.049271433662665412 0 -0.33708135814915691 0.046902885840503762 0 -0.34239825276137981 0.05455048937325873 0 -0.33384326485018651 0.048373023598606867 0 -0.34175464145567058 0.065083042057428611 0 -0.32594926608280173 0.04964295236320497 0 -0.33384326485018651 0.048373023598606867 0 -0.34175464145567058 0.065083042057428611 0 -0.34136904784005162 0.044048436327715337 0 -0.34037971421262808 0.049271433662665412 0 -0.34744843814018661 0.048172054176549579 0 -0.32594926608280173 0.04964295236320497 0 -0.34175464145567058 0.065083042057428611 0 -0.32594926608280173 0.04964295236320497 0 -0.32439595890415213 0.067658368266007282 0 -0.34175464145567058 0.065083042057428611 0 -0.34037971421262808 0.049271433662665412 0 -0.34239825276137981 0.05455048937325873 0 -0.33384326485018651 0.048373023598606867 0 -0.34037971421262808 0.049271433662665412 0 -0.34239825276137981 0.05455048937325873 0 -0.34744843814018661 0.048172054176549579 0 -0.34037971421262808 0.049271433662665412 0 -0.33708135814915691 0.046902885840503762 0 -0.33384326485018651 0.048373023598606867 0 -0.32594926608280173 0.04964295236320497 0 -0.33275042361872043 0.045615279911210317 0 -0.33384326485018651 0.048373023598606867 0 -0.32594926608280173 0.04964295236320497 0 -0.33275042361872043 0.045615279911210317 0 -0.33275042361872043 0.045615279911210317 0 -0.33708135814915691 0.046902885840503762 0 -0.33384326485018651 0.048373023598606867 0 -0.33275042361872043 0.045615279911210317 0 -0.33384326485018651 0.048373023598606867 0 -0.31240634161385089 -0.0057222447989648366 0 -0.32079307169824178 0.015441352695479889 0 -0.33519624187438168 0.0073911367791017982 0 -0.31240634161385089 -0.0057222447989648366 0 -0.32079307169824178 0.015441352695479889 0 -0.32917980178263212 0.036604950189924913 0 -0.32079307169824178 0.015441352695479889 0 -0.33216011478563479 0.023180359639787439 0 -0.32917980178263212 0.036604950189924913 0 -0.32079307169824178 0.015441352695479889 0 -0.31790921299618508 0.027956428645086261 0 -0.32917980178263212 0.036604950189924913 0 -0.32079307169824178 0.015441352695479889 0 -0.30879567230422672 0.021503298297083442 0 -0.32079307169824178 0.015441352695479889 0 -0.31790921299618508 0.027956428645086261 0 -0.3319601592047558 0.036934109669199487 0 -0.34557043750802641 0.020136490142583851 0 -0.3319601592047558 0.036934109669199487 0 -0.33216011478563479 0.023180359639787439 0 -0.34557043750802641 0.020136490142583851 0 -0.33216011478563479 0.023180359639787439 0 -0.33519624187438168 0.0073911367791017982 0 -0.34557043750802641 0.020136490142583851 0 -0.32079307169824178 0.015441352695479889 0 -0.33216011478563479 0.023180359639787439 0 -0.33519624187438168 0.0073911367791017982 0 -0.35918071581129568 0.003338870615967294 0 -0.35472639731399302 0.01456330549001511 0 -0.34557043750802641 0.020136490142583851 0 -0.35918071581129568 0.003338870615967294 0 -0.34557043750802641 0.020136490142583851 0 -0.34048686778571402 -0.01002932277235691 0 -0.33519624187438168 0.0073911367791017982 0 -0.35918071581129568 0.003338870615967294 0 -0.33519624187438168 0.0073911367791017982 0 -0.35918071581129568 0.003338870615967294 0 -0.34557043750802641 0.020136490142583851 0 -0.33785715763142249 0.037632240390070959 0 -0.35073250469386041 0.023991326964377901 0 -0.36065317327381408 0.025949568881161809 0 -0.33785715763142249 0.037632240390070959 0 -0.34557043750802641 0.020136490142583851 0 -0.35073250469386041 0.023991326964377901 0 -0.35472639731399302 0.01456330549001511 0 -0.35073250469386041 0.023991326964377901 0 -0.36065317327381408 0.025949568881161809 0 -0.35472639731399302 0.01456330549001511 0 -0.36065317327381408 0.025949568881161809 0 -0.35472639731399302 0.01456330549001511 0 -0.34557043750802641 0.020136490142583851 0 -0.35073250469386041 0.023991326964377901 0 -0.37688104160310898 0.017624964106173799 0 -0.36065317327381408 0.025949568881161809 0 -0.37688104160310898 0.017624964106173799 0 -0.36065317327381408 0.025949568881161809 0 -0.37159774160155429 0.027305265212969821 0 -0.37688104160310898 0.017624964106173799 0 -0.36065317327381408 0.025949568881161809 0 -0.36487474830327798 0.01370819971368166 0 -0.35472639731399302 0.01456330549001511 0 -0.36065317327381408 0.025949568881161809 0 -0.36487474830327798 0.01370819971368166 0 -0.35918071581129568 0.003338870615967294 0 -0.36487474830327798 0.01370819971368166 0 -0.37293241351417789 0.0070642894750902749 0 -0.35918071581129568 0.003338870615967294 0 -0.35472639731399302 0.01456330549001511 0 -0.36487474830327798 0.01370819971368166 0 -0.37688104160310898 0.017624964106173799 0 -0.36487474830327798 0.01370819971368166 0 -0.37293241351417789 0.0070642894750902749 0 -0.37180987954083178 -0.0023840389534433991 0 -0.35918071581129568 0.003338870615967294 0 -0.37293241351417789 0.0070642894750902749 0 -0.35637174767026331 0.052769817269856502 0 -0.36150859064853669 0.06635251754121152 0 -0.34175464145567058 0.065083042057428611 0 -0.35637174767026331 0.052769817269856502 0 -0.34744843814018661 0.048172054176549579 0 -0.35298255356379388 0.046060095028059272 0 -0.34239825276137981 0.05455048937325873 0 -0.35637174767026331 0.052769817269856502 0 -0.34175464145567058 0.065083042057428611 0 -0.34239825276137981 0.05455048937325873 0 -0.35637174767026331 0.052769817269856502 0 -0.34744843814018661 0.048172054176549579 0 -0.33275042361872043 0.045615279911210317 0 -0.35838605259323808 0.030433758814998511 0 -0.33785715763142249 0.037632240390070959 0 -0.35838605259323808 0.030433758814998511 0 -0.36065317327381408 0.025949568881161809 0 -0.33785715763142249 0.037632240390070959 0 -0.36065317327381408 0.025949568881161809 0 -0.34136904784005162 0.044048436327715337 0 -0.34744843814018661 0.048172054176549579 0 -0.35120633071796292 0.042028683535925433 0 -0.33275042361872043 0.045615279911210317 0 -0.34136904784005162 0.044048436327715337 0 -0.35838605259323808 0.030433758814998511 0 -0.34136904784005162 0.044048436327715337 0 -0.35838605259323808 0.030433758814998511 0 -0.35120633071796292 0.042028683535925433 0 -0.34744843814018661 0.048172054176549579 0 -0.35120633071796292 0.042028683535925433 0 -0.35298255356379388 0.046060095028059272 0 -0.35838605259323808 0.030433758814998511 0 -0.35120633071796292 0.042028683535925433 0 -0.35812954425322058 0.04102714735793847 0 -0.35637174767026331 0.052769817269856502 0 -0.35298255356379388 0.046060095028059272 0 -0.35812954425322058 0.04102714735793847 0 -0.35120633071796292 0.042028683535925433 0 -0.35298255356379388 0.046060095028059272 0 -0.35812954425322058 0.04102714735793847 0 -0.3767825674583356 0.056936657269455522 0 -0.37863350987998812 0.035797582514910387 0 -0.36871787036607478 0.041443113075308673 0 -0.35637174767026331 0.052769817269856502 0 -0.35812954425322058 0.04102714735793847 0 -0.36871787036607478 0.041443113075308673 0 -0.36065317327381408 0.025949568881161809 0 -0.36871787036607478 0.041443113075308673 0 -0.35838605259323808 0.030433758814998511 0 -0.35812954425322058 0.04102714735793847 0 -0.36871787036607478 0.041443113075308673 0 -0.35838605259323808 0.030433758814998511 0 -0.36065317327381408 0.025949568881161809 0 -0.36871787036607478 0.041443113075308673 0 -0.36065317327381408 0.025949568881161809 0 -0.37159774160155429 0.027305265212969821 0 -0.36871787036607478 0.041443113075308673 0 -0.37863350987998812 0.035797582514910387 0 -0.37159774160155429 0.027305265212969821 0 -0.36871787036607478 0.041443113075308673 0 -0.3767825674583356 0.056936657269455522 0 -0.35637174767026331 0.052769817269856502 0 -0.36150859064853669 0.06635251754121152 0 -0.3767825674583356 0.056936657269455522 0 -0.36871787036607478 0.041443113075308673 0 -0.3767825674583356 0.056936657269455522 0 -0.35637174767026331 0.052769817269856502 0 -0.36871787036607478 0.041443113075308673 0 -0.3767825674583356 0.056936657269455522 0 -0.37507397982987423 0.07644993935766467 0 -0.36150859064853669 0.06635251754121152 0 -0.37507397982987423 0.07644993935766467 0 -0.36150859064853669 0.06635251754121152 0 -0.35756001682853938 0.080523131751652308 0 -0.36150859064853669 0.06635251754121152 0 -0.35756001682853938 0.080523131751652308 0 -0.34175464145567058 0.065083042057428611 0 -0.35756001682853938 0.080523131751652308 0 -0.34175464145567058 0.065083042057428611 0 -0.35756001682853938 0.080523131751652308 0 -0.34175464145567058 0.065083042057428611 0 -0.33451657091271753 0.085020955979851542 0 -0.35756001682853938 0.080523131751652308 0 -0.35227669535169881 0.10432607003665099 0 -0.33451657091271753 0.085020955979851542 0 -0.35756001682853938 0.080523131751652308 0 -0.37336539220141057 0.095963221445873742 0 -0.37507397982987423 0.07644993935766467 0 -0.37336539220141057 0.095963221445873742 0 -0.37507397982987423 0.07644993935766467 0 -0.35756001682853938 0.080523131751652308 0 -0.37336539220141057 0.095963221445873742 0 -0.35756001682853938 0.080523131751652308 0 -0.37336539220141057 0.095963221445873742 0 -0.35227669535169881 0.10432607003665099 0 -0.37336539220141057 0.095963221445873742 0 -0.37158912676135991 0.1162494321253334 0 -0.37336539220141057 0.095963221445873742 0 -0.37158912676135991 0.1162494321253334 0 -0.35227669535169881 0.10432607003665099 0 -0.38316466271376559 0.11205638266858969 0 -0.36981286132130131 0.1365356428047925 0 -0.37158912676135991 0.1162494321253334 0 -0.37158912676135991 0.1162494321253334 0 -0.35624543278902698 0.1246179120644431 0 -0.35227669535169881 0.10432607003665099 0 -0.35624543278902698 0.1246179120644431 0 -0.35227669535169881 0.10432607003665099 0 -0.33974952812225329 0.1226975489845159 0 -0.35227669535169881 0.10432607003665099 0 -0.33053239039794791 0.10585074794262821 0 -0.33451657091271753 0.085020955979851542 0 -0.35227669535169881 0.10432607003665099 0 -0.33053239039794791 0.10585074794262821 0 -0.33974952812225329 0.1226975489845159 0 -0.33053239039794791 0.10585074794262821 0 -0.33974952812225329 0.1226975489845159 0 -0.32506615603551459 0.1211059287090778 0 -0.33053239039794791 0.10585074794262821 0 -0.32506615603551459 0.1211059287090778 0 -0.31262733714930852 0.10894420350565601 0 -0.31265804899462329 0.1335309411573897 0 -0.32506615603551459 0.1211059287090778 0 -0.31262733714930852 0.10894420350565601 0 -0.33053239039794791 0.10585074794262821 0 -0.31862562682325118 0.093992716884604019 0 -0.33451657091271753 0.085020955979851542 0 -0.33053239039794791 0.10585074794262821 0 -0.31262733714930852 0.10894420350565601 0 -0.31862562682325118 0.093992716884604019 0 -0.3120214944027036 0.078117048994577443 0 -0.33451657091271753 0.085020955979851542 0 -0.3120214944027036 0.078117048994577443 0 -0.31862562682325118 0.093992716884604019 0 -0.33451657091271753 0.085020955979851542 0 -0.3120214944027036 0.078117048994577443 0 -0.32439595890415213 0.067658368266007282 0 -0.33451657091271753 0.085020955979851542 0 -0.3120214944027036 0.078117048994577443 0 -0.30773782166686692 0.060427841934973789 0 -0.32439595890415213 0.067658368266007282 0 -0.32439595890415213 0.067658368266007282 0 -0.34175464145567058 0.065083042057428611 0 -0.33451657091271753 0.085020955979851542 0 -0.39154102416311592 0.47832657176277149 0 -0.40808948033189779 0.46137564092058603 0 -0.40770445973933661 0.48234236359134192 0 -0.38910674043026883 0.5 0 -0.40770445973933661 0.48234236359134192 0 -0.41748483710484652 0.5 0 -0.39154102416311592 0.47832657176277149 0 -0.38910674043026883 0.5 0 -0.40770445973933661 0.48234236359134192 0 -0.39154102416311592 0.47832657176277149 0 -0.38910674043026883 0.5 0 -0.37479402773925369 0.48345061054471988 0 -0.39154102416311592 0.47832657176277149 0 -0.38043376619751701 0.46469685031467078 0 -0.37479402773925369 0.48345061054471988 0 -0.38043376619751701 0.46469685031467078 0 -0.37917353421580752 0.44594847604030191 0 -0.36619148805679169 0.45026802838349639 0 -0.37917353421580752 0.44594847604030191 0 -0.39331569598531041 0.44819211974022832 0 -0.38497704736812249 0.43061424070484811 0 -0.38043376619751701 0.46469685031467078 0 -0.37917353421580752 0.44594847604030191 0 -0.39331569598531041 0.44819211974022832 0 -0.39331569598531041 0.44819211974022832 0 -0.38497704736812249 0.43061424070484811 0 -0.37917353421580752 0.44594847604030191 0 -0.38497704736812249 0.43061424070484811 0 -0.37094967347129609 0.43597114105826601 0 -0.39331569598531041 0.44819211974022832 0 -0.40808948033189779 0.46137564092058603 0 -0.41004264850680461 0.4432445123507267 0 -0.39331569598531041 0.44819211974022832 0 -0.41004264850680461 0.4432445123507267 0 -0.40256752001615709 0.42695012051622322 0 -0.39154102416311592 0.47832657176277149 0 -0.38043376619751701 0.46469685031467078 0 -0.40808948033189779 0.46137564092058603 0 -0.38043376619751701 0.46469685031467078 0 -0.39331569598531041 0.44819211974022832 0 -0.40808948033189779 0.46137564092058603 0 -0.38043376619751701 0.46469685031467078 0 -0.40808948033189779 0.46137564092058603 0 -0.40808948033189779 0.46137564092058603 0 -0.41004264850680461 0.4432445123507267 0 -0.42188684802614812 0.44979630461288939 0 -0.41004264850680461 0.4432445123507267 0 -0.42548766391088477 0.43762333488295929 0 -0.42188684802614812 0.44979630461288939 0 -0.42548766391088477 0.43762333488295929 0 -0.42188684802614812 0.44979630461288939 0 -0.43220679091380387 0.44678174930254722 0 -0.42188684802614812 0.44979630461288939 0 -0.43220679091380387 0.44678174930254722 0 -0.43574519446627857 0.45805443152650133 0 -0.42548766391088477 0.43762333488295929 0 -0.43220679091380387 0.44678174930254722 0 -0.43599188965124541 0.43812091441268908 0 -0.40808948033189779 0.46137564092058603 0 -0.42188684802614812 0.44979630461288939 0 -0.43574519446627857 0.45805443152650133 0 -0.40808948033189779 0.46137564092058603 0 -0.43574519446627857 0.45805443152650133 0 -0.42252776235473882 0.46908454004391498 0 -0.40808948033189779 0.46137564092058603 0 -0.43574519446627857 0.45805443152650133 0 -0.43574519446627857 0.45805443152650133 0 -0.43686308765383619 0.46520412794957411 0 -0.42252776235473882 0.46908454004391498 0 -0.43686308765383619 0.46520412794957411 0 -0.43515661026763569 0.47869920213755862 0 -0.42252776235473882 0.46908454004391498 0 -0.43515661026763569 0.47869920213755862 0 -0.42252776235473882 0.46908454004391498 0 -0.42531549799903678 0.48522888335227993 0 -0.42252776235473882 0.46908454004391498 0 -0.40770445973933661 0.48234236359134192 0 -0.42531549799903678 0.48522888335227993 0 -0.40808948033189779 0.46137564092058603 0 -0.42252776235473882 0.46908454004391498 0 -0.40770445973933661 0.48234236359134192 0 -0.40770445973933661 0.48234236359134192 0 -0.41748483710484652 0.5 0 -0.42531549799903678 0.48522888335227993 0 -0.43515661026763569 0.47869920213755862 0 -0.42531549799903678 0.48522888335227993 0 -0.44586293377942421 0.49999999999999778 0 -0.41748483710484652 0.5 0 -0.42531549799903678 0.48522888335227993 0 -0.44586293377942421 0.49999999999999778 0 -0.44586293377942421 0.49999999999999778 0 -0.44521376955114261 0.47397845934202398 0 -0.44586293377942421 0.49999999999999778 0 -0.44521376955114261 0.47397845934202398 0 -0.45880637964805171 0.49999999999999939 0 -0.43515661026763569 0.47869920213755862 0 -0.44586293377942421 0.49999999999999778 0 -0.44521376955114261 0.47397845934202398 0 -0.43686308765383619 0.46520412794957411 0 -0.43515661026763569 0.47869920213755862 0 -0.44521376955114261 0.47397845934202398 0 -0.44521376955114261 0.47397845934202398 0 -0.45880637964805171 0.49999999999999939 0 -0.46883351757595032 0.47397993854757831 0 -0.45880637964805171 0.49999999999999939 0 -0.46883351757595032 0.47397993854757831 0 -0.5 0.5 0 -0.46883351757595032 0.47397993854757831 0 -0.48474867780434883 0.46517096474208619 0 -0.45880637964805171 0.49999999999999939 0 -0.5 0.5 0 -0.46883351757595032 0.47397993854757831 0 -0.5 0.5 0 -0.48474867780434883 0.46517096474208619 0 -0.5 0.45525695869579608 0 -0.5 0.45525695869579608 0 -0.47886065550384888 0.44795987709515711 0 -0.4888877934317476 0.42193981564273592 0 -0.48474867780434883 0.46517096474208619 0 -0.5 0.45525695869579608 0 -0.47886065550384888 0.44795987709515711 0 -0.46883351757595032 0.47397993854757831 0 -0.47886065550384888 0.44795987709515711 0 -0.46136141765357569 0.45480837207735397 0 -0.46883351757595032 0.47397993854757831 0 -0.47886065550384888 0.44795987709515711 0 -0.46883351757595032 0.47397993854757831 0 -0.48474867780434883 0.46517096474208619 0 -0.47886065550384888 0.44795987709515711 0 -0.47886065550384888 0.44795987709515711 0 -0.46136141765357569 0.45480837207735397 0 -0.47107485896969092 0.42986191336572982 0 -0.46136141765357569 0.45480837207735397 0 -0.45287722360023702 0.42934117654910442 0 -0.47107485896969092 0.42986191336572982 0 -0.44521376955114261 0.47397845934202398 0 -0.46883351757595032 0.47397993854757831 0 -0.46136141765357569 0.45480837207735397 0 -0.43686308765383619 0.46520412794957411 0 -0.44456460532286141 0.44795691868405019 0 -0.43686308765383619 0.46520412794957411 0 -0.44521376955114261 0.47397845934202398 0 -0.44456460532286141 0.44795691868405019 0 -0.44521376955114261 0.47397845934202398 0 -0.46136141765357569 0.45480837207735397 0 -0.44456460532286141 0.44795691868405019 0 -0.43574519446627857 0.45805443152650133 0 -0.43686308765383619 0.46520412794957411 0 -0.44456460532286141 0.44795691868405019 0 -0.44521376955114261 0.47397845934202398 0 -0.44456460532286141 0.44795691868405019 0 -0.44456460532286141 0.44795691868405019 0 -0.45287722360023702 0.42934117654910442 0 -0.44456460532286141 0.44795691868405019 0 -0.44406611079433478 0.42797492479606242 0 -0.46136141765357569 0.45480837207735397 0 -0.44456460532286141 0.44795691868405019 0 -0.45287722360023702 0.42934117654910442 0 -0.43599188965124541 0.43812091441268908 0 -0.44456460532286141 0.44795691868405019 0 -0.44406611079433478 0.42797492479606242 0 -0.43220679091380387 0.44678174930254722 0 -0.43574519446627857 0.45805443152650133 0 -0.44456460532286141 0.44795691868405019 0 -0.43220679091380387 0.44678174930254722 0 -0.43599188965124541 0.43812091441268908 0 -0.44456460532286141 0.44795691868405019 0 -0.44456460532286141 0.44795691868405019 0 -0.44406611079433478 0.42797492479606242 0 -0.45287722360023702 0.42934117654910442 0 -0.43599188965124541 0.43812091441268908 0 -0.44406611079433478 0.42797492479606242 0 -0.43495540071854139 0.42908922320100318 0 -0.44406611079433478 0.42797492479606242 0 -0.43561709626757011 0.41965003353212421 0 -0.43495540071854139 0.42908922320100318 0 -0.44406611079433478 0.42797492479606242 0 -0.45287722360023702 0.42934117654910442 0 -0.4501513009936095 0.41782590145917903 0 -0.44356761626580848 0.40799293090807459 0 -0.4501513009936095 0.41782590145917903 0 -0.46118984187761242 0.41072543441415821 0 -0.44406611079433478 0.42797492479606242 0 -0.44356761626580848 0.40799293090807459 0 -0.43561709626757011 0.41965003353212421 0 -0.44406611079433478 0.42797492479606242 0 -0.44356761626580848 0.40799293090807459 0 -0.44406611079433478 0.42797492479606242 0 -0.44356761626580848 0.40799293090807459 0 -0.4501513009936095 0.41782590145917903 0 -0.45287722360023702 0.42934117654910442 0 -0.46118984187761242 0.41072543441415821 0 -0.45287722360023702 0.42934117654910442 0 -0.4501513009936095 0.41782590145917903 0 -0.46118984187761242 0.41072543441415821 0 -0.45287722360023702 0.42934117654910442 0 -0.46118984187761242 0.41072543441415821 0 -0.47107485896969092 0.42986191336572982 0 -0.47886065550384888 0.44795987709515711 0 -0.4888877934317476 0.42193981564273592 0 -0.5 0.45525695869579608 0 -0.4888877934317476 0.42193981564273592 0 -0.5 0.39443224800179111 0 -0.47886065550384888 0.44795987709515711 0 -0.47107485896969092 0.42986191336572982 0 -0.4888877934317476 0.42193981564273592 0 -0.4752348562730645 0.4096718734814343 0 -0.4888877934317476 0.42193981564273592 0 -0.48475123007749349 0.39327097014049978 0 -0.47107485896969092 0.42986191336572982 0 -0.4752348562730645 0.4096718734814343 0 -0.4888877934317476 0.42193981564273592 0 -0.46118984187761242 0.41072543441415821 0 -0.47107485896969092 0.42986191336572982 0 -0.4752348562730645 0.4096718734814343 0 -0.48541344147974103 0.37822834974751107 0 -0.5 0.39443224800179111 0 -0.5 0.37042817254066129 0 -0.48541344147974103 0.37822834974751107 0 -0.5 0.39443224800179111 0 -0.48475123007749349 0.39327097014049978 0 -0.5 0.39443224800179111 0 -0.48475123007749349 0.39327097014049978 0 -0.4888877934317476 0.42193981564273592 0 -0.5 0.39443224800179111 0 -0.48475123007749349 0.39327097014049978 0 -0.4752348562730645 0.4096718734814343 0 -0.48475123007749349 0.39327097014049978 0 -0.46950246015498681 0.39210969227921177 0 -0.48475123007749349 0.39327097014049978 0 -0.46950246015498681 0.39210969227921177 0 -0.48475123007749349 0.39327097014049978 0 -0.46950246015498681 0.39210969227921177 0 -0.47349732342471967 0.38316337211723561 0 -0.46950246015498681 0.39210969227921177 0 -0.47349732342471967 0.38316337211723561 0 -0.48541344147974103 0.37822834974751107 0 -0.48475123007749349 0.39327097014049978 0 -0.47349732342471967 0.38316337211723561 0 -0.48541344147974103 0.37822834974751107 0 -0.47349732342471967 0.38316337211723561 0 -0.47072146254030151 0.37053448900272618 0 -0.47349732342471967 0.38316337211723561 0 -0.46186451004902113 0.38080857806051938 0 -0.47072146254030151 0.37053448900272618 0 -0.46186451004902113 0.38080857806051938 0 -0.44597832582633362 0.38094990842404142 0 -0.45573057662823208 0.36911302352831221 0 -0.46186451004902113 0.38080857806051938 0 -0.4564290261491859 0.39111407823564032 0 -0.44597832582633362 0.38094990842404142 0 -0.46950246015498681 0.39210969227921177 0 -0.47349732342471967 0.38316337211723561 0 -0.46186451004902113 0.38080857806051938 0 -0.46950246015498681 0.39210969227921177 0 -0.46186451004902113 0.38080857806051938 0 -0.4564290261491859 0.39111407823564032 0 -0.46118984187761242 0.41072543441415821 0 -0.46950246015498681 0.39210969227921177 0 -0.46118984187761242 0.41072543441415821 0 -0.4752348562730645 0.4096718734814343 0 -0.46950246015498681 0.39210969227921177 0 -0.44356761626580848 0.40799293090807459 0 -0.46118984187761242 0.41072543441415821 0 -0.4564290261491859 0.39111407823564032 0 -0.46118984187761242 0.41072543441415821 0 -0.46950246015498681 0.39210969227921177 0 -0.4564290261491859 0.39111407823564032 0 -0.46950246015498681 0.39210969227921177 0 -0.4564290261491859 0.39111407823564032 0 -0.44356761626580848 0.40799293090807459 0 -0.4564290261491859 0.39111407823564032 0 -0.44197956351583118 0.39325780883621908 0 -0.44356761626580848 0.40799293090807459 0 -0.44197956351583118 0.39325780883621908 0 -0.42796125617470693 0.39631793335974153 0 -0.4564290261491859 0.39111407823564032 0 -0.44197956351583118 0.39325780883621908 0 -0.44597832582633362 0.38094990842404142 0 -0.44197956351583118 0.39325780883621908 0 -0.44597832582633362 0.38094990842404142 0 -0.43384965247277318 0.38741436851814259 0 -0.44597832582633362 0.38094990842404142 0 -0.43114146467589748 0.37708904059557868 0 -0.44087010818503608 0.36788833969746659 0 -0.44597832582633362 0.38094990842404142 0 -0.43114146467589748 0.37708904059557868 0 -0.43384965247277318 0.38741436851814259 0 -0.43384965247277318 0.38741436851814259 0 -0.42218379391587257 0.38569458325931733 0 -0.42796125617470693 0.39631793335974153 0 -0.43114146467589748 0.37708904059557868 0 -0.43384965247277318 0.38741436851814259 0 -0.42218379391587257 0.38569458325931733 0 -0.43114146467589748 0.37708904059557868 0 -0.42218379391587257 0.38569458325931733 0 -0.42054255401152829 0.37085398730012359 0 -0.42218379391587257 0.38569458325931733 0 -0.41744373217146991 0.39974634521256569 0 -0.40590783559132948 0.3849147787565711 0 -0.42218379391587257 0.38569458325931733 0 -0.40590783559132948 0.3849147787565711 0 -0.42054255401152829 0.37085398730012359 0 -0.40590783559132948 0.3849147787565711 0 -0.4067538310726837 0.3706862339550539 0 -0.42054255401152829 0.37085398730012359 0 -0.40590783559132948 0.3849147787565711 0 -0.42054255401152829 0.37085398730012359 0 -0.41744373217146991 0.39974634521256569 0 -0.40419574101250078 0.40689373836952619 0 -0.40590783559132948 0.3849147787565711 0 -0.41744373217146991 0.39974634521256569 0 -0.42796125617470693 0.39631793335974153 0 -0.42858296590556888 0.4100655473624531 0 -0.42218379391587257 0.38569458325931733 0 -0.41744373217146991 0.39974634521256569 0 -0.42796125617470693 0.39631793335974153 0 -0.44197956351583118 0.39325780883621908 0 -0.43384965247277318 0.38741436851814259 0 -0.42796125617470693 0.39631793335974153 0 -0.44356761626580848 0.40799293090807459 0 -0.42796125617470693 0.39631793335974153 0 -0.42858296590556888 0.4100655473624531 0 -0.44356761626580848 0.40799293090807459 0 -0.43561709626757011 0.41965003353212421 0 -0.42858296590556888 0.4100655473624531 0 -0.43561709626757011 0.41965003353212421 0 -0.42858296590556888 0.4100655473624531 0 -0.42691338765359682 0.42312754139302738 0 -0.42858296590556888 0.4100655473624531 0 -0.42691338765359682 0.42312754139302738 0 -0.4162159225176042 0.41555787865248611 0 -0.42548766391088477 0.43762333488295929 0 -0.43599188965124541 0.43812091441268908 0 -0.43495540071854139 0.42908922320100318 0 -0.43561709626757011 0.41965003353212421 0 -0.43495540071854139 0.42908922320100318 0 -0.42691338765359682 0.42312754139302738 0 -0.42548766391088477 0.43762333488295929 0 -0.42691338765359682 0.42312754139302738 0 -0.41624542852100949 0.42930067755908452 0 -0.42548766391088477 0.43762333488295929 0 -0.43495540071854139 0.42908922320100318 0 -0.42691338765359682 0.42312754139302738 0 -0.41004264850680461 0.4432445123507267 0 -0.41624542852100949 0.42930067755908452 0 -0.40256752001615709 0.42695012051622322 0 -0.41004264850680461 0.4432445123507267 0 -0.42548766391088477 0.43762333488295929 0 -0.41624542852100949 0.42930067755908452 0 -0.42691338765359682 0.42312754139302738 0 -0.41624542852100949 0.42930067755908452 0 -0.4162159225176042 0.41555787865248611 0 -0.41624542852100949 0.42930067755908452 0 -0.4162159225176042 0.41555787865248611 0 -0.40256752001615709 0.42695012051622322 0 -0.4162159225176042 0.41555787865248611 0 -0.40419574101250078 0.40689373836952619 0 -0.40256752001615709 0.42695012051622322 0 -0.41744373217146991 0.39974634521256569 0 -0.4162159225176042 0.41555787865248611 0 -0.40419574101250078 0.40689373836952619 0 -0.41744373217146991 0.39974634521256569 0 -0.42858296590556888 0.4100655473624531 0 -0.4162159225176042 0.41555787865248611 0 -0.3917663186073132 0.41521773686629337 0 -0.40419574101250078 0.40689373836952619 0 -0.40256752001615709 0.42695012051622322 0 -0.3917663186073132 0.41521773686629337 0 -0.40419574101250078 0.40689373836952619 0 -0.39127311717113072 0.39897557021301872 0 -0.39331569598531041 0.44819211974022832 0 -0.40256752001615709 0.42695012051622322 0 -0.38497704736812249 0.43061424070484811 0 -0.3917663186073132 0.41521773686629337 0 -0.40256752001615709 0.42695012051622322 0 -0.38497704736812249 0.43061424070484811 0 -0.38497704736812249 0.43061424070484811 0 -0.37663839875093391 0.41303636166946828 0 -0.3739796580857051 0.42506441976553888 0 -0.38497704736812249 0.43061424070484811 0 -0.37094967347129609 0.43597114105826601 0 -0.3739796580857051 0.42506441976553888 0 -0.3917663186073132 0.41521773686629337 0 -0.37663839875093391 0.41303636166946828 0 -0.39127311717113072 0.39897557021301872 0 -0.3917663186073132 0.41521773686629337 0 -0.38497704736812249 0.43061424070484811 0 -0.37663839875093391 0.41303636166946828 0 -0.38497704736812249 0.43061424070484811 0 -0.37663839875093391 0.41303636166946828 0 -0.38816067729293852 0.38063292028707851 0 -0.3720525463745622 0.40336938059776112 0 -0.38816067729293852 0.38063292028707851 0 -0.39127311717113072 0.39897557021301872 0 -0.3720525463745622 0.40336938059776112 0 -0.37663839875093391 0.41303636166946828 0 -0.39127311717113072 0.39897557021301872 0 -0.3720525463745622 0.40336938059776112 0 -0.37663839875093391 0.41303636166946828 0 -0.39127311717113072 0.39897557021301872 0 -0.38816067729293852 0.38063292028707851 0 -0.3734654164974382 0.38729605376202009 0 -0.3720525463745622 0.40336938059776112 0 -0.38816067729293852 0.38063292028707851 0 -0.37578790504521442 0.3718181929392439 0 -0.3734654164974382 0.38729605376202009 0 -0.38816067729293852 0.38063292028707851 0 -0.40590783559132948 0.3849147787565711 0 -0.4067538310726837 0.3706862339550539 0 -0.38816067729293852 0.38063292028707851 0 -0.40590783559132948 0.3849147787565711 0 -0.39127311717113072 0.39897557021301872 0 -0.40419574101250078 0.40689373836952619 0 -0.40590783559132948 0.3849147787565711 0 -0.39127311717113072 0.39897557021301872 0 -0.40590783559132948 0.3849147787565711 0 -0.39127311717113072 0.39897557021301872 0 -0.40426880821131622 0.35789645997639707 0 -0.39863709583671442 0.34117700631461972 0 -0.41488928025630589 0.35913302345509918 0 -0.3908550727913328 0.35274380985572079 0 -0.40426880821131622 0.35789645997639707 0 -0.38770976091632542 0.36398941436200088 0 -0.3908550727913328 0.35274380985572079 0 -0.40426880821131622 0.35789645997639707 0 -0.39863709583671442 0.34117700631461972 0 -0.38816067729293852 0.38063292028707851 0 -0.40426880821131622 0.35789645997639707 0 -0.38816067729293852 0.38063292028707851 0 -0.40426880821131622 0.35789645997639707 0 -0.38770976091632542 0.36398941436200088 0 -0.38816067729293852 0.38063292028707851 0 -0.40426880821131622 0.35789645997639707 0 -0.4067538310726837 0.3706862339550539 0 -0.38816067729293852 0.38063292028707851 0 -0.38770976091632542 0.36398941436200088 0 -0.37578790504521442 0.3718181929392439 0 -0.38770976091632542 0.36398941436200088 0 -0.37578790504521442 0.3718181929392439 0 -0.37947634124082502 0.3568556887515642 0 -0.3908550727913328 0.35274380985572079 0 -0.37876898870174192 0.34145368770627038 0 -0.39863709583671442 0.34117700631461972 0 -0.3908550727913328 0.35274380985572079 0 -0.38770976091632542 0.36398941436200088 0 -0.37947634124082502 0.3568556887515642 0 -0.3908550727913328 0.35274380985572079 0 -0.37947634124082502 0.3568556887515642 0 -0.37876898870174192 0.34145368770627038 0 -0.37947634124082502 0.3568556887515642 0 -0.37876898870174192 0.34145368770627038 0 -0.36933936884233193 0.35052873935918971 0 -0.37876898870174192 0.34145368770627038 0 -0.38238491141712289 0.32322098917414022 0 -0.36796266564545121 0.3245537925308748 0 -0.38238491141712289 0.32322098917414022 0 -0.39863709583671442 0.34117700631461972 0 -0.37876898870174192 0.34145368770627038 0 -0.38238491141712289 0.32322098917414022 0 -0.39863709583671442 0.34117700631461972 0 -0.38238491141712289 0.32322098917414022 0 -0.39339861471437759 0.31043172352140141 0 -0.38150164608751752 0.30521501282884972 0 -0.39861148603199981 0.32481546625491969 0 -0.41167211542469018 0.33295366918134489 0 -0.40696469276709363 0.31629394308309278 0 -0.38238491141712289 0.32322098917414022 0 -0.39861148603199981 0.32481546625491969 0 -0.39339861471437759 0.31043172352140141 0 -0.39861148603199981 0.32481546625491969 0 -0.40696469276709363 0.31629394308309278 0 -0.39339861471437759 0.31043172352140141 0 -0.38238491141712289 0.32322098917414022 0 -0.39861148603199981 0.32481546625491969 0 -0.39863709583671442 0.34117700631461972 0 -0.39861148603199981 0.32481546625491969 0 -0.39863709583671442 0.34117700631461972 0 -0.41167211542469018 0.33295366918134489 0 -0.39863709583671442 0.34117700631461972 0 -0.41167211542469018 0.33295366918134489 0 -0.41105106727294211 0.34395314962958151 0 -0.41167211542469018 0.33295366918134489 0 -0.42315502763620583 0.32563972279927123 0 -0.42682498718132639 0.33507974051788808 0 -0.41167211542469018 0.33295366918134489 0 -0.42000533714740179 0.34336454991792992 0 -0.41105106727294211 0.34395314962958151 0 -0.41167211542469018 0.33295366918134489 0 -0.42000533714740179 0.34336454991792992 0 -0.42682498718132639 0.33507974051788808 0 -0.41167211542469018 0.33295366918134489 0 -0.40696469276709363 0.31629394308309278 0 -0.42315502763620583 0.32563972279927123 0 -0.40696469276709363 0.31629394308309278 0 -0.42315502763620583 0.32563972279927123 0 -0.42474336898485882 0.31051560304280518 0 -0.42315502763620583 0.32563972279927123 0 -0.43547294344781728 0.32365208868720602 0 -0.42474336898485882 0.31051560304280518 0 -0.42315502763620583 0.32563972279927123 0 -0.42474336898485882 0.31051560304280518 0 -0.42315502763620583 0.32563972279927123 0 -0.43547294344781728 0.32365208868720602 0 -0.42682498718132639 0.33507974051788808 0 -0.43547294344781728 0.32365208868720602 0 -0.43682799137759198 0.31122845674964661 0 -0.42474336898485882 0.31051560304280518 0 -0.42000533714740179 0.34336454991792992 0 -0.42682498718132639 0.33507974051788808 0 -0.43209608328509169 0.34633478859696287 0 -0.43547294344781728 0.32365208868720602 0 -0.42682498718132639 0.33507974051788808 0 -0.43663192828537889 0.33761083588793273 0 -0.42682498718132639 0.33507974051788808 0 -0.43663192828537889 0.33761083588793273 0 -0.43209608328509169 0.34633478859696287 0 -0.43663192828537889 0.33761083588793273 0 -0.43209608328509169 0.34633478859696287 0 -0.44347850500087632 0.34685850170102839 0 -0.43209608328509169 0.34633478859696287 0 -0.43629399320877982 0.35629371292937762 0 -0.44347850500087632 0.34685850170102839 0 -0.43209608328509169 0.34633478859696287 0 -0.43629399320877982 0.35629371292937762 0 -0.42478066234594769 0.35319577320386758 0 -0.43629399320877982 0.35629371292937762 0 -0.42478066234594769 0.35319577320386758 0 -0.4295471105079271 0.36276605482011592 0 -0.42478066234594769 0.35319577320386758 0 -0.41488928025630589 0.35913302345509918 0 -0.4295471105079271 0.36276605482011592 0 -0.42000533714740179 0.34336454991792992 0 -0.43209608328509169 0.34633478859696287 0 -0.42478066234594769 0.35319577320386758 0 -0.42000533714740179 0.34336454991792992 0 -0.41730386006970621 0.34957627134009939 0 -0.41105106727294211 0.34395314962958151 0 -0.39863709583671442 0.34117700631461972 0 -0.41488928025630589 0.35913302345509918 0 -0.41730386006970621 0.34957627134009939 0 -0.41488928025630589 0.35913302345509918 0 -0.41105106727294211 0.34395314962958151 0 -0.39863709583671442 0.34117700631461972 0 -0.41488928025630589 0.35913302345509918 0 -0.41105106727294211 0.34395314962958151 0 -0.42000533714740179 0.34336454991792992 0 -0.42478066234594769 0.35319577320386758 0 -0.41730386006970621 0.34957627134009939 0 -0.42478066234594769 0.35319577320386758 0 -0.41730386006970621 0.34957627134009939 0 -0.41488928025630589 0.35913302345509918 0 -0.41488928025630589 0.35913302345509918 0 -0.4067538310726837 0.3706862339550539 0 -0.42054255401152829 0.37085398730012359 0 -0.40426880821131622 0.35789645997639707 0 -0.41488928025630589 0.35913302345509918 0 -0.4067538310726837 0.3706862339550539 0 -0.43114146467589748 0.37708904059557868 0 -0.41488928025630589 0.35913302345509918 0 -0.42054255401152829 0.37085398730012359 0 -0.43114146467589748 0.37708904059557868 0 -0.41488928025630589 0.35913302345509918 0 -0.43114146467589748 0.37708904059557868 0 -0.41488928025630589 0.35913302345509918 0 -0.4295471105079271 0.36276605482011592 0 -0.43629399320877982 0.35629371292937762 0 -0.4295471105079271 0.36276605482011592 0 -0.44087010818503608 0.36788833969746659 0 -0.43114146467589748 0.37708904059557868 0 -0.4295471105079271 0.36276605482011592 0 -0.44087010818503608 0.36788833969746659 0 -0.43629399320877982 0.35629371292937762 0 -0.44087010818503608 0.36788833969746659 0 -0.44978536564713378 0.35738685210163768 0 -0.44087010818503608 0.36788833969746659 0 -0.44978536564713378 0.35738685210163768 0 -0.45573057662823208 0.36911302352831221 0 -0.44597832582633362 0.38094990842404142 0 -0.44087010818503608 0.36788833969746659 0 -0.45573057662823208 0.36911302352831221 0 -0.43629399320877982 0.35629371292937762 0 -0.44347850500087632 0.34685850170102839 0 -0.44978536564713378 0.35738685210163768 0 -0.44347850500087632 0.34685850170102839 0 -0.44978536564713378 0.35738685210163768 0 -0.45719756912951159 0.34643176992570818 0 -0.44978536564713378 0.35738685210163768 0 -0.45719756912951159 0.34643176992570818 0 -0.46493121994202752 0.35738608665461952 0 -0.45719756912951159 0.34643176992570818 0 -0.46493121994202752 0.35738608665461952 0 -0.47264171287105439 0.34330953868717928 0 -0.44978536564713378 0.35738685210163768 0 -0.46493121994202752 0.35738608665461952 0 -0.45573057662823208 0.36911302352831221 0 -0.46493121994202752 0.35738608665461952 0 -0.45573057662823208 0.36911302352831221 0 -0.47072146254030151 0.37053448900272618 0 -0.46186451004902113 0.38080857806051938 0 -0.45573057662823208 0.36911302352831221 0 -0.47072146254030151 0.37053448900272618 0 -0.48541344147974103 0.37822834974751107 0 -0.47072146254030151 0.37053448900272618 0 -0.48351063283593149 0.35754084668215302 0 -0.46493121994202752 0.35738608665461952 0 -0.47072146254030151 0.37053448900272618 0 -0.48351063283593149 0.35754084668215302 0 -0.46493121994202752 0.35738608665461952 0 -0.48351063283593149 0.35754084668215302 0 -0.47264171287105439 0.34330953868717928 0 -0.48351063283593149 0.35754084668215302 0 -0.48737174617026358 0.33514963066610592 0 -0.47264171287105439 0.34330953868717928 0 -0.48351063283593149 0.35754084668215302 0 -0.5 0.34642409707953142 0 -0.5 0.37042817254066129 0 -0.48351063283593149 0.35754084668215302 0 -0.5 0.34642409707953142 0 -0.48737174617026358 0.33514963066610592 0 -0.48541344147974103 0.37822834974751107 0 -0.48351063283593149 0.35754084668215302 0 -0.5 0.37042817254066129 0 -0.5 0.3224200216184015 0 -0.48737174617026358 0.33514963066610592 0 -0.4849301166547253 0.31157008299008437 0 -0.5 0.34642409707953142 0 -0.5 0.3224200216184015 0 -0.48737174617026358 0.33514963066610592 0 -0.47264171287105439 0.34330953868717928 0 -0.47361674937065662 0.32638284027022257 0 -0.46103070939135832 0.33364379852912007 0 -0.48737174617026358 0.33514963066610592 0 -0.47264171287105439 0.34330953868717928 0 -0.47361674937065662 0.32638284027022257 0 -0.48737174617026358 0.33514963066610592 0 -0.47361674937065662 0.32638284027022257 0 -0.4849301166547253 0.31157008299008437 0 -0.47361674937065662 0.32638284027022257 0 -0.46255054052847833 0.30889501234327738 0 -0.4849301166547253 0.31157008299008437 0 -0.47361674937065662 0.32638284027022257 0 -0.46101278996396799 0.32133181231231228 0 -0.46255054052847833 0.30889501234327738 0 -0.47361674937065662 0.32638284027022257 0 -0.46101278996396799 0.32133181231231228 0 -0.46103070939135832 0.33364379852912007 0 -0.46101278996396799 0.32133181231231228 0 -0.4522825846588423 0.31832684581420628 0 -0.44951495473549058 0.3251424949961097 0 -0.46101278996396799 0.32133181231231228 0 -0.46103070939135832 0.33364379852912007 0 -0.44951495473549058 0.3251424949961097 0 -0.46101278996396799 0.32133181231231228 0 -0.4522825846588423 0.31832684581420628 0 -0.45317887174263488 0.31069239654201147 0 -0.46101278996396799 0.32133181231231228 0 -0.45317887174263488 0.31069239654201147 0 -0.46255054052847833 0.30889501234327738 0 -0.45719756912951159 0.34643176992570818 0 -0.47264171287105439 0.34330953868717928 0 -0.46103070939135832 0.33364379852912007 0 -0.45719756912951159 0.34643176992570818 0 -0.46103070939135832 0.33364379852912007 0 -0.44859857176617701 0.3367642678356999 0 -0.44347850500087632 0.34685850170102839 0 -0.45719756912951159 0.34643176992570818 0 -0.44859857176617701 0.3367642678356999 0 -0.46103070939135832 0.33364379852912007 0 -0.44859857176617701 0.3367642678356999 0 -0.44951495473549058 0.3251424949961097 0 -0.44859857176617701 0.3367642678356999 0 -0.44215988895555153 0.33048193092217459 0 -0.44951495473549058 0.3251424949961097 0 -0.43663192828537889 0.33761083588793273 0 -0.44859857176617701 0.3367642678356999 0 -0.44215988895555153 0.33048193092217459 0 -0.43547294344781728 0.32365208868720602 0 -0.43663192828537889 0.33761083588793273 0 -0.44215988895555153 0.33048193092217459 0 -0.43663192828537889 0.33761083588793273 0 -0.44347850500087632 0.34685850170102839 0 -0.44859857176617701 0.3367642678356999 0 -0.44542372219327592 0.3161406794063919 0 -0.4522825846588423 0.31832684581420628 0 -0.44951495473549058 0.3251424949961097 0 -0.44542372219327592 0.3161406794063919 0 -0.4522825846588423 0.31832684581420628 0 -0.45317887174263488 0.31069239654201147 0 -0.43547294344781728 0.32365208868720602 0 -0.44542372219327592 0.3161406794063919 0 -0.44951495473549058 0.3251424949961097 0 -0.43547294344781728 0.32365208868720602 0 -0.44215988895555153 0.33048193092217459 0 -0.44951495473549058 0.3251424949961097 0 -0.43547294344781728 0.32365208868720602 0 -0.44542372219327592 0.3161406794063919 0 -0.43682799137759198 0.31122845674964661 0 -0.44542372219327592 0.3161406794063919 0 -0.44376051598923488 0.30768452247400357 0 -0.43682799137759198 0.31122845674964661 0 -0.44376051598923488 0.30768452247400357 0 -0.43682799137759198 0.31122845674964661 0 -0.43620991363261929 0.30220380309434719 0 -0.44600391436305459 0.29877695818440198 0 -0.4460742277362062 0.29620201535018259 0 -0.46255054052847833 0.30889501234327738 0 -0.44600391436305459 0.29877695818440198 0 -0.4460742277362062 0.29620201535018259 0 -0.43620991363261929 0.30220380309434719 0 -0.44376051598923488 0.30768452247400357 0 -0.44600391436305459 0.29877695818440198 0 -0.43620991363261929 0.30220380309434719 0 -0.44600391436305459 0.29877695818440198 0 -0.4460742277362062 0.29620201535018259 0 -0.44542372219327592 0.3161406794063919 0 -0.44376051598923488 0.30768452247400357 0 -0.45317887174263488 0.31069239654201147 0 -0.44376051598923488 0.30768452247400357 0 -0.44600391436305459 0.29877695818440198 0 -0.45317887174263488 0.31069239654201147 0 -0.4460742277362062 0.29620201535018259 0 -0.44684860468944809 0.26784359223231508 0 -0.43671824110323432 0.28729366077605178 0 -0.4460742277362062 0.29620201535018259 0 -0.44684860468944809 0.26784359223231508 0 -0.4460742277362062 0.29620201535018259 0 -0.46343459427640121 0.28012380726899289 0 -0.44684860468944809 0.26784359223231508 0 -0.4460742277362062 0.29620201535018259 0 -0.4730371138681031 0.29730898075372708 0 -0.4460742277362062 0.29620201535018259 0 -0.4730371138681031 0.29730898075372708 0 -0.46343459427640121 0.28012380726899289 0 -0.4460742277362062 0.29620201535018259 0 -0.46255054052847833 0.30889501234327738 0 -0.4730371138681031 0.29730898075372708 0 -0.44600391436305459 0.29877695818440198 0 -0.45317887174263488 0.31069239654201147 0 -0.46255054052847833 0.30889501234327738 0 -0.46255054052847833 0.30889501234327738 0 -0.4730371138681031 0.29730898075372708 0 -0.4849301166547253 0.31157008299008437 0 -0.4730371138681031 0.29730898075372708 0 -0.48195616749389042 0.28061082712795571 0 -0.46343459427640121 0.28012380726899289 0 -0.49999999999999989 0.29841594615727163 0 -0.5 0.27495599121302461 0 -0.48195616749389042 0.28061082712795571 0 -0.4730371138681031 0.29730898075372708 0 -0.49999999999999989 0.29841594615727163 0 -0.48195616749389042 0.28061082712795571 0 -0.5 0.3224200216184015 0 -0.49999999999999989 0.29841594615727163 0 -0.4849301166547253 0.31157008299008437 0 -0.4730371138681031 0.29730898075372708 0 -0.49999999999999989 0.29841594615727163 0 -0.4730371138681031 0.29730898075372708 0 -0.49999999999999989 0.29841594615727163 0 -0.4849301166547253 0.31157008299008437 0 -0.47993662372660462 0.23872573632670871 0 -0.5 0.25149603626877748 0 -0.47451806798994201 0.26322601374090121 0 -0.5 0.25149603626877748 0 -0.5 0.27495599121302461 0 -0.47451806798994201 0.26322601374090121 0 -0.5 0.27495599121302461 0 -0.48195616749389042 0.28061082712795571 0 -0.47451806798994201 0.26322601374090121 0 -0.48195616749389042 0.28061082712795571 0 -0.47451806798994201 0.26322601374090121 0 -0.46343459427640121 0.28012380726899289 0 -0.44762298164268821 0.23948516911444739 0 -0.47451806798994201 0.26322601374090121 0 -0.44684860468944809 0.26784359223231508 0 -0.47451806798994201 0.26322601374090121 0 -0.46343459427640121 0.28012380726899289 0 -0.44684860468944809 0.26784359223231508 0 -0.44762298164268821 0.23948516911444739 0 -0.43111005823006537 0.24989225486996819 0 -0.44684860468944809 0.26784359223231508 0 -0.44762298164268821 0.23948516911444739 0 -0.44684860468944809 0.26784359223231508 0 -0.43111005823006537 0.24989225486996819 0 -0.42805524830885988 0.27898002691641138 0 -0.43111005823006537 0.24989225486996819 0 -0.44684860468944809 0.26784359223231508 0 -0.42805524830885988 0.27898002691641138 0 -0.43111005823006537 0.24989225486996819 0 -0.42127337807423859 0.25538243113189962 0 -0.42805524830885988 0.27898002691641138 0 -0.41380148088901691 0.26386134506572018 0 -0.42127337807423859 0.25538243113189962 0 -0.40516101789932918 0.25657686647302069 0 -0.41380148088901691 0.26386134506572018 0 -0.41023717767436418 0.27418942594728801 0 -0.40516101789932918 0.25657686647302069 0 -0.41023717767436418 0.27418942594728801 0 -0.42805524830885988 0.27898002691641138 0 -0.41368504894569619 0.283269644536007 0 -0.41380148088901691 0.26386134506572018 0 -0.41023717767436418 0.27418942594728801 0 -0.42805524830885988 0.27898002691641138 0 -0.41380148088901691 0.26386134506572018 0 -0.42127337807423859 0.25538243113189962 0 -0.42805524830885988 0.27898002691641138 0 -0.41023717767436418 0.27418942594728801 0 -0.41368504894569619 0.283269644536007 0 -0.40726937107517691 0.28221571706697662 0 -0.44684860468944809 0.26784359223231508 0 -0.42861782588312303 0.28093752208155148 0 -0.43671824110323432 0.28729366077605178 0 -0.44684860468944809 0.26784359223231508 0 -0.42805524830885988 0.27898002691641138 0 -0.42861782588312303 0.28093752208155148 0 -0.42127337807423859 0.25538243113189962 0 -0.42805524830885988 0.27898002691641138 0 -0.42805524830885988 0.27898002691641138 0 -0.42861782588312303 0.28093752208155148 0 -0.42805524830885988 0.27898002691641138 0 -0.42633171033351358 0.29539148328633941 0 -0.4460742277362062 0.29620201535018259 0 -0.43671824110323432 0.28729366077605178 0 -0.42633171033351358 0.29539148328633941 0 -0.42805524830885988 0.27898002691641138 0 -0.42861782588312303 0.28093752208155148 0 -0.42633171033351358 0.29539148328633941 0 -0.42861782588312303 0.28093752208155148 0 -0.43671824110323432 0.28729366077605178 0 -0.42633171033351358 0.29539148328633941 0 -0.4460742277362062 0.29620201535018259 0 -0.42633171033351358 0.29539148328633941 0 -0.42805524830885988 0.27898002691641138 0 -0.42633171033351358 0.29539148328633941 0 -0.41899360019286269 0.28887381404808882 0 -0.4460742277362062 0.29620201535018259 0 -0.42633171033351358 0.29539148328633941 0 -0.43620991363261929 0.30220380309434719 0 -0.43682799137759198 0.31122845674964661 0 -0.43620991363261929 0.30220380309434719 0 -0.42474336898485882 0.31051560304280518 0 -0.42633171033351358 0.29539148328633941 0 -0.42474336898485882 0.31051560304280518 0 -0.4187741514135882 0.30132649232625602 0 -0.42633171033351358 0.29539148328633941 0 -0.42474336898485882 0.31051560304280518 0 -0.42633171033351358 0.29539148328633941 0 -0.43620991363261929 0.30220380309434719 0 -0.42474336898485882 0.31051560304280518 0 -0.40696469276709363 0.31629394308309278 0 -0.42474336898485882 0.31051560304280518 0 -0.41305557976177992 0.30660746722210069 0 -0.42474336898485882 0.31051560304280518 0 -0.4187741514135882 0.30132649232625602 0 -0.41305557976177992 0.30660746722210069 0 -0.42633171033351358 0.29539148328633941 0 -0.4187741514135882 0.30132649232625602 0 -0.41376385720514058 0.29487550815882968 0 -0.4187741514135882 0.30132649232625602 0 -0.41103161087172529 0.30049963117876899 0 -0.41305557976177992 0.30660746722210069 0 -0.4187741514135882 0.30132649232625602 0 -0.41103161087172529 0.30049963117876899 0 -0.41376385720514058 0.29487550815882968 0 -0.41103161087172529 0.30049963117876899 0 -0.41376385720514058 0.29487550815882968 0 -0.40546072750939788 0.2976604079869023 0 -0.41103161087172529 0.30049963117876899 0 -0.41305557976177992 0.30660746722210069 0 -0.40453764530960529 0.3053828894813167 0 -0.41103161087172529 0.30049963117876899 0 -0.40453764530960529 0.3053828894813167 0 -0.40546072750939788 0.2976604079869023 0 -0.40696469276709363 0.31629394308309278 0 -0.41305557976177992 0.30660746722210069 0 -0.40453764530960529 0.3053828894813167 0 -0.42805524830885988 0.27898002691641138 0 -0.41899360019286269 0.28887381404808882 0 -0.41368504894569619 0.283269644536007 0 -0.41899360019286269 0.28887381404808882 0 -0.41313213617110278 0.2918524073428565 0 -0.41368504894569619 0.283269644536007 0 -0.42633171033351358 0.29539148328633941 0 -0.41376385720514058 0.29487550815882968 0 -0.42633171033351358 0.29539148328633941 0 -0.41899360019286269 0.28887381404808882 0 -0.41376385720514058 0.29487550815882968 0 -0.41899360019286269 0.28887381404808882 0 -0.41313213617110278 0.2918524073428565 0 -0.41376385720514058 0.29487550815882968 0 -0.41313213617110278 0.2918524073428565 0 -0.40148093585532291 0.29093907882304809 0 -0.40546072750939788 0.2976604079869023 0 -0.41313213617110278 0.2918524073428565 0 -0.41376385720514058 0.29487550815882968 0 -0.40546072750939788 0.2976604079869023 0 -0.41313213617110278 0.2918524073428565 0 -0.41368504894569619 0.283269644536007 0 -0.40726937107517691 0.28221571706697662 0 -0.39150035178174852 0.29287460236378049 0 -0.40546072750939788 0.2976604079869023 0 -0.38441764650924187 0.29353894995111729 0 -0.41313213617110278 0.2918524073428565 0 -0.40726937107517691 0.28221571706697662 0 -0.39583052795904211 0.28136889759865352 0 -0.41313213617110278 0.2918524073428565 0 -0.40148093585532291 0.29093907882304809 0 -0.39583052795904211 0.28136889759865352 0 -0.41313213617110278 0.2918524073428565 0 -0.39583052795904211 0.28136889759865352 0 -0.40546072750939788 0.2976604079869023 0 -0.38441764650924187 0.29353894995111729 0 -0.40148093585532291 0.29093907882304809 0 -0.39150035178174852 0.29287460236378049 0 -0.40546072750939788 0.2976604079869023 0 -0.39150035178174852 0.29287460236378049 0 -0.39583052795904211 0.28136889759865352 0 -0.38493161666103137 0.28430852037826398 0 -0.39150035178174852 0.29287460236378049 0 -0.39583052795904211 0.28136889759865352 0 -0.40148093585532291 0.29093907882304809 0 -0.39150035178174852 0.29287460236378049 0 -0.39583052795904211 0.28136889759865352 0 -0.40546072750939788 0.2976604079869023 0 -0.39591760409135912 0.30130618964485367 0 -0.38441764650924187 0.29353894995111729 0 -0.40696469276709363 0.31629394308309278 0 -0.40453764530960529 0.3053828894813167 0 -0.39339861471437759 0.31043172352140141 0 -0.40453764530960529 0.3053828894813167 0 -0.40546072750939788 0.2976604079869023 0 -0.39591760409135912 0.30130618964485367 0 -0.40453764530960529 0.3053828894813167 0 -0.39591760409135912 0.30130618964485367 0 -0.39339861471437759 0.31043172352140141 0 -0.39591760409135912 0.30130618964485367 0 -0.39339861471437759 0.31043172352140141 0 -0.38880887785062401 0.3026229689865555 0 -0.38238491141712289 0.32322098917414022 0 -0.38150164608751752 0.30521501282884972 0 -0.3661327269975313 0.30526497203366071 0 -0.39339861471437759 0.31043172352140141 0 -0.38880887785062401 0.3026229689865555 0 -0.38150164608751752 0.30521501282884972 0 -0.38880887785062401 0.3026229689865555 0 -0.38150164608751752 0.30521501282884972 0 -0.38441764650924187 0.29353894995111729 0 -0.39591760409135912 0.30130618964485367 0 -0.38880887785062401 0.3026229689865555 0 -0.38441764650924187 0.29353894995111729 0 -0.38150164608751752 0.30521501282884972 0 -0.38441764650924187 0.29353894995111729 0 -0.37369667475645579 0.29831241351080923 0 -0.39150035178174852 0.29287460236378049 0 -0.38493161666103137 0.28430852037826398 0 -0.38441764650924187 0.29353894995111729 0 -0.38493161666103137 0.28430852037826398 0 -0.38441764650924187 0.29353894995111729 0 -0.37545380398271588 0.28352502467436952 0 -0.39583052795904211 0.28136889759865352 0 -0.37745575307240842 0.27023512730339949 0 -0.39583052795904211 0.28136889759865352 0 -0.38493161666103137 0.28430852037826398 0 -0.37745575307240842 0.27023512730339949 0 -0.38493161666103137 0.28430852037826398 0 -0.37545380398271588 0.28352502467436952 0 -0.37745575307240842 0.27023512730339949 0 -0.39583052795904211 0.28136889759865352 0 -0.37745575307240842 0.27023512730339949 0 -0.38642849736781398 0.26497125686707018 0 -0.37745575307240842 0.27023512730339949 0 -0.37611385007772519 0.26529268816860069 0 -0.38642849736781398 0.26497125686707018 0 -0.39394669757350109 0.24382060887220011 0 -0.37611385007772519 0.26529268816860069 0 -0.38642849736781398 0.26497125686707018 0 -0.39394669757350109 0.24382060887220011 0 -0.37611385007772519 0.26529268816860069 0 -0.37681523902969338 0.2467608340689659 0 -0.39394669757350109 0.24382060887220011 0 -0.37611385007772519 0.26529268816860069 0 -0.39394669757350109 0.24382060887220011 0 -0.38642849736781398 0.26497125686707018 0 -0.39379450080350847 0.26243309064601511 0 -0.39394669757350109 0.24382060887220011 0 -0.40516101789932918 0.25657686647302069 0 -0.39379450080350847 0.26243309064601511 0 -0.39583052795904211 0.28136889759865352 0 -0.38642849736781398 0.26497125686707018 0 -0.39379450080350847 0.26243309064601511 0 -0.39583052795904211 0.28136889759865352 0 -0.40516101789932918 0.25657686647302069 0 -0.39583052795904211 0.28136889759865352 0 -0.40516101789932918 0.25657686647302069 0 -0.39379450080350847 0.26243309064601511 0 -0.41023717767436418 0.27418942594728801 0 -0.39583052795904211 0.28136889759865352 0 -0.40516101789932918 0.25657686647302069 0 -0.41023717767436418 0.27418942594728801 0 -0.40726937107517691 0.28221571706697662 0 -0.39583052795904211 0.28136889759865352 0 -0.34807726489019097 0.27296083645517988 0 -0.35908097818577422 0.2591013570081464 0 -0.33602412288711547 0.2666447573279459 0 -0.35908097818577422 0.2591013570081464 0 -0.35696520457300701 0.28326499172780728 0 -0.34807726489019097 0.27296083645517988 0 -0.35908097818577422 0.2591013570081464 0 -0.35696520457300701 0.28326499172780728 0 -0.34807726489019097 0.27296083645517988 0 -0.35696520457300701 0.28326499172780728 0 -0.34233148450892997 0.28529603387954677 0 -0.33794474823729193 0.2462943468213025 0 -0.35908097818577422 0.2591013570081464 0 -0.33794474823729193 0.2462943468213025 0 -0.35908097818577422 0.2591013570081464 0 -0.33602412288711547 0.2666447573279459 0 -0.37745575307240842 0.27023512730339949 0 -0.37611385007772519 0.26529268816860069 0 -0.35908097818577422 0.2591013570081464 0 -0.37681523902969338 0.2467608340689659 0 -0.37611385007772519 0.26529268816860069 0 -0.36830935552651811 0.25143577335329698 0 -0.37745575307240842 0.27023512730339949 0 -0.35908097818577422 0.2591013570081464 0 -0.37611385007772519 0.26529268816860069 0 -0.35908097818577422 0.2591013570081464 0 -0.36830935552651811 0.25143577335329698 0 -0.35908097818577422 0.2591013570081464 0 -0.36646606106459839 0.27710879852581088 0 -0.35696520457300701 0.28326499172780728 0 -0.37745575307240842 0.27023512730339949 0 -0.35908097818577422 0.2591013570081464 0 -0.36646606106459839 0.27710879852581088 0 -0.37545380398271588 0.28352502467436952 0 -0.37745575307240842 0.27023512730339949 0 -0.36646606106459839 0.27710879852581088 0 -0.38441764650924187 0.29353894995111729 0 -0.36337456550908592 0.28941749191533228 0 -0.37369667475645579 0.29831241351080923 0 -0.38441764650924187 0.29353894995111729 0 -0.37545380398271588 0.28352502467436952 0 -0.36337456550908592 0.28941749191533228 0 -0.37545380398271588 0.28352502467436952 0 -0.36646606106459839 0.27710879852581088 0 -0.36337456550908592 0.28941749191533228 0 -0.36337456550908592 0.28941749191533228 0 -0.3661327269975313 0.30526497203366071 0 -0.34998133804897991 0.28679431972205183 0 -0.38441764650924187 0.29353894995111729 0 -0.36337456550908592 0.28941749191533228 0 -0.36646606106459839 0.27710879852581088 0 -0.36337456550908592 0.28941749191533228 0 -0.35696520457300701 0.28326499172780728 0 -0.36337456550908592 0.28941749191533228 0 -0.37369667475645579 0.29831241351080923 0 -0.3661327269975313 0.30526497203366071 0 -0.38150164608751752 0.30521501282884972 0 -0.37369667475645579 0.29831241351080923 0 -0.3661327269975313 0.30526497203366071 0 -0.34233148450892997 0.28529603387954677 0 -0.35178944789718308 0.31326384377316469 0 -0.35290436147651277 0.29843561465736368 0 -0.34233148450892997 0.28529603387954677 0 -0.35178944789718308 0.31326384377316469 0 -0.3661327269975313 0.30526497203366071 0 -0.35290436147651277 0.29843561465736368 0 -0.35178944789718308 0.31326384377316469 0 -0.3661327269975313 0.30526497203366071 0 -0.35290436147651277 0.29843561465736368 0 -0.34998133804897991 0.28679431972205183 0 -0.3661327269975313 0.30526497203366071 0 -0.34998133804897991 0.28679431972205183 0 -0.36337456550908592 0.28941749191533228 0 -0.34998133804897991 0.28679431972205183 0 -0.36337456550908592 0.28941749191533228 0 -0.35696520457300701 0.28326499172780728 0 -0.34998133804897991 0.28679431972205183 0 -0.35290436147651277 0.29843561465736368 0 -0.34998133804897991 0.28679431972205183 0 -0.34233148450892997 0.28529603387954677 0 -0.34998133804897991 0.28679431972205183 0 -0.34233148450892997 0.28529603387954677 0 -0.35696520457300701 0.28326499172780728 0 -0.34998133804897991 0.28679431972205183 0 -0.34233148450892997 0.28529603387954677 0 -0.34233148450892997 0.28529603387954677 0 -0.33342520207507781 0.28355166625079059 0 -0.33691349311946839 0.31278880123960301 0 -0.34233148450892997 0.28529603387954677 0 -0.33342520207507781 0.28355166625079059 0 -0.34233148450892997 0.28529603387954677 0 -0.33342520207507781 0.28355166625079059 0 -0.33324783544175979 0.28206506661364272 0 -0.33342520207507781 0.28355166625079059 0 -0.33083501010922139 0.29868736480638719 0 -0.32702089934552331 0.29216073320518249 0 -0.33342520207507781 0.28355166625079059 0 -0.33324783544175979 0.28206506661364272 0 -0.34233148450892997 0.28529603387954677 0 -0.33691349311946839 0.31278880123960301 0 -0.35178944789718308 0.31326384377316469 0 -0.33342520207507781 0.28355166625079059 0 -0.33691349311946839 0.31278880123960301 0 -0.33342520207507781 0.28355166625079059 0 -0.33083501010922139 0.29868736480638719 0 -0.33691349311946839 0.31278880123960301 0 -0.33083501010922139 0.29868736480638719 0 -0.3298101075078847 0.30759353645186488 0 -0.32624817923498461 0.30332558030217688 0 -0.33083501010922139 0.29868736480638719 0 -0.3298101075078847 0.30759353645186488 0 -0.33691349311946839 0.31278880123960301 0 -0.3298101075078847 0.30759353645186488 0 -0.32635291797494431 0.30755578048912158 0 -0.32938802086093399 0.31397476770227623 0 -0.3298101075078847 0.30759353645186488 0 -0.32938802086093399 0.31397476770227623 0 -0.33691349311946839 0.31278880123960301 0 -0.31996536429597389 0.30532923750016838 0 -0.30562211511745663 0.31419001765028048 0 -0.32938802086093399 0.31397476770227623 0 -0.32635291797494431 0.30755578048912158 0 -0.31996536429597389 0.30532923750016838 0 -0.32938802086093399 0.31397476770227623 0 -0.3298101075078847 0.30759353645186488 0 -0.32635291797494431 0.30755578048912158 0 -0.32624817923498461 0.30332558030217688 0 -0.32635291797494431 0.30755578048912158 0 -0.32624817923498461 0.30332558030217688 0 -0.31996536429597389 0.30532923750016838 0 -0.32624817923498461 0.30332558030217688 0 -0.32319109774024912 0.29725202303367682 0 -0.31996536429597389 0.30532923750016838 0 -0.33083501010922139 0.29868736480638719 0 -0.32624817923498461 0.30332558030217688 0 -0.32319109774024912 0.29725202303367682 0 -0.32319109774024912 0.29725202303367682 0 -0.31996536429597389 0.30532923750016838 0 -0.31181403891036208 0.29632269312241749 0 -0.33342520207507781 0.28355166625079059 0 -0.31089724817384762 0.2791393838176543 0 -0.33342520207507781 0.28355166625079059 0 -0.32063228745754457 0.28915187872987519 0 -0.31089724817384762 0.2791393838176543 0 -0.33342520207507781 0.28355166625079059 0 -0.33324783544175979 0.28206506661364272 0 -0.31089724817384762 0.2791393838176543 0 -0.32063228745754457 0.28915187872987519 0 -0.31089724817384762 0.2791393838176543 0 -0.31181403891036208 0.29632269312241749 0 -0.33342520207507781 0.28355166625079059 0 -0.32702089934552331 0.29216073320518249 0 -0.32063228745754457 0.28915187872987519 0 -0.32319109774024912 0.29725202303367682 0 -0.32702089934552331 0.29216073320518249 0 -0.32063228745754457 0.28915187872987519 0 -0.33083501010922139 0.29868736480638719 0 -0.32319109774024912 0.29725202303367682 0 -0.32702089934552331 0.29216073320518249 0 -0.32319109774024912 0.29725202303367682 0 -0.32063228745754457 0.28915187872987519 0 -0.31181403891036208 0.29632269312241749 0 -0.32442099820557019 0.2627168653194788 0 -0.30762219930103463 0.26189979111203171 0 -0.31089724817384762 0.2791393838176543 0 -0.32442099820557019 0.2627168653194788 0 -0.31089724817384762 0.2791393838176543 0 -0.33324783544175979 0.28206506661364272 0 -0.3267557773654165 0.27284169927763618 0 -0.31089724817384762 0.2791393838176543 0 -0.3267557773654165 0.27284169927763618 0 -0.32442099820557019 0.2627168653194788 0 -0.31089724817384762 0.2791393838176543 0 -0.34233148450892997 0.28529603387954677 0 -0.33602412288711547 0.2666447573279459 0 -0.33324783544175979 0.28206506661364272 0 -0.3267557773654165 0.27284169927763618 0 -0.33602412288711547 0.2666447573279459 0 -0.34807726489019097 0.27296083645517988 0 -0.34233148450892997 0.28529603387954677 0 -0.33602412288711547 0.2666447573279459 0 -0.34233148450892997 0.28529603387954677 0 -0.33324783544175979 0.28206506661364272 0 -0.33602412288711547 0.2666447573279459 0 -0.3267557773654165 0.27284169927763618 0 -0.33602412288711547 0.2666447573279459 0 -0.32442099820557019 0.2627168653194788 0 -0.33794474823729193 0.2462943468213025 0 -0.32442099820557019 0.2627168653194788 0 -0.33794474823729193 0.2462943468213025 0 -0.33602412288711547 0.2666447573279459 0 -0.32442099820557019 0.2627168653194788 0 -0.33794474823729193 0.2462943468213025 0 -0.32082041548708717 0.25046015867422061 0 -0.32442099820557019 0.2627168653194788 0 -0.32082041548708717 0.25046015867422061 0 -0.32442099820557019 0.2627168653194788 0 -0.30762219930103463 0.26189979111203171 0 -0.30806477178239122 0.2443534105402905 0 -0.30762219930103463 0.26189979111203171 0 -0.29273814627298023 0.25310047739325697 0 -0.30806477178239122 0.2443534105402905 0 -0.32082041548708717 0.25046015867422061 0 -0.30762219930103463 0.26189979111203171 0 -0.30762219930103463 0.26189979111203171 0 -0.2986224877965688 0.26454199544144719 0 -0.29273814627298023 0.25310047739325697 0 -0.31089724817384762 0.2791393838176543 0 -0.29085324108974031 0.27521360250903931 0 -0.29340140952858468 0.28388163346327122 0 -0.30762219930103463 0.26189979111203171 0 -0.31089724817384762 0.2791393838176543 0 -0.30105451031600661 0.2709829821807308 0 -0.31089724817384762 0.2791393838176543 0 -0.30105451031600661 0.2709829821807308 0 -0.29085324108974031 0.27521360250903931 0 -0.31089724817384762 0.2791393838176543 0 -0.29085324108974031 0.27521360250903931 0 -0.30762219930103463 0.26189979111203171 0 -0.2986224877965688 0.26454199544144719 0 -0.30105451031600661 0.2709829821807308 0 -0.2986224877965688 0.26454199544144719 0 -0.30105451031600661 0.2709829821807308 0 -0.29307509529625397 0.27218473107976943 0 -0.29085324108974031 0.27521360250903931 0 -0.28740939435417068 0.27680983519128571 0 -0.27080923400563328 0.27128782120042239 0 -0.29085324108974031 0.27521360250903931 0 -0.28626508863132499 0.26761106535722923 0 -0.27080923400563328 0.27128782120042239 0 -0.29085324108974031 0.27521360250903931 0 -0.28740939435417068 0.27680983519128571 0 -0.29340140952858468 0.28388163346327122 0 -0.30105451031600661 0.2709829821807308 0 -0.29085324108974031 0.27521360250903931 0 -0.29307509529625397 0.27218473107976943 0 -0.29085324108974031 0.27521360250903931 0 -0.29307509529625397 0.27218473107976943 0 -0.28626508863132499 0.26761106535722923 0 -0.2986224877965688 0.26454199544144719 0 -0.29307509529625397 0.27218473107976943 0 -0.29273814627298023 0.25310047739325697 0 -0.29307509529625397 0.27218473107976943 0 -0.29273814627298023 0.25310047739325697 0 -0.29307509529625397 0.27218473107976943 0 -0.28626508863132499 0.26761106535722923 0 -0.29273814627298023 0.25310047739325697 0 -0.28626508863132499 0.26761106535722923 0 -0.29273814627298023 0.25310047739325697 0 -0.28202896296579771 0.26111807112144131 0 -0.27739300119014232 0.2498976087937482 0 -0.29273814627298023 0.25310047739325697 0 -0.28202896296579771 0.26111807112144131 0 -0.27739300119014232 0.2498976087937482 0 -0.26238480513058621 0.26577899388075549 0 -0.27739300119014232 0.2498976087937482 0 -0.26238480513058621 0.26577899388075549 0 -0.26434182981645687 0.25094058488530963 0 -0.27739300119014232 0.2498976087937482 0 -0.28202896296579771 0.26111807112144131 0 -0.27080923400563328 0.27128782120042239 0 -0.27739300119014232 0.2498976087937482 0 -0.27080923400563328 0.27128782120042239 0 -0.26238480513058621 0.26577899388075549 0 -0.29085324108974031 0.27521360250903931 0 -0.27080923400563328 0.27128782120042239 0 -0.28626508863132499 0.26761106535722923 0 -0.28202896296579771 0.26111807112144131 0 -0.27080923400563328 0.27128782120042239 0 -0.28740939435417068 0.27680983519128571 0 -0.27080923400563328 0.27128782120042239 0 -0.26654383045280827 0.28623119828848997 0 -0.27080923400563328 0.27128782120042239 0 -0.26128895581232059 0.2766508167422187 0 -0.26654383045280827 0.28623119828848997 0 -0.26238480513058621 0.26577899388075549 0 -0.2473766090710299 0.28166037896776291 0 -0.26238480513058621 0.26577899388075549 0 -0.26128895581232059 0.2766508167422187 0 -0.2473766090710299 0.28166037896776291 0 -0.27080923400563328 0.27128782120042239 0 -0.26238480513058621 0.26577899388075549 0 -0.26128895581232059 0.2766508167422187 0 -0.26238480513058621 0.26577899388075549 0 -0.25292703069924483 0.26651900669448142 0 -0.2473766090710299 0.28166037896776291 0 -0.25292703069924483 0.26651900669448142 0 -0.25609861417151381 0.25605052277617718 0 -0.24909991397027259 0.26088405249251428 0 -0.26238480513058621 0.26577899388075549 0 -0.25292703069924483 0.26651900669448142 0 -0.25609861417151381 0.25605052277617718 0 -0.25609861417151381 0.25605052277617718 0 -0.24747775448132589 0.25266819895304049 0 -0.24909991397027259 0.26088405249251428 0 -0.25727145084114272 0.24379712609696269 0 -0.25609861417151381 0.25605052277617718 0 -0.24747775448132589 0.25266819895304049 0 -0.25727145084114272 0.24379712609696269 0 -0.25609861417151381 0.25605052277617718 0 -0.26434182981645687 0.25094058488530963 0 -0.26238480513058621 0.26577899388075549 0 -0.25609861417151381 0.25605052277617718 0 -0.26434182981645687 0.25094058488530963 0 -0.25789042718056432 0.30265013098191862 0 -0.25050063588921662 0.29773753647149243 0 -0.25380716470350739 0.31465931032116667 0 -0.25050063588921662 0.29773753647149243 0 -0.25380716470350739 0.31465931032116667 0 -0.2460538491720502 0.30362120837674089 0 -0.25050063588921662 0.29773753647149243 0 -0.25380716470350739 0.31465931032116667 0 -0.25789042718056432 0.30265013098191862 0 -0.26057306808043779 0.29484382996021619 0 -0.26668084004909559 0.30335984717479642 0 -0.25789042718056432 0.30265013098191862 0 -0.26668084004909559 0.30335984717479642 0 -0.25380716470350739 0.31465931032116667 0 -0.25789042718056432 0.30265013098191862 0 -0.25050063588921662 0.29773753647149243 0 -0.26057306808043779 0.29484382996021619 0 -0.26654383045280827 0.28623119828848997 0 -0.24567826655144581 0.2956525613856944 0 -0.25050063588921662 0.29773753647149243 0 -0.26057306808043779 0.29484382996021619 0 -0.24567826655144581 0.2956525613856944 0 -0.26654383045280827 0.28623119828848997 0 -0.24552216629469559 0.2881465010030026 0 -0.24567826655144581 0.2956525613856944 0 -0.26128895581232059 0.2766508167422187 0 -0.26654383045280827 0.28623119828848997 0 -0.2473766090710299 0.28166037896776291 0 -0.26057306808043779 0.29484382996021619 0 -0.26654383045280827 0.28623119828848997 0 -0.24567826655144581 0.2956525613856944 0 -0.26654383045280827 0.28623119828848997 0 -0.24552216629469559 0.2881465010030026 0 -0.2473766090710299 0.28166037896776291 0 -0.26057306808043779 0.29484382996021619 0 -0.26654383045280827 0.28623119828848997 0 -0.26668084004909559 0.30335984717479642 0 -0.28740939435417068 0.27680983519128571 0 -0.26654383045280827 0.28623119828848997 0 -0.28147043525125248 0.29147302009040882 0 -0.28740939435417068 0.27680983519128571 0 -0.26654383045280827 0.28623119828848997 0 -0.26654383045280827 0.28623119828848997 0 -0.26668084004909559 0.30335984717479642 0 -0.28147043525125248 0.29147302009040882 0 -0.26668084004909559 0.30335984717479642 0 -0.28185620937397932 0.31440526759828408 0 -0.25380716470350739 0.31465931032116667 0 -0.26668084004909559 0.30335984717479642 0 -0.28147043525125248 0.29147302009040882 0 -0.28185620937397932 0.31440526759828408 0 -0.29637672877391302 0.29677232570796869 0 -0.30562211511745663 0.31419001765028048 0 -0.28185620937397932 0.31440526759828408 0 -0.28147043525125248 0.29147302009040882 0 -0.29637672877391302 0.29677232570796869 0 -0.28185620937397932 0.31440526759828408 0 -0.29637672877391302 0.29677232570796869 0 -0.28185620937397932 0.31440526759828408 0 -0.28740939435417068 0.27680983519128571 0 -0.28147043525125248 0.29147302009040882 0 -0.29340140952858468 0.28388163346327122 0 -0.28147043525125248 0.29147302009040882 0 -0.29637672877391302 0.29677232570796869 0 -0.29340140952858468 0.28388163346327122 0 -0.31089724817384762 0.2791393838176543 0 -0.29637672877391302 0.29677232570796869 0 -0.29340140952858468 0.28388163346327122 0 -0.31089724817384762 0.2791393838176543 0 -0.29637672877391302 0.29677232570796869 0 -0.31089724817384762 0.2791393838176543 0 -0.29637672877391302 0.29677232570796869 0 -0.31181403891036208 0.29632269312241749 0 -0.31996536429597389 0.30532923750016838 0 -0.31181403891036208 0.29632269312241749 0 -0.30562211511745663 0.31419001765028048 0 -0.29637672877391302 0.29677232570796869 0 -0.31181403891036208 0.29632269312241749 0 -0.30562211511745663 0.31419001765028048 0 -0.30562211511745663 0.31419001765028048 0 -0.30882617002347212 0.32665835226438411 0 -0.32055868187189668 0.32326925931144812 0 -0.30562211511745663 0.31419001765028048 0 -0.30882617002347212 0.32665835226438411 0 -0.29706607829107662 0.32433766788163049 0 -0.30305858682018211 0.33723871101451491 0 -0.31392693160122143 0.34739986220294289 0 -0.31769229831007528 0.33475463069358152 0 -0.30882617002347212 0.32665835226438411 0 -0.30305858682018211 0.33723871101451491 0 -0.31769229831007528 0.33475463069358152 0 -0.30882617002347212 0.32665835226438411 0 -0.29706607829107662 0.32433766788163049 0 -0.30305858682018211 0.33723871101451491 0 -0.30305858682018211 0.33723871101451491 0 -0.28596731012029342 0.32919599088068918 0 -0.29471350551989478 0.34589684988561381 0 -0.29706607829107662 0.32433766788163049 0 -0.30305858682018211 0.33723871101451491 0 -0.28596731012029342 0.32919599088068918 0 -0.28596731012029342 0.32919599088068918 0 -0.2835124413248864 0.34473936314640602 0 -0.29471350551989478 0.34589684988561381 0 -0.28596731012029342 0.32919599088068918 0 -0.27705094421634119 0.33701910870316509 0 -0.2835124413248864 0.34473936314640602 0 -0.30562211511745663 0.31419001765028048 0 -0.28185620937397932 0.31440526759828408 0 -0.30562211511745663 0.31419001765028048 0 -0.29706607829107662 0.32433766788163049 0 -0.28185620937397932 0.31440526759828408 0 -0.29706607829107662 0.32433766788163049 0 -0.28596731012029342 0.32919599088068918 0 -0.28185620937397932 0.31440526759828408 0 -0.28185620937397932 0.31440526759828408 0 -0.25380716470350739 0.31465931032116667 0 -0.28185620937397932 0.31440526759828408 0 -0.27050122642421942 0.32819415138432378 0 -0.25380716470350739 0.31465931032116667 0 -0.28185620937397932 0.31440526759828408 0 -0.27050122642421942 0.32819415138432378 0 -0.28596731012029342 0.32919599088068918 0 -0.28185620937397932 0.31440526759828408 0 -0.27050122642421942 0.32819415138432378 0 -0.28596731012029342 0.32919599088068918 0 -0.27705094421634119 0.33701910870316509 0 -0.27050122642421942 0.32819415138432378 0 -0.27705094421634119 0.33701910870316509 0 -0.27200109271270928 0.34612967854435372 0 -0.2835124413248864 0.34473936314640602 0 -0.27705094421634119 0.33701910870316509 0 -0.26961888410183449 0.33903734197325008 0 -0.27200109271270928 0.34612967854435372 0 -0.26961888410183449 0.33903734197325008 0 -0.27050122642421942 0.32819415138432378 0 -0.2591462434744598 0.34198303517036371 0 -0.26961888410183449 0.33903734197325008 0 -0.26596658175057009 0.34372427409081108 0 -0.27200109271270928 0.34612967854435372 0 -0.27705094421634119 0.33701910870316509 0 -0.26961888410183449 0.33903734197325008 0 -0.27050122642421942 0.32819415138432378 0 -0.2591462434744598 0.34198303517036371 0 -0.25270756293501878 0.34980182433866192 0 -0.24330742636243741 0.33512807726625438 0 -0.2591462434744598 0.34198303517036371 0 -0.25380716470350739 0.31465931032116667 0 -0.24330742636243741 0.33512807726625438 0 -0.27050122642421942 0.32819415138432378 0 -0.2591462434744598 0.34198303517036371 0 -0.25380716470350739 0.31465931032116667 0 -0.2591462434744598 0.34198303517036371 0 -0.25380716470350739 0.31465931032116667 0 -0.27050122642421942 0.32819415138432378 0 -0.2591462434744598 0.34198303517036371 0 -0.26961888410183449 0.33903734197325008 0 -0.26596658175057009 0.34372427409081108 0 -0.2591462434744598 0.34198303517036371 0 -0.26459195213134901 0.36985245821751889 0 -0.25200336759263231 0.36266484576205621 0 -0.2479947466348614 0.37352466122982808 0 -0.26459195213134901 0.36985245821751889 0 -0.25200336759263231 0.36266484576205621 0 -0.26037771221738287 0.3482853046320914 0 -0.25200336759263231 0.36266484576205621 0 -0.25270756293501878 0.34980182433866192 0 -0.26037771221738287 0.3482853046320914 0 -0.26459195213134901 0.36985245821751889 0 -0.26037771221738287 0.3482853046320914 0 -0.26729108465451368 0.35407867870710918 0 -0.26459195213134901 0.36985245821751889 0 -0.26037771221738287 0.3482853046320914 0 -0.2591462434744598 0.34198303517036371 0 -0.25270756293501878 0.34980182433866192 0 -0.26037771221738287 0.3482853046320914 0 -0.2591462434744598 0.34198303517036371 0 -0.25270756293501878 0.34980182433866192 0 -0.25270756293501878 0.34980182433866192 0 -0.26037771221738287 0.3482853046320914 0 -0.2591462434744598 0.34198303517036371 0 -0.26037771221738287 0.3482853046320914 0 -0.26310010671327699 0.34774704067527701 0 -0.2591462434744598 0.34198303517036371 0 -0.26037771221738287 0.3482853046320914 0 -0.26037771221738287 0.3482853046320914 0 -0.26310010671327699 0.34774704067527701 0 -0.26729108465451368 0.35407867870710918 0 -0.26037771221738287 0.3482853046320914 0 -0.26310010671327699 0.34774704067527701 0 -0.26596658175057009 0.34372427409081108 0 -0.2591462434744598 0.34198303517036371 0 -0.26310010671327699 0.34774704067527701 0 -0.26729108465451368 0.35407867870710918 0 -0.27200109271270928 0.34612967854435372 0 -0.27638455949785351 0.3583789114663043 0 -0.26596658175057009 0.34372427409081108 0 -0.26310010671327699 0.34774704067527701 0 -0.27200109271270928 0.34612967854435372 0 -0.26310010671327699 0.34774704067527701 0 -0.26729108465451368 0.35407867870710918 0 -0.27200109271270928 0.34612967854435372 0 -0.27200109271270928 0.34612967854435372 0 -0.27638455949785351 0.3583789114663043 0 -0.2835124413248864 0.34473936314640602 0 -0.26459195213134901 0.36985245821751889 0 -0.27638455949785351 0.3583789114663043 0 -0.28575964977858059 0.37567680241266638 0 -0.26459195213134901 0.36985245821751889 0 -0.26729108465451368 0.35407867870710918 0 -0.27638455949785351 0.3583789114663043 0 -0.27638455949785351 0.3583789114663043 0 -0.29025769790093459 0.35776506435084288 0 -0.28575964977858059 0.37567680241266638 0 -0.29025769790093459 0.35776506435084288 0 -0.29948958143226079 0.36685993442420228 0 -0.28575964977858059 0.37567680241266638 0 -0.27638455949785351 0.3583789114663043 0 -0.2835124413248864 0.34473936314640602 0 -0.29025769790093459 0.35776506435084288 0 -0.29025769790093459 0.35776506435084288 0 -0.29471350551989478 0.34589684988561381 0 -0.30241391068564538 0.35384425633854599 0 -0.2835124413248864 0.34473936314640602 0 -0.29025769790093459 0.35776506435084288 0 -0.29471350551989478 0.34589684988561381 0 -0.30305858682018211 0.33723871101451491 0 -0.29471350551989478 0.34589684988561381 0 -0.30241391068564538 0.35384425633854599 0 -0.30305858682018211 0.33723871101451491 0 -0.30241391068564538 0.35384425633854599 0 -0.31392693160122143 0.34739986220294289 0 -0.30241391068564538 0.35384425633854599 0 -0.31244235661057618 0.36339190192454351 0 -0.31392693160122143 0.34739986220294289 0 -0.29948958143226079 0.36685993442420228 0 -0.31244235661057618 0.36339190192454351 0 -0.30853729317346867 0.38075992599654301 0 -0.29948958143226079 0.36685993442420228 0 -0.30853729317346867 0.38075992599654301 0 -0.28575964977858059 0.37567680241266638 0 -0.29025769790093459 0.35776506435084288 0 -0.30241391068564538 0.35384425633854599 0 -0.29948958143226079 0.36685993442420228 0 -0.30241391068564538 0.35384425633854599 0 -0.29948958143226079 0.36685993442420228 0 -0.31244235661057618 0.36339190192454351 0 -0.31244235661057618 0.36339190192454351 0 -0.32386506143722288 0.37348330693125797 0 -0.30853729317346867 0.38075992599654301 0 -0.31244235661057618 0.36339190192454351 0 -0.32386506143722288 0.37348330693125797 0 -0.3267644468988587 0.3573001272142638 0 -0.32386506143722288 0.37348330693125797 0 -0.3267644468988587 0.3573001272142638 0 -0.34389007520824788 0.37126307121722768 0 -0.34040178416385819 0.34202593622841532 0 -0.34389007520824788 0.37126307121722768 0 -0.3267644468988587 0.3573001272142638 0 -0.34040178416385819 0.34202593622841532 0 -0.34389007520824788 0.37126307121722768 0 -0.3267644468988587 0.3573001272142638 0 -0.32615934270771518 0.34212262383528369 0 -0.34040178416385819 0.34202593622841532 0 -0.3267644468988587 0.3573001272142638 0 -0.31392693160122143 0.34739986220294289 0 -0.32615934270771518 0.34212262383528369 0 -0.31244235661057618 0.36339190192454351 0 -0.3267644468988587 0.3573001272142638 0 -0.31392693160122143 0.34739986220294289 0 -0.31392693160122143 0.34739986220294289 0 -0.31769229831007528 0.33475463069358152 0 -0.32615934270771518 0.34212262383528369 0 -0.30882617002347212 0.32665835226438411 0 -0.31769229831007528 0.33475463069358152 0 -0.32055868187189668 0.32326925931144812 0 -0.31769229831007528 0.33475463069358152 0 -0.32615934270771518 0.34212262383528369 0 -0.33201125256456271 0.32913256283721498 0 -0.31769229831007528 0.33475463069358152 0 -0.32055868187189668 0.32326925931144812 0 -0.33201125256456271 0.32913256283721498 0 -0.30562211511745663 0.31419001765028048 0 -0.32938802086093399 0.31397476770227623 0 -0.30562211511745663 0.31419001765028048 0 -0.32055868187189668 0.32326925931144812 0 -0.32938802086093399 0.31397476770227623 0 -0.32055868187189668 0.32326925931144812 0 -0.32955316460928441 0.3203719148482253 0 -0.33201125256456271 0.32913256283721498 0 -0.32055868187189668 0.32326925931144812 0 -0.32938802086093399 0.31397476770227623 0 -0.32955316460928441 0.3203719148482253 0 -0.33691349311946839 0.31278880123960301 0 -0.34040178416385819 0.34202593622841532 0 -0.34493207201903497 0.32610782444177711 0 -0.33691349311946839 0.31278880123960301 0 -0.34040178416385819 0.34202593622841532 0 -0.33691349311946839 0.31278880123960301 0 -0.33201125256456271 0.32913256283721498 0 -0.34040178416385819 0.34202593622841532 0 -0.32955316460928441 0.3203719148482253 0 -0.33691349311946839 0.31278880123960301 0 -0.33201125256456271 0.32913256283721498 0 -0.32938802086093399 0.31397476770227623 0 -0.32955316460928441 0.3203719148482253 0 -0.33691349311946839 0.31278880123960301 0 -0.32615934270771518 0.34212262383528369 0 -0.33201125256456271 0.32913256283721498 0 -0.34040178416385819 0.34202593622841532 0 -0.34995486304849788 0.33573443919456752 0 -0.36124741128543603 0.34123165366678287 0 -0.34819384061074338 0.35307520667217962 0 -0.34995486304849788 0.33573443919456752 0 -0.35178944789718308 0.31326384377316469 0 -0.36124741128543603 0.34123165366678287 0 -0.34040178416385819 0.34202593622841532 0 -0.34995486304849788 0.33573443919456752 0 -0.34493207201903497 0.32610782444177711 0 -0.34040178416385819 0.34202593622841532 0 -0.34995486304849788 0.33573443919456752 0 -0.34819384061074338 0.35307520667217962 0 -0.34995486304849788 0.33573443919456752 0 -0.34493207201903497 0.32610782444177711 0 -0.35178944789718308 0.31326384377316469 0 -0.35178944789718308 0.31326384377316469 0 -0.36124741128543603 0.34123165366678287 0 -0.33691349311946839 0.31278880123960301 0 -0.34493207201903497 0.32610782444177711 0 -0.35178944789718308 0.31326384377316469 0 -0.38238491141712289 0.32322098917414022 0 -0.3661327269975313 0.30526497203366071 0 -0.38238491141712289 0.32322098917414022 0 -0.3661327269975313 0.30526497203366071 0 -0.36796266564545121 0.3245537925308748 0 -0.3661327269975313 0.30526497203366071 0 -0.35178944789718308 0.31326384377316469 0 -0.36796266564545121 0.3245537925308748 0 -0.35178944789718308 0.31326384377316469 0 -0.36796266564545121 0.3245537925308748 0 -0.36124741128543603 0.34123165366678287 0 -0.37876898870174192 0.34145368770627038 0 -0.36796266564545121 0.3245537925308748 0 -0.36124741128543603 0.34123165366678287 0 -0.36124741128543603 0.34123165366678287 0 -0.36933936884233193 0.35052873935918971 0 -0.34819384061074338 0.35307520667217962 0 -0.36933936884233193 0.35052873935918971 0 -0.36333777948732338 0.36129426325208019 0 -0.34819384061074338 0.35307520667217962 0 -0.37947634124082502 0.3568556887515642 0 -0.36933936884233193 0.35052873935918971 0 -0.36333777948732338 0.36129426325208019 0 -0.37876898870174192 0.34145368770627038 0 -0.36124741128543603 0.34123165366678287 0 -0.36933936884233193 0.35052873935918971 0 -0.37578790504521442 0.3718181929392439 0 -0.37947634124082502 0.3568556887515642 0 -0.36333777948732338 0.36129426325208019 0 -0.37578790504521442 0.3718181929392439 0 -0.36333777948732338 0.36129426325208019 0 -0.3601231934926532 0.37822229363497017 0 -0.34389007520824788 0.37126307121722768 0 -0.34819384061074338 0.35307520667217962 0 -0.3601231934926532 0.37822229363497017 0 -0.36333777948732338 0.36129426325208019 0 -0.34819384061074338 0.35307520667217962 0 -0.3601231934926532 0.37822229363497017 0 -0.34819384061074338 0.35307520667217962 0 -0.3601231934926532 0.37822229363497017 0 -0.34040178416385819 0.34202593622841532 0 -0.34389007520824788 0.37126307121722768 0 -0.34819384061074338 0.35307520667217962 0 -0.35871375583178572 0.40492844361452862 0 -0.34806452102887148 0.39948881645879608 0 -0.35338357400425902 0.41308766054152418 0 -0.35741359874124462 0.39427079887023381 0 -0.35871375583178572 0.40492844361452862 0 -0.34806452102887148 0.39948881645879608 0 -0.35741359874124462 0.39427079887023381 0 -0.34806452102887148 0.39948881645879608 0 -0.34811397697835023 0.38534506004511287 0 -0.34389007520824788 0.37126307121722768 0 -0.34811397697835023 0.38534506004511287 0 -0.3601231934926532 0.37822229363497017 0 -0.35741359874124462 0.39427079887023381 0 -0.34811397697835023 0.38534506004511287 0 -0.3601231934926532 0.37822229363497017 0 -0.3601231934926532 0.37822229363497017 0 -0.3734654164974382 0.38729605376202009 0 -0.3720525463745622 0.40336938059776112 0 -0.37578790504521442 0.3718181929392439 0 -0.3601231934926532 0.37822229363497017 0 -0.3734654164974382 0.38729605376202009 0 -0.35741359874124462 0.39427079887023381 0 -0.3601231934926532 0.37822229363497017 0 -0.3720525463745622 0.40336938059776112 0 -0.3601231934926532 0.37822229363497017 0 -0.3720525463745622 0.40336938059776112 0 -0.35741359874124462 0.39427079887023381 0 -0.35871375583178572 0.40492844361452862 0 -0.3720525463745622 0.40336938059776112 0 -0.37663839875093391 0.41303636166946828 0 -0.3720525463745622 0.40336938059776112 0 -0.37663839875093391 0.41303636166946828 0 -0.3720525463745622 0.40336938059776112 0 -0.36146654035272557 0.41831141868918659 0 -0.37663839875093391 0.41303636166946828 0 -0.3739796580857051 0.42506441976553888 0 -0.36185490894350891 0.42724009017399228 0 -0.37663839875093391 0.41303636166946828 0 -0.36185490894350891 0.42724009017399228 0 -0.37663839875093391 0.41303636166946828 0 -0.36146654035272557 0.41831141868918659 0 -0.36185490894350891 0.42724009017399228 0 -0.35871375583178572 0.40492844361452862 0 -0.3720525463745622 0.40336938059776112 0 -0.36146654035272557 0.41831141868918659 0 -0.3720525463745622 0.40336938059776112 0 -0.36146654035272557 0.41831141868918659 0 -0.37094967347129609 0.43597114105826601 0 -0.3739796580857051 0.42506441976553888 0 -0.36185490894350891 0.42724009017399228 0 -0.37094967347129609 0.43597114105826601 0 -0.36185490894350891 0.42724009017399228 0 -0.36031937943803349 0.4410036038194653 0 -0.36185490894350891 0.42724009017399228 0 -0.34707141913608591 0.44144381867851851 0 -0.36185490894350891 0.42724009017399228 0 -0.34707141913608591 0.44144381867851851 0 -0.36031937943803349 0.4410036038194653 0 -0.36185490894350891 0.42724009017399228 0 -0.35088053433089039 0.43325345678061328 0 -0.34707141913608591 0.44144381867851851 0 -0.36146654035272557 0.41831141868918659 0 -0.3502521655395005 0.42233215056768991 0 -0.35088053433089039 0.43325345678061328 0 -0.36146654035272557 0.41831141868918659 0 -0.36185490894350891 0.42724009017399228 0 -0.35088053433089039 0.43325345678061328 0 -0.36146654035272557 0.41831141868918659 0 -0.35088053433089039 0.43325345678061328 0 -0.3502521655395005 0.42233215056768991 0 -0.34284831863018111 0.41634190193513498 0 -0.34268186037944642 0.43066631489199048 0 -0.3502521655395005 0.42233215056768991 0 -0.35088053433089039 0.43325345678061328 0 -0.34268186037944642 0.43066631489199048 0 -0.35088053433089039 0.43325345678061328 0 -0.34268186037944642 0.43066631489199048 0 -0.34707141913608591 0.44144381867851851 0 -0.34806452102887148 0.39948881645879608 0 -0.35338357400425902 0.41308766054152418 0 -0.34284831863018111 0.41634190193513498 0 -0.35871375583178572 0.40492844361452862 0 -0.36146654035272557 0.41831141868918659 0 -0.35338357400425902 0.41308766054152418 0 -0.36146654035272557 0.41831141868918659 0 -0.3502521655395005 0.42233215056768991 0 -0.35338357400425902 0.41308766054152418 0 -0.3502521655395005 0.42233215056768991 0 -0.35338357400425902 0.41308766054152418 0 -0.34284831863018111 0.41634190193513498 0 -0.33296803257016577 0.40774291801663659 0 -0.34284831863018111 0.41634190193513498 0 -0.32691235369307381 0.42761001032127732 0 -0.34806452102887148 0.39948881645879608 0 -0.33296803257016577 0.40774291801663659 0 -0.34284831863018111 0.41634190193513498 0 -0.34284831863018111 0.41634190193513498 0 -0.34268186037944642 0.43066631489199048 0 -0.32691235369307381 0.42761001032127732 0 -0.34268186037944642 0.43066631489199048 0 -0.32691235369307381 0.42761001032127732 0 -0.33699374623612721 0.44086602349531911 0 -0.32691235369307381 0.42761001032127732 0 -0.31633212807502048 0.40671121945674771 0 -0.29922651536377692 0.42362897386023102 0 -0.33296803257016577 0.40774291801663659 0 -0.32691235369307381 0.42761001032127732 0 -0.31633212807502048 0.40671121945674771 0 -0.33296803257016577 0.40774291801663659 0 -0.31633212807502048 0.40671121945674771 0 -0.33068284142368182 0.38856264191122669 0 -0.31633212807502048 0.40671121945674771 0 -0.33068284142368182 0.38856264191122669 0 -0.30853729317346867 0.38075992599654301 0 -0.34806452102887148 0.39948881645879608 0 -0.34811397697835023 0.38534506004511287 0 -0.33068284142368182 0.38856264191122669 0 -0.34806452102887148 0.39948881645879608 0 -0.33296803257016577 0.40774291801663659 0 -0.33068284142368182 0.38856264191122669 0 -0.32386506143722288 0.37348330693125797 0 -0.34389007520824788 0.37126307121722768 0 -0.33068284142368182 0.38856264191122669 0 -0.34389007520824788 0.37126307121722768 0 -0.34811397697835023 0.38534506004511287 0 -0.33068284142368182 0.38856264191122669 0 -0.32386506143722288 0.37348330693125797 0 -0.33068284142368182 0.38856264191122669 0 -0.30853729317346867 0.38075992599654301 0 -0.31633212807502048 0.40671121945674771 0 -0.30853729317346867 0.38075992599654301 0 -0.29256916006016892 0.39906541562984721 0 -0.31633212807502048 0.40671121945674771 0 -0.29256916006016892 0.39906541562984721 0 -0.30853729317346867 0.38075992599654301 0 -0.29256916006016892 0.39906541562984721 0 -0.28575964977858059 0.37567680241266638 0 -0.29256916006016892 0.39906541562984721 0 -0.28575964977858059 0.37567680241266638 0 -0.2688061920453173 0.39141961180294621 0 -0.26459195213134901 0.36985245821751889 0 -0.2688061920453173 0.39141961180294621 0 -0.26459195213134901 0.36985245821751889 0 -0.28575964977858059 0.37567680241266638 0 -0.2688061920453173 0.39141961180294621 0 -0.29256916006016892 0.39906541562984721 0 -0.2688061920453173 0.39141961180294621 0 -0.27378854132207647 0.41691770736980938 0 -0.29256916006016892 0.39906541562984721 0 -0.2688061920453173 0.39141961180294621 0 -0.2688061920453173 0.39141961180294621 0 -0.27378854132207647 0.41691770736980938 0 -0.2688061920453173 0.39141961180294621 0 -0.25196346146775661 0.4045087982104385 0 -0.27378854132207647 0.41691770736980938 0 -0.2688061920453173 0.39141961180294621 0 -0.25196346146775661 0.4045087982104385 0 -0.2517011221411829 0.3859160059886102 0 -0.26459195213134901 0.36985245821751889 0 -0.2688061920453173 0.39141961180294621 0 -0.2517011221411829 0.3859160059886102 0 -0.26459195213134901 0.36985245821751889 0 -0.2517011221411829 0.3859160059886102 0 -0.2479947466348614 0.37352466122982808 0 -0.2688061920453173 0.39141961180294621 0 -0.2517011221411829 0.3859160059886102 0 -0.25196346146775661 0.4045087982104385 0 -0.25641654511452738 0.43119935750548388 0 -0.27378854132207647 0.41691770736980938 0 -0.25641654511452738 0.43119935750548388 0 -0.27378854132207647 0.41691770736980938 0 -0.27877089059883481 0.44241580293667282 0 -0.27378854132207647 0.41691770736980938 0 -0.27877089059883481 0.44241580293667282 0 -0.27378854132207647 0.41691770736980938 0 -0.29922651536377692 0.42362897386023102 0 -0.27877089059883481 0.44241580293667282 0 -0.29256916006016892 0.39906541562984721 0 -0.27378854132207647 0.41691770736980938 0 -0.29922651536377692 0.42362897386023102 0 -0.31633212807502048 0.40671121945674771 0 -0.29256916006016892 0.39906541562984721 0 -0.29922651536377692 0.42362897386023102 0 -0.32691235369307381 0.42761001032127732 0 -0.29922651536377692 0.42362897386023102 0 -0.30698601843348738 0.44905368744703172 0 -0.30698601843348738 0.44905368744703172 0 -0.30192348974272382 0.47496689697898747 0 -0.32512233792875522 0.4713392691028403 0 -0.30698601843348738 0.44905368744703172 0 -0.28375323987559292 0.46791389850353621 0 -0.30192348974272382 0.47496689697898747 0 -0.30698601843348738 0.44905368744703172 0 -0.28375323987559292 0.46791389850353621 0 -0.27877089059883481 0.44241580293667282 0 -0.28375323987559292 0.46791389850353621 0 -0.27877089059883481 0.44241580293667282 0 -0.29922651536377692 0.42362897386023102 0 -0.30698601843348738 0.44905368744703172 0 -0.27877089059883481 0.44241580293667282 0 -0.25641654511452738 0.43119935750548388 0 -0.27877089059883481 0.44241580293667282 0 -0.26535662919000541 0.45580289739199492 0 -0.28375323987559292 0.46791389850353621 0 -0.26535662919000541 0.45580289739199492 0 -0.26848732538941528 0.47389662767678692 0 -0.28375323987559292 0.46791389850353621 0 -0.27877089059883481 0.44241580293667282 0 -0.26535662919000541 0.45580289739199492 0 -0.26535662919000541 0.45580289739199492 0 -0.25502281106591768 0.47026197411212167 0 -0.26848732538941528 0.47389662767678692 0 -0.26535662919000541 0.45580289739199492 0 -0.25502281106591768 0.47026197411212167 0 -0.24742697334070379 0.45181341538248071 0 -0.25502281106591768 0.47026197411212167 0 -0.24742697334070379 0.45181341538248071 0 -0.25641654511452738 0.43119935750548388 0 -0.26535662919000541 0.45580289739199492 0 -0.24742697334070379 0.45181341538248071 0 -0.26261864879113123 0.48871053284176291 0 -0.24385163168021851 0.49999999999999861 0 -0.24411887685538569 0.48641927337025331 0 -0.26261864879113123 0.48871053284176291 0 -0.26726686883882261 0.50000000000000144 0 -0.24385163168021851 0.49999999999999861 0 -0.26261864879113123 0.48871053284176291 0 -0.26726686883882261 0.50000000000000144 0 -0.26261864879113123 0.48871053284176291 0 -0.25502281106591768 0.47026197411212167 0 -0.26848732538941528 0.47389662767678692 0 -0.26261864879113123 0.48871053284176291 0 -0.24451455346417789 0.47295912738400769 0 -0.26261864879113123 0.48871053284176291 0 -0.25502281106591768 0.47026197411212167 0 -0.26261864879113123 0.48871053284176291 0 -0.24451455346417789 0.47295912738400769 0 -0.24411887685538569 0.48641927337025331 0 -0.26261864879113123 0.48871053284176291 0 -0.25502281106591768 0.47026197411212167 0 -0.24451455346417789 0.47295912738400769 0 -0.26261864879113123 0.48871053284176291 0 -0.26848732538941528 0.47389662767678692 0 -0.27594393798660072 0.48437662284752192 0 -0.28375323987559292 0.46791389850353621 0 -0.26848732538941528 0.47389662767678692 0 -0.27594393798660072 0.48437662284752192 0 -0.27594393798660072 0.48437662284752192 0 -0.27559435373195879 0.49999999999999878 0 -0.28978340206924741 0.48652762984152909 0 -0.26261864879113123 0.48871053284176291 0 -0.27594393798660072 0.48437662284752192 0 -0.27559435373195879 0.49999999999999878 0 -0.26261864879113123 0.48871053284176291 0 -0.26726686883882261 0.50000000000000144 0 -0.27559435373195879 0.49999999999999878 0 -0.26261864879113123 0.48871053284176291 0 -0.27559435373195879 0.49999999999999878 0 -0.27559435373195879 0.49999999999999878 0 -0.28978340206924741 0.48652762984152909 0 -0.30397245040653631 0.5 0 -0.28375323987559292 0.46791389850353621 0 -0.28978340206924741 0.48652762984152909 0 -0.30192348974272382 0.47496689697898747 0 -0.28375323987559292 0.46791389850353621 0 -0.27594393798660072 0.48437662284752192 0 -0.28978340206924741 0.48652762984152909 0 -0.30192348974272382 0.47496689697898747 0 -0.30397245040653631 0.5 0 -0.32512233792875522 0.4713392691028403 0 -0.28978340206924741 0.48652762984152909 0 -0.30192348974272382 0.47496689697898747 0 -0.30397245040653631 0.5 0 -0.33235054708111389 0.5 0 -0.32512233792875522 0.4713392691028403 0 -0.35277805206313612 0.46801805970875549 0 -0.30397245040653631 0.5 0 -0.33235054708111389 0.5 0 -0.32512233792875522 0.4713392691028403 0 -0.32512233792875522 0.4713392691028403 0 -0.35277805206313612 0.46801805970875549 0 -0.30698601843348738 0.44905368744703172 0 -0.32512233792875522 0.4713392691028403 0 -0.32737819422055131 0.44931013294199301 0 -0.32691235369307381 0.42761001032127732 0 -0.30698601843348738 0.44905368744703172 0 -0.32737819422055131 0.44931013294199301 0 -0.32691235369307381 0.42761001032127732 0 -0.32737819422055131 0.44931013294199301 0 -0.33699374623612721 0.44086602349531911 0 -0.32737819422055131 0.44931013294199301 0 -0.33699374623612721 0.44086602349531911 0 -0.34092490375147849 0.4552998406428162 0 -0.33699374623612721 0.44086602349531911 0 -0.34092490375147849 0.4552998406428162 0 -0.34707141913608591 0.44144381867851851 0 -0.34268186037944642 0.43066631489199048 0 -0.33699374623612721 0.44086602349531911 0 -0.34707141913608591 0.44144381867851851 0 -0.32512233792875522 0.4713392691028403 0 -0.32737819422055131 0.44931013294199301 0 -0.34092490375147849 0.4552998406428162 0 -0.32512233792875522 0.4713392691028403 0 -0.34092490375147849 0.4552998406428162 0 -0.35277805206313612 0.46801805970875549 0 -0.34092490375147849 0.4552998406428162 0 -0.35277805206313612 0.46801805970875549 0 -0.35349147411650861 0.45129569688089283 0 -0.35277805206313612 0.46801805970875549 0 -0.35349147411650861 0.45129569688089283 0 -0.36619148805679169 0.45026802838349639 0 -0.34092490375147849 0.4552998406428162 0 -0.34707141913608591 0.44144381867851851 0 -0.35349147411650861 0.45129569688089283 0 -0.34707141913608591 0.44144381867851851 0 -0.35349147411650861 0.45129569688089283 0 -0.36031937943803349 0.4410036038194653 0 -0.37094967347129609 0.43597114105826601 0 -0.36031937943803349 0.4410036038194653 0 -0.36619148805679169 0.45026802838349639 0 -0.35349147411650861 0.45129569688089283 0 -0.36031937943803349 0.4410036038194653 0 -0.36619148805679169 0.45026802838349639 0 -0.37917353421580752 0.44594847604030191 0 -0.37094967347129609 0.43597114105826601 0 -0.36619148805679169 0.45026802838349639 0 -0.38043376619751701 0.46469685031467078 0 -0.35277805206313612 0.46801805970875549 0 -0.36619148805679169 0.45026802838349639 0 -0.38043376619751701 0.46469685031467078 0 -0.35277805206313612 0.46801805970875549 0 -0.33235054708111389 0.5 0 -0.35277805206313612 0.46801805970875549 0 -0.36072864375569141 0.5 0 -0.35277805206313612 0.46801805970875549 0 -0.37479402773925369 0.48345061054471988 0 -0.36072864375569141 0.5 0 -0.38043376619751701 0.46469685031467078 0 -0.35277805206313612 0.46801805970875549 0 -0.37479402773925369 0.48345061054471988 0 -0.38910674043026883 0.5 0 -0.37479402773925369 0.48345061054471988 0 -0.36072864375569141 0.5 0 -0.15169828430521071 0.47316940828127679 0 -0.15143502834472719 0.49519326621148019 0 -0.142973916337021 0.48407862635776489 0 -0.15169828430521071 0.47316940828127679 0 -0.15143502834472719 0.49519326621148019 0 -0.142973916337021 0.48407862635776489 0 -0.14084511507447911 0.47454800699929278 0 -0.15169828430521071 0.47316940828127679 0 -0.14084511507447911 0.47454800699929278 0 -0.15169828430521071 0.47316940828127679 0 -0.13835721212779389 0.46284774265826528 0 -0.15143502834472719 0.49519326621148019 0 -0.12989931658880219 0.5 0 -0.1568155119433825 0.5 0 -0.142973916337021 0.48407862635776489 0 -0.15143502834472719 0.49519326621148019 0 -0.12989931658880219 0.5 0 -0.15169828430521071 0.47316940828127679 0 -0.15143502834472719 0.49519326621148019 0 -0.1625128434288943 0.48838494498827689 0 -0.12989931658880219 0.5 0 -0.13035104752789081 0.47809625069986389 0 -0.117102535461582 0.48686981281920849 0 -0.142973916337021 0.48407862635776489 0 -0.12989931658880219 0.5 0 -0.13035104752789081 0.47809625069986389 0 -0.13035104752789081 0.47809625069986389 0 -0.13835721212779389 0.46284774265826528 0 -0.1185012435203201 0.46927925235729062 0 -0.142973916337021 0.48407862635776489 0 -0.14084511507447911 0.47454800699929278 0 -0.13035104752789081 0.47809625069986389 0 -0.14084511507447911 0.47454800699929278 0 -0.13035104752789081 0.47809625069986389 0 -0.13835721212779389 0.46284774265826528 0 -0.13835721212779389 0.46284774265826528 0 -0.12448230083334889 0.45650400003295732 0 -0.1185012435203201 0.46927925235729062 0 -0.13835721212779389 0.46284774265826528 0 -0.13371725689362179 0.44724190180039608 0 -0.12448230083334889 0.45650400003295732 0 -0.13371725689362179 0.44724190180039608 0 -0.12507756614931231 0.43410096216537541 0 -0.12178995440549591 0.44512499793160332 0 -0.13371725689362179 0.44724190180039608 0 -0.12178995440549591 0.44512499793160332 0 -0.12448230083334889 0.45650400003295732 0 -0.13371725689362179 0.44724190180039608 0 -0.1406349675800885 0.43372815766310191 0 -0.12507756614931231 0.43410096216537541 0 -0.1519615402656922 0.45114555035107351 0 -0.1520669395303689 0.44232790220801982 0 -0.1406349675800885 0.43372815766310191 0 -0.13371725689362179 0.44724190180039608 0 -0.1519615402656922 0.45114555035107351 0 -0.1406349675800885 0.43372815766310191 0 -0.1519615402656922 0.45114555035107351 0 -0.1406349675800885 0.43372815766310191 0 -0.1520669395303689 0.44232790220801982 0 -0.1406349675800885 0.43372815766310191 0 -0.1519615402656922 0.45114555035107351 0 -0.1520669395303689 0.44232790220801982 0 -0.13835721212779389 0.46284774265826528 0 -0.13371725689362179 0.44724190180039608 0 -0.1519615402656922 0.45114555035107351 0 -0.15169828430521071 0.47316940828127679 0 -0.1519615402656922 0.45114555035107351 0 -0.15169828430521071 0.47316940828127679 0 -0.13835721212779389 0.46284774265826528 0 -0.1519615402656922 0.45114555035107351 0 -0.1519615402656922 0.45114555035107351 0 -0.16784662378182619 0.47557277517553831 0 -0.15169828430521071 0.47316940828127679 0 -0.1519615402656922 0.45114555035107351 0 -0.16784662378182619 0.47557277517553831 0 -0.1519615402656922 0.45114555035107351 0 -0.17500097680015711 0.45958011930244691 0 -0.16784662378182619 0.47557277517553831 0 -0.1519615402656922 0.45114555035107351 0 -0.1520669395303689 0.44232790220801982 0 -0.17500097680015711 0.45958011930244691 0 -0.1520669395303689 0.44232790220801982 0 -0.17332503035440741 0.44689887834850078 0 -0.17500097680015711 0.45958011930244691 0 -0.1520669395303689 0.44232790220801982 0 -0.17500097680015711 0.45958011930244691 0 -0.1520669395303689 0.44232790220801982 0 -0.1694898447109324 0.43892982433020272 0 -0.17332503035440741 0.44689887834850078 0 -0.1520669395303689 0.44232790220801982 0 -0.1694898447109324 0.43892982433020272 0 -0.16104620061652439 0.43447046083409718 0 -0.1694898447109324 0.43892982433020272 0 -0.17332503035440741 0.44689887834850078 0 -0.18129863363297349 0.4416342461361023 0 -0.1694898447109324 0.43892982433020272 0 -0.18129863363297349 0.4416342461361023 0 -0.17692269096856941 0.43367655050588227 0 -0.17332503035440741 0.44689887834850078 0 -0.17500097680015711 0.45958011930244691 0 -0.18876875709760671 0.45202229976573272 0 -0.17332503035440741 0.44689887834850078 0 -0.18129863363297349 0.4416342461361023 0 -0.18876875709760671 0.45202229976573272 0 -0.18129863363297349 0.4416342461361023 0 -0.1932701227617025 0.44083826087666039 0 -0.18482624364415551 0.43223326673590551 0 -0.17500097680015711 0.45958011930244691 0 -0.1979350140699436 0.47683233639687661 0 -0.17500097680015711 0.45958011930244691 0 -0.1979350140699436 0.47683233639687661 0 -0.18876875709760671 0.45202229976573272 0 -0.17500097680015711 0.45958011930244691 0 -0.16784662378182619 0.47557277517553831 0 -0.1979350140699436 0.47683233639687661 0 -0.16784662378182619 0.47557277517553831 0 -0.1837317072979629 0.50000000000000155 0 -0.1979350140699436 0.47683233639687661 0 -0.15169828430521071 0.47316940828127679 0 -0.16784662378182619 0.47557277517553831 0 -0.1625128434288943 0.48838494498827689 0 -0.1568155119433825 0.5 0 -0.1625128434288943 0.48838494498827689 0 -0.1837317072979629 0.50000000000000155 0 -0.16784662378182619 0.47557277517553831 0 -0.1625128434288943 0.48838494498827689 0 -0.1837317072979629 0.50000000000000155 0 -0.15143502834472719 0.49519326621148019 0 -0.1568155119433825 0.5 0 -0.1625128434288943 0.48838494498827689 0 -0.16784662378182619 0.47557277517553831 0 -0.1837317072979629 0.50000000000000155 0 -0.1837317072979629 0.50000000000000155 0 -0.1979350140699436 0.47683233639687661 0 -0.2137916694890907 0.5 0 -0.21138991120185679 0.48166009387935133 0 -0.2254906734860149 0.4840074332552427 0 -0.20712971529181079 0.46801486651048768 0 -0.2254906734860149 0.4840074332552427 0 -0.20712971529181079 0.46801486651048768 0 -0.1979350140699436 0.47683233639687661 0 -0.21138991120185679 0.48166009387935133 0 -0.20712971529181079 0.46801486651048768 0 -0.21138991120185679 0.48166009387935133 0 -0.2137916694890907 0.5 0 -0.2254906734860149 0.4840074332552427 0 -0.1979350140699436 0.47683233639687661 0 -0.21138991120185679 0.48166009387935133 0 -0.2137916694890907 0.5 0 -0.2137916694890907 0.5 0 -0.2254906734860149 0.4840074332552427 0 -0.24385163168021851 0.49999999999999861 0 -0.2254906734860149 0.4840074332552427 0 -0.22588635009480709 0.47054728726899758 0 -0.24451455346417789 0.47295912738400769 0 -0.2254906734860149 0.4840074332552427 0 -0.22588635009480709 0.47054728726899758 0 -0.20712971529181079 0.46801486651048768 0 -0.2254906734860149 0.4840074332552427 0 -0.24451455346417789 0.47295912738400769 0 -0.24411887685538569 0.48641927337025331 0 -0.2254906734860149 0.4840074332552427 0 -0.24385163168021851 0.49999999999999861 0 -0.24411887685538569 0.48641927337025331 0 -0.2254906734860149 0.4840074332552427 0 -0.24385163168021851 0.49999999999999861 0 -0.25641654511452738 0.43119935750548388 0 -0.24742697334070379 0.45181341538248071 0 -0.23246444304955641 0.43722452166784931 0 -0.24742697334070379 0.45181341538248071 0 -0.22641045813722471 0.45720772192625231 0 -0.23246444304955641 0.43722452166784931 0 -0.25502281106591768 0.47026197411212167 0 -0.24451455346417789 0.47295912738400769 0 -0.24742697334070379 0.45181341538248071 0 -0.24451455346417789 0.47295912738400769 0 -0.22641045813722471 0.45720772192625231 0 -0.24451455346417789 0.47295912738400769 0 -0.24742697334070379 0.45181341538248071 0 -0.22641045813722471 0.45720772192625231 0 -0.22588635009480709 0.47054728726899758 0 -0.24451455346417789 0.47295912738400769 0 -0.22641045813722471 0.45720772192625231 0 -0.22588635009480709 0.47054728726899758 0 -0.22641045813722471 0.45720772192625231 0 -0.20712971529181079 0.46801486651048768 0 -0.22641045813722471 0.45720772192625231 0 -0.20830636281027159 0.44145631646849681 0 -0.23246444304955641 0.43722452166784931 0 -0.22641045813722471 0.45720772192625231 0 -0.20830636281027159 0.44145631646849681 0 -0.20327231322329059 0.45383647245285968 0 -0.22641045813722471 0.45720772192625231 0 -0.20830636281027159 0.44145631646849681 0 -0.22641045813722471 0.45720772192625231 0 -0.20327231322329059 0.45383647245285968 0 -0.20712971529181079 0.46801486651048768 0 -0.20327231322329059 0.45383647245285968 0 -0.20712971529181079 0.46801486651048768 0 -0.18876875709760671 0.45202229976573272 0 -0.20712971529181079 0.46801486651048768 0 -0.18876875709760671 0.45202229976573272 0 -0.1979350140699436 0.47683233639687661 0 -0.20712971529181079 0.46801486651048768 0 -0.18876875709760671 0.45202229976573272 0 -0.20830636281027159 0.44145631646849681 0 -0.20327231322329059 0.45383647245285968 0 -0.1932701227617025 0.44083826087666039 0 -0.20327231322329059 0.45383647245285968 0 -0.18876875709760671 0.45202229976573272 0 -0.1932701227617025 0.44083826087666039 0 -0.18129863363297349 0.4416342461361023 0 -0.18876875709760671 0.45202229976573272 0 -0.1932701227617025 0.44083826087666039 0 -0.20830636281027159 0.44145631646849681 0 -0.1902022674833207 0.42570491101073887 0 -0.20830636281027159 0.44145631646849681 0 -0.1932701227617025 0.44083826087666039 0 -0.1902022674833207 0.42570491101073887 0 -0.1932701227617025 0.44083826087666039 0 -0.1902022674833207 0.42570491101073887 0 -0.18482624364415551 0.43223326673590551 0 -0.1902022674833207 0.42570491101073887 0 -0.18482624364415551 0.43223326673590551 0 -0.19077518972003721 0.41288679034252479 0 -0.20582859134624529 0.40672913934271981 0 -0.18917352532038509 0.40411489938929701 0 -0.1902022674833207 0.42570491101073887 0 -0.20582859134624529 0.40672913934271981 0 -0.1902022674833207 0.42570491101073887 0 -0.19077518972003721 0.41288679034252479 0 -0.20582859134624529 0.40672913934271981 0 -0.1902022674833207 0.42570491101073887 0 -0.20582859134624529 0.40672913934271981 0 -0.2186670199541938 0.42255412485717558 0 -0.20582859134624529 0.40672913934271981 0 -0.2186670199541938 0.42255412485717558 0 -0.222433818747787 0.40518975741403013 0 -0.20830636281027159 0.44145631646849681 0 -0.1902022674833207 0.42570491101073887 0 -0.2186670199541938 0.42255412485717558 0 -0.2186670199541938 0.42255412485717558 0 -0.23246444304955641 0.43722452166784931 0 -0.23670444353669359 0.41649764864508232 0 -0.20830636281027159 0.44145631646849681 0 -0.2186670199541938 0.42255412485717558 0 -0.23246444304955641 0.43722452166784931 0 -0.23670444353669359 0.41649764864508232 0 -0.2351156576479411 0.40042734437208749 0 -0.222433818747787 0.40518975741403013 0 -0.2186670199541938 0.42255412485717558 0 -0.23670444353669359 0.41649764864508232 0 -0.222433818747787 0.40518975741403013 0 -0.25196346146775661 0.4045087982104385 0 -0.25641654511452738 0.43119935750548388 0 -0.23670444353669359 0.41649764864508232 0 -0.25196346146775661 0.4045087982104385 0 -0.23670444353669359 0.41649764864508232 0 -0.2351156576479411 0.40042734437208749 0 -0.25641654511452738 0.43119935750548388 0 -0.23246444304955641 0.43722452166784931 0 -0.23670444353669359 0.41649764864508232 0 -0.2517011221411829 0.3859160059886102 0 -0.2345960522370486 0.38041240017427369 0 -0.2479947466348614 0.37352466122982808 0 -0.2517011221411829 0.3859160059886102 0 -0.2345960522370486 0.38041240017427369 0 -0.2517011221411829 0.3859160059886102 0 -0.2403934024002532 0.39013860256710109 0 -0.2345960522370486 0.38041240017427369 0 -0.25196346146775661 0.4045087982104385 0 -0.2517011221411829 0.3859160059886102 0 -0.2403934024002532 0.39013860256710109 0 -0.25196346146775661 0.4045087982104385 0 -0.2403934024002532 0.39013860256710109 0 -0.2351156576479411 0.40042734437208749 0 -0.2403934024002532 0.39013860256710109 0 -0.2351156576479411 0.40042734437208749 0 -0.22145491520916971 0.38775336767470059 0 -0.2351156576479411 0.40042734437208749 0 -0.222433818747787 0.40518975741403013 0 -0.22145491520916971 0.38775336767470059 0 -0.22145491520916971 0.38775336767470059 0 -0.2370812390720943 0.36877759600668131 0 -0.2345960522370486 0.38041240017427369 0 -0.22145491520916971 0.38775336767470059 0 -0.2370812390720943 0.36877759600668131 0 -0.2403934024002532 0.39013860256710109 0 -0.2345960522370486 0.38041240017427369 0 -0.22145491520916971 0.38775336767470059 0 -0.22145491520916971 0.38775336767470059 0 -0.22190770640411439 0.37107662785869661 0 -0.2370812390720943 0.36877759600668131 0 -0.22145491520916971 0.38775336767470059 0 -0.20710757299253241 0.37513590021740861 0 -0.19881570481120051 0.39309352229022537 0 -0.22145491520916971 0.38775336767470059 0 -0.20710757299253241 0.37513590021740861 0 -0.22190770640411439 0.37107662785869661 0 -0.20582859134624529 0.40672913934271981 0 -0.22145491520916971 0.38775336767470059 0 -0.19881570481120051 0.39309352229022537 0 -0.20582859134624529 0.40672913934271981 0 -0.222433818747787 0.40518975741403013 0 -0.22145491520916971 0.38775336767470059 0 -0.20582859134624529 0.40672913934271981 0 -0.22145491520916971 0.38775336767470059 0 -0.20582859134624529 0.40672913934271981 0 -0.19881570481120051 0.39309352229022537 0 -0.18917352532038509 0.40411489938929701 0 -0.19881570481120051 0.39309352229022537 0 -0.1883760201552388 0.39260459670661008 0 -0.18917352532038509 0.40411489938929701 0 -0.20710757299253241 0.37513590021740861 0 -0.19881570481120051 0.39309352229022537 0 -0.19620361940245221 0.38099421976397502 0 -0.20710757299253241 0.37513590021740861 0 -0.19881570481120051 0.39309352229022537 0 -0.1883760201552388 0.39260459670661008 0 -0.19620361940245221 0.38099421976397502 0 -0.18242372221363379 0.38100230659433998 0 -0.19881570481120051 0.39309352229022537 0 -0.1883760201552388 0.39260459670661008 0 -0.19620361940245221 0.38099421976397502 0 -0.18242372221363379 0.38100230659433998 0 -0.16513191541473671 0.38430150920762118 0 -0.17692851641644239 0.39915360083920531 0 -0.18242372221363379 0.38100230659433998 0 -0.16513191541473671 0.38430150920762118 0 -0.1740233566666414 0.36535903776555301 0 -0.16513191541473671 0.38430150920762118 0 -0.15333531441303161 0.36944941757603661 0 -0.16513191541473671 0.38430150920762118 0 -0.1655904819770769 0.40429151224394611 0 -0.17692851641644239 0.39915360083920531 0 -0.16513191541473671 0.38430150920762118 0 -0.1655904819770769 0.40429151224394611 0 -0.15267152111183879 0.39174891879925189 0 -0.1655904819770769 0.40429151224394611 0 -0.15236923032110289 0.41703841050363583 0 -0.15267152111183879 0.39174891879925189 0 -0.16513191541473671 0.38430150920762118 0 -0.17692851641644239 0.39915360083920531 0 -0.1655904819770769 0.40429151224394611 0 -0.17692851641644239 0.39915360083920531 0 -0.17789637473019779 0.41499821162734368 0 -0.1883760201552388 0.39260459670661008 0 -0.18242372221363379 0.38100230659433998 0 -0.17692851641644239 0.39915360083920531 0 -0.18917352532038509 0.40411489938929701 0 -0.17692851641644239 0.39915360083920531 0 -0.17789637473019779 0.41499821162734368 0 -0.1883760201552388 0.39260459670661008 0 -0.18917352532038509 0.40411489938929701 0 -0.17692851641644239 0.39915360083920531 0 -0.19077518972003721 0.41288679034252479 0 -0.18917352532038509 0.40411489938929701 0 -0.17789637473019779 0.41499821162734368 0 -0.1902022674833207 0.42570491101073887 0 -0.17789637473019779 0.41499821162734368 0 -0.1902022674833207 0.42570491101073887 0 -0.19077518972003721 0.41288679034252479 0 -0.17789637473019779 0.41499821162734368 0 -0.18482624364415551 0.43223326673590551 0 -0.180091895532453 0.42681774374245518 0 -0.17692269096856941 0.43367655050588227 0 -0.18129863363297349 0.4416342461361023 0 -0.18482624364415551 0.43223326673590551 0 -0.17692269096856941 0.43367655050588227 0 -0.1902022674833207 0.42570491101073887 0 -0.17789637473019779 0.41499821162734368 0 -0.180091895532453 0.42681774374245518 0 -0.1902022674833207 0.42570491101073887 0 -0.18482624364415551 0.43223326673590551 0 -0.180091895532453 0.42681774374245518 0 -0.180091895532453 0.42681774374245518 0 -0.17692269096856941 0.43367655050588227 0 -0.17061190083602151 0.42747577883240501 0 -0.17789637473019779 0.41499821162734368 0 -0.180091895532453 0.42681774374245518 0 -0.17061190083602151 0.42747577883240501 0 -0.1694898447109324 0.43892982433020272 0 -0.17692269096856941 0.43367655050588227 0 -0.17061190083602151 0.42747577883240501 0 -0.16242059439370929 0.42390681966217958 0 -0.16104620061652439 0.43447046083409718 0 -0.15236923032110289 0.41703841050363583 0 -0.1694898447109324 0.43892982433020272 0 -0.17061190083602151 0.42747577883240501 0 -0.16104620061652439 0.43447046083409718 0 -0.17061190083602151 0.42747577883240501 0 -0.16242059439370929 0.42390681966217958 0 -0.16565504580118859 0.41664262847858019 0 -0.17061190083602151 0.42747577883240501 0 -0.16242059439370929 0.42390681966217958 0 -0.16104620061652439 0.43447046083409718 0 -0.1655904819770769 0.40429151224394611 0 -0.17789637473019779 0.41499821162734368 0 -0.1655904819770769 0.40429151224394611 0 -0.17789637473019779 0.41499821162734368 0 -0.16565504580118859 0.41664262847858019 0 -0.17789637473019779 0.41499821162734368 0 -0.17061190083602151 0.42747577883240501 0 -0.16565504580118859 0.41664262847858019 0 -0.16242059439370929 0.42390681966217958 0 -0.16565504580118859 0.41664262847858019 0 -0.15236923032110289 0.41703841050363583 0 -0.1655904819770769 0.40429151224394611 0 -0.16565504580118859 0.41664262847858019 0 -0.15236923032110289 0.41703841050363583 0 -0.15236923032110289 0.41703841050363583 0 -0.14075921491739601 0.41143402941290053 0 -0.1406349675800885 0.43372815766310191 0 -0.15236923032110289 0.41703841050363583 0 -0.14075921491739601 0.41143402941290053 0 -0.15267152111183879 0.39174891879925189 0 -0.1520669395303689 0.44232790220801982 0 -0.15236923032110289 0.41703841050363583 0 -0.1520669395303689 0.44232790220801982 0 -0.15236923032110289 0.41703841050363583 0 -0.1406349675800885 0.43372815766310191 0 -0.1520669395303689 0.44232790220801982 0 -0.16104620061652439 0.43447046083409718 0 -0.15236923032110289 0.41703841050363583 0 -0.1406349675800885 0.43372815766310191 0 -0.1208912272793301 0.41887585364363339 0 -0.1406349675800885 0.43372815766310191 0 -0.12507756614931231 0.43410096216537541 0 -0.1208912272793301 0.41887585364363339 0 -0.1406349675800885 0.43372815766310191 0 -0.13022918341305051 0.41772670390524652 0 -0.1406349675800885 0.43372815766310191 0 -0.13022918341305051 0.41772670390524652 0 -0.1208912272793301 0.41887585364363339 0 -0.14075921491739601 0.41143402941290053 0 -0.1406349675800885 0.43372815766310191 0 -0.13022918341305051 0.41772670390524652 0 -0.13022918341305051 0.41772670390524652 0 -0.11982339924601131 0.4017252501473918 0 -0.13022918341305051 0.41772670390524652 0 -0.13161965497643799 0.40752208823643787 0 -0.11982339924601131 0.4017252501473918 0 -0.14075921491739601 0.41143402941290053 0 -0.13022918341305051 0.41772670390524652 0 -0.13161965497643799 0.40752208823643787 0 -0.1356668223292945 0.39920236948021298 0 -0.12513716185575369 0.38826139798381032 0 -0.11982339924601131 0.4017252501473918 0 -0.13161965497643799 0.40752208823643787 0 -0.1356668223292945 0.39920236948021298 0 -0.11982339924601131 0.4017252501473918 0 -0.14075921491739601 0.41143402941290053 0 -0.13161965497643799 0.40752208823643787 0 -0.1356668223292945 0.39920236948021298 0 -0.1356668223292945 0.39920236948021298 0 -0.12513716185575369 0.38826139798381032 0 -0.13796689672942281 0.386762090739936 0 -0.13796689672942281 0.386762090739936 0 -0.14752539655961069 0.38132350040640561 0 -0.12852133512902381 0.37435556570918188 0 -0.12513716185575369 0.38826139798381032 0 -0.13796689672942281 0.386762090739936 0 -0.12852133512902381 0.37435556570918188 0 -0.16513191541473671 0.38430150920762118 0 -0.14752539655961069 0.38132350040640561 0 -0.15267152111183879 0.39174891879925189 0 -0.13796689672942281 0.386762090739936 0 -0.14752539655961069 0.38132350040640561 0 -0.15267152111183879 0.39174891879925189 0 -0.16513191541473671 0.38430150920762118 0 -0.14752539655961069 0.38132350040640561 0 -0.15333531441303161 0.36944941757603661 0 -0.14752539655961069 0.38132350040640561 0 -0.15333531441303161 0.36944941757603661 0 -0.12852133512902381 0.37435556570918188 0 -0.1356668223292945 0.39920236948021298 0 -0.13796689672942281 0.386762090739936 0 -0.15267152111183879 0.39174891879925189 0 -0.14075921491739601 0.41143402941290053 0 -0.1356668223292945 0.39920236948021298 0 -0.15267152111183879 0.39174891879925189 0 -0.15236923032110289 0.41703841050363583 0 -0.15267152111183879 0.39174891879925189 0 -0.15333531441303161 0.36944941757603661 0 -0.13852972383782561 0.35080896446154503 0 -0.16057993266288231 0.35190320371053779 0 -0.13852972383782561 0.35080896446154503 0 -0.14973075046299139 0.33339207071346899 0 -0.16057993266288231 0.35190320371053779 0 -0.15333531441303161 0.36944941757603661 0 -0.12852133512902381 0.37435556570918188 0 -0.15333531441303161 0.36944941757603661 0 -0.13677724403655159 0.36396439335413122 0 -0.13852972383782561 0.35080896446154503 0 -0.15333531441303161 0.36944941757603661 0 -0.13852972383782561 0.35080896446154503 0 -0.15333531441303161 0.36944941757603661 0 -0.13677724403655159 0.36396439335413122 0 -0.12852133512902381 0.37435556570918188 0 -0.13677724403655159 0.36396439335413122 0 -0.12852133512902381 0.37435556570918188 0 -0.1235766246187102 0.36259321073060258 0 -0.13852972383782561 0.35080896446154503 0 -0.12370830653213639 0.34738114189026242 0 -0.1235766246187102 0.36259321073060258 0 -0.13677724403655159 0.36396439335413122 0 -0.13852972383782561 0.35080896446154503 0 -0.1235766246187102 0.36259321073060258 0 -0.13852972383782561 0.35080896446154503 0 -0.1237241332626204 0.33216851134705289 0 -0.12370830653213639 0.34738114189026242 0 -0.13852972383782561 0.35080896446154503 0 -0.1237241332626204 0.33216851134705289 0 -0.13852972383782561 0.35080896446154503 0 -0.14973075046299139 0.33339207071346899 0 -0.1237241332626204 0.33216851134705289 0 -0.1341206268061905 0.31382363598053481 0 -0.14973075046299139 0.33339207071346899 0 -0.1237241332626204 0.33216851134705289 0 -0.1341206268061905 0.31382363598053481 0 -0.14973075046299139 0.33339207071346899 0 -0.15760171592919209 0.31688571346048222 0 -0.14973075046299139 0.33339207071346899 0 -0.16944941699614591 0.3400005723868208 0 -0.16564016905716819 0.32760679075579902 0 -0.14973075046299139 0.33339207071346899 0 -0.16944941699614591 0.3400005723868208 0 -0.16057993266288231 0.35190320371053779 0 -0.16944941699614591 0.3400005723868208 0 -0.16564016905716819 0.32760679075579902 0 -0.17950354894099729 0.32975386625822373 0 -0.15760171592919209 0.31688571346048222 0 -0.16564016905716819 0.32760679075579902 0 -0.17516534415053481 0.3183662922151797 0 -0.15760171592919209 0.31688571346048222 0 -0.17516534415053481 0.3183662922151797 0 -0.1722499065692536 0.30529714990576151 0 -0.14973075046299139 0.33339207071346899 0 -0.15760171592919209 0.31688571346048222 0 -0.16564016905716819 0.32760679075579902 0 -0.16564016905716819 0.32760679075579902 0 -0.17516534415053481 0.3183662922151797 0 -0.17950354894099729 0.32975386625822373 0 -0.18692850416404189 0.32152548835334133 0 -0.17950354894099729 0.32975386625822373 0 -0.19402315441124729 0.33055020850646383 0 -0.17516534415053481 0.3183662922151797 0 -0.18692850416404189 0.32152548835334133 0 -0.17950354894099729 0.32975386625822373 0 -0.17516534415053481 0.3183662922151797 0 -0.18692850416404189 0.32152548835334133 0 -0.18956229363096039 0.30787571304617212 0 -0.16944941699614591 0.3400005723868208 0 -0.17950354894099729 0.32975386625822373 0 -0.1858147048668457 0.34047384533173752 0 -0.17950354894099729 0.32975386625822373 0 -0.1858147048668457 0.34047384533173752 0 -0.19402315441124729 0.33055020850646383 0 -0.1858147048668457 0.34047384533173752 0 -0.1797389071224775 0.35121162461574468 0 -0.19385463262209809 0.34826443054474832 0 -0.16944941699614591 0.3400005723868208 0 -0.1858147048668457 0.34047384533173752 0 -0.1797389071224775 0.35121162461574468 0 -0.1797389071224775 0.35121162461574468 0 -0.1740233566666414 0.36535903776555301 0 -0.19471139892025169 0.36126865795507118 0 -0.16944941699614591 0.3400005723868208 0 -0.1797389071224775 0.35121162461574468 0 -0.16057993266288231 0.35190320371053779 0 -0.1797389071224775 0.35121162461574468 0 -0.16057993266288231 0.35190320371053779 0 -0.1740233566666414 0.36535903776555301 0 -0.16513191541473671 0.38430150920762118 0 -0.15333531441303161 0.36944941757603661 0 -0.1740233566666414 0.36535903776555301 0 -0.15333531441303161 0.36944941757603661 0 -0.16057993266288231 0.35190320371053779 0 -0.1740233566666414 0.36535903776555301 0 -0.15333531441303161 0.36944941757603661 0 -0.1740233566666414 0.36535903776555301 0 -0.1740233566666414 0.36535903776555301 0 -0.19471139892025169 0.36126865795507118 0 -0.18242372221363379 0.38100230659433998 0 -0.1740233566666414 0.36535903776555301 0 -0.19471139892025169 0.36126865795507118 0 -0.20710757299253241 0.37513590021740861 0 -0.19620361940245221 0.38099421976397502 0 -0.19471139892025169 0.36126865795507118 0 -0.19620361940245221 0.38099421976397502 0 -0.18242372221363379 0.38100230659433998 0 -0.19471139892025169 0.36126865795507118 0 -0.1797389071224775 0.35121162461574468 0 -0.19471139892025169 0.36126865795507118 0 -0.19385463262209809 0.34826443054474832 0 -0.19471139892025169 0.36126865795507118 0 -0.19385463262209809 0.34826443054474832 0 -0.20844553088452339 0.34695657247020478 0 -0.19385463262209809 0.34826443054474832 0 -0.20844553088452339 0.34695657247020478 0 -0.1996709228506417 0.33824758923117337 0 -0.19471139892025169 0.36126865795507118 0 -0.2153994411738622 0.3571782781445908 0 -0.19471139892025169 0.36126865795507118 0 -0.2153994411738622 0.3571782781445908 0 -0.20844553088452339 0.34695657247020478 0 -0.2153994411738622 0.3571782781445908 0 -0.20844553088452339 0.34695657247020478 0 -0.21585856219286559 0.33998044135649158 0 -0.20710757299253241 0.37513590021740861 0 -0.2153994411738622 0.3571782781445908 0 -0.20710757299253241 0.37513590021740861 0 -0.19471139892025169 0.36126865795507118 0 -0.2153994411738622 0.3571782781445908 0 -0.20710757299253241 0.37513590021740861 0 -0.2153994411738622 0.3571782781445908 0 -0.22190770640411439 0.37107662785869661 0 -0.22190770640411439 0.37107662785869661 0 -0.23405350205444039 0.35349005124162569 0 -0.2370812390720943 0.36877759600668131 0 -0.2153994411738622 0.3571782781445908 0 -0.22190770640411439 0.37107662785869661 0 -0.23405350205444039 0.35349005124162569 0 -0.2153994411738622 0.3571782781445908 0 -0.22517650872702061 0.33600417355676693 0 -0.2153994411738622 0.3571782781445908 0 -0.23405350205444039 0.35349005124162569 0 -0.22517650872702061 0.33600417355676693 0 -0.2153994411738622 0.3571782781445908 0 -0.23405350205444039 0.35349005124162569 0 -0.2153994411738622 0.3571782781445908 0 -0.22517650872702061 0.33600417355676693 0 -0.21585856219286559 0.33998044135649158 0 -0.25270756293501878 0.34980182433866192 0 -0.23405350205444039 0.35349005124162569 0 -0.25270756293501878 0.34980182433866192 0 -0.2370812390720943 0.36877759600668131 0 -0.25270756293501878 0.34980182433866192 0 -0.23405350205444039 0.35349005124162569 0 -0.24330742636243741 0.33512807726625438 0 -0.25270756293501878 0.34980182433866192 0 -0.23405350205444039 0.35349005124162569 0 -0.2370812390720943 0.36877759600668131 0 -0.25200336759263231 0.36266484576205621 0 -0.25270756293501878 0.34980182433866192 0 -0.2370812390720943 0.36877759600668131 0 -0.25200336759263231 0.36266484576205621 0 -0.2479947466348614 0.37352466122982808 0 -0.2370812390720943 0.36877759600668131 0 -0.2345960522370486 0.38041240017427369 0 -0.2479947466348614 0.37352466122982808 0 -0.2370812390720943 0.36877759600668131 0 -0.25380716470350739 0.31465931032116667 0 -0.23495357628017649 0.31483006896894178 0 -0.25380716470350739 0.31465931032116667 0 -0.23495357628017649 0.31483006896894178 0 -0.24330742636243741 0.33512807726625438 0 -0.25380716470350739 0.31465931032116667 0 -0.23495357628017649 0.31483006896894178 0 -0.23881632670568609 0.31185875252781381 0 -0.23495357628017649 0.31483006896894178 0 -0.23678092759347899 0.31087259116527871 0 -0.23495357628017649 0.31483006896894178 0 -0.23881632670568609 0.31185875252781381 0 -0.23678092759347899 0.31087259116527871 0 -0.23495357628017649 0.31483006896894178 0 -0.24330742636243741 0.33512807726625438 0 -0.22517650872702061 0.33600417355676693 0 -0.23405350205444039 0.35349005124162569 0 -0.24330742636243741 0.33512807726625438 0 -0.22517650872702061 0.33600417355676693 0 -0.22517650872702061 0.33600417355676693 0 -0.22261061858386921 0.33292435314083352 0 -0.21585856219286559 0.33998044135649158 0 -0.22261061858386921 0.33292435314083352 0 -0.22359459806860141 0.31493294825727008 0 -0.21390062148632291 0.32342537892412149 0 -0.22261061858386921 0.33292435314083352 0 -0.22359459806860141 0.31493294825727008 0 -0.23495357628017649 0.31483006896894178 0 -0.22261061858386921 0.33292435314083352 0 -0.22359459806860141 0.31493294825727008 0 -0.23495357628017649 0.31483006896894178 0 -0.22517650872702061 0.33600417355676693 0 -0.23495357628017649 0.31483006896894178 0 -0.22517650872702061 0.33600417355676693 0 -0.22261061858386921 0.33292435314083352 0 -0.23495357628017649 0.31483006896894178 0 -0.22359459806860141 0.31493294825727008 0 -0.22885168382910909 0.31021955196963857 0 -0.23495357628017649 0.31483006896894178 0 -0.22359459806860141 0.31493294825727008 0 -0.22359459806860141 0.31493294825727008 0 -0.21390062148632291 0.32342537892412149 0 -0.2040544143842285 0.31510992546013722 0 -0.22359459806860141 0.31493294825727008 0 -0.2040544143842285 0.31510992546013722 0 -0.22359459806860141 0.31493294825727008 0 -0.2040544143842285 0.31510992546013722 0 -0.2099208691017595 0.31179798771479278 0 -0.21390062148632291 0.32342537892412149 0 -0.21432176379806181 0.33132338673659562 0 -0.2087009306135037 0.32841946731217819 0 -0.21390062148632291 0.32342537892412149 0 -0.20622424778892501 0.3226097894740001 0 -0.2040544143842285 0.31510992546013722 0 -0.21390062148632291 0.32342537892412149 0 -0.20622424778892501 0.3226097894740001 0 -0.2087009306135037 0.32841946731217819 0 -0.20622424778892501 0.3226097894740001 0 -0.2087009306135037 0.32841946731217819 0 -0.20228511365158211 0.32589521677075678 0 -0.20622424778892501 0.3226097894740001 0 -0.20141524320502219 0.31996629731432918 0 -0.20228511365158211 0.32589521677075678 0 -0.20622424778892501 0.3226097894740001 0 -0.2040544143842285 0.31510992546013722 0 -0.20141524320502219 0.31996629731432918 0 -0.20844553088452339 0.34695657247020478 0 -0.21585856219286559 0.33998044135649158 0 -0.20919750998985451 0.33549588408995762 0 -0.22261061858386921 0.33292435314083352 0 -0.21390062148632291 0.32342537892412149 0 -0.21432176379806181 0.33132338673659562 0 -0.22261061858386921 0.33292435314083352 0 -0.21585856219286559 0.33998044135649158 0 -0.21432176379806181 0.33132338673659562 0 -0.21585856219286559 0.33998044135649158 0 -0.21432176379806181 0.33132338673659562 0 -0.20919750998985451 0.33549588408995762 0 -0.2036616493637316 0.33236424603862419 0 -0.20919750998985451 0.33549588408995762 0 -0.1996709228506417 0.33824758923117337 0 -0.21432176379806181 0.33132338673659562 0 -0.2087009306135037 0.32841946731217819 0 -0.20919750998985451 0.33549588408995762 0 -0.2087009306135037 0.32841946731217819 0 -0.2036616493637316 0.33236424603862419 0 -0.20228511365158211 0.32589521677075678 0 -0.2087009306135037 0.32841946731217819 0 -0.2036616493637316 0.33236424603862419 0 -0.20919750998985451 0.33549588408995762 0 -0.20844553088452339 0.34695657247020478 0 -0.20919750998985451 0.33549588408995762 0 -0.1996709228506417 0.33824758923117337 0 -0.2036616493637316 0.33236424603862419 0 -0.19402315441124729 0.33055020850646383 0 -0.20228511365158211 0.32589521677075678 0 -0.2036616493637316 0.33236424603862419 0 -0.1996709228506417 0.33824758923117337 0 -0.19402315441124729 0.33055020850646383 0 -0.1858147048668457 0.34047384533173752 0 -0.1996709228506417 0.33824758923117337 0 -0.19402315441124729 0.33055020850646383 0 -0.1858147048668457 0.34047384533173752 0 -0.19385463262209809 0.34826443054474832 0 -0.1996709228506417 0.33824758923117337 0 -0.20141524320502219 0.31996629731432918 0 -0.19516545735167129 0.31967977087298238 0 -0.19658396595256991 0.31194233035442259 0 -0.2040544143842285 0.31510992546013722 0 -0.20141524320502219 0.31996629731432918 0 -0.19658396595256991 0.31194233035442259 0 -0.20141524320502219 0.31996629731432918 0 -0.20228511365158211 0.32589521677075678 0 -0.19516545735167129 0.31967977087298238 0 -0.19402315441124729 0.33055020850646383 0 -0.20228511365158211 0.32589521677075678 0 -0.19516545735167129 0.31967977087298238 0 -0.18692850416404189 0.32152548835334133 0 -0.19402315441124729 0.33055020850646383 0 -0.19516545735167129 0.31967977087298238 0 -0.18692850416404189 0.32152548835334133 0 -0.19516545735167129 0.31967977087298238 0 -0.18956229363096039 0.30787571304617212 0 -0.19516545735167129 0.31967977087298238 0 -0.18956229363096039 0.30787571304617212 0 -0.19658396595256991 0.31194233035442259 0 -0.18956229363096039 0.30787571304617212 0 -0.20225694177066861 0.30488542386563922 0 -0.19955961707894801 0.29283867434168942 0 -0.2040544143842285 0.31510992546013722 0 -0.19658396595256991 0.31194233035442259 0 -0.20225694177066861 0.30488542386563922 0 -0.18956229363096039 0.30787571304617212 0 -0.19658396595256991 0.31194233035442259 0 -0.20225694177066861 0.30488542386563922 0 -0.19955961707894801 0.29283867434168942 0 -0.18928781681581139 0.27267657158075331 0 -0.17496790456869729 0.28092386285791993 0 -0.18956229363096039 0.30787571304617212 0 -0.19955961707894801 0.29283867434168942 0 -0.17496790456869729 0.28092386285791993 0 -0.19955961707894801 0.29283867434168942 0 -0.21476500210589389 0.29279092463530088 0 -0.22415132958919859 0.30475348582545919 0 -0.19955961707894801 0.29283867434168942 0 -0.21476500210589389 0.29279092463530088 0 -0.21355214248190721 0.28139890849862959 0 -0.21476500210589389 0.29279092463530088 0 -0.21355214248190721 0.28139890849862959 0 -0.21946710521586241 0.29021666966487453 0 -0.20225694177066861 0.30488542386563922 0 -0.2099208691017595 0.31179798771479278 0 -0.22415132958919859 0.30475348582545919 0 -0.20225694177066861 0.30488542386563922 0 -0.19955961707894801 0.29283867434168942 0 -0.22415132958919859 0.30475348582545919 0 -0.19955961707894801 0.29283867434168942 0 -0.22415132958919859 0.30475348582545919 0 -0.2040544143842285 0.31510992546013722 0 -0.20225694177066861 0.30488542386563922 0 -0.2099208691017595 0.31179798771479278 0 -0.2099208691017595 0.31179798771479278 0 -0.22415132958919859 0.30475348582545919 0 -0.22359459806860141 0.31493294825727008 0 -0.2099208691017595 0.31179798771479278 0 -0.22415132958919859 0.30475348582545919 0 -0.22359459806860141 0.31493294825727008 0 -0.22415132958919859 0.30475348582545919 0 -0.22415132958919859 0.30475348582545919 0 -0.23901380243312589 0.30603687481892222 0 -0.2398470747468559 0.30251516990387561 0 -0.22415132958919859 0.30475348582545919 0 -0.23282602543044259 0.2977347737984718 0 -0.24567826655144581 0.2956525613856944 0 -0.22359459806860141 0.31493294825727008 0 -0.22415132958919859 0.30475348582545919 0 -0.22885168382910909 0.31021955196963857 0 -0.22415132958919859 0.30475348582545919 0 -0.23678092759347899 0.31087259116527871 0 -0.22415132958919859 0.30475348582545919 0 -0.23901380243312589 0.30603687481892222 0 -0.23678092759347899 0.31087259116527871 0 -0.23495357628017649 0.31483006896894178 0 -0.22885168382910909 0.31021955196963857 0 -0.23678092759347899 0.31087259116527871 0 -0.22415132958919859 0.30475348582545919 0 -0.22885168382910909 0.31021955196963857 0 -0.23678092759347899 0.31087259116527871 0 -0.22415132958919859 0.30475348582545919 0 -0.23282602543044259 0.2977347737984718 0 -0.22697377511855429 0.29977081044452297 0 -0.23282602543044259 0.2977347737984718 0 -0.22697377511855429 0.29977081044452297 0 -0.2306960898604298 0.29441019583863759 0 -0.22415132958919859 0.30475348582545919 0 -0.22697377511855429 0.29977081044452297 0 -0.22773076284712149 0.28935195021960819 0 -0.22415132958919859 0.30475348582545919 0 -0.22539994668645019 0.28192335970010818 0 -0.21476500210589389 0.29279092463530088 0 -0.22415132958919859 0.30475348582545919 0 -0.21946710521586241 0.29021666966487453 0 -0.22415132958919859 0.30475348582545919 0 -0.21946710521586241 0.29021666966487453 0 -0.22539994668645019 0.28192335970010818 0 -0.22415132958919859 0.30475348582545919 0 -0.22539994668645019 0.28192335970010818 0 -0.22773076284712149 0.28935195021960819 0 -0.21355214248190721 0.28139890849862959 0 -0.21946710521586241 0.29021666966487453 0 -0.22539994668645019 0.28192335970010818 0 -0.22539994668645019 0.28192335970010818 0 -0.23202331269808721 0.28345835646634399 0 -0.22773076284712149 0.28935195021960819 0 -0.23202331269808721 0.28345835646634399 0 -0.22773076284712149 0.28935195021960819 0 -0.23276817843483091 0.28999671283865081 0 -0.23202331269808721 0.28345835646634399 0 -0.23276817843483091 0.28999671283865081 0 -0.23584814525762529 0.28660417237144559 0 -0.22697377511855429 0.29977081044452297 0 -0.22773076284712149 0.28935195021960819 0 -0.2306960898604298 0.29441019583863759 0 -0.22773076284712149 0.28935195021960819 0 -0.23276817843483091 0.28999671283865081 0 -0.2306960898604298 0.29441019583863759 0 -0.23276817843483091 0.28999671283865081 0 -0.2306960898604298 0.29441019583863759 0 -0.2359692929717 0.29376637684060741 0 -0.23282602543044259 0.2977347737984718 0 -0.2306960898604298 0.29441019583863759 0 -0.2359692929717 0.29376637684060741 0 -0.23282602543044259 0.2977347737984718 0 -0.2359692929717 0.29376637684060741 0 -0.24567826655144581 0.2956525613856944 0 -0.2359692929717 0.29376637684060741 0 -0.23883176608733511 0.28980994830183721 0 -0.24567826655144581 0.2956525613856944 0 -0.23276817843483091 0.28999671283865081 0 -0.2359692929717 0.29376637684060741 0 -0.23883176608733511 0.28980994830183721 0 -0.23202331269808721 0.28345835646634399 0 -0.23584814525762529 0.28660417237144559 0 -0.23976932381024799 0.28315167187895068 0 -0.23276817843483091 0.28999671283865081 0 -0.23883176608733511 0.28980994830183721 0 -0.23584814525762529 0.28660417237144559 0 -0.23883176608733511 0.28980994830183721 0 -0.23584814525762529 0.28660417237144559 0 -0.23976932381024799 0.28315167187895068 0 -0.23883176608733511 0.28980994830183721 0 -0.23976932381024799 0.28315167187895068 0 -0.24552216629469559 0.2881465010030026 0 -0.23976932381024799 0.28315167187895068 0 -0.24552216629469559 0.2881465010030026 0 -0.2473766090710299 0.28166037896776291 0 -0.23883176608733511 0.28980994830183721 0 -0.24552216629469559 0.2881465010030026 0 -0.24567826655144581 0.2956525613856944 0 -0.22415132958919859 0.30475348582545919 0 -0.24567826655144581 0.2956525613856944 0 -0.24567826655144581 0.2956525613856944 0 -0.2460538491720502 0.30362120837674089 0 -0.2398470747468559 0.30251516990387561 0 -0.22415132958919859 0.30475348582545919 0 -0.24567826655144581 0.2956525613856944 0 -0.2398470747468559 0.30251516990387561 0 -0.25050063588921662 0.29773753647149243 0 -0.24567826655144581 0.2956525613856944 0 -0.2460538491720502 0.30362120837674089 0 -0.2460538491720502 0.30362120837674089 0 -0.24255553307209959 0.30563634940949003 0 -0.2398470747468559 0.30251516990387561 0 -0.25380716470350739 0.31465931032116667 0 -0.24450137157070539 0.30896098642186848 0 -0.23881632670568609 0.31185875252781381 0 -0.25380716470350739 0.31465931032116667 0 -0.2460538491720502 0.30362120837674089 0 -0.24450137157070539 0.30896098642186848 0 -0.2460538491720502 0.30362120837674089 0 -0.24450137157070539 0.30896098642186848 0 -0.24255553307209959 0.30563634940949003 0 -0.24450137157070539 0.30896098642186848 0 -0.24255553307209959 0.30563634940949003 0 -0.24038891436549001 0.30867528421249862 0 -0.23901380243312589 0.30603687481892222 0 -0.24038891436549001 0.30867528421249862 0 -0.23678092759347899 0.31087259116527871 0 -0.24255553307209959 0.30563634940949003 0 -0.23901380243312589 0.30603687481892222 0 -0.2398470747468559 0.30251516990387561 0 -0.24255553307209959 0.30563634940949003 0 -0.23901380243312589 0.30603687481892222 0 -0.24038891436549001 0.30867528421249862 0 -0.24450137157070539 0.30896098642186848 0 -0.24038891436549001 0.30867528421249862 0 -0.23881632670568609 0.31185875252781381 0 -0.24038891436549001 0.30867528421249862 0 -0.23881632670568609 0.31185875252781381 0 -0.23678092759347899 0.31087259116527871 0 -0.23881632670568609 0.31185875252781381 0 -0.23678092759347899 0.31087259116527871 0 -0.23901380243312589 0.30603687481892222 0 -0.23678092759347899 0.31087259116527871 0 -0.2361193770373593 0.25523122618446548 0 -0.24370516019042601 0.26173440379262658 0 -0.2395308875244678 0.27140799379713237 0 -0.2361193770373593 0.25523122618446548 0 -0.24747775448132589 0.25266819895304049 0 -0.24370516019042601 0.26173440379262658 0 -0.24747775448132589 0.25266819895304049 0 -0.24909991397027259 0.26088405249251428 0 -0.24370516019042601 0.26173440379262658 0 -0.25292703069924483 0.26651900669448142 0 -0.24909991397027259 0.26088405249251428 0 -0.24629786793870409 0.26848054753598027 0 -0.24909991397027259 0.26088405249251428 0 -0.24370516019042601 0.26173440379262658 0 -0.24629786793870409 0.26848054753598027 0 -0.23202331269808721 0.28345835646634399 0 -0.2361193770373593 0.25523122618446548 0 -0.2395308875244678 0.27140799379713237 0 -0.24370516019042601 0.26173440379262658 0 -0.24629786793870409 0.26848054753598027 0 -0.2395308875244678 0.27140799379713237 0 -0.25292703069924483 0.26651900669448142 0 -0.2473766090710299 0.28166037896776291 0 -0.24629786793870409 0.26848054753598027 0 -0.23976932381024799 0.28315167187895068 0 -0.2473766090710299 0.28166037896776291 0 -0.2395308875244678 0.27140799379713237 0 -0.2473766090710299 0.28166037896776291 0 -0.24629786793870409 0.26848054753598027 0 -0.2395308875244678 0.27140799379713237 0 -0.23202331269808721 0.28345835646634399 0 -0.23976932381024799 0.28315167187895068 0 -0.2395308875244678 0.27140799379713237 0 -0.23202331269808721 0.28345835646634399 0 -0.2361193770373593 0.25523122618446548 0 -0.23202331269808721 0.28345835646634399 0 -0.2361193770373593 0.25523122618446548 0 -0.22664856378370191 0.25909323357475722 0 -0.22539994668645019 0.28192335970010818 0 -0.22664856378370191 0.25909323357475722 0 -0.2174590747611562 0.27021419719448431 0 -0.22539994668645019 0.28192335970010818 0 -0.23202331269808721 0.28345835646634399 0 -0.22664856378370191 0.25909323357475722 0 -0.22539994668645019 0.28192335970010818 0 -0.22664856378370191 0.25909323357475722 0 -0.21355214248190721 0.28139890849862959 0 -0.22539994668645019 0.28192335970010818 0 -0.2174590747611562 0.27021419719448431 0 -0.2361193770373593 0.25523122618446548 0 -0.22664856378370191 0.25909323357475722 0 -0.22789718088095359 0.23626310744940621 0 -0.22664856378370191 0.25909323357475722 0 -0.21621109099988239 0.25988875535915812 0 -0.2174590747611562 0.27021419719448431 0 -0.22664856378370191 0.25909323357475722 0 -0.21621109099988239 0.25988875535915812 0 -0.21874497254918079 0.24783068221235149 0 -0.21621109099988239 0.25988875535915812 0 -0.20755865675759641 0.25163089594010191 0 -0.20552557843772851 0.2692400959278593 0 -0.21621109099988239 0.25988875535915812 0 -0.20755865675759641 0.25163089594010191 0 -0.21874497254918079 0.24783068221235149 0 -0.19955961707894801 0.29283867434168942 0 -0.21355214248190721 0.28139890849862959 0 -0.20552557843772851 0.2692400959278593 0 -0.21355214248190721 0.28139890849862959 0 -0.2174590747611562 0.27021419719448431 0 -0.20552557843772851 0.2692400959278593 0 -0.21621109099988239 0.25988875535915812 0 -0.2174590747611562 0.27021419719448431 0 -0.20552557843772851 0.2692400959278593 0 -0.19955961707894801 0.29283867434168942 0 -0.20552557843772851 0.2692400959278593 0 -0.18928781681581139 0.27267657158075331 0 -0.20552557843772851 0.2692400959278593 0 -0.18928781681581139 0.27267657158075331 0 -0.1941262486701465 0.25679149545311902 0 -0.20755865675759641 0.25163089594010191 0 -0.20552557843772851 0.2692400959278593 0 -0.1941262486701465 0.25679149545311902 0 -0.20755865675759641 0.25163089594010191 0 -0.1941262486701465 0.25679149545311902 0 -0.19628793804382469 0.24386246613431761 0 -0.17501226609956549 0.26228574933317111 0 -0.1604978674310856 0.24780485758206641 0 -0.1808175670532057 0.24650865715101761 0 -0.1941262486701465 0.25679149545311902 0 -0.17501226609956549 0.26228574933317111 0 -0.1808175670532057 0.24650865715101761 0 -0.18928781681581139 0.27267657158075331 0 -0.1941262486701465 0.25679149545311902 0 -0.17501226609956549 0.26228574933317111 0 -0.17501226609956549 0.26228574933317111 0 -0.15037619205844649 0.26900905137415049 0 -0.1604978674310856 0.24780485758206641 0 -0.17496790456869729 0.28092386285791993 0 -0.1570843580772783 0.28833702555324892 0 -0.15037619205844649 0.26900905137415049 0 -0.17501226609956549 0.26228574933317111 0 -0.17496790456869729 0.28092386285791993 0 -0.15037619205844649 0.26900905137415049 0 -0.17496790456869729 0.28092386285791993 0 -0.15037619205844649 0.26900905137415049 0 -0.18928781681581139 0.27267657158075331 0 -0.17501226609956549 0.26228574933317111 0 -0.17496790456869729 0.28092386285791993 0 -0.19955961707894801 0.29283867434168942 0 -0.17496790456869729 0.28092386285791993 0 -0.18956229363096039 0.30787571304617212 0 -0.17496790456869729 0.28092386285791993 0 -0.1722499065692536 0.30529714990576151 0 -0.17516534415053481 0.3183662922151797 0 -0.18956229363096039 0.30787571304617212 0 -0.1722499065692536 0.30529714990576151 0 -0.15760171592919209 0.31688571346048222 0 -0.1722499065692536 0.30529714990576151 0 -0.1513824357825789 0.30171366153476231 0 -0.1722499065692536 0.30529714990576151 0 -0.1570843580772783 0.28833702555324892 0 -0.1513824357825789 0.30171366153476231 0 -0.17496790456869729 0.28092386285791993 0 -0.1722499065692536 0.30529714990576151 0 -0.1570843580772783 0.28833702555324892 0 -0.1570843580772783 0.28833702555324892 0 -0.1513824357825789 0.30171366153476231 0 -0.1364453514074154 0.28474140209365029 0 -0.1341206268061905 0.31382363598053481 0 -0.1513824357825789 0.30171366153476231 0 -0.1364453514074154 0.28474140209365029 0 -0.1341206268061905 0.31382363598053481 0 -0.15760171592919209 0.31688571346048222 0 -0.1513824357825789 0.30171366153476231 0 -0.1341206268061905 0.31382363598053481 0 -0.1364453514074154 0.28474140209365029 0 -0.12015974918390041 0.29802124925478912 0 -0.1364453514074154 0.28474140209365029 0 -0.1195145873930611 0.27229453862143382 0 -0.12015974918390041 0.29802124925478912 0 -0.1364453514074154 0.28474140209365029 0 -0.1257844795481958 0.2570942398903811 0 -0.15037619205844649 0.26900905137415049 0 -0.1364453514074154 0.28474140209365029 0 -0.1257844795481958 0.2570942398903811 0 -0.1195145873930611 0.27229453862143382 0 -0.1257844795481958 0.2570942398903811 0 -0.15037619205844649 0.26900905137415049 0 -0.1375157473462392 0.24180231514973341 0 -0.1257844795481958 0.2570942398903811 0 -0.15037619205844649 0.26900905137415049 0 -0.15037619205844649 0.26900905137415049 0 -0.1604978674310856 0.24780485758206641 0 -0.1375157473462392 0.24180231514973341 0 -0.1570843580772783 0.28833702555324892 0 -0.1364453514074154 0.28474140209365029 0 -0.15037619205844649 0.26900905137415049 0 -0.1004753526815685 0.27364659355841459 0 -0.1195145873930611 0.27229453862143382 0 -0.1077621354300637 0.28573939016842292 0 -0.1004753526815685 0.27364659355841459 0 -0.104625552311968 0.25840865451950668 0 -0.1195145873930611 0.27229453862143382 0 -0.1004753526815685 0.27364659355841459 0 -0.097257572097561834 0.28605988084379341 0 -0.085034342822385089 0.27806390345232029 0 -0.104625552311968 0.25840865451950668 0 -0.084877724252648237 0.26029169999109231 0 -0.092953108990414202 0.2482343684178544 0 -0.1004753526815685 0.27364659355841459 0 -0.104625552311968 0.25840865451950668 0 -0.084877724252648237 0.26029169999109231 0 -0.104625552311968 0.25840865451950668 0 -0.1038179082207661 0.2447173299240448 0 -0.092953108990414202 0.2482343684178544 0 -0.104625552311968 0.25840865451950668 0 -0.1195145873930611 0.27229453862143382 0 -0.1188694256022219 0.24656782798807839 0 -0.1257844795481958 0.2570942398903811 0 -0.1195145873930611 0.27229453862143382 0 -0.1188694256022219 0.24656782798807839 0 -0.1195145873930611 0.27229453862143382 0 -0.1188694256022219 0.24656782798807839 0 -0.1195145873930611 0.27229453862143382 0 -0.12015974918390041 0.29802124925478912 0 -0.1077621354300637 0.28573939016842292 0 -0.12015974918390041 0.29802124925478912 0 -0.1014034157942265 0.29867468856368351 0 -0.1077621354300637 0.28573939016842292 0 -0.1195145873930611 0.27229453862143382 0 -0.12015974918390041 0.29802124925478912 0 -0.1341206268061905 0.31382363598053481 0 -0.12015974918390041 0.29802124925478912 0 -0.1089185426874151 0.31352805823256091 0 -0.12015974918390041 0.29802124925478912 0 -0.1014034157942265 0.29867468856368351 0 -0.1089185426874151 0.31352805823256091 0 -0.1014034157942265 0.29867468856368351 0 -0.087883341413514587 0.31043226405718022 0 -0.1089185426874151 0.31352805823256091 0 -0.1004753526815685 0.27364659355841459 0 -0.1077621354300637 0.28573939016842292 0 -0.097257572097561834 0.28605988084379341 0 -0.1014034157942265 0.29867468856368351 0 -0.1077621354300637 0.28573939016842292 0 -0.097257572097561834 0.28605988084379341 0 -0.1014034157942265 0.29867468856368351 0 -0.097257572097561834 0.28605988084379341 0 -0.086143828799657401 0.29346554579859652 0 -0.097257572097561834 0.28605988084379341 0 -0.086143828799657401 0.29346554579859652 0 -0.085034342822385089 0.27806390345232029 0 -0.086143828799657401 0.29346554579859652 0 -0.07076315053102504 0.28680778099315202 0 -0.085034342822385089 0.27806390345232029 0 -0.086143828799657401 0.29346554579859652 0 -0.087883341413514587 0.31043226405718022 0 -0.07452115013923144 0.30075475688144948 0 -0.1014034157942265 0.29867468856368351 0 -0.086143828799657401 0.29346554579859652 0 -0.087883341413514587 0.31043226405718022 0 -0.07452115013923144 0.30075475688144948 0 -0.061747309429613463 0.29778371818390331 0 -0.064632329086675891 0.31565102570547632 0 -0.087883341413514587 0.31043226405718022 0 -0.07452115013923144 0.30075475688144948 0 -0.064632329086675891 0.31565102570547632 0 -0.086143828799657401 0.29346554579859652 0 -0.07452115013923144 0.30075475688144948 0 -0.07076315053102504 0.28680778099315202 0 -0.07452115013923144 0.30075475688144948 0 -0.07076315053102504 0.28680778099315202 0 -0.061747309429613463 0.29778371818390331 0 -0.07076315053102504 0.28680778099315202 0 -0.067170634809057994 0.26888334143016462 0 -0.054623778091940668 0.28205096874141372 0 -0.07076315053102504 0.28680778099315202 0 -0.067170634809057994 0.26888334143016462 0 -0.085034342822385089 0.27806390345232029 0 -0.1004753526815685 0.27364659355841459 0 -0.085034342822385089 0.27806390345232029 0 -0.084877724252648237 0.26029169999109231 0 -0.067170634809057994 0.26888334143016462 0 -0.085034342822385089 0.27806390345232029 0 -0.084877724252648237 0.26029169999109231 0 -0.084877724252648237 0.26029169999109231 0 -0.078488296782803058 0.24223177236244689 0 -0.092953108990414202 0.2482343684178544 0 -0.067170634809057994 0.26888334143016462 0 -0.084877724252648237 0.26029169999109231 0 -0.063404290350803638 0.25053412802719932 0 -0.084877724252648237 0.26029169999109231 0 -0.063404290350803638 0.25053412802719932 0 -0.078488296782803058 0.24223177236244689 0 -0.063404290350803638 0.25053412802719932 0 -0.048246923241275157 0.25888997225044141 0 -0.042155663524131561 0.2409184808780816 0 -0.067170634809057994 0.26888334143016462 0 -0.063404290350803638 0.25053412802719932 0 -0.048246923241275157 0.25888997225044141 0 -0.067170634809057994 0.26888334143016462 0 -0.048246923241275157 0.25888997225044141 0 -0.054623778091940668 0.28205096874141372 0 -0.048246923241275157 0.25888997225044141 0 -0.036136810036737438 0.27945947545561711 0 -0.048246923241275157 0.25888997225044141 0 -0.036136810036737438 0.27945947545561711 0 -0.054623778091940668 0.28205096874141372 0 -0.048246923241275157 0.25888997225044141 0 -0.031266506123036962 0.25803754002367357 0 -0.042155663524131561 0.2409184808780816 0 -0.048246923241275157 0.25888997225044141 0 -0.036136810036737438 0.27945947545561711 0 -0.031266506123036962 0.25803754002367357 0 -0.031266506123036962 0.25803754002367357 0 -0.019972446392499649 0.27132173475151761 0 -0.0154606163912278 0.25672212347018147 0 -0.031266506123036962 0.25803754002367357 0 -0.0154606163912278 0.25672212347018147 0 -0.022209461625391828 0.24127642670813079 0 -0.036136810036737438 0.27945947545561711 0 -0.031266506123036962 0.25803754002367357 0 -0.019972446392499649 0.27132173475151761 0 -0.036136810036737438 0.27945947545561711 0 -0.019972446392499649 0.27132173475151761 0 -0.01983330229519889 0.28476847948393119 0 -0.019972446392499649 0.27132173475151761 0 -0.009252906236806354 0.28010347058630503 0 -0.01983330229519889 0.28476847948393119 0 -0.019972446392499649 0.27132173475151761 0 -0.009252906236806354 0.28010347058630503 0 -0.006782571146791443 0.26609624414014699 0 -0.009252906236806354 0.28010347058630503 0 0.0036218862169032778 0.28727876264082469 0 0.0039862574867759772 0.27390840501826019 0 -0.009252906236806354 0.28010347058630503 0 -0.006782571146791443 0.26609624414014699 0 0.0039862574867759772 0.27390840501826019 0 -0.006782571146791443 0.26609624414014699 0 -0.001929197643986852 0.25249673890194402 0 0.0053505978239543383 0.2623879654846023 0 -0.001929197643986852 0.25249673890194402 0 -0.0154606163912278 0.25672212347018147 0 -0.01120624772319823 0.24557773519825321 0 -0.006782571146791443 0.26609624414014699 0 -0.001929197643986852 0.25249673890194402 0 -0.0154606163912278 0.25672212347018147 0 -0.019972446392499649 0.27132173475151761 0 -0.006782571146791443 0.26609624414014699 0 -0.0154606163912278 0.25672212347018147 0 -0.0092057290982383352 0.30241212343694263 0 -0.01145837084528714 0.31112742780152092 0 -0.02402669683219974 0.3000289786607927 0 -0.0092057290982383352 0.30241212343694263 0 -0.0097776519777512706 0.29292873796542379 0 -0.02402669683219974 0.3000289786607927 0 -0.0092057290982383352 0.30241212343694263 0 -0.01145837084528714 0.31112742780152092 0 -0.0044544331564319349 0.30831082105239271 0 -0.01145837084528714 0.31112742780152092 0 -0.0044544331564319349 0.30831082105239271 0 -0.0068313346172969077 0.31657409921056889 0 -0.0044544331564319349 0.30831082105239271 0 -0.00031144100700618749 0.31417227031794248 0 0.003688507320478407 0.29966465170458301 0 -0.0092057290982383352 0.30241212343694263 0 -0.0044544331564319349 0.30831082105239271 0 0.003688507320478407 0.29966465170458301 0 -0.0092057290982383352 0.30241212343694263 0 -0.0097776519777512706 0.29292873796542379 0 0.003688507320478407 0.29966465170458301 0 -0.0097776519777512706 0.29292873796542379 0 0.0036218862169032778 0.28727876264082469 0 0.003688507320478407 0.29966465170458301 0 -0.009252906236806354 0.28010347058630503 0 -0.0097776519777512706 0.29292873796542379 0 0.0036218862169032778 0.28727876264082469 0 -0.009252906236806354 0.28010347058630503 0 -0.0097776519777512706 0.29292873796542379 0 -0.01983330229519889 0.28476847948393119 0 -0.036136810036737438 0.27945947545561711 0 -0.02402669683219974 0.3000289786607927 0 -0.0097776519777512706 0.29292873796542379 0 -0.01983330229519889 0.28476847948393119 0 -0.02402669683219974 0.3000289786607927 0 -0.036136810036737438 0.27945947545561711 0 -0.01983330229519889 0.28476847948393119 0 -0.02402669683219974 0.3000289786607927 0 -0.02402669683219974 0.3000289786607927 0 -0.035446702619713437 0.3075775172745861 0 -0.02935829842596813 0.31812548066943619 0 -0.01145837084528714 0.31112742780152092 0 -0.02402669683219974 0.3000289786607927 0 -0.0119165836276628 0.32059848186596879 0 -0.02402669683219974 0.3000289786607927 0 -0.0119165836276628 0.32059848186596879 0 -0.02402669683219974 0.3000289786607927 0 -0.035446702619713437 0.3075775172745861 0 -0.044984230575997763 0.3000036306971009 0 -0.035446702619713437 0.3075775172745861 0 -0.044984230575997763 0.3000036306971009 0 -0.045919829605122003 0.31379377085315102 0 -0.036136810036737438 0.27945947545561711 0 -0.044984230575997763 0.3000036306971009 0 -0.054623778091940668 0.28205096874141372 0 -0.036136810036737438 0.27945947545561711 0 -0.02402669683219974 0.3000289786607927 0 -0.044984230575997763 0.3000036306971009 0 -0.07076315053102504 0.28680778099315202 0 -0.054623778091940668 0.28205096874141372 0 -0.061747309429613463 0.29778371818390331 0 -0.044984230575997763 0.3000036306971009 0 -0.054623778091940668 0.28205096874141372 0 -0.061747309429613463 0.29778371818390331 0 -0.044984230575997763 0.3000036306971009 0 -0.064632329086675891 0.31565102570547632 0 -0.044984230575997763 0.3000036306971009 0 -0.061747309429613463 0.29778371818390331 0 -0.064632329086675891 0.31565102570547632 0 -0.044984230575997763 0.3000036306971009 0 -0.045919829605122003 0.31379377085315102 0 -0.064632329086675891 0.31565102570547632 0 -0.054279737926603587 0.32697398455731919 0 -0.045919829605122003 0.31379377085315102 0 -0.064632329086675891 0.31565102570547632 0 -0.054279737926603587 0.32697398455731919 0 -0.067145772078419638 0.33795769725667751 0 -0.064632329086675891 0.31565102570547632 0 -0.054279737926603587 0.32697398455731919 0 -0.040663665674189137 0.3289368508685544 0 -0.045919829605122003 0.31379377085315102 0 -0.054279737926603587 0.32697398455731919 0 -0.052365903672035627 0.3415476895711218 0 -0.067145772078419638 0.33795769725667751 0 -0.054279737926603587 0.32697398455731919 0 -0.052365903672035627 0.3415476895711218 0 -0.040663665674189137 0.3289368508685544 0 -0.040663665674189137 0.3289368508685544 0 -0.028922112947862951 0.33178679935980881 0 -0.038060107204081997 0.34558556751853098 0 -0.052365903672035627 0.3415476895711218 0 -0.040663665674189137 0.3289368508685544 0 -0.038060107204081997 0.34558556751853098 0 -0.035446702619713437 0.3075775172745861 0 -0.045919829605122003 0.31379377085315102 0 -0.02935829842596813 0.31812548066943619 0 -0.045919829605122003 0.31379377085315102 0 -0.02935829842596813 0.31812548066943619 0 -0.040663665674189137 0.3289368508685544 0 -0.045919829605122003 0.31379377085315102 0 -0.02935829842596813 0.31812548066943619 0 -0.040663665674189137 0.3289368508685544 0 -0.02935829842596813 0.31812548066943619 0 -0.028922112947862951 0.33178679935980881 0 -0.02402669683219974 0.3000289786607927 0 -0.02935829842596813 0.31812548066943619 0 -0.0119165836276628 0.32059848186596879 0 -0.02935829842596813 0.31812548066943619 0 -0.028922112947862951 0.33178679935980881 0 -0.01279676724681451 0.32245719048572252 0 -0.02935829842596813 0.31812548066943619 0 -0.0119165836276628 0.32059848186596879 0 -0.01279676724681451 0.32245719048572252 0 -0.02935829842596813 0.31812548066943619 0 -0.01279676724681451 0.32245719048572252 0 -0.01135579614756347 0.33453021612537942 0 -0.01279676724681451 0.32245719048572252 0 -0.02365433943736938 0.34538543248104298 0 -0.028922112947862951 0.33178679935980881 0 -0.01279676724681451 0.32245719048572252 0 -0.02365433943736938 0.34538543248104298 0 -0.01279676724681451 0.32245719048572252 0 -0.02365433943736938 0.34538543248104298 0 -0.028922112947862951 0.33178679935980881 0 -0.02365433943736938 0.34538543248104298 0 -0.038060107204081997 0.34558556751853098 0 -0.01135579614756347 0.33453021612537942 0 -0.0054063871653592162 0.33510428122268188 0 -0.0094592222341694544 0.32477240676708169 0 -0.01135579614756347 0.33453021612537942 0 -0.0084269792520210024 0.34440474163617579 0 -0.02365433943736938 0.34538543248104298 0 -0.01135579614756347 0.33453021612537942 0 -0.0054063871653592162 0.33510428122268188 0 -0.0084269792520210024 0.34440474163617579 0 -0.0054063871653592162 0.33510428122268188 0 -0.0084269792520210024 0.34440474163617579 0 0.002312440597944485 0.33608895260951682 0 -0.0054063871653592162 0.33510428122268188 0 -0.0094592222341694544 0.32477240676708169 0 0.002312440597944485 0.33608895260951682 0 -0.0094592222341694544 0.32477240676708169 0 -0.01046290093808098 0.32306761904393072 0 0.01219435951576551 0.32899368206650981 0 -0.0042305238379278208 0.32018573530970851 0 -0.01046290093808098 0.32306761904393072 0 0.0011833167759787489 0.32212892083165617 0 -0.00031144100700618749 0.31417227031794248 0 -0.0042305238379278208 0.32018573530970851 0 -0.0068313346172969077 0.31657409921056889 0 -0.00031144100700618749 0.31417227031794248 0 -0.0042305238379278208 0.32018573530970851 0 0.0011833167759787489 0.32212892083165617 0 -0.0044544331564319349 0.30831082105239271 0 -0.00031144100700618749 0.31417227031794248 0 -0.0068313346172969077 0.31657409921056889 0 -0.0042305238379278208 0.32018573530970851 0 -0.0068313346172969077 0.31657409921056889 0 -0.008870758967530196 0.31983776137398162 0 -0.0068313346172969077 0.31657409921056889 0 -0.008870758967530196 0.31983776137398162 0 -0.010840070520261549 0.31832517871822258 0 -0.01145837084528714 0.31112742780152092 0 -0.010840070520261549 0.31832517871822258 0 -0.0119165836276628 0.32059848186596879 0 -0.010840070520261549 0.31832517871822258 0 -0.0119165836276628 0.32059848186596879 0 -0.008870758967530196 0.31983776137398162 0 -0.010840070520261549 0.31832517871822258 0 -0.0119165836276628 0.32059848186596879 0 -0.01145837084528714 0.31112742780152092 0 -0.0068313346172969077 0.31657409921056889 0 -0.010840070520261549 0.31832517871822258 0 -0.01135579614756347 0.33453021612537942 0 -0.01279676724681451 0.32245719048572252 0 -0.0094592222341694544 0.32477240676708169 0 -0.0119165836276628 0.32059848186596879 0 -0.01279676724681451 0.32245719048572252 0 -0.01046290093808098 0.32306761904393072 0 -0.0119165836276628 0.32059848186596879 0 -0.01279676724681451 0.32245719048572252 0 -0.0042305238379278208 0.32018573530970851 0 -0.008870758967530196 0.31983776137398162 0 -0.01046290093808098 0.32306761904393072 0 -0.0119165836276628 0.32059848186596879 0 -0.01046290093808098 0.32306761904393072 0 -0.008870758967530196 0.31983776137398162 0 -0.0119165836276628 0.32059848186596879 0 -0.01046290093808098 0.32306761904393072 0 -0.01279676724681451 0.32245719048572252 0 -0.0094592222341694544 0.32477240676708169 0 -0.01046290093808098 0.32306761904393072 0 -0.01279676724681451 0.32245719048572252 0 -0.01046290093808098 0.32306761904393072 0 -0.0094592222341694544 0.32477240676708169 0 -0.01046290093808098 0.32306761904393072 0 -0.0018581631687612751 0.3552044043817652 0 -0.017714945226015681 0.35885029571460841 0 -0.01737824787548433 0.37635482584546309 0 -0.0018581631687612751 0.3552044043817652 0 -0.01737824787548433 0.37635482584546309 0 0.0022016208263191542 0.37487773095411731 0 -0.0018581631687612751 0.3552044043817652 0 -0.01737824787548433 0.37635482584546309 0 -0.0018581631687612751 0.3552044043817652 0 -0.0084269792520210024 0.34440474163617579 0 0.002312440597944485 0.33608895260951682 0 -0.0018581631687612751 0.3552044043817652 0 -0.0084269792520210024 0.34440474163617579 0 -0.017714945226015681 0.35885029571460841 0 -0.02365433943736938 0.34538543248104298 0 -0.034511911627924441 0.36831367447636332 0 -0.017714945226015681 0.35885029571460841 0 -0.02365433943736938 0.34538543248104298 0 -0.034511911627924441 0.36831367447636332 0 -0.0084269792520210024 0.34440474163617579 0 -0.017714945226015681 0.35885029571460841 0 -0.02365433943736938 0.34538543248104298 0 -0.017714945226015681 0.35885029571460841 0 -0.034511911627924441 0.36831367447636332 0 -0.01737824787548433 0.37635482584546309 0 -0.034511911627924441 0.36831367447636332 0 -0.038060107204081997 0.34558556751853098 0 -0.048242709865110471 0.35754295835429528 0 -0.052365903672035627 0.3415476895711218 0 -0.038060107204081997 0.34558556751853098 0 -0.048242709865110471 0.35754295835429528 0 -0.02365433943736938 0.34538543248104298 0 -0.034511911627924441 0.36831367447636332 0 -0.038060107204081997 0.34558556751853098 0 -0.052365903672035627 0.3415476895711218 0 -0.063134899201449435 0.35382272228923178 0 -0.067145772078419638 0.33795769725667751 0 -0.052365903672035627 0.3415476895711218 0 -0.048242709865110471 0.35754295835429528 0 -0.063134899201449435 0.35382272228923178 0 -0.034511911627924441 0.36831367447636332 0 -0.048242709865110471 0.35754295835429528 0 -0.058594684814692932 0.37094427864665891 0 -0.048242709865110471 0.35754295835429528 0 -0.058594684814692932 0.37094427864665891 0 -0.063134899201449435 0.35382272228923178 0 -0.058594684814692932 0.37094427864665891 0 -0.083515002008343706 0.35810666105094707 0 -0.063134899201449435 0.35382272228923178 0 -0.058594684814692932 0.37094427864665891 0 -0.083515002008343706 0.35810666105094707 0 -0.078893376561008935 0.38416786197547598 0 -0.083515002008343706 0.35810666105094707 0 -0.10370735584501629 0.37926171384232887 0 -0.078893376561008935 0.38416786197547598 0 -0.083515002008343706 0.35810666105094707 0 -0.084280427597353991 0.33129842071385168 0 -0.1039285261080321 0.34694581572222721 0 -0.083515002008343706 0.35810666105094707 0 -0.063134899201449435 0.35382272228923178 0 -0.067145772078419638 0.33795769725667751 0 -0.067145772078419638 0.33795769725667751 0 -0.064632329086675891 0.31565102570547632 0 -0.084280427597353991 0.33129842071385168 0 -0.064632329086675891 0.31565102570547632 0 -0.084280427597353991 0.33129842071385168 0 -0.087883341413514587 0.31043226405718022 0 -0.064632329086675891 0.31565102570547632 0 -0.084280427597353991 0.33129842071385168 0 -0.087883341413514587 0.31043226405718022 0 -0.084280427597353991 0.33129842071385168 0 -0.1017377043743611 0.32953723803703339 0 -0.083515002008343706 0.35810666105094707 0 -0.067145772078419638 0.33795769725667751 0 -0.084280427597353991 0.33129842071385168 0 -0.084280427597353991 0.33129842071385168 0 -0.1017377043743611 0.32953723803703339 0 -0.1039285261080321 0.34694581572222721 0 -0.084280427597353991 0.33129842071385168 0 -0.1039285261080321 0.34694581572222721 0 -0.087883341413514587 0.31043226405718022 0 -0.1017377043743611 0.32953723803703339 0 -0.1089185426874151 0.31352805823256091 0 -0.1341206268061905 0.31382363598053481 0 -0.1089185426874151 0.31352805823256091 0 -0.1237241332626204 0.33216851134705289 0 -0.1017377043743611 0.32953723803703339 0 -0.1089185426874151 0.31352805823256091 0 -0.1237241332626204 0.33216851134705289 0 -0.1089185426874151 0.31352805823256091 0 -0.1237241332626204 0.33216851134705289 0 -0.1237241332626204 0.33216851134705289 0 -0.12370830653213639 0.34738114189026242 0 -0.1039285261080321 0.34694581572222721 0 -0.1017377043743611 0.32953723803703339 0 -0.1237241332626204 0.33216851134705289 0 -0.1039285261080321 0.34694581572222721 0 -0.12370830653213639 0.34738114189026242 0 -0.1235766246187102 0.36259321073060258 0 -0.1039285261080321 0.34694581572222721 0 -0.1235766246187102 0.36259321073060258 0 -0.1039285261080321 0.34694581572222721 0 -0.1235766246187102 0.36259321073060258 0 -0.10864976874182521 0.36425259341105748 0 -0.1039285261080321 0.34694581572222721 0 -0.12852133512902381 0.37435556570918188 0 -0.1235766246187102 0.36259321073060258 0 -0.10864976874182521 0.36425259341105748 0 -0.12852133512902381 0.37435556570918188 0 -0.10864976874182521 0.36425259341105748 0 -0.10370735584501629 0.37926171384232887 0 -0.083515002008343706 0.35810666105094707 0 -0.10864976874182521 0.36425259341105748 0 -0.10370735584501629 0.37926171384232887 0 -0.083515002008343706 0.35810666105094707 0 -0.10864976874182521 0.36425259341105748 0 -0.1039285261080321 0.34694581572222721 0 -0.1011474869785722 0.40402354962416392 0 -0.10370735584501629 0.37926171384232887 0 -0.091475185147824309 0.39268321685418839 0 -0.1011474869785722 0.40402354962416392 0 -0.10370735584501629 0.37926171384232887 0 -0.11982339924601131 0.4017252501473918 0 -0.12852133512902381 0.37435556570918188 0 -0.10370735584501629 0.37926171384232887 0 -0.12513716185575369 0.38826139798381032 0 -0.10370735584501629 0.37926171384232887 0 -0.11982339924601131 0.4017252501473918 0 -0.12513716185575369 0.38826139798381032 0 -0.12852133512902381 0.37435556570918188 0 -0.10370735584501629 0.37926171384232887 0 -0.1011474869785722 0.40402354962416392 0 -0.11982339924601131 0.4017252501473918 0 -0.1208912272793301 0.41887585364363339 0 -0.1011474869785722 0.40402354962416392 0 -0.1208912272793301 0.41887585364363339 0 -0.13022918341305051 0.41772670390524652 0 -0.11982339924601131 0.4017252501473918 0 -0.1208912272793301 0.41887585364363339 0 -0.1208912272793301 0.41887585364363339 0 -0.1131794884617171 0.428765121277907 0 -0.1023868039123854 0.42241960484774799 0 -0.12507756614931231 0.43410096216537541 0 -0.1208912272793301 0.41887585364363339 0 -0.1131794884617171 0.428765121277907 0 -0.1131794884617171 0.428765121277907 0 -0.1050716380137173 0.43254330924557238 0 -0.11183341775938729 0.4390185048467411 0 -0.12507756614931231 0.43410096216537541 0 -0.1131794884617171 0.428765121277907 0 -0.11183341775938729 0.4390185048467411 0 -0.1023868039123854 0.42241960484774799 0 -0.095084971036634269 0.43545081864777591 0 -0.085088980640720582 0.42310172376247751 0 -0.1131794884617171 0.428765121277907 0 -0.1050716380137173 0.43254330924557238 0 -0.1023868039123854 0.42241960484774799 0 -0.1050716380137173 0.43254330924557238 0 -0.095084971036634269 0.43545081864777591 0 -0.1025544767512971 0.44393934999376072 0 -0.1050716380137173 0.43254330924557238 0 -0.1023868039123854 0.42241960484774799 0 -0.095084971036634269 0.43545081864777591 0 -0.1011474869785722 0.40402354962416392 0 -0.1023868039123854 0.42241960484774799 0 -0.093167847957078526 0.41379286492463091 0 -0.1011474869785722 0.40402354962416392 0 -0.1208912272793301 0.41887585364363339 0 -0.1023868039123854 0.42241960484774799 0 -0.093167847957078526 0.41379286492463091 0 -0.085088980640720582 0.42310172376247751 0 -0.082878589470906261 0.40494370951932179 0 -0.085088980640720582 0.42310172376247751 0 -0.070461967060286484 0.41454824271958252 0 -0.082878589470906261 0.40494370951932179 0 -0.1023868039123854 0.42241960484774799 0 -0.093167847957078526 0.41379286492463091 0 -0.085088980640720582 0.42310172376247751 0 -0.1011474869785722 0.40402354962416392 0 -0.093167847957078526 0.41379286492463091 0 -0.082878589470906261 0.40494370951932179 0 -0.095084971036634269 0.43545081864777591 0 -0.085088980640720582 0.42310172376247751 0 -0.082863860906492698 0.43856744958203731 0 -0.085088980640720582 0.42310172376247751 0 -0.072260975461805793 0.4282171941082078 0 -0.082863860906492698 0.43856744958203731 0 -0.072260975461805793 0.4282171941082078 0 -0.061510735038716853 0.43504776139549411 0 -0.071954293880908127 0.44429918488347581 0 -0.072260975461805793 0.4282171941082078 0 -0.071954293880908127 0.44429918488347581 0 -0.082863860906492698 0.43856744958203731 0 -0.085088980640720582 0.42310172376247751 0 -0.072260975461805793 0.4282171941082078 0 -0.070461967060286484 0.41454824271958252 0 -0.072260975461805793 0.4282171941082078 0 -0.060900306442238733 0.42252303969204569 0 -0.061510735038716853 0.43504776139549411 0 -0.070461967060286484 0.41454824271958252 0 -0.066245705345005498 0.40069757743055773 0 -0.082878589470906261 0.40494370951932179 0 -0.070461967060286484 0.41454824271958252 0 -0.057670333368508998 0.41143297478777169 0 -0.060900306442238733 0.42252303969204569 0 -0.072260975461805793 0.4282171941082078 0 -0.070461967060286484 0.41454824271958252 0 -0.060900306442238733 0.42252303969204569 0 -0.070461967060286484 0.41454824271958252 0 -0.066245705345005498 0.40069757743055773 0 -0.057670333368508998 0.41143297478777169 0 -0.066245705345005498 0.40069757743055773 0 -0.082878589470906261 0.40494370951932179 0 -0.078893376561008935 0.38416786197547598 0 -0.1011474869785722 0.40402354962416392 0 -0.082878589470906261 0.40494370951932179 0 -0.091475185147824309 0.39268321685418839 0 -0.082878589470906261 0.40494370951932179 0 -0.091475185147824309 0.39268321685418839 0 -0.078893376561008935 0.38416786197547598 0 -0.10370735584501629 0.37926171384232887 0 -0.078893376561008935 0.38416786197547598 0 -0.10370735584501629 0.37926171384232887 0 -0.091475185147824309 0.39268321685418839 0 -0.078893376561008935 0.38416786197547598 0 -0.066245705345005498 0.40069757743055773 0 -0.078893376561008935 0.38416786197547598 0 -0.06031897202042695 0.38652510972317922 0 -0.058594684814692932 0.37094427864665891 0 -0.078893376561008935 0.38416786197547598 0 -0.06031897202042695 0.38652510972317922 0 -0.058594684814692932 0.37094427864665891 0 -0.06031897202042695 0.38652510972317922 0 -0.045369483818479543 0.39124191647168383 0 -0.066245705345005498 0.40069757743055773 0 -0.052759708616915632 0.40055219999826908 0 -0.057670333368508998 0.41143297478777169 0 -0.066245705345005498 0.40069757743055773 0 -0.06031897202042695 0.38652510972317922 0 -0.052759708616915632 0.40055219999826908 0 -0.06031897202042695 0.38652510972317922 0 -0.052759708616915632 0.40055219999826908 0 -0.045369483818479543 0.39124191647168383 0 -0.052759708616915632 0.40055219999826908 0 -0.042198523679950743 0.40183250675187859 0 -0.045543285801455488 0.41068441002572592 0 -0.052759708616915632 0.40055219999826908 0 -0.042198523679950743 0.40183250675187859 0 -0.045369483818479543 0.39124191647168383 0 -0.042198523679950743 0.40183250675187859 0 -0.045369483818479543 0.39124191647168383 0 -0.032898332582207507 0.3975052473091612 0 -0.042198523679950743 0.40183250675187859 0 -0.032898332582207507 0.3975052473091612 0 -0.034421807580695518 0.40917875995455311 0 -0.034511911627924441 0.36831367447636332 0 -0.045369483818479543 0.39124191647168383 0 -0.034511911627924441 0.36831367447636332 0 -0.045369483818479543 0.39124191647168383 0 -0.033151553184321961 0.3830113292434934 0 -0.034511911627924441 0.36831367447636332 0 -0.058594684814692932 0.37094427864665891 0 -0.045369483818479543 0.39124191647168383 0 -0.045369483818479543 0.39124191647168383 0 -0.032898332582207507 0.3975052473091612 0 -0.033151553184321961 0.3830113292434934 0 -0.032898332582207507 0.3975052473091612 0 -0.033151553184321961 0.3830113292434934 0 -0.01737824787548433 0.37635482584546309 0 -0.032898332582207507 0.3975052473091612 0 -0.01737824787548433 0.37635482584546309 0 -0.034511911627924441 0.36831367447636332 0 -0.033151553184321961 0.3830113292434934 0 -0.01737824787548433 0.37635482584546309 0 -0.032898332582207507 0.3975052473091612 0 -0.01737824787548433 0.37635482584546309 0 -0.01622832263372179 0.39444145893104432 0 -0.032898332582207507 0.3975052473091612 0 -0.01622832263372179 0.39444145893104432 0 -0.022114615513614579 0.40633045280385938 0 -0.032898332582207507 0.3975052473091612 0 -0.022114615513614579 0.40633045280385938 0 -0.034421807580695518 0.40917875995455311 0 -0.01622832263372179 0.39444145893104432 0 -0.0076380311104497509 0.40288532747675682 0 -0.0012592731398407789 0.38926924851584688 0 -0.01622832263372179 0.39444145893104432 0 -0.0076380311104497509 0.40288532747675682 0 -0.022114615513614579 0.40633045280385938 0 -0.0076380311104497509 0.40288532747675682 0 -0.0012592731398407789 0.38926924851584688 0 0.001751226425469755 0.39891512208642832 0 -0.01737824787548433 0.37635482584546309 0 -0.0012592731398407789 0.38926924851584688 0 0.0022016208263191542 0.37487773095411731 0 -0.01737824787548433 0.37635482584546309 0 -0.01622832263372179 0.39444145893104432 0 -0.0012592731398407789 0.38926924851584688 0 -0.0052827057786810254 0.43069219639650802 0 -0.013126042789038089 0.41767862146350831 0 -0.018578042401184758 0.42757273269647328 0 -0.0052827057786810254 0.43069219639650802 0 -0.018578042401184758 0.42757273269647328 0 -0.020340798898608532 0.43936293864760517 0 -0.0052827057786810254 0.43069219639650802 0 -0.020340798898608532 0.43936293864760517 0 -0.0052827057786810254 0.43069219639650802 0 -0.00056070208299427145 0.41669415924340047 0 -0.013126042789038089 0.41767862146350831 0 -0.0076380311104497509 0.40288532747675682 0 -0.00056070208299427145 0.41669415924340047 0 0.006082570973155732 0.40748354646665719 0 -0.0076380311104497509 0.40288532747675682 0 -0.00056070208299427145 0.41669415924340047 0 -0.013126042789038089 0.41767862146350831 0 -0.0076380311104497509 0.40288532747675682 0 -0.013126042789038089 0.41767862146350831 0 -0.022114615513614579 0.40633045280385938 0 -0.013126042789038089 0.41767862146350831 0 -0.02740120244299506 0.41942010168591098 0 -0.018578042401184758 0.42757273269647328 0 -0.013126042789038089 0.41767862146350831 0 -0.022114615513614579 0.40633045280385938 0 -0.02740120244299506 0.41942010168591098 0 -0.022114615513614579 0.40633045280385938 0 -0.02740120244299506 0.41942010168591098 0 -0.034421807580695518 0.40917875995455311 0 -0.02740120244299506 0.41942010168591098 0 -0.018578042401184758 0.42757273269647328 0 -0.02677051050376035 0.43065543276015739 0 -0.02740120244299506 0.41942010168591098 0 -0.02677051050376035 0.43065543276015739 0 -0.037744763279165608 0.42851395640171192 0 -0.018578042401184758 0.42757273269647328 0 -0.02677051050376035 0.43065543276015739 0 -0.020340798898608532 0.43936293864760517 0 -0.02677051050376035 0.43065543276015739 0 -0.0337422041228463 0.4345071745043308 0 -0.029710643564658579 0.44065785538760638 0 -0.02677051050376035 0.43065543276015739 0 -0.029710643564658579 0.44065785538760638 0 -0.020340798898608532 0.43936293864760517 0 -0.0337422041228463 0.4345071745043308 0 -0.037744763279165608 0.42851395640171192 0 -0.040742899143800672 0.43820145346784739 0 -0.02677051050376035 0.43065543276015739 0 -0.0337422041228463 0.4345071745043308 0 -0.037744763279165608 0.42851395640171192 0 -0.02740120244299506 0.41942010168591098 0 -0.037744763279165608 0.42851395640171192 0 -0.039583827256313833 0.41904185366292268 0 -0.039583827256313833 0.41904185366292268 0 -0.050915435348100363 0.41858686821444679 0 -0.049000127599480248 0.42904256318509648 0 -0.037744763279165608 0.42851395640171192 0 -0.039583827256313833 0.41904185366292268 0 -0.049000127599480248 0.42904256318509648 0 -0.037744763279165608 0.42851395640171192 0 -0.049000127599480248 0.42904256318509648 0 -0.040742899143800672 0.43820145346784739 0 -0.02740120244299506 0.41942010168591098 0 -0.034421807580695518 0.40917875995455311 0 -0.039583827256313833 0.41904185366292268 0 -0.039583827256313833 0.41904185366292268 0 -0.045543285801455488 0.41068441002572592 0 -0.050915435348100363 0.41858686821444679 0 -0.042198523679950743 0.40183250675187859 0 -0.034421807580695518 0.40917875995455311 0 -0.045543285801455488 0.41068441002572592 0 -0.034421807580695518 0.40917875995455311 0 -0.039583827256313833 0.41904185366292268 0 -0.045543285801455488 0.41068441002572592 0 -0.052759708616915632 0.40055219999826908 0 -0.045543285801455488 0.41068441002572592 0 -0.057670333368508998 0.41143297478777169 0 -0.045543285801455488 0.41068441002572592 0 -0.050915435348100363 0.41858686821444679 0 -0.057670333368508998 0.41143297478777169 0 -0.050915435348100363 0.41858686821444679 0 -0.057670333368508998 0.41143297478777169 0 -0.060900306442238733 0.42252303969204569 0 -0.049000127599480248 0.42904256318509648 0 -0.061510735038716853 0.43504776139549411 0 -0.052132602622999423 0.44150053171111492 0 -0.049000127599480248 0.42904256318509648 0 -0.052132602622999423 0.44150053171111492 0 -0.040742899143800672 0.43820145346784739 0 -0.050915435348100363 0.41858686821444679 0 -0.049000127599480248 0.42904256318509648 0 -0.060900306442238733 0.42252303969204569 0 -0.049000127599480248 0.42904256318509648 0 -0.060900306442238733 0.42252303969204569 0 -0.061510735038716853 0.43504776139549411 0 -0.061510735038716853 0.43504776139549411 0 -0.061073405435549767 0.44678937223811549 0 -0.052132602622999423 0.44150053171111492 0 -0.061073405435549767 0.44678937223811549 0 -0.053830508576436703 0.44946843926993041 0 -0.052132602622999423 0.44150053171111492 0 -0.061073405435549767 0.44678937223811549 0 -0.053830508576436703 0.44946843926993041 0 -0.058918457930479007 0.45430339321082092 0 -0.053830508576436703 0.44946843926993041 0 -0.052132602622999423 0.44150053171111492 0 -0.046486119148165382 0.44711267061412541 0 -0.053830508576436703 0.44946843926993041 0 -0.051264061279549432 0.45702108448839551 0 -0.046486119148165382 0.44711267061412541 0 -0.060562187214140341 0.46347855852662079 0 -0.058918457930479007 0.45430339321082092 0 -0.067862127146718826 0.45475951153104222 0 -0.060562187214140341 0.46347855852662079 0 -0.058918457930479007 0.45430339321082092 0 -0.051264061279549432 0.45702108448839551 0 -0.053830508576436703 0.44946843926993041 0 -0.058918457930479007 0.45430339321082092 0 -0.051264061279549432 0.45702108448839551 0 -0.060562187214140341 0.46347855852662079 0 -0.051264061279549432 0.45702108448839551 0 -0.048975602243677557 0.46531953891335109 0 -0.048975602243677557 0.46531953891335109 0 -0.033675413247106649 0.46400086417563308 0 -0.035429940425695583 0.44797930837002597 0 -0.048975602243677557 0.46531953891335109 0 -0.035429940425695583 0.44797930837002597 0 -0.051264061279549432 0.45702108448839551 0 -0.048975602243677557 0.46531953891335109 0 -0.035429940425695583 0.44797930837002597 0 -0.051264061279549432 0.45702108448839551 0 -0.035429940425695583 0.44797930837002597 0 -0.051264061279549432 0.45702108448839551 0 -0.046486119148165382 0.44711267061412541 0 -0.035429940425695583 0.44797930837002597 0 -0.052132602622999423 0.44150053171111492 0 -0.040742899143800672 0.43820145346784739 0 -0.046486119148165382 0.44711267061412541 0 -0.040742899143800672 0.43820145346784739 0 -0.046486119148165382 0.44711267061412541 0 -0.035429940425695583 0.44797930837002597 0 -0.0337422041228463 0.4345071745043308 0 -0.040742899143800672 0.43820145346784739 0 -0.029710643564658579 0.44065785538760638 0 -0.040742899143800672 0.43820145346784739 0 -0.035429940425695583 0.44797930837002597 0 -0.029710643564658579 0.44065785538760638 0 -0.035429940425695583 0.44797930837002597 0 -0.029710643564658579 0.44065785538760638 0 -0.035429940425695583 0.44797930837002597 0 -0.020340798898608532 0.43936293864760517 0 -0.01809920852777357 0.46269080699192078 0 -0.020340798898608532 0.43936293864760517 0 -0.01809920852777357 0.46269080699192078 0 -0.0098246138837602467 0.45018740383035361 0 -0.035429940425695583 0.44797930837002597 0 -0.029710643564658579 0.44065785538760638 0 -0.020340798898608532 0.43936293864760517 0 -0.035429940425695583 0.44797930837002597 0 -0.020340798898608532 0.43936293864760517 0 -0.033675413247106649 0.46400086417563308 0 -0.035429940425695583 0.44797930837002597 0 -0.01809920852777357 0.46269080699192078 0 -0.00054723394969197626 0.46676005618269939 0 -0.0098246138837602467 0.45018740383035361 0 0.0051866147120248028 0.45174374884484919 0 -0.01809920852777357 0.46269080699192078 0 -0.00054723394969197626 0.46676005618269939 0 -0.0098246138837602467 0.45018740383035361 0 -0.0052827057786810254 0.43069219639650802 0 -0.0098246138837602467 0.45018740383035361 0 0.0051866147120248028 0.45174374884484919 0 -0.0052827057786810254 0.43069219639650802 0 -0.020340798898608532 0.43936293864760517 0 -0.0098246138837602467 0.45018740383035361 0 -0.0052827057786810254 0.43069219639650802 0 0.0051866147120248028 0.45174374884484919 0 -0.001052221165061246 0.48536631712071471 0 -0.015987021248587089 0.5 0 0.01437902095145943 0.49947552315392951 0 -0.01809920852777357 0.46269080699192078 0 -0.00054723394969197626 0.46676005618269939 0 -0.001052221165061246 0.48536631712071471 0 -0.01809920852777357 0.46269080699192078 0 -0.001052221165061246 0.48536631712071471 0 -0.032196901791280097 0.48001380242723402 0 -0.033675413247106649 0.46400086417563308 0 -0.01809920852777357 0.46269080699192078 0 -0.032196901791280097 0.48001380242723402 0 -0.001052221165061246 0.48536631712071471 0 -0.015987021248587089 0.5 0 -0.032196901791280097 0.48001380242723402 0 -0.015987021248587089 0.5 0 -0.046026973564114233 0.5 0 -0.032196901791280097 0.48001380242723402 0 -0.048975602243677557 0.46531953891335109 0 -0.033675413247106649 0.46400086417563308 0 -0.032196901791280097 0.48001380242723402 0 -0.060562187214140341 0.46347855852662079 0 -0.048975602243677557 0.46531953891335109 0 -0.062521264061659171 0.48265976945667638 0 -0.048975602243677557 0.46531953891335109 0 -0.032196901791280097 0.48001380242723402 0 -0.062521264061659171 0.48265976945667638 0 -0.048975602243677557 0.46531953891335109 0 -0.062521264061659171 0.48265976945667638 0 -0.046026973564114233 0.5 0 -0.076066925879641353 0.50000000000000133 0 -0.062521264061659171 0.48265976945667638 0 -0.046026973564114233 0.5 0 -0.032196901791280097 0.48001380242723402 0 -0.062521264061659171 0.48265976945667638 0 -0.076066925879641353 0.50000000000000133 0 -0.084882985137481881 0.48111147209039551 0 -0.062521264061659171 0.48265976945667638 0 -0.076066925879641353 0.50000000000000133 0 -0.062521264061659171 0.48265976945667638 0 -0.076066925879641353 0.50000000000000133 0 -0.084882985137481881 0.48111147209039551 0 -0.10298312123422169 0.5 0 -0.084882985137481881 0.48111147209039551 0 -0.089262206960197654 0.46651687783861262 0 -0.10430402727467809 0.47678085975289147 0 -0.084882985137481881 0.48111147209039551 0 -0.074159995189623268 0.46701390875519661 0 -0.089262206960197654 0.46651687783861262 0 -0.084882985137481881 0.48111147209039551 0 -0.062521264061659171 0.48265976945667638 0 -0.074159995189623268 0.46701390875519661 0 -0.060562187214140341 0.46347855852662079 0 -0.062521264061659171 0.48265976945667638 0 -0.074159995189623268 0.46701390875519661 0 -0.060562187214140341 0.46347855852662079 0 -0.067862127146718826 0.45475951153104222 0 -0.074159995189623268 0.46701390875519661 0 -0.067862127146718826 0.45475951153104222 0 -0.074159995189623268 0.46701390875519661 0 -0.080281601241705539 0.45402790576375229 0 -0.061510735038716853 0.43504776139549411 0 -0.061073405435549767 0.44678937223811549 0 -0.071954293880908127 0.44429918488347581 0 -0.061073405435549767 0.44678937223811549 0 -0.058918457930479007 0.45430339321082092 0 -0.067862127146718826 0.45475951153104222 0 -0.061073405435549767 0.44678937223811549 0 -0.067862127146718826 0.45475951153104222 0 -0.071954293880908127 0.44429918488347581 0 -0.067862127146718826 0.45475951153104222 0 -0.071954293880908127 0.44429918488347581 0 -0.080281601241705539 0.45402790576375229 0 -0.071954293880908127 0.44429918488347581 0 -0.082863860906492698 0.43856744958203731 0 -0.080281601241705539 0.45402790576375229 0 -0.082863860906492698 0.43856744958203731 0 -0.080281601241705539 0.45402790576375229 0 -0.094284649425233777 0.45095183483984042 0 -0.095084971036634269 0.43545081864777591 0 -0.082863860906492698 0.43856744958203731 0 -0.094284649425233777 0.45095183483984042 0 -0.074159995189623268 0.46701390875519661 0 -0.080281601241705539 0.45402790576375229 0 -0.089262206960197654 0.46651687783861262 0 -0.080281601241705539 0.45402790576375229 0 -0.089262206960197654 0.46651687783861262 0 -0.094284649425233777 0.45095183483984042 0 -0.089262206960197654 0.46651687783861262 0 -0.1018140528588387 0.46354042035968868 0 -0.094284649425233777 0.45095183483984042 0 -0.1018140528588387 0.46354042035968868 0 -0.094284649425233777 0.45095183483984042 0 -0.1096302509001494 0.45327690383409142 0 -0.095084971036634269 0.43545081864777591 0 -0.094284649425233777 0.45095183483984042 0 -0.1025544767512971 0.44393934999376072 0 -0.1025544767512971 0.44393934999376072 0 -0.11183341775938729 0.4390185048467411 0 -0.1096302509001494 0.45327690383409142 0 -0.094284649425233777 0.45095183483984042 0 -0.1025544767512971 0.44393934999376072 0 -0.1096302509001494 0.45327690383409142 0 -0.1050716380137173 0.43254330924557238 0 -0.1025544767512971 0.44393934999376072 0 -0.11183341775938729 0.4390185048467411 0 -0.11183341775938729 0.4390185048467411 0 -0.12178995440549591 0.44512499793160332 0 -0.1096302509001494 0.45327690383409142 0 -0.12178995440549591 0.44512499793160332 0 -0.1096302509001494 0.45327690383409142 0 -0.12448230083334889 0.45650400003295732 0 -0.12507756614931231 0.43410096216537541 0 -0.11183341775938729 0.4390185048467411 0 -0.12178995440549591 0.44512499793160332 0 -0.1018140528588387 0.46354042035968868 0 -0.1096302509001494 0.45327690383409142 0 -0.1185012435203201 0.46927925235729062 0 -0.1096302509001494 0.45327690383409142 0 -0.12448230083334889 0.45650400003295732 0 -0.1185012435203201 0.46927925235729062 0 -0.1185012435203201 0.46927925235729062 0 -0.117102535461582 0.48686981281920849 0 -0.10430402727467809 0.47678085975289147 0 -0.13035104752789081 0.47809625069986389 0 -0.1185012435203201 0.46927925235729062 0 -0.117102535461582 0.48686981281920849 0 -0.12989931658880219 0.5 0 -0.117102535461582 0.48686981281920849 0 -0.10298312123422169 0.5 0 -0.084882985137481881 0.48111147209039551 0 -0.10298312123422169 0.5 0 -0.10430402727467809 0.47678085975289147 0 -0.117102535461582 0.48686981281920849 0 -0.10298312123422169 0.5 0 -0.10430402727467809 0.47678085975289147 0 -0.1018140528588387 0.46354042035968868 0 -0.1185012435203201 0.46927925235729062 0 -0.10430402727467809 0.47678085975289147 0 -0.089262206960197654 0.46651687783861262 0 -0.1018140528588387 0.46354042035968868 0 -0.10430402727467809 0.47678085975289147 0 -0.16942655710257931 0.081313759778173456 0 -0.1632191738895005 0.069617738668654255 0 -0.15862911819412059 0.097756724901217312 0 -0.16942655710257931 0.081313759778173456 0 -0.17754332914571291 0.088636160443240367 0 -0.15862911819412059 0.097756724901217312 0 -0.1632191738895005 0.069617738668654255 0 -0.15862911819412059 0.097756724901217312 0 -0.1632191738895005 0.069617738668654255 0 -0.15862911819412059 0.097756724901217312 0 -0.14917370168858521 0.079615505367234427 0 -0.1632191738895005 0.069617738668654255 0 -0.166550299153083 0.069403824515200191 0 -0.141583805156697 0.064135708891144866 0 -0.166550299153083 0.069403824515200191 0 -0.1678897209062726 0.059410469536475469 0 -0.17517620348809759 0.061111614117072589 0 -0.16942655710257931 0.081313759778173456 0 -0.1632191738895005 0.069617738668654255 0 -0.16906265220867611 0.074103042425240156 0 -0.166550299153083 0.069403824515200191 0 -0.16906265220867611 0.074103042425240156 0 -0.17705457868954161 0.076076846738932724 0 -0.16942655710257931 0.081313759778173456 0 -0.16906265220867611 0.074103042425240156 0 -0.17705457868954161 0.076076846738932724 0 -0.1632191738895005 0.069617738668654255 0 -0.166550299153083 0.069403824515200191 0 -0.16906265220867611 0.074103042425240156 0 -0.166550299153083 0.069403824515200191 0 -0.17705457868954161 0.076076846738932724 0 -0.19151679314946909 0.074671940139255516 0 -0.166550299153083 0.069403824515200191 0 -0.19151679314946909 0.074671940139255516 0 -0.166550299153083 0.069403824515200191 0 -0.18579611961028841 0.066800872519545557 0 -0.19151679314946909 0.074671940139255516 0 -0.166550299153083 0.069403824515200191 0 -0.18579611961028841 0.066800872519545557 0 -0.17517620348809759 0.061111614117072589 0 -0.17705457868954161 0.076076846738932724 0 -0.18611910000096471 0.083584785915992443 0 -0.19151679314946909 0.074671940139255516 0 -0.17705457868954161 0.076076846738932724 0 -0.18611910000096471 0.083584785915992443 0 -0.17754332914571291 0.088636160443240367 0 -0.16942655710257931 0.081313759778173456 0 -0.17705457868954161 0.076076846738932724 0 -0.17754332914571291 0.088636160443240367 0 -0.18611910000096471 0.083584785915992443 0 -0.17754332914571291 0.088636160443240367 0 -0.19000247512989779 0.091998968561011252 0 -0.18536050813616409 0.10250509437258259 0 -0.17400146724828081 0.11545009424172691 0 -0.15862911819412059 0.097756724901217312 0 -0.17754332914571291 0.088636160443240367 0 -0.18536050813616409 0.10250509437258259 0 -0.19000247512989779 0.091998968561011252 0 -0.17754332914571291 0.088636160443240367 0 -0.18536050813616409 0.10250509437258259 0 -0.15862911819412059 0.097756724901217312 0 -0.18536050813616409 0.10250509437258259 0 -0.17400146724828081 0.11545009424172691 0 -0.19770398751383031 0.1182113675273805 0 -0.17400146724828081 0.11545009424172691 0 -0.19770398751383031 0.1182113675273805 0 -0.18589752272922219 0.13317796537110621 0 -0.17400146724828081 0.11545009424172691 0 -0.17115086886238429 0.13231723386705671 0 -0.15403906249874069 0.12589571113378031 0 -0.17400146724828081 0.11545009424172691 0 -0.15862911819412059 0.097756724901217312 0 -0.15403906249874069 0.12589571113378031 0 -0.15862911819412059 0.097756724901217312 0 -0.15403906249874069 0.12589571113378031 0 -0.15862911819412059 0.097756724901217312 0 -0.14131371824697789 0.10751838087593731 0 -0.1345911480507764 0.088812230746756912 0 -0.14131371824697789 0.10751838087593731 0 -0.13001429557831731 0.1198227941329678 0 -0.15403906249874069 0.12589571113378031 0 -0.15862911819412059 0.097756724901217312 0 -0.14131371824697789 0.10751838087593731 0 -0.15403906249874069 0.12589571113378031 0 -0.14131371824697789 0.10751838087593731 0 -0.13001429557831731 0.1198227941329678 0 -0.12122071127410169 0.1011562332252598 0 -0.14131371824697789 0.10751838087593731 0 -0.1345911480507764 0.088812230746756912 0 -0.12122071127410169 0.1011562332252598 0 -0.15862911819412059 0.097756724901217312 0 -0.1345911480507764 0.088812230746756912 0 -0.14917370168858521 0.079615505367234427 0 -0.166550299153083 0.069403824515200191 0 -0.141583805156697 0.064135708891144866 0 -0.1632191738895005 0.069617738668654255 0 -0.14917370168858521 0.079615505367234427 0 -0.141583805156697 0.064135708891144866 0 -0.1345911480507764 0.088812230746756912 0 -0.14917370168858521 0.079615505367234427 0 -0.141583805156697 0.064135708891144866 0 -0.166550299153083 0.069403824515200191 0 -0.141583805156697 0.064135708891144866 0 -0.15779303939592501 0.054928131258826937 0 -0.1345911480507764 0.088812230746756912 0 -0.141583805156697 0.064135708891144866 0 -0.122857043700085 0.065396000713886113 0 -0.141583805156697 0.064135708891144866 0 -0.1400776641808763 0.046650715488378819 0 -0.122857043700085 0.065396000713886113 0 -0.1400776641808763 0.046650715488378819 0 -0.12877269131590419 0.02891062264521364 0 -0.14822285433910279 0.03026761533821061 0 -0.1400776641808763 0.046650715488378819 0 -0.12877269131590419 0.02891062264521364 0 -0.1112017315811004 0.045741524315275547 0 -0.1400776641808763 0.046650715488378819 0 -0.15779303939592501 0.054928131258826937 0 -0.16395126528376799 0.038622125959276263 0 -0.1400776641808763 0.046650715488378819 0 -0.14822285433910279 0.03026761533821061 0 -0.16395126528376799 0.038622125959276263 0 -0.141583805156697 0.064135708891144866 0 -0.1400776641808763 0.046650715488378819 0 -0.15779303939592501 0.054928131258826937 0 -0.1328376889806758 -0.0045356249474490153 0 -0.13863083290176981 0.01319296977056263 0 -0.12124736190375469 0.01279115185984827 0 -0.13863083290176981 0.01319296977056263 0 -0.12877269131590419 0.02891062264521364 0 -0.14822285433910279 0.03026761533821061 0 -0.13863083290176981 0.01319296977056263 0 -0.12877269131590419 0.02891062264521364 0 -0.12124736190375469 0.01279115185984827 0 -0.14822285433910279 0.03026761533821061 0 -0.15609440124032559 0.0047749055323952367 0 -0.13863083290176981 0.01319296977056263 0 -0.14822285433910279 0.03026761533821061 0 -0.15609440124032559 0.0047749055323952367 0 -0.1328376889806758 -0.0045356249474490153 0 -0.13863083290176981 0.01319296977056263 0 -0.15609440124032559 0.0047749055323952367 0 -0.15609440124032559 0.0047749055323952367 0 -0.16663126521263941 0.023006490648555051 0 -0.18261243882222461 0.01005588960001042 0 -0.14822285433910279 0.03026761533821061 0 -0.16663126521263941 0.023006490648555051 0 -0.16395126528376799 0.038622125959276263 0 -0.14822285433910279 0.03026761533821061 0 -0.15609440124032559 0.0047749055323952367 0 -0.16663126521263941 0.023006490648555051 0 -0.16663126521263941 0.023006490648555051 0 -0.18261243882222461 0.01005588960001042 0 -0.181891192205658 0.037085038925054062 0 -0.1826470072517046 -0.0098753555905821966 0 -0.15609440124032559 0.0047749055323952367 0 -0.18261243882222461 0.01005588960001042 0 -0.15779303939592501 0.054928131258826937 0 -0.16395126528376799 0.038622125959276263 0 -0.1739266135637916 0.051900898692625798 0 -0.1678897209062726 0.059410469536475469 0 -0.15779303939592501 0.054928131258826937 0 -0.1739266135637916 0.051900898692625798 0 -0.166550299153083 0.069403824515200191 0 -0.1678897209062726 0.059410469536475469 0 -0.15779303939592501 0.054928131258826937 0 -0.16663126521263941 0.023006490648555051 0 -0.16395126528376799 0.038622125959276263 0 -0.181891192205658 0.037085038925054062 0 -0.16395126528376799 0.038622125959276263 0 -0.181891192205658 0.037085038925054062 0 -0.1739266135637916 0.051900898692625798 0 -0.181891192205658 0.037085038925054062 0 -0.1739266135637916 0.051900898692625798 0 -0.1898637313793827 0.051540694726928793 0 -0.1739266135637916 0.051900898692625798 0 -0.18289780919193149 0.057856124345155691 0 -0.1898637313793827 0.051540694726928793 0 -0.1678897209062726 0.059410469536475469 0 -0.1739266135637916 0.051900898692625798 0 -0.17517620348809759 0.061111614117072589 0 -0.1739266135637916 0.051900898692625798 0 -0.17517620348809759 0.061111614117072589 0 -0.18289780919193149 0.057856124345155691 0 -0.18579611961028841 0.066800872519545557 0 -0.17517620348809759 0.061111614117072589 0 -0.18289780919193149 0.057856124345155691 0 -0.18579611961028841 0.066800872519545557 0 -0.18289780919193149 0.057856124345155691 0 -0.19395589377609729 0.059130079825731041 0 -0.18289780919193149 0.057856124345155691 0 -0.19395589377609729 0.059130079825731041 0 -0.1898637313793827 0.051540694726928793 0 -0.19395589377609729 0.059130079825731041 0 -0.20543704919219219 0.054165625976995438 0 -0.20578475950669201 0.065287081560029742 0 -0.19395589377609729 0.059130079825731041 0 -0.1898637313793827 0.051540694726928793 0 -0.20543704919219219 0.054165625976995438 0 -0.1898637313793827 0.051540694726928793 0 -0.20543704919219219 0.054165625976995438 0 -0.20908497621857791 0.031098155408194609 0 -0.181891192205658 0.037085038925054062 0 -0.20908497621857791 0.031098155408194609 0 -0.181891192205658 0.037085038925054062 0 -0.1898637313793827 0.051540694726928793 0 -0.20908497621857791 0.031098155408194609 0 -0.20543704919219219 0.054165625976995438 0 -0.20908497621857791 0.031098155408194609 0 -0.21916097628352649 0.048491454104114963 0 -0.20543704919219219 0.054165625976995438 0 -0.21916097628352649 0.048491454104114963 0 -0.21777482394873721 0.062783768150244945 0 -0.20543704919219219 0.054165625976995438 0 -0.21777482394873721 0.062783768150244945 0 -0.20578475950669201 0.065287081560029742 0 -0.2043054799363804 -0.0060843420320624807 0 -0.18261243882222461 0.01005588960001042 0 -0.20175906502722349 0.01314140879446506 0 -0.18261243882222461 0.01005588960001042 0 -0.181891192205658 0.037085038925054062 0 -0.20175906502722349 0.01314140879446506 0 -0.181891192205658 0.037085038925054062 0 -0.20175906502722349 0.01314140879446506 0 -0.20908497621857791 0.031098155408194609 0 -0.20175906502722349 0.01314140879446506 0 -0.20908497621857791 0.031098155408194609 0 -0.22560710032771991 0.005678747890459441 0 -0.2043054799363804 -0.0060843420320624807 0 -0.20175906502722349 0.01314140879446506 0 -0.22560710032771991 0.005678747890459441 0 -0.20908497621857791 0.031098155408194609 0 -0.22560710032771991 0.005678747890459441 0 -0.23627876023149799 0.025111271891335121 0 -0.20908497621857791 0.031098155408194609 0 -0.23627876023149799 0.025111271891335121 0 -0.26347254424441802 0.019124388374475651 0 -0.23627876023149799 0.025111271891335121 0 -0.26347254424441802 0.019124388374475651 0 -0.23627876023149799 0.025111271891335121 0 -0.24728209233149009 0.010337292275029671 0 -0.2520988178639067 -0.0074431167796321571 0 -0.22560710032771991 0.005678747890459441 0 -0.24728209233149009 0.010337292275029671 0 -0.22560710032771991 0.005678747890459441 0 -0.23627876023149799 0.025111271891335121 0 -0.24728209233149009 0.010337292275029671 0 -0.22997177478038819 0.055406561011372771 0 -0.21916097628352649 0.048491454104114963 0 -0.23215779705171261 0.041028017622945792 0 -0.22997177478038819 0.055406561011372771 0 -0.21916097628352649 0.048491454104114963 0 -0.21777482394873721 0.062783768150244945 0 -0.20908497621857791 0.031098155408194609 0 -0.21916097628352649 0.048491454104114963 0 -0.23215779705171261 0.041028017622945792 0 -0.20908497621857791 0.031098155408194609 0 -0.23627876023149799 0.025111271891335121 0 -0.23215779705171261 0.041028017622945792 0 -0.25178836883168471 0.034885037221451053 0 -0.23627876023149799 0.025111271891335121 0 -0.247206080807887 0.04269664093361468 0 -0.23627876023149799 0.025111271891335121 0 -0.23215779705171261 0.041028017622945792 0 -0.247206080807887 0.04269664093361468 0 -0.23215779705171261 0.041028017622945792 0 -0.247206080807887 0.04269664093361468 0 -0.2433042830864994 0.055027202448312627 0 -0.2542126422301646 0.050625017747445523 0 -0.247206080807887 0.04269664093361468 0 -0.2433042830864994 0.055027202448312627 0 -0.22997177478038819 0.055406561011372771 0 -0.23215779705171261 0.041028017622945792 0 -0.2433042830864994 0.055027202448312627 0 -0.22997177478038819 0.055406561011372771 0 -0.2433042830864994 0.055027202448312627 0 -0.24227965263950299 0.067380038872434392 0 -0.25626457959536209 0.061004835420003511 0 -0.2433042830864994 0.055027202448312627 0 -0.24227965263950299 0.067380038872434392 0 -0.25276639289259578 0.074270958708192392 0 -0.24227965263950299 0.067380038872434392 0 -0.2414497811422408 0.085208171387366111 0 -0.24227965263950299 0.067380038872434392 0 -0.2414497811422408 0.085208171387366111 0 -0.22992110433993179 0.073362504259359043 0 -0.2414497811422408 0.085208171387366111 0 -0.21648328714585499 0.079940055763310827 0 -0.21672777432092799 0.093486989512891278 0 -0.2414497811422408 0.085208171387366111 0 -0.21648328714585499 0.079940055763310827 0 -0.2414497811422408 0.085208171387366111 0 -0.2136101974066007 0.076042902276791946 0 -0.2414497811422408 0.085208171387366111 0 -0.22992110433993179 0.073362504259359043 0 -0.2136101974066007 0.076042902276791946 0 -0.2414497811422408 0.085208171387366111 0 -0.2136101974066007 0.076042902276791946 0 -0.21648328714585499 0.079940055763310827 0 -0.22992110433993179 0.073362504259359043 0 -0.21881069880994869 0.070153873626380092 0 -0.2136101974066007 0.076042902276791946 0 -0.22997177478038819 0.055406561011372771 0 -0.24227965263950299 0.067380038872434392 0 -0.22992110433993179 0.073362504259359043 0 -0.22997177478038819 0.055406561011372771 0 -0.22992110433993179 0.073362504259359043 0 -0.21777482394873721 0.062783768150244945 0 -0.22992110433993179 0.073362504259359043 0 -0.21881069880994869 0.070153873626380092 0 -0.21777482394873721 0.062783768150244945 0 -0.21648328714585499 0.079940055763310827 0 -0.19151679314946909 0.074671940139255516 0 -0.21393666954452539 0.06842631981912449 0 -0.20578475950669201 0.065287081560029742 0 -0.2136101974066007 0.076042902276791946 0 -0.2136101974066007 0.076042902276791946 0 -0.21648328714585499 0.079940055763310827 0 -0.19151679314946909 0.074671940139255516 0 -0.21777482394873721 0.062783768150244945 0 -0.21393666954452539 0.06842631981912449 0 -0.20578475950669201 0.065287081560029742 0 -0.21881069880994869 0.070153873626380092 0 -0.21777482394873721 0.062783768150244945 0 -0.21393666954452539 0.06842631981912449 0 -0.21881069880994869 0.070153873626380092 0 -0.21393666954452539 0.06842631981912449 0 -0.2136101974066007 0.076042902276791946 0 -0.21648328714585499 0.079940055763310827 0 -0.2061924375007744 0.08583363902360272 0 -0.19151679314946909 0.074671940139255516 0 -0.21672777432092799 0.093486989512891278 0 -0.2061924375007744 0.08583363902360272 0 -0.2002697862603158 0.095406744638763766 0 -0.21648328714585499 0.079940055763310827 0 -0.21672777432092799 0.093486989512891278 0 -0.2061924375007744 0.08583363902360272 0 -0.2061924375007744 0.08583363902360272 0 -0.19490229711748691 0.086403260932400389 0 -0.19151679314946909 0.074671940139255516 0 -0.2061924375007744 0.08583363902360272 0 -0.19490229711748691 0.086403260932400389 0 -0.2002697862603158 0.095406744638763766 0 -0.19490229711748691 0.086403260932400389 0 -0.19000247512989779 0.091998968561011252 0 -0.2002697862603158 0.095406744638763766 0 -0.18611910000096471 0.083584785915992443 0 -0.19490229711748691 0.086403260932400389 0 -0.19000247512989779 0.091998968561011252 0 -0.18611910000096471 0.083584785915992443 0 -0.19490229711748691 0.086403260932400389 0 -0.19151679314946909 0.074671940139255516 0 -0.18579611961028841 0.066800872519545557 0 -0.2136101974066007 0.076042902276791946 0 -0.18579611961028841 0.066800872519545557 0 -0.2136101974066007 0.076042902276791946 0 -0.19151679314946909 0.074671940139255516 0 -0.18579611961028841 0.066800872519545557 0 -0.20578475950669201 0.065287081560029742 0 -0.2136101974066007 0.076042902276791946 0 -0.18579611961028841 0.066800872519545557 0 -0.19395589377609729 0.059130079825731041 0 -0.20578475950669201 0.065287081560029742 0 -0.18536050813616409 0.10250509437258259 0 -0.19770398751383031 0.1182113675273805 0 -0.2002697862603158 0.095406744638763766 0 -0.18536050813616409 0.10250509437258259 0 -0.19000247512989779 0.091998968561011252 0 -0.2002697862603158 0.095406744638763766 0 -0.21672777432092799 0.093486989512891278 0 -0.2002697862603158 0.095406744638763766 0 -0.21198322060685421 0.10683093201207659 0 -0.19770398751383031 0.1182113675273805 0 -0.2002697862603158 0.095406744638763766 0 -0.21198322060685421 0.10683093201207659 0 -0.21672777432092799 0.093486989512891278 0 -0.21198322060685421 0.10683093201207659 0 -0.22700019229553731 0.1071259431265154 0 -0.19770398751383031 0.1182113675273805 0 -0.21755613890785069 0.1193682517551819 0 -0.21507519216433121 0.13580093689008299 0 -0.19770398751383031 0.1182113675273805 0 -0.21198322060685421 0.10683093201207659 0 -0.21755613890785069 0.1193682517551819 0 -0.21755613890785069 0.1193682517551819 0 -0.22700019229553731 0.1071259431265154 0 -0.232858628026818 0.12620633442153351 0 -0.21198322060685421 0.10683093201207659 0 -0.21755613890785069 0.1193682517551819 0 -0.22700019229553731 0.1071259431265154 0 -0.2414497811422408 0.085208171387366111 0 -0.21672777432092799 0.093486989512891278 0 -0.22700019229553731 0.1071259431265154 0 -0.2414497811422408 0.085208171387366111 0 -0.22700019229553731 0.1071259431265154 0 -0.2455730396100507 0.1086139258876115 0 -0.2500144574684745 0.12364619665035551 0 -0.2455730396100507 0.1086139258876115 0 -0.232858628026818 0.12620633442153351 0 -0.22700019229553731 0.1071259431265154 0 -0.2455730396100507 0.1086139258876115 0 -0.232858628026818 0.12620633442153351 0 -0.24603781378442921 0.1363995227782519 0 -0.232858628026818 0.12620633442153351 0 -0.2291194197128717 0.1522504152874968 0 -0.2500144574684745 0.12364619665035551 0 -0.24603781378442921 0.1363995227782519 0 -0.232858628026818 0.12620633442153351 0 -0.21755613890785069 0.1193682517551819 0 -0.232858628026818 0.12620633442153351 0 -0.21507519216433121 0.13580093689008299 0 -0.232858628026818 0.12620633442153351 0 -0.2291194197128717 0.1522504152874968 0 -0.21507519216433121 0.13580093689008299 0 -0.24603781378442921 0.1363995227782519 0 -0.2291194197128717 0.1522504152874968 0 -0.24827633448406999 0.15132421157691051 0 -0.2291194197128717 0.1522504152874968 0 -0.24827633448406999 0.15132421157691051 0 -0.23686461218281701 0.16336994606674701 0 -0.24827633448406999 0.15132421157691051 0 -0.2467834871529184 0.16883907783750191 0 -0.23686461218281701 0.16336994606674701 0 -0.2467834871529184 0.16883907783750191 0 -0.23686461218281701 0.16336994606674701 0 -0.2363563083810768 0.17374780242368651 0 -0.24745606596458641 0.17710691738250969 0 -0.2341022260239666 0.18505593244963919 0 -0.24431150571590329 0.1987769656207086 0 -0.2467834871529184 0.16883907783750191 0 -0.24745606596458641 0.17710691738250969 0 -0.2363563083810768 0.17374780242368651 0 -0.24745606596458641 0.17710691738250969 0 -0.2363563083810768 0.17374780242368651 0 -0.2341022260239666 0.18505593244963919 0 -0.22380323569619351 0.17400728097569251 0 -0.21848705167951529 0.195764146663888 0 -0.2341022260239666 0.18505593244963919 0 -0.22380323569619351 0.17400728097569251 0 -0.21848705167951529 0.195764146663888 0 -0.2363563083810768 0.17374780242368651 0 -0.2341022260239666 0.18505593244963919 0 -0.22380323569619351 0.17400728097569251 0 -0.2291194197128717 0.1522504152874968 0 -0.22380323569619351 0.17400728097569251 0 -0.2291194197128717 0.1522504152874968 0 -0.23686461218281701 0.16336994606674701 0 -0.22380323569619351 0.17400728097569251 0 -0.2291194197128717 0.1522504152874968 0 -0.22380323569619351 0.17400728097569251 0 -0.20720602292451151 0.15890857987133181 0 -0.23686461218281701 0.16336994606674701 0 -0.2363563083810768 0.17374780242368651 0 -0.22380323569619351 0.17400728097569251 0 -0.20720602292451151 0.15890857987133181 0 -0.21023262166758791 0.18242650807466379 0 -0.19849654274589301 0.1737173343278732 0 -0.22380323569619351 0.17400728097569251 0 -0.20720602292451151 0.15890857987133181 0 -0.21023262166758791 0.18242650807466379 0 -0.22380323569619351 0.17400728097569251 0 -0.21023262166758791 0.18242650807466379 0 -0.21848705167951529 0.195764146663888 0 -0.21023262166758791 0.18242650807466379 0 -0.19849654274589301 0.1737173343278732 0 -0.19912958184325349 0.19350580067924 0 -0.19849654274589301 0.1737173343278732 0 -0.18934000224278991 0.1634222813401833 0 -0.18311746570184639 0.1811403883135044 0 -0.19849654274589301 0.1737173343278732 0 -0.19912958184325349 0.19350580067924 0 -0.18311746570184639 0.1811403883135044 0 -0.20720602292451151 0.15890857987133181 0 -0.19849654274589301 0.1737173343278732 0 -0.18934000224278991 0.1634222813401833 0 -0.20720602292451151 0.15890857987133181 0 -0.18934000224278991 0.1634222813401833 0 -0.19302586953964129 0.1507549710455966 0 -0.20720602292451151 0.15890857987133181 0 -0.19302586953964129 0.1507549710455966 0 -0.1997817189743073 0.13937076414109961 0 -0.19302586953964129 0.1507549710455966 0 -0.1997817189743073 0.13937076414109961 0 -0.18589752272922219 0.13317796537110621 0 -0.19770398751383031 0.1182113675273805 0 -0.1997817189743073 0.13937076414109961 0 -0.18589752272922219 0.13317796537110621 0 -0.19770398751383031 0.1182113675273805 0 -0.1997817189743073 0.13937076414109961 0 -0.21507519216433121 0.13580093689008299 0 -0.2291194197128717 0.1522504152874968 0 -0.20720602292451151 0.15890857987133181 0 -0.21507519216433121 0.13580093689008299 0 -0.20720602292451151 0.15890857987133181 0 -0.1997817189743073 0.13937076414109961 0 -0.21507519216433121 0.13580093689008299 0 -0.22664856378370191 0.25909323357475722 0 -0.22789718088095359 0.23626310744940621 0 -0.22664856378370191 0.25909323357475722 0 -0.22789718088095359 0.23626310744940621 0 -0.21874497254918079 0.24783068221235149 0 -0.2361193770373593 0.25523122618446548 0 -0.24021544137663131 0.22700409590258699 0 -0.2361193770373593 0.25523122618446548 0 -0.2474478051010339 0.2420611433304935 0 -0.24021544137663131 0.22700409590258699 0 -0.2361193770373593 0.25523122618446548 0 -0.22789718088095359 0.23626310744940621 0 -0.24021544137663131 0.22700409590258699 0 -0.2361193770373593 0.25523122618446548 0 -0.24747775448132589 0.25266819895304049 0 -0.2474478051010339 0.2420611433304935 0 -0.2561550017687102 0.23160506951541199 0 -0.2474478051010339 0.2420611433304935 0 -0.24021544137663131 0.22700409590258699 0 -0.22789718088095359 0.23626310744940621 0 -0.2242171250059537 0.2245344306545411 0 -0.20934381117943049 0.2331835164394889 0 -0.24021544137663131 0.22700409590258699 0 -0.2242171250059537 0.2245344306545411 0 -0.22971376016327999 0.21174760192953521 0 -0.22789718088095359 0.23626310744940621 0 -0.24021544137663131 0.22700409590258699 0 -0.2242171250059537 0.2245344306545411 0 -0.22971376016327999 0.21174760192953521 0 -0.21848705167951529 0.195764146663888 0 -0.213915431429473 0.21447383155168839 0 -0.2242171250059537 0.2245344306545411 0 -0.22971376016327999 0.21174760192953521 0 -0.213915431429473 0.21447383155168839 0 -0.24021544137663131 0.22700409590258699 0 -0.22971376016327999 0.21174760192953521 0 -0.24431150571590329 0.1987769656207086 0 -0.25665430688663771 0.21589195771650829 0 -0.24021544137663131 0.22700409590258699 0 -0.24431150571590329 0.1987769656207086 0 -0.24021544137663131 0.22700409590258699 0 -0.24431150571590329 0.1987769656207086 0 -0.24745606596458641 0.17710691738250969 0 -0.24431150571590329 0.1987769656207086 0 -0.25379456404049172 0.18919542510943149 0 -0.24745606596458641 0.17710691738250969 0 -0.24431150571590329 0.1987769656207086 0 -0.2341022260239666 0.18505593244963919 0 -0.24431150571590329 0.1987769656207086 0 -0.21848705167951529 0.195764146663888 0 -0.22971376016327999 0.21174760192953521 0 -0.24431150571590329 0.1987769656207086 0 -0.21848705167951529 0.195764146663888 0 -0.24431150571590329 0.1987769656207086 0 -0.21848705167951529 0.195764146663888 0 -0.21848705167951529 0.195764146663888 0 -0.19912958184325349 0.19350580067924 0 -0.21023262166758791 0.18242650807466379 0 -0.21848705167951529 0.195764146663888 0 -0.19912958184325349 0.19350580067924 0 -0.21848705167951529 0.195764146663888 0 -0.19912958184325349 0.19350580067924 0 -0.213915431429473 0.21447383155168839 0 -0.19912958184325349 0.19350580067924 0 -0.19539923079902419 0.21316351854706639 0 -0.17811602214107519 0.1993144204124469 0 -0.19912958184325349 0.19350580067924 0 -0.19539923079902419 0.21316351854706639 0 -0.213915431429473 0.21447383155168839 0 -0.21848705167951529 0.195764146663888 0 -0.213915431429473 0.21447383155168839 0 -0.2242171250059537 0.2245344306545411 0 -0.213915431429473 0.21447383155168839 0 -0.20934381117943049 0.2331835164394889 0 -0.19539923079902419 0.21316351854706639 0 -0.213915431429473 0.21447383155168839 0 -0.20934381117943049 0.2331835164394889 0 -0.213915431429473 0.21447383155168839 0 -0.20934381117943049 0.2331835164394889 0 -0.19539923079902419 0.21316351854706639 0 -0.18959340655874421 0.23119776568786041 0 -0.17964346146066251 0.2168378183798465 0 -0.19539923079902419 0.21316351854706639 0 -0.20934381117943049 0.2331835164394889 0 -0.18959340655874421 0.23119776568786041 0 -0.20934381117943049 0.2331835164394889 0 -0.18959340655874421 0.23119776568786041 0 -0.19628793804382469 0.24386246613431761 0 -0.18959340655874421 0.23119776568786041 0 -0.19628793804382469 0.24386246613431761 0 -0.1808175670532057 0.24650865715101761 0 -0.1941262486701465 0.25679149545311902 0 -0.19628793804382469 0.24386246613431761 0 -0.1808175670532057 0.24650865715101761 0 -0.20755865675759641 0.25163089594010191 0 -0.20934381117943049 0.2331835164394889 0 -0.21874497254918079 0.24783068221235149 0 -0.22789718088095359 0.23626310744940621 0 -0.20934381117943049 0.2331835164394889 0 -0.21874497254918079 0.24783068221235149 0 -0.20755865675759641 0.25163089594010191 0 -0.20934381117943049 0.2331835164394889 0 -0.19628793804382469 0.24386246613431761 0 -0.1604978674310856 0.24780485758206641 0 -0.1808175670532057 0.24650865715101761 0 -0.1701176167553799 0.23188631146694549 0 -0.1604978674310856 0.24780485758206641 0 -0.1701176167553799 0.23188631146694549 0 -0.1523342267228735 0.2270013427124786 0 -0.18959340655874421 0.23119776568786041 0 -0.1808175670532057 0.24650865715101761 0 -0.1701176167553799 0.23188631146694549 0 -0.18959340655874421 0.23119776568786041 0 -0.1701176167553799 0.23188631146694549 0 -0.17964346146066251 0.2168378183798465 0 -0.1701176167553799 0.23188631146694549 0 -0.1642046420226411 0.21325765964513699 0 -0.1523342267228735 0.2270013427124786 0 -0.1701176167553799 0.23188631146694549 0 -0.1642046420226411 0.21325765964513699 0 -0.17964346146066251 0.2168378183798465 0 -0.1642046420226411 0.21325765964513699 0 -0.17811602214107519 0.1993144204124469 0 -0.1586772749059861 0.1975591465085389 0 -0.1642046420226411 0.21325765964513699 0 -0.1586772749059861 0.1975591465085389 0 -0.14696225145681949 0.20767347379930001 0 -0.19539923079902419 0.21316351854706639 0 -0.17964346146066251 0.2168378183798465 0 -0.17811602214107519 0.1993144204124469 0 -0.1642046420226411 0.21325765964513699 0 -0.17964346146066251 0.2168378183798465 0 -0.17811602214107519 0.1993144204124469 0 -0.17811602214107519 0.1993144204124469 0 -0.18311746570184639 0.1811403883135044 0 -0.1670781764642153 0.18724697660923509 0 -0.19912958184325349 0.19350580067924 0 -0.17811602214107519 0.1993144204124469 0 -0.18311746570184639 0.1811403883135044 0 -0.17811602214107519 0.1993144204124469 0 -0.1586772749059861 0.1975591465085389 0 -0.1670781764642153 0.18724697660923509 0 -0.1586772749059861 0.1975591465085389 0 -0.1670781764642153 0.18724697660923509 0 -0.15298476598214081 0.18445967190161469 0 -0.1586772749059861 0.1975591465085389 0 -0.1427177913690246 0.19340267668349981 0 -0.15298476598214081 0.18445967190161469 0 -0.1586772749059861 0.1975591465085389 0 -0.1427177913690246 0.19340267668349981 0 -0.14696225145681949 0.20767347379930001 0 -0.1427177913690246 0.19340267668349981 0 -0.1273723576929372 0.2029076099243721 0 -0.14696225145681949 0.20767347379930001 0 -0.1427177913690246 0.19340267668349981 0 -0.1273723576929372 0.2029076099243721 0 -0.1215692290757915 0.18300867896863079 0 -0.1273723576929372 0.2029076099243721 0 -0.13670455986328889 0.22136746151504991 0 -0.1182242638113826 0.22084111735472289 0 -0.1273723576929372 0.2029076099243721 0 -0.14696225145681949 0.20767347379930001 0 -0.13670455986328889 0.22136746151504991 0 -0.1642046420226411 0.21325765964513699 0 -0.14696225145681949 0.20767347379930001 0 -0.1523342267228735 0.2270013427124786 0 -0.14696225145681949 0.20767347379930001 0 -0.1523342267228735 0.2270013427124786 0 -0.13670455986328889 0.22136746151504991 0 -0.1523342267228735 0.2270013427124786 0 -0.13670455986328889 0.22136746151504991 0 -0.1375157473462392 0.24180231514973341 0 -0.13670455986328889 0.22136746151504991 0 -0.1375157473462392 0.24180231514973341 0 -0.1182242638113826 0.22084111735472289 0 -0.1257844795481958 0.2570942398903811 0 -0.1375157473462392 0.24180231514973341 0 -0.1188694256022219 0.24656782798807839 0 -0.1604978674310856 0.24780485758206641 0 -0.1523342267228735 0.2270013427124786 0 -0.1375157473462392 0.24180231514973341 0 -0.16298642700376301 0.14467362485150451 0 -0.17115086886238429 0.13231723386705671 0 -0.17775537539207059 0.14809131127295069 0 -0.16754889737796089 0.15544721936864181 0 -0.16298642700376301 0.14467362485150451 0 -0.17775537539207059 0.14809131127295069 0 -0.16298642700376301 0.14467362485150451 0 -0.15793231614818701 0.15629603862214289 0 -0.14944900680335729 0.15403469736634279 0 -0.16754889737796089 0.15544721936864181 0 -0.16298642700376301 0.14467362485150451 0 -0.15793231614818701 0.15629603862214289 0 -0.16298642700376301 0.14467362485150451 0 -0.17115086886238429 0.13231723386705671 0 -0.15403906249874069 0.12589571113378031 0 -0.17400146724828081 0.11545009424172691 0 -0.17115086886238429 0.13231723386705671 0 -0.18589752272922219 0.13317796537110621 0 -0.17115086886238429 0.13231723386705671 0 -0.18589752272922219 0.13317796537110621 0 -0.17775537539207059 0.14809131127295069 0 -0.19302586953964129 0.1507549710455966 0 -0.18589752272922219 0.13317796537110621 0 -0.17775537539207059 0.14809131127295069 0 -0.18934000224278991 0.1634222813401833 0 -0.19302586953964129 0.1507549710455966 0 -0.17775537539207059 0.14809131127295069 0 -0.18934000224278991 0.1634222813401833 0 -0.17550477519648289 0.16525784736724919 0 -0.18311746570184639 0.1811403883135044 0 -0.16754889737796089 0.15544721936864181 0 -0.17775537539207059 0.14809131127295069 0 -0.17550477519648289 0.16525784736724919 0 -0.18934000224278991 0.1634222813401833 0 -0.17775537539207059 0.14809131127295069 0 -0.17550477519648289 0.16525784736724919 0 -0.18311746570184639 0.1811403883135044 0 -0.1670781764642153 0.18724697660923509 0 -0.1703986627455297 0.17603661607466001 0 -0.17550477519648289 0.16525784736724919 0 -0.18311746570184639 0.1811403883135044 0 -0.1703986627455297 0.17603661607466001 0 -0.1670781764642153 0.18724697660923509 0 -0.1703986627455297 0.17603661607466001 0 -0.16013896660212379 0.1742778000983071 0 -0.1670781764642153 0.18724697660923509 0 -0.16013896660212379 0.1742778000983071 0 -0.15298476598214081 0.18445967190161469 0 -0.16754889737796089 0.15544721936864181 0 -0.17550477519648289 0.16525784736724919 0 -0.16455401270939041 0.16529566223735259 0 -0.1703986627455297 0.17603661607466001 0 -0.16013896660212379 0.1742778000983071 0 -0.16455401270939041 0.16529566223735259 0 -0.17550477519648289 0.16525784736724919 0 -0.1703986627455297 0.17603661607466001 0 -0.16455401270939041 0.16529566223735259 0 -0.16013896660212379 0.1742778000983071 0 -0.16455401270939041 0.16529566223735259 0 -0.15582819312823859 0.16545779957503459 0 -0.16754889737796089 0.15544721936864181 0 -0.16455401270939041 0.16529566223735259 0 -0.15793231614818701 0.15629603862214289 0 -0.16455401270939041 0.16529566223735259 0 -0.15793231614818701 0.15629603862214289 0 -0.15582819312823859 0.16545779957503459 0 -0.15793231614818701 0.15629603862214289 0 -0.14833859665519611 0.16084198205858671 0 -0.14944900680335729 0.15403469736634279 0 -0.15793231614818701 0.15629603862214289 0 -0.15582819312823859 0.16545779957503459 0 -0.14833859665519611 0.16084198205858671 0 -0.14833859665519611 0.16084198205858671 0 -0.14944900680335729 0.15403469736634279 0 -0.16013896660212379 0.1742778000983071 0 -0.15582819312823859 0.16545779957503459 0 -0.14838493491220209 0.17216170436465361 0 -0.15582819312823859 0.16545779957503459 0 -0.14833859665519611 0.16084198205858671 0 -0.14838493491220209 0.17216170436465361 0 -0.14833859665519611 0.16084198205858671 0 -0.14838493491220209 0.17216170436465361 0 -0.13320518475680421 0.16768031909565409 0 -0.16013896660212379 0.1742778000983071 0 -0.15298476598214081 0.18445967190161469 0 -0.14838493491220209 0.17216170436465361 0 -0.15298476598214081 0.18445967190161469 0 -0.14838493491220209 0.17216170436465361 0 -0.13945244213914321 0.17970987423698839 0 -0.1427177913690246 0.19340267668349981 0 -0.15298476598214081 0.18445967190161469 0 -0.13945244213914321 0.17970987423698839 0 -0.13945244213914321 0.17970987423698839 0 -0.13320518475680421 0.16768031909565409 0 -0.1215692290757915 0.18300867896863079 0 -0.1427177913690246 0.19340267668349981 0 -0.13945244213914321 0.17970987423698839 0 -0.1215692290757915 0.18300867896863079 0 -0.14838493491220209 0.17216170436465361 0 -0.13945244213914321 0.17970987423698839 0 -0.13320518475680421 0.16768031909565409 0 -0.13320518475680421 0.16768031909565409 0 -0.12922349761901031 0.14864331335816791 0 -0.11503720570432539 0.16260486234087229 0 -0.14833859665519611 0.16084198205858671 0 -0.13320518475680421 0.16768031909565409 0 -0.12922349761901031 0.14864331335816791 0 -0.12922349761901031 0.14864331335816791 0 -0.14944900680335729 0.15403469736634279 0 -0.13862962922459629 0.13712702681153899 0 -0.12922349761901031 0.14864331335816791 0 -0.14944900680335729 0.15403469736634279 0 -0.14833859665519611 0.16084198205858671 0 -0.12922349761901031 0.14864331335816791 0 -0.14944900680335729 0.15403469736634279 0 -0.16298642700376301 0.14467362485150451 0 -0.14944900680335729 0.15403469736634279 0 -0.15403906249874069 0.12589571113378031 0 -0.15793231614818701 0.15629603862214289 0 -0.14944900680335729 0.15403469736634279 0 -0.14944900680335729 0.15403469736634279 0 -0.15403906249874069 0.12589571113378031 0 -0.13862962922459629 0.13712702681153899 0 -0.13001429557831731 0.1198227941329678 0 -0.15403906249874069 0.12589571113378031 0 -0.13862962922459629 0.13712702681153899 0 -0.14944900680335729 0.15403469736634279 0 -0.15403906249874069 0.12589571113378031 0 -0.12922349761901031 0.14864331335816791 0 -0.13862962922459629 0.13712702681153899 0 -0.1214920249778524 0.13353769620978709 0 -0.13001429557831731 0.1198227941329678 0 -0.13862962922459629 0.13712702681153899 0 -0.1214920249778524 0.13353769620978709 0 -0.1214920249778524 0.13353769620978709 0 -0.10527222096458511 0.12958579729425629 0 -0.10899798843466341 0.14325192934999259 0 -0.1214920249778524 0.13353769620978709 0 -0.10527222096458511 0.12958579729425629 0 -0.1129441648917105 0.1172891678019701 0 -0.10527222096458511 0.12958579729425629 0 -0.10899798843466341 0.14325192934999259 0 -0.088772479250315894 0.13786054534181949 0 -0.10899798843466341 0.14325192934999259 0 -0.088772479250315894 0.13786054534181949 0 -0.10527222096458511 0.12958579729425629 0 -0.088772479250315894 0.13786054534181949 0 -0.095922093164741401 0.11884570091021179 0 -0.10899798843466341 0.14325192934999259 0 -0.097610451473783902 0.15727599886301211 0 -0.088772479250315894 0.13786054534181949 0 -0.10899798843466341 0.14325192934999259 0 -0.11503720570432539 0.16260486234087229 0 -0.097610451473783902 0.15727599886301211 0 -0.12922349761901031 0.14864331335816791 0 -0.10899798843466341 0.14325192934999259 0 -0.11503720570432539 0.16260486234087229 0 -0.12922349761901031 0.14864331335816791 0 -0.10899798843466341 0.14325192934999259 0 -0.12922349761901031 0.14864331335816791 0 -0.1214920249778524 0.13353769620978709 0 -0.10899798843466341 0.14325192934999259 0 -0.13320518475680421 0.16768031909565409 0 -0.11503720570432539 0.16260486234087229 0 -0.1215692290757915 0.18300867896863079 0 -0.11503720570432539 0.16260486234087229 0 -0.1215692290757915 0.18300867896863079 0 -0.099616882865898759 0.1757689344097762 0 -0.099616882865898759 0.1757689344097762 0 -0.081789035597758589 0.1861831111723129 0 -0.10200531523243279 0.19939279210250949 0 -0.1215692290757915 0.18300867896863079 0 -0.099616882865898759 0.1757689344097762 0 -0.10200531523243279 0.19939279210250949 0 -0.11503720570432539 0.16260486234087229 0 -0.099616882865898759 0.1757689344097762 0 -0.097610451473783902 0.15727599886301211 0 -0.099616882865898759 0.1757689344097762 0 -0.097610451473783902 0.15727599886301211 0 -0.078364264299453368 0.16554184260768701 0 -0.099616882865898759 0.1757689344097762 0 -0.078364264299453368 0.16554184260768701 0 -0.081789035597758589 0.1861831111723129 0 -0.078364264299453368 0.16554184260768701 0 -0.081789035597758589 0.1861831111723129 0 -0.063113276741992907 0.17838367483169321 0 -0.081789035597758589 0.1861831111723129 0 -0.063113276741992907 0.17838367483169321 0 -0.067615305956236826 0.19353737935343221 0 -0.078364264299453368 0.16554184260768701 0 -0.068147611344729339 0.15208707448361691 0 -0.054048963989469068 0.16393744930448659 0 -0.078364264299453368 0.16554184260768701 0 -0.063113276741992907 0.17838367483169321 0 -0.054048963989469068 0.16393744930448659 0 -0.078364264299453368 0.16554184260768701 0 -0.068147611344729339 0.15208707448361691 0 -0.083647180645300342 0.13928166456112059 0 -0.068147611344729339 0.15208707448361691 0 -0.083647180645300342 0.13928166456112059 0 -0.056530036444694579 0.13958734146117349 0 -0.083647180645300342 0.13928166456112059 0 -0.056530036444694579 0.13958734146117349 0 -0.074449245059836106 0.13404249284899469 0 -0.083647180645300342 0.13928166456112059 0 -0.056530036444694579 0.13958734146117349 0 -0.074449245059836106 0.13404249284899469 0 -0.056530036444694579 0.13958734146117349 0 -0.061585451790333812 0.1241978050615055 0 -0.074449245059836106 0.13404249284899469 0 -0.061585451790333812 0.1241978050615055 0 -0.074791477983799176 0.1185837787286869 0 -0.074449245059836106 0.13404249284899469 0 -0.084429867605449738 0.12537616023750209 0 -0.074791477983799176 0.1185837787286869 0 -0.074449245059836106 0.13404249284899469 0 -0.083647180645300342 0.13928166456112059 0 -0.088772479250315894 0.13786054534181949 0 -0.088772479250315894 0.13786054534181949 0 -0.095922093164741401 0.11884570091021179 0 -0.074449245059836106 0.13404249284899469 0 -0.088772479250315894 0.13786054534181949 0 -0.084429867605449738 0.12537616023750209 0 -0.088772479250315894 0.13786054534181949 0 -0.095922093164741401 0.11884570091021179 0 -0.074449245059836106 0.13404249284899469 0 -0.084429867605449738 0.12537616023750209 0 -0.088772479250315894 0.13786054534181949 0 -0.097610451473783902 0.15727599886301211 0 -0.078364264299453368 0.16554184260768701 0 -0.088772479250315894 0.13786054534181949 0 -0.078364264299453368 0.16554184260768701 0 -0.083647180645300342 0.13928166456112059 0 -0.088772479250315894 0.13786054534181949 0 -0.078364264299453368 0.16554184260768701 0 -0.088772479250315894 0.13786054534181949 0 -0.1038179082207661 0.2447173299240448 0 -0.092956063383885582 0.2355223852921815 0 -0.092953108990414202 0.2482343684178544 0 -0.1038179082207661 0.2447173299240448 0 -0.1070574163311068 0.2330432279564616 0 -0.092956063383885582 0.2355223852921815 0 -0.104625552311968 0.25840865451950668 0 -0.1038179082207661 0.2447173299240448 0 -0.1188694256022219 0.24656782798807839 0 -0.1375157473462392 0.24180231514973341 0 -0.1188694256022219 0.24656782798807839 0 -0.1182242638113826 0.22084111735472289 0 -0.1038179082207661 0.2447173299240448 0 -0.1188694256022219 0.24656782798807839 0 -0.1070574163311068 0.2330432279564616 0 -0.1188694256022219 0.24656782798807839 0 -0.1182242638113826 0.22084111735472289 0 -0.1188694256022219 0.24656782798807839 0 -0.1182242638113826 0.22084111735472289 0 -0.1070574163311068 0.2330432279564616 0 -0.097126961238817353 0.21883952332518891 0 -0.1070574163311068 0.2330432279564616 0 -0.092956063383885582 0.2355223852921815 0 -0.1182242638113826 0.22084111735472289 0 -0.097126961238817353 0.21883952332518891 0 -0.1070574163311068 0.2330432279564616 0 -0.1182242638113826 0.22084111735472289 0 -0.097126961238817353 0.21883952332518891 0 -0.10200531523243279 0.19939279210250949 0 -0.1273723576929372 0.2029076099243721 0 -0.1182242638113826 0.22084111735472289 0 -0.10200531523243279 0.19939279210250949 0 -0.1273723576929372 0.2029076099243721 0 -0.1215692290757915 0.18300867896863079 0 -0.10200531523243279 0.19939279210250949 0 -0.081789035597758589 0.1861831111723129 0 -0.10200531523243279 0.19939279210250949 0 -0.081205698731074222 0.20559636697696029 0 -0.081789035597758589 0.1861831111723129 0 -0.067615305956236826 0.19353737935343221 0 -0.081205698731074222 0.20559636697696029 0 -0.081205698731074222 0.20559636697696029 0 -0.077541819493793906 0.22290148519514269 0 -0.061155754867405883 0.21272391071317551 0 -0.067615305956236826 0.19353737935343221 0 -0.081205698731074222 0.20559636697696029 0 -0.061155754867405883 0.21272391071317551 0 -0.097126961238817353 0.21883952332518891 0 -0.10200531523243279 0.19939279210250949 0 -0.081205698731074222 0.20559636697696029 0 -0.097126961238817353 0.21883952332518891 0 -0.081205698731074222 0.20559636697696029 0 -0.077541819493793906 0.22290148519514269 0 -0.077541819493793906 0.22290148519514269 0 -0.078488296782803058 0.24223177236244689 0 -0.092956063383885582 0.2355223852921815 0 -0.097126961238817353 0.21883952332518891 0 -0.077541819493793906 0.22290148519514269 0 -0.092956063383885582 0.2355223852921815 0 -0.077541819493793906 0.22290148519514269 0 -0.078488296782803058 0.24223177236244689 0 -0.059486499494905809 0.2319895012509692 0 -0.077541819493793906 0.22290148519514269 0 -0.059486499494905809 0.2319895012509692 0 -0.061155754867405883 0.21272391071317551 0 -0.063404290350803638 0.25053412802719932 0 -0.078488296782803058 0.24223177236244689 0 -0.059486499494905809 0.2319895012509692 0 -0.078488296782803058 0.24223177236244689 0 -0.092956063383885582 0.2355223852921815 0 -0.092953108990414202 0.2482343684178544 0 -0.031266506123036962 0.25803754002367357 0 -0.042155663524131561 0.2409184808780816 0 -0.022209461625391828 0.24127642670813079 0 -0.063404290350803638 0.25053412802719932 0 -0.042155663524131561 0.2409184808780816 0 -0.059486499494905809 0.2319895012509692 0 -0.059486499494905809 0.2319895012509692 0 -0.04078299465971718 0.21932594881547349 0 -0.061155754867405883 0.21272391071317551 0 -0.042155663524131561 0.2409184808780816 0 -0.059486499494905809 0.2319895012509692 0 -0.04078299465971718 0.21932594881547349 0 -0.042155663524131561 0.2409184808780816 0 -0.04078299465971718 0.21932594881547349 0 -0.029073273247406651 0.22888783620072439 0 -0.04078299465971718 0.21932594881547349 0 -0.043025845697648377 0.20214593388752031 0 -0.028475449885850421 0.2035157819693911 0 -0.04078299465971718 0.21932594881547349 0 -0.061155754867405883 0.21272391071317551 0 -0.043025845697648377 0.20214593388752031 0 -0.067615305956236826 0.19353737935343221 0 -0.061155754867405883 0.21272391071317551 0 -0.043025845697648377 0.20214593388752031 0 -0.067615305956236826 0.19353737935343221 0 -0.043025845697648377 0.20214593388752031 0 -0.04701204206552672 0.18371592243657359 0 -0.043025845697648377 0.20214593388752031 0 -0.028624706775940058 0.1910105974236197 0 -0.04701204206552672 0.18371592243657359 0 -0.043025845697648377 0.20214593388752031 0 -0.028624706775940058 0.1910105974236197 0 -0.028475449885850421 0.2035157819693911 0 -0.028624706775940058 0.1910105974236197 0 -0.016494608438660199 0.20253790415427381 0 -0.0089517238734856536 0.18832077130528119 0 -0.028624706775940058 0.1910105974236197 0 -0.016494608438660199 0.20253790415427381 0 -0.028475449885850421 0.2035157819693911 0 -0.0089517238734856536 0.18832077130528119 0 -0.0037120870762782131 0.20125657590245791 0 0.001436842856626886 0.19319603212864381 0 -0.016494608438660199 0.20253790415427381 0 -0.0089517238734856536 0.18832077130528119 0 -0.0037120870762782131 0.20125657590245791 0 -0.016494608438660199 0.20253790415427381 0 -0.0037120870762782131 0.20125657590245791 0 -0.010381968619891199 0.20932274140088869 0 -0.0037120870762782131 0.20125657590245791 0 -0.010381968619891199 0.20932274140088869 0 -0.001251031128110124 0.21184140745705399 0 -0.0037120870762782131 0.20125657590245791 0 -0.001251031128110124 0.21184140745705399 0 0.0041720059838486851 0.20507569813242649 0 -0.001251031128110124 0.21184140745705399 0 -0.0100146011515634 0.21798004729494549 0 -0.002628921599886327 0.22021383939074229 0 -0.010381968619891199 0.20932274140088869 0 -0.001251031128110124 0.21184140745705399 0 -0.0100146011515634 0.21798004729494549 0 -0.010381968619891199 0.20932274140088869 0 -0.0100146011515634 0.21798004729494549 0 -0.022108475900671519 0.21510019680845249 0 -0.04078299465971718 0.21932594881547349 0 -0.022108475900671519 0.21510019680845249 0 -0.028475449885850421 0.2035157819693911 0 -0.016494608438660199 0.20253790415427381 0 -0.010381968619891199 0.20932274140088869 0 -0.022108475900671519 0.21510019680845249 0 -0.016494608438660199 0.20253790415427381 0 -0.022108475900671519 0.21510019680845249 0 -0.028475449885850421 0.2035157819693911 0 -0.04078299465971718 0.21932594881547349 0 -0.022108475900671519 0.21510019680845249 0 -0.029073273247406651 0.22888783620072439 0 -0.01760281743996496 0.22565151276179041 0 -0.01198196725276241 0.23546577422982781 0 -0.022209461625391828 0.24127642670813079 0 -0.029073273247406651 0.22888783620072439 0 -0.01760281743996496 0.22565151276179041 0 -0.022209461625391828 0.24127642670813079 0 -0.0100146011515634 0.21798004729494549 0 -0.022108475900671519 0.21510019680845249 0 -0.01760281743996496 0.22565151276179041 0 -0.022108475900671519 0.21510019680845249 0 -0.029073273247406651 0.22888783620072439 0 -0.01760281743996496 0.22565151276179041 0 -0.0100146011515634 0.21798004729494549 0 -0.01760281743996496 0.22565151276179041 0 -0.0066688466443395652 0.22696136743350931 0 -0.002628921599886327 0.22021383939074229 0 -0.0066688466443395652 0.22696136743350931 0 0.001486765165363903 0.226841301675966 0 -0.0100146011515634 0.21798004729494549 0 -0.002628921599886327 0.22021383939074229 0 -0.0066688466443395652 0.22696136743350931 0 -0.0066688466443395652 0.22696136743350931 0 -0.01198196725276241 0.23546577422982781 0 -0.002222462830917453 0.2378618290474552 0 -0.0066688466443395652 0.22696136743350931 0 -0.002222462830917453 0.2378618290474552 0 0.001486765165363903 0.226841301675966 0 -0.01760281743996496 0.22565151276179041 0 -0.0066688466443395652 0.22696136743350931 0 -0.01198196725276241 0.23546577422982781 0 -0.01198196725276241 0.23546577422982781 0 -0.002222462830917453 0.2378618290474552 0 -0.01120624772319823 0.24557773519825321 0 -0.01198196725276241 0.23546577422982781 0 -0.01120624772319823 0.24557773519825321 0 -0.022209461625391828 0.24127642670813079 0 -0.001929197643986852 0.25249673890194402 0 -0.002222462830917453 0.2378618290474552 0 -0.01120624772319823 0.24557773519825321 0 -0.0154606163912278 0.25672212347018147 0 -0.01120624772319823 0.24557773519825321 0 -0.022209461625391828 0.24127642670813079 0 -0.042155663524131561 0.2409184808780816 0 -0.029073273247406651 0.22888783620072439 0 -0.022209461625391828 0.24127642670813079 0 -0.056530036444694579 0.13958734146117349 0 -0.036213891186806582 0.15687722588818129 0 -0.029412892244088801 0.13989301836122631 0 -0.056530036444694579 0.13958734146117349 0 -0.029412892244088801 0.13989301836122631 0 -0.056530036444694579 0.13958734146117349 0 -0.029412892244088801 0.13989301836122631 0 -0.03075706511623082 0.1222245539747369 0 -0.056530036444694579 0.13958734146117349 0 -0.03075706511623082 0.1222245539747369 0 -0.047979557738513548 0.1162227711907461 0 -0.056530036444694579 0.13958734146117349 0 -0.047979557738513548 0.1162227711907461 0 -0.061585451790333812 0.1241978050615055 0 -0.056530036444694579 0.13958734146117349 0 -0.054048963989469068 0.16393744930448659 0 -0.036213891186806582 0.15687722588818129 0 -0.068147611344729339 0.15208707448361691 0 -0.056530036444694579 0.13958734146117349 0 -0.054048963989469068 0.16393744930448659 0 -0.063113276741992907 0.17838367483169321 0 -0.054048963989469068 0.16393744930448659 0 -0.04701204206552672 0.18371592243657359 0 -0.063113276741992907 0.17838367483169321 0 -0.067615305956236826 0.19353737935343221 0 -0.04701204206552672 0.18371592243657359 0 -0.054048963989469068 0.16393744930448659 0 -0.04701204206552672 0.18371592243657359 0 -0.028095914719385141 0.17327281523446331 0 -0.028624706775940058 0.1910105974236197 0 -0.04701204206552672 0.18371592243657359 0 -0.028095914719385141 0.17327281523446331 0 -0.054048963989469068 0.16393744930448659 0 -0.036213891186806582 0.15687722588818129 0 -0.028095914719385141 0.17327281523446331 0 -0.036213891186806582 0.15687722588818129 0 -0.017521299030577898 0.15703913663062041 0 -0.028095914719385141 0.17327281523446331 0 -0.017521299030577898 0.15703913663062041 0 -0.028095914719385141 0.17327281523446331 0 -0.01089396761865942 0.17156180060038301 0 -0.028624706775940058 0.1910105974236197 0 -0.0089517238734856536 0.18832077130528119 0 -0.028095914719385141 0.17327281523446331 0 -0.0089517238734856536 0.18832077130528119 0 -0.028095914719385141 0.17327281523446331 0 -0.01089396761865942 0.17156180060038301 0 -0.0089517238734856536 0.18832077130528119 0 -0.01089396761865942 0.17156180060038301 0 0.0058649873013942953 0.18066383361509761 0 -0.0089517238734856536 0.18832077130528119 0 0.0058649873013942953 0.18066383361509761 0 0.001436842856626886 0.19319603212864381 0 -0.017521299030577898 0.15703913663062041 0 -0.01089396761865942 0.17156180060038301 0 0.001784619628955575 0.1604312644381887 0 -0.01089396761865942 0.17156180060038301 0 0.001784619628955575 0.1604312644381887 0 0.0058649873013942953 0.18066383361509761 0 -0.017521299030577898 0.15703913663062041 0 -0.0022957480434830329 0.1401986952612797 0 0.001784619628955575 0.1604312644381887 0 -0.0022957480434830329 0.1401986952612797 0 0.001784619628955575 0.1604312644381887 0 -0.036213891186806582 0.15687722588818129 0 -0.017521299030577898 0.15703913663062041 0 -0.029412892244088801 0.13989301836122631 0 -0.017521299030577898 0.15703913663062041 0 -0.029412892244088801 0.13989301836122631 0 -0.0022957480434830329 0.1401986952612797 0 -0.015745460848374811 0.13038875412955669 0 -0.029412892244088801 0.13989301836122631 0 -0.0022957480434830329 0.1401986952612797 0 -0.015745460848374811 0.13038875412955669 0 -0.029412892244088801 0.13989301836122631 0 -0.03075706511623082 0.1222245539747369 0 -0.029412892244088801 0.13989301836122631 0 -0.0022957480434830329 0.1401986952612797 0 -0.015745460848374811 0.13038875412955669 0 -0.0022957480434830329 0.1401986952612797 0 -0.0071492087137228167 0.11613273193613161 0 -0.0022957480434830329 0.1401986952612797 0 -0.0071492087137228167 0.11613273193613161 0 0.0083094916575321455 0.12528200001600001 0 -0.0022957480434830329 0.1401986952612797 0 -0.0071492087137228167 0.11613273193613161 0 -0.0071492087137228167 0.11613273193613161 0 -0.01200266938396247 0.092066768610983465 0 -0.01200266938396247 0.092066768610983465 0 0.002793676041261716 0.09208836803534709 0 0.005033691367288021 0.1071795390830385 0 -0.0071492087137228167 0.11613273193613161 0 -0.01200266938396247 0.092066768610983465 0 0.005033691367288021 0.1071795390830385 0 -0.0071492087137228167 0.11613273193613161 0 -0.02488395250225188 0.10550665988755099 0 -0.01200266938396247 0.092066768610983465 0 -0.02488395250225188 0.10550665988755099 0 -0.01200266938396247 0.092066768610983465 0 -0.024967471958333029 0.084676355586822211 0 -0.0071492087137228167 0.11613273193613161 0 -0.02488395250225188 0.10550665988755099 0 -0.03075706511623082 0.1222245539747369 0 -0.015745460848374811 0.13038875412955669 0 -0.0071492087137228167 0.11613273193613161 0 -0.03075706511623082 0.1222245539747369 0 -0.0095560575819312633 0.063802319615242159 0 -0.0042314667271256398 0.071296904549836781 0 -0.015857870617096419 0.072622381416746096 0 -0.0095560575819312633 0.063802319615242159 0 -0.015857870617096419 0.072622381416746096 0 -0.01647279387459237 0.058313598202677917 0 -0.0095560575819312633 0.063802319615242159 0 -0.0042314667271256398 0.071296904549836781 0 -0.00074356456090495871 0.058663613627709249 0 -0.0042314667271256398 0.071296904549836781 0 -0.0042936797531556974 0.081347281365948418 0 0.0078299319211443397 0.078661984216828643 0 -0.0042314667271256398 0.071296904549836781 0 -0.0042936797531556974 0.081347281365948418 0 -0.015857870617096419 0.072622381416746096 0 -0.0042936797531556974 0.081347281365948418 0 -0.01200266938396247 0.092066768610983465 0 -0.015857870617096419 0.072622381416746096 0 -0.0042936797531556974 0.081347281365948418 0 -0.01200266938396247 0.092066768610983465 0 0.002793676041261716 0.09208836803534709 0 -0.01200266938396247 0.092066768610983465 0 -0.024967471958333029 0.084676355586822211 0 -0.015857870617096419 0.072622381416746096 0 -0.02488395250225188 0.10550665988755099 0 -0.024967471958333029 0.084676355586822211 0 -0.043051638054983993 0.086320980159131894 0 -0.024967471958333029 0.084676355586822211 0 -0.015857870617096419 0.072622381416746096 0 -0.035882677570904277 0.070615860455687296 0 -0.015857870617096419 0.072622381416746096 0 -0.035882677570904277 0.070615860455687296 0 -0.027682793312239499 0.058546360490908042 0 -0.015857870617096419 0.072622381416746096 0 -0.01647279387459237 0.058313598202677917 0 -0.027682793312239499 0.058546360490908042 0 -0.035882677570904277 0.070615860455687296 0 -0.043051638054983993 0.086320980159131894 0 -0.061219323607716092 0.067135300430712752 0 -0.024967471958333029 0.084676355586822211 0 -0.035882677570904277 0.070615860455687296 0 -0.043051638054983993 0.086320980159131894 0 -0.043051638054983993 0.086320980159131894 0 -0.061219323607716092 0.067135300430712752 0 -0.064551473293396958 0.085944783306690226 0 -0.043051638054983993 0.086320980159131894 0 -0.052449513819874949 0.1002458210413926 0 -0.064551473293396958 0.085944783306690226 0 -0.035882677570904277 0.070615860455687296 0 -0.061219323607716092 0.067135300430712752 0 -0.043942269612042881 0.05517521644063382 0 -0.043051638054983993 0.086320980159131894 0 -0.061219323607716092 0.067135300430712752 0 -0.02488395250225188 0.10550665988755099 0 -0.03075706511623082 0.1222245539747369 0 -0.047979557738513548 0.1162227711907461 0 -0.02488395250225188 0.10550665988755099 0 -0.043051638054983993 0.086320980159131894 0 -0.02488395250225188 0.10550665988755099 0 -0.043051638054983993 0.086320980159131894 0 -0.052449513819874949 0.1002458210413926 0 -0.02488395250225188 0.10550665988755099 0 -0.052449513819874949 0.1002458210413926 0 -0.047979557738513548 0.1162227711907461 0 -0.052449513819874949 0.1002458210413926 0 -0.067199129492653206 0.1049285840649006 0 -0.064551473293396958 0.085944783306690226 0 -0.052449513819874949 0.1002458210413926 0 -0.047979557738513548 0.1162227711907461 0 -0.067199129492653206 0.1049285840649006 0 -0.047979557738513548 0.1162227711907461 0 -0.061585451790333812 0.1241978050615055 0 -0.067199129492653206 0.1049285840649006 0 -0.061585451790333812 0.1241978050615055 0 -0.074791477983799176 0.1185837787286869 0 -0.067199129492653206 0.1049285840649006 0 -0.074791477983799176 0.1185837787286869 0 -0.085276444433596291 0.1071196729416458 0 -0.067199129492653206 0.1049285840649006 0 -0.084429867605449738 0.12537616023750209 0 -0.085276444433596291 0.1071196729416458 0 -0.095922093164741401 0.11884570091021179 0 -0.084429867605449738 0.12537616023750209 0 -0.074791477983799176 0.1185837787286869 0 -0.085276444433596291 0.1071196729416458 0 -0.085276444433596291 0.1071196729416458 0 -0.067199129492653206 0.1049285840649006 0 -0.083802987586663422 0.081742928856643776 0 -0.085276444433596291 0.1071196729416458 0 -0.083802987586663422 0.081742928856643776 0 -0.1030717070791667 0.099830856478603985 0 -0.067199129492653206 0.1049285840649006 0 -0.064551473293396958 0.085944783306690226 0 -0.083802987586663422 0.081742928856643776 0 -0.061219323607716092 0.067135300430712752 0 -0.064551473293396958 0.085944783306690226 0 -0.083802987586663422 0.081742928856643776 0 -0.061219323607716092 0.067135300430712752 0 -0.083802987586663422 0.081742928856643776 0 -0.079387009160448122 0.047949620702293687 0 -0.083802987586663422 0.081742928856643776 0 -0.098984616888449811 0.064004010728858668 0 -0.079387009160448122 0.047949620702293687 0 -0.110221320993592 0.080816012046996177 0 -0.1030717070791667 0.099830856478603985 0 -0.083802987586663422 0.081742928856643776 0 -0.110221320993592 0.080816012046996177 0 -0.1030717070791667 0.099830856478603985 0 -0.083802987586663422 0.081742928856643776 0 -0.098984616888449811 0.064004010728858668 0 -0.110221320993592 0.080816012046996177 0 -0.098984616888449811 0.064004010728858668 0 -0.122857043700085 0.065396000713886113 0 -0.110221320993592 0.080816012046996177 0 -0.1345911480507764 0.088812230746756912 0 -0.122857043700085 0.065396000713886113 0 -0.110221320993592 0.080816012046996177 0 -0.1345911480507764 0.088812230746756912 0 -0.110221320993592 0.080816012046996177 0 -0.12122071127410169 0.1011562332252598 0 -0.12122071127410169 0.1011562332252598 0 -0.1129441648917105 0.1172891678019701 0 -0.1030717070791667 0.099830856478603985 0 -0.110221320993592 0.080816012046996177 0 -0.12122071127410169 0.1011562332252598 0 -0.1030717070791667 0.099830856478603985 0 -0.13001429557831731 0.1198227941329678 0 -0.1214920249778524 0.13353769620978709 0 -0.1129441648917105 0.1172891678019701 0 -0.13001429557831731 0.1198227941329678 0 -0.12122071127410169 0.1011562332252598 0 -0.1129441648917105 0.1172891678019701 0 -0.10527222096458511 0.12958579729425629 0 -0.1129441648917105 0.1172891678019701 0 -0.095922093164741401 0.11884570091021179 0 -0.1129441648917105 0.1172891678019701 0 -0.095922093164741401 0.11884570091021179 0 -0.1030717070791667 0.099830856478603985 0 -0.095922093164741401 0.11884570091021179 0 -0.1030717070791667 0.099830856478603985 0 -0.085276444433596291 0.1071196729416458 0 -0.095922093164741401 0.11884570091021179 0 -0.1030717070791667 0.099830856478603985 0 -0.10442538007832471 0.013664957110786229 0 -0.1118330840393524 0.025330504776497741 0 -0.093518255317678003 0.02554426795136502 0 -0.10442538007832471 0.013664957110786229 0 -0.093518255317678003 0.02554426795136502 0 -0.087018808590096697 0.0050938216017826022 0 -0.1092492793166108 -0.0014402969385394621 0 -0.10442538007832471 0.013664957110786229 0 -0.087018808590096697 0.0050938216017826022 0 -0.1092492793166108 -0.0014402969385394621 0 -0.10442538007832471 0.013664957110786229 0 -0.12124736190375469 0.01279115185984827 0 -0.1092492793166108 -0.0014402969385394621 0 -0.1328376889806758 -0.0045356249474490153 0 -0.12124736190375469 0.01279115185984827 0 -0.12877269131590419 0.02891062264521364 0 -0.12124736190375469 0.01279115185984827 0 -0.1118330840393524 0.025330504776497741 0 -0.10442538007832471 0.013664957110786229 0 -0.12124736190375469 0.01279115185984827 0 -0.1118330840393524 0.025330504776497741 0 -0.1112017315811004 0.045741524315275547 0 -0.079387009160448122 0.047949620702293687 0 -0.093518255317678003 0.02554426795136502 0 -0.12877269131590419 0.02891062264521364 0 -0.1118330840393524 0.025330504776497741 0 -0.1112017315811004 0.045741524315275547 0 -0.098984616888449811 0.064004010728858668 0 -0.1112017315811004 0.045741524315275547 0 -0.079387009160448122 0.047949620702293687 0 -0.098984616888449811 0.064004010728858668 0 -0.122857043700085 0.065396000713886113 0 -0.1112017315811004 0.045741524315275547 0 -0.1400776641808763 0.046650715488378819 0 -0.122857043700085 0.065396000713886113 0 -0.1112017315811004 0.045741524315275547 0 -0.1118330840393524 0.025330504776497741 0 -0.1112017315811004 0.045741524315275547 0 -0.093518255317678003 0.02554426795136502 0 -0.079387009160448122 0.047949620702293687 0 -0.066020808611355342 0.037174989138941759 0 -0.093518255317678003 0.02554426795136502 0 -0.061219323607716092 0.067135300430712752 0 -0.079387009160448122 0.047949620702293687 0 -0.059733639335795619 0.04943037620770338 0 -0.061219323607716092 0.067135300430712752 0 -0.079387009160448122 0.047949620702293687 0 -0.079387009160448122 0.047949620702293687 0 -0.066020808611355342 0.037174989138941759 0 -0.059733639335795619 0.04943037620770338 0 -0.066020808611355342 0.037174989138941759 0 -0.06643156621267475 0.020011677085683931 0 -0.093518255317678003 0.02554426795136502 0 -0.06643156621267475 0.020011677085683931 0 -0.093518255317678003 0.02554426795136502 0 -0.06643156621267475 0.020011677085683931 0 -0.093518255317678003 0.02554426795136502 0 -0.087018808590096697 0.0050938216017826022 0 -0.06643156621267475 0.020011677085683931 0 -0.087018808590096697 0.0050938216017826022 0 -0.071623562416749581 0.0045980549106218772 0 -0.072696184476927217 -0.010885102084582239 0 -0.071623562416749581 0.0045980549106218772 0 -0.057435565951508283 0.007572134026259187 0 -0.06643156621267475 0.020011677085683931 0 -0.071623562416749581 0.0045980549106218772 0 -0.057435565951508283 0.007572134026259187 0 -0.050006936188596147 -0.0071038849927689794 0 -0.057435565951508283 0.007572134026259187 0 -0.039400224383949717 0.002898592655123104 0 -0.057435565951508283 0.007572134026259187 0 -0.039344877107671261 0.014479086220003949 0 -0.06643156621267475 0.020011677085683931 0 -0.057435565951508283 0.007572134026259187 0 -0.039344877107671261 0.014479086220003949 0 -0.066020808611355342 0.037174989138941759 0 -0.06643156621267475 0.020011677085683931 0 -0.051015780849463663 0.02791884987811152 0 -0.06643156621267475 0.020011677085683931 0 -0.051015780849463663 0.02791884987811152 0 -0.039344877107671261 0.014479086220003949 0 -0.06643156621267475 0.020011677085683931 0 -0.039344877107671261 0.014479086220003949 0 -0.051015780849463663 0.02791884987811152 0 -0.035182866628201012 0.028211742619994162 0 -0.039344877107671261 0.014479086220003949 0 -0.035182866628201012 0.028211742619994162 0 -0.039344877107671261 0.014479086220003949 0 -0.03080722636256181 0.017738726914309149 0 -0.039344877107671261 0.014479086220003949 0 -0.03080722636256181 0.017738726914309149 0 -0.057435565951508283 0.007572134026259187 0 -0.039400224383949717 0.002898592655123104 0 -0.039344877107671261 0.014479086220003949 0 -0.039400224383949717 0.002898592655123104 0 -0.039344877107671261 0.014479086220003949 0 -0.021268757561334659 0.01078694896759361 0 -0.061219323607716092 0.067135300430712752 0 -0.059733639335795619 0.04943037620770338 0 -0.043942269612042881 0.05517521644063382 0 -0.059733639335795619 0.04943037620770338 0 -0.048098785687415671 0.03971675432593489 0 -0.043942269612042881 0.05517521644063382 0 -0.066020808611355342 0.037174989138941759 0 -0.059733639335795619 0.04943037620770338 0 -0.048098785687415671 0.03971675432593489 0 -0.066020808611355342 0.037174989138941759 0 -0.051015780849463663 0.02791884987811152 0 -0.048098785687415671 0.03971675432593489 0 -0.035182866628201012 0.028211742619994162 0 -0.034186452035801798 0.044523627151950212 0 -0.024418698649973359 0.037700729434609503 0 -0.035182866628201012 0.028211742619994162 0 -0.048098785687415671 0.03971675432593489 0 -0.034186452035801798 0.044523627151950212 0 -0.051015780849463663 0.02791884987811152 0 -0.035182866628201012 0.028211742619994162 0 -0.048098785687415671 0.03971675432593489 0 -0.048098785687415671 0.03971675432593489 0 -0.034186452035801798 0.044523627151950212 0 -0.043942269612042881 0.05517521644063382 0 -0.035882677570904277 0.070615860455687296 0 -0.043942269612042881 0.05517521644063382 0 -0.027682793312239499 0.058546360490908042 0 -0.034186452035801798 0.044523627151950212 0 -0.043942269612042881 0.05517521644063382 0 -0.027682793312239499 0.058546360490908042 0 -0.01647279387459237 0.058313598202677917 0 -0.027682793312239499 0.058546360490908042 0 -0.019403390483689019 0.047227613451255868 0 -0.034186452035801798 0.044523627151950212 0 -0.027682793312239499 0.058546360490908042 0 -0.019403390483689019 0.047227613451255868 0 -0.019403390483689019 0.047227613451255868 0 -0.024418698649973359 0.037700729434609503 0 -0.017481244960953161 0.035845009444621649 0 -0.034186452035801798 0.044523627151950212 0 -0.019403390483689019 0.047227613451255868 0 -0.024418698649973359 0.037700729434609503 0 -0.035182866628201012 0.028211742619994162 0 -0.024418698649973359 0.037700729434609503 0 -0.02270843485112161 0.029395728830269939 0 -0.024418698649973359 0.037700729434609503 0 -0.017481244960953161 0.035845009444621649 0 -0.02270843485112161 0.029395728830269939 0 -0.017481244960953161 0.035845009444621649 0 -0.0082551847020071022 0.041142155069823452 0 -0.015838364357571199 0.02345377818492474 0 -0.0027073961609825311 0.033990146908376963 0 -0.0082551847020071022 0.041142155069823452 0 -0.015838364357571199 0.02345377818492474 0 -0.0082551847020071022 0.041142155069823452 0 -0.015838364357571199 0.02345377818492474 0 -0.0027073961609825311 0.033990146908376963 0 -6.6238804764569897e-05 0.039216256020085258 0 -0.0082551847020071022 0.041142155069823452 0 -6.6238804764569897e-05 0.039216256020085258 0 -0.0082551847020071022 0.041142155069823452 0 0.0020167010984448982 0.045503505930856253 0 -0.019403390483689019 0.047227613451255868 0 -0.017481244960953161 0.035845009444621649 0 -0.0082551847020071022 0.041142155069823452 0 -0.0082551847020071022 0.041142155069823452 0 -0.0078711492804944411 0.053741135962823663 0 -0.00074356456090495871 0.058663613627709249 0 -0.0082551847020071022 0.041142155069823452 0 -0.00074356456090495871 0.058663613627709249 0 0.0020167010984448982 0.045503505930856253 0 -0.0082551847020071022 0.041142155069823452 0 -0.00074356456090495871 0.058663613627709249 0 -0.019403390483689019 0.047227613451255868 0 -0.0082551847020071022 0.041142155069823452 0 -0.0078711492804944411 0.053741135962823663 0 -0.01647279387459237 0.058313598202677917 0 -0.019403390483689019 0.047227613451255868 0 -0.0078711492804944411 0.053741135962823663 0 -0.0095560575819312633 0.063802319615242159 0 -0.0078711492804944411 0.053741135962823663 0 -0.00074356456090495871 0.058663613627709249 0 -0.0078711492804944411 0.053741135962823663 0 -0.00074356456090495871 0.058663613627709249 0 -0.0095560575819312633 0.063802319615242159 0 -0.01647279387459237 0.058313598202677917 0 -0.0078711492804944411 0.053741135962823663 0 -0.039344877107671261 0.014479086220003949 0 -0.021268757561334659 0.01078694896759361 0 -0.03080722636256181 0.017738726914309149 0 -0.027317687900264689 -0.0033226679009582898 0 -0.039400224383949717 0.002898592655123104 0 -0.021268757561334659 0.01078694896759361 0 -0.027317687900264689 -0.0033226679009582898 0 -0.021268757561334659 0.01078694896759361 0 -0.0066317386901698708 0.00012469464361213051 0 -0.039344877107671261 0.014479086220003949 0 -0.021268757561334659 0.01078694896759361 0 -0.027317687900264689 -0.0033226679009582898 0 -0.021268757561334659 0.01078694896759361 0 -0.03080722636256181 0.017738726914309149 0 -0.02069255917337234 0.021600466140187138 0 -0.021268757561334659 0.01078694896759361 0 -0.03080722636256181 0.017738726914309149 0 -0.02069255917337234 0.021600466140187138 0 -0.035182866628201012 0.028211742619994162 0 -0.03080722636256181 0.017738726914309149 0 -0.02069255917337234 0.021600466140187138 0 -0.035182866628201012 0.028211742619994162 0 -0.02270843485112161 0.029395728830269939 0 -0.02069255917337234 0.021600466140187138 0 -0.017481244960953161 0.035845009444621649 0 -0.02270843485112161 0.029395728830269939 0 -0.015838364357571199 0.02345377818492474 0 -0.02270843485112161 0.029395728830269939 0 -0.015838364357571199 0.02345377818492474 0 -0.02069255917337234 0.021600466140187138 0 -0.021268757561334659 0.01078694896759361 0 -0.015838364357571199 0.02345377818492474 0 -0.021268757561334659 0.01078694896759361 0 -0.015838364357571199 0.02345377818492474 0 -0.02069255917337234 0.021600466140187138 0 -0.015838364357571199 0.02345377818492474 0 -0.02069255917337234 0.021600466140187138 0 -0.015838364357571199 0.02345377818492474 0 -0.0019767954140255048 0.0242043166045007 0 0.0095721759808716812 0.033155420220222998 0 -0.0027073961609825311 0.033990146908376963 0 -0.015838364357571199 0.02345377818492474 0 0.0069781417501890812 0.032949223440163662 0 -0.021268757561334659 0.01078694896759361 0 -0.015838364357571199 0.02345377818492474 0 -0.0073834190975974384 0.017111199109181071 0 -0.015838364357571199 0.02345377818492474 0 0.0069781417501890812 0.032949223440163662 0 -0.015838364357571199 0.02345377818492474 0 0.0095721759808716812 0.033155420220222998 0 -0.015838364357571199 0.02345377818492474 0 -0.0019767954140255048 0.0242043166045007 0 -0.0073834190975974384 0.017111199109181071 0 -0.0073834190975974384 0.017111199109181071 0 -0.0002163260205225864 0.021635868093506469 0 0.0044858782003214491 0.014860262460176649 0 -0.0019767954140255048 0.0242043166045007 0 -0.0073834190975974384 0.017111199109181071 0 -0.0002163260205225864 0.021635868093506469 0 -0.021268757561334659 0.01078694896759361 0 -0.0036072735207046541 0.007179503077888119 0 -0.021268757561334659 0.01078694896759361 0 -0.0066317386901698708 0.00012469464361213051 0 -0.0036072735207046541 0.007179503077888119 0 -0.0073834190975974384 0.017111199109181071 0 -0.0036072735207046541 0.007179503077888119 0 0.0044858782003214491 0.014860262460176649 0 -0.021268757561334659 0.01078694896759361 0 -0.0073834190975974384 0.017111199109181071 0 -0.0036072735207046541 0.007179503077888119 0 -0.0066317386901698708 0.00012469464361213051 0 0.014054210519925151 0.0035720571881815949 0 -0.0036072735207046541 0.007179503077888119 0 0.014054210519925151 0.0035720571881815949 0 0.0044858782003214491 0.014860262460176649 0 -0.0036072735207046541 0.007179503077888119 0 0.014054210519925151 0.0035720571881815949 0 -0.0066317386901698708 0.00012469464361213051 0 -0.0036072735207046541 0.007179503077888119 0 0.014054210519925151 0.0035720571881815949 0 0.014054210519925151 0.0035720571881815949 0 0.01373335438641912 0.014550587214052019 0 0.0044858782003214491 0.014860262460176649 0 -0.0002163260205225864 0.021635868093506469 0 0.0039819564246929484 0.02566531741466781 0 0.0094470193063907627 0.02210238975044547 0 -0.0002163260205225864 0.021635868093506469 0 0.0044858782003214491 0.014860262460176649 0 0.0094470193063907627 0.02210238975044547 0 -0.015838364357571199 0.02345377818492474 0 0.0069781417501890812 0.032949223440163662 0 0.0095721759808716812 0.033155420220222998 0 -0.0019767954140255048 0.0242043166045007 0 0.0039819564246929484 0.02566531741466781 0 0.0095721759808716812 0.033155420220222998 0 -0.0019767954140255048 0.0242043166045007 0 -0.0002163260205225864 0.021635868093506469 0 0.0039819564246929484 0.02566531741466781 0 0.0039819564246929484 0.02566531741466781 0 0.01056602391112073 0.02768072267756419 0 0.0095721759808716812 0.033155420220222998 0 0.0039819564246929484 0.02566531741466781 0 0.01056602391112073 0.02768072267756419 0 0.0094470193063907627 0.02210238975044547 0 0.01056602391112073 0.02768072267756419 0 0.0094470193063907627 0.02210238975044547 0 0.01693963851067996 0.02709252167362378 0 0.01056602391112073 0.02768072267756419 0 0.015735785404595481 0.03084623487630039 0 0.0095721759808716812 0.033155420220222998 0 0.01056602391112073 0.02768072267756419 0 0.015735785404595481 0.03084623487630039 0 0.01693963851067996 0.02709252167362378 0 0.0094470193063907627 0.02210238975044547 0 0.019033104219668709 0.019840473217169498 0 0.01693963851067996 0.02709252167362378 0 0.01373335438641912 0.014550587214052019 0 0.0044858782003214491 0.014860262460176649 0 0.0094470193063907627 0.02210238975044547 0 0.01373335438641912 0.014550587214052019 0 0.0094470193063907627 0.02210238975044547 0 0.019033104219668709 0.019840473217169498 0 0.019033104219668709 0.019840473217169498 0 0.028808400384360069 0.015644784769761839 0 0.02103573519986519 0.01189857302527886 0 0.015735785404595481 0.03084623487630039 0 0.01693963851067996 0.02709252167362378 0 0.02586530321570955 0.035456274933790582 0 0.019033104219668709 0.019840473217169498 0 0.01693963851067996 0.02709252167362378 0 0.02580866977740932 0.02428863336069171 0 0.01693963851067996 0.02709252167362378 0 0.02580866977740932 0.02428863336069171 0 0.02586530321570955 0.035456274933790582 0 0.02580866977740932 0.02428863336069171 0 0.02586530321570955 0.035456274933790582 0 0.038033713460250029 0.021987768007108319 0 0.019033104219668709 0.019840473217169498 0 0.02580866977740932 0.02428863336069171 0 0.028808400384360069 0.015644784769761839 0 0.02580866977740932 0.02428863336069171 0 0.028808400384360069 0.015644784769761839 0 0.038033713460250029 0.021987768007108319 0 0.028808400384360069 0.015644784769761839 0 0.028704521444074631 0.0060135662837132037 0 0.02103573519986519 0.01189857302527886 0 0.014054210519925151 0.0035720571881815949 0 0.042122726037603628 -0.0021610766017879451 0 0.014054210519925151 0.0035720571881815949 0 0.028704521444074631 0.0060135662837132037 0 0.042122726037603628 -0.0021610766017879451 0 0.014054210519925151 0.0035720571881815949 0 0.028704521444074631 0.0060135662837132037 0 0.014054210519925151 0.0035720571881815949 0 0.028704521444074631 0.0060135662837132037 0 0.02103573519986519 0.01189857302527886 0 0.014054210519925151 0.0035720571881815949 0 0.01373335438641912 0.014550587214052019 0 0.02103573519986519 0.01189857302527886 0 0.01373335438641912 0.014550587214052019 0 0.019033104219668709 0.019840473217169498 0 0.02103573519986519 0.01189857302527886 0 0.01208075295182681 0.062181276128189023 0 0.01121904426817831 0.055687441460590542 0 0.017695444593257569 0.055459932957548252 0 0.01121904426817831 0.055687441460590542 0 0.0073390133129881113 0.057191818618753519 0 0.0067998205928522827 0.052234943258525249 0 0.01208075295182681 0.062181276128189023 0 0.01121904426817831 0.055687441460590542 0 0.0073390133129881113 0.057191818618753519 0 -0.00074356456090495871 0.058663613627709249 0 0.0073390133129881113 0.057191818618753519 0 0.0067998205928522827 0.052234943258525249 0 -0.00074356456090495871 0.058663613627709249 0 0.01208075295182681 0.062181276128189023 0 0.0073390133129881113 0.057191818618753519 0 -0.00074356456090495871 0.058663613627709249 0 0.0067998205928522827 0.052234943258525249 0 0.0020167010984448982 0.045503505930856253 0 0.0067998205928522827 0.052234943258525249 0 0.008914969106835301 0.045580325185865411 0 0.0020167010984448982 0.045503505930856253 0 0.0067998205928522827 0.052234943258525249 0 0.01352326651482757 0.049332000310983587 0 0.008914969106835301 0.045580325185865411 0 0.01121904426817831 0.055687441460590542 0 0.0067998205928522827 0.052234943258525249 0 0.01352326651482757 0.049332000310983587 0 0.01121904426817831 0.055687441460590542 0 0.01352326651482757 0.049332000310983587 0 0.017695444593257569 0.055459932957548252 0 0.0069781417501890812 0.032949223440163662 0 0.0095721759808716812 0.033155420220222998 0 0.029723088343488281 0.042277750368387858 0 0.015222466889502659 0.044679791477081572 0 0.01115608008593641 0.040620627340139152 0 0.008914969106835301 0.045580325185865411 0 0.01352326651482757 0.049332000310983587 0 0.015222466889502659 0.044679791477081572 0 0.008914969106835301 0.045580325185865411 0 0.01115608008593641 0.040620627340139152 0 0.01490234149394346 0.038878904105095161 0 0.01798187795759781 0.041345501841874167 0 0.015222466889502659 0.044679791477081572 0 0.01115608008593641 0.040620627340139152 0 0.01798187795759781 0.041345501841874167 0 0.01115608008593641 0.040620627340139152 0 0.008914969106835301 0.045580325185865411 0 0.0055899539790300514 0.039110242832332401 0 0.008914969106835301 0.045580325185865411 0 0.0020167010984448982 0.045503505930856253 0 0.0055899539790300514 0.039110242832332401 0 -6.6238804764569897e-05 0.039216256020085258 0 0.0020167010984448982 0.045503505930856253 0 0.0055899539790300514 0.039110242832332401 0 0.0062145781432464816 0.03625082322809503 0 0.0069781417501890812 0.032949223440163662 0 0.0086725193325056984 0.037201417534910942 0 -0.0027073961609825311 0.033990146908376963 0 0.0030247317616918352 0.036335229359037227 0 0.0069781417501890812 0.032949223440163662 0 0.0062145781432464816 0.03625082322809503 0 0.0030247317616918352 0.036335229359037227 0 0.0069781417501890812 0.032949223440163662 0 0.0055899539790300514 0.039110242832332401 0 0.0062145781432464816 0.03625082322809503 0 0.0086725193325056984 0.037201417534910942 0 0.0055899539790300514 0.039110242832332401 0 0.0062145781432464816 0.03625082322809503 0 0.0030247317616918352 0.036335229359037227 0 -6.6238804764569897e-05 0.039216256020085258 0 0.0055899539790300514 0.039110242832332401 0 0.0030247317616918352 0.036335229359037227 0 -0.0027073961609825311 0.033990146908376963 0 -6.6238804764569897e-05 0.039216256020085258 0 0.0030247317616918352 0.036335229359037227 0 0.0069781417501890812 0.032949223440163662 0 0.0086725193325056984 0.037201417534910942 0 0.01490234149394346 0.038878904105095161 0 0.01115608008593641 0.040620627340139152 0 0.0086725193325056984 0.037201417534910942 0 0.01490234149394346 0.038878904105095161 0 0.01115608008593641 0.040620627340139152 0 0.0055899539790300514 0.039110242832332401 0 0.0086725193325056984 0.037201417534910942 0 0.015735785404595481 0.03084623487630039 0 0.0095721759808716812 0.033155420220222998 0 0.02586530321570955 0.035456274933790582 0 0.0095721759808716812 0.033155420220222998 0 0.02586530321570955 0.035456274933790582 0 0.034982716319314239 0.042857062255521911 0 0.0095721759808716812 0.033155420220222998 0 0.034982716319314239 0.042857062255521911 0 0.0095721759808716812 0.033155420220222998 0 0.029723088343488281 0.042277750368387858 0 0.034982716319314239 0.042857062255521911 0 0.0069781417501890812 0.032949223440163662 0 0.029723088343488281 0.042277750368387858 0 0.0069781417501890812 0.032949223440163662 0 0.01490234149394346 0.038878904105095161 0 0.029723088343488281 0.042277750368387858 0 0.029723088343488281 0.042277750368387858 0 0.02280772752021493 0.043206423927471607 0 0.01798187795759781 0.041345501841874167 0 0.029723088343488281 0.042277750368387858 0 0.025032617151682011 0.046731383416606001 0 0.029205554817099851 0.04995346759075657 0 0.029723088343488281 0.042277750368387858 0 0.025032617151682011 0.046731383416606001 0 0.02280772752021493 0.043206423927471607 0 0.025032617151682011 0.046731383416606001 0 0.02032522722258643 0.044349149824066958 0 0.019556760258234551 0.048949064947244533 0 0.01490234149394346 0.038878904105095161 0 0.029723088343488281 0.042277750368387858 0 0.01798187795759781 0.041345501841874167 0 0.025032617151682011 0.046731383416606001 0 0.02032522722258643 0.044349149824066958 0 0.02280772752021493 0.043206423927471607 0 0.02032522722258643 0.044349149824066958 0 0.02280772752021493 0.043206423927471607 0 0.01798187795759781 0.041345501841874167 0 0.015222466889502659 0.044679791477081572 0 0.02032522722258643 0.044349149824066958 0 0.019556760258234551 0.048949064947244533 0 0.015222466889502659 0.044679791477081572 0 0.02032522722258643 0.044349149824066958 0 0.01798187795759781 0.041345501841874167 0 0.01352326651482757 0.049332000310983587 0 0.015222466889502659 0.044679791477081572 0 0.019556760258234551 0.048949064947244533 0 0.01352326651482757 0.049332000310983587 0 0.019556760258234551 0.048949064947244533 0 0.017695444593257569 0.055459932957548252 0 0.019556760258234551 0.048949064947244533 0 0.024829655516929141 0.053233727883279111 0 0.017695444593257569 0.055459932957548252 0 0.025032617151682011 0.046731383416606001 0 0.019556760258234551 0.048949064947244533 0 0.024829655516929141 0.053233727883279111 0 0.025032617151682011 0.046731383416606001 0 0.029205554817099851 0.04995346759075657 0 0.024829655516929141 0.053233727883279111 0 0.029205554817099851 0.04995346759075657 0 0.024829655516929141 0.053233727883279111 0 0.03082347108397664 0.056098845539550607 0 0.03082347108397664 0.056098845539550607 0 0.035341405588643363 0.060971878685520953 0 0.025666155431374332 0.063562696311959654 0 0.024829655516929141 0.053233727883279111 0 0.03082347108397664 0.056098845539550607 0 0.025666155431374332 0.063562696311959654 0 0.01208075295182681 0.062181276128189023 0 0.017695444593257569 0.055459932957548252 0 0.025666155431374332 0.063562696311959654 0 0.024829655516929141 0.053233727883279111 0 0.017695444593257569 0.055459932957548252 0 0.025666155431374332 0.063562696311959654 0 0.029723088343488281 0.042277750368387858 0 0.035357309488180513 0.051323660237155712 0 0.052468034936787512 0.051606277296612088 0 0.043377826892544963 0.057427189309354469 0 0.035357309488180513 0.051323660237155712 0 0.052468034936787512 0.051606277296612088 0 0.029723088343488281 0.042277750368387858 0 0.052468034936787512 0.051606277296612088 0 0.043377826892544963 0.057427189309354469 0 0.035341405588643363 0.060971878685520953 0 0.044255334199977403 0.064435313690659315 0 0.043377826892544963 0.057427189309354469 0 0.050260101865529053 0.059616374142142659 0 0.044255334199977403 0.064435313690659315 0 0.043377826892544963 0.057427189309354469 0 0.035341405588643363 0.060971878685520953 0 0.035357309488180513 0.051323660237155712 0 0.03082347108397664 0.056098845539550607 0 0.035341405588643363 0.060971878685520953 0 0.035357309488180513 0.051323660237155712 0 0.029723088343488281 0.042277750368387858 0 0.029205554817099851 0.04995346759075657 0 0.035357309488180513 0.051323660237155712 0 0.029205554817099851 0.04995346759075657 0 0.03082347108397664 0.056098845539550607 0 0.035357309488180513 0.051323660237155712 0 0.02586530321570955 0.035456274933790582 0 0.054331449004507613 0.03052882287836052 0 0.029723088343488281 0.042277750368387858 0 0.034982716319314239 0.042857062255521911 0 0.052468034936787512 0.051606277296612088 0 0.02586530321570955 0.035456274933790582 0 0.034982716319314239 0.042857062255521911 0 0.054331449004507613 0.03052882287836052 0 0.034982716319314239 0.042857062255521911 0 0.054242967259893603 0.041673864394505343 0 0.054331449004507613 0.03052882287836052 0 0.034982716319314239 0.042857062255521911 0 0.054242967259893603 0.041673864394505343 0 0.0603932566577568 0.05255870429082081 0 0.054242967259893603 0.041673864394505343 0 0.054331449004507613 0.03052882287836052 0 0.067264447057995752 0.040750868153318132 0 0.054242967259893603 0.041673864394505343 0 0.0603932566577568 0.05255870429082081 0 0.067264447057995752 0.040750868153318132 0 0.052468034936787512 0.051606277296612088 0 0.058903937643697543 0.061802522312327177 0 0.075212981530086737 0.060934804224836311 0 0.034982716319314239 0.042857062255521911 0 0.052468034936787512 0.051606277296612088 0 0.0603932566577568 0.05255870429082081 0 0.034982716319314239 0.042857062255521911 0 0.0603932566577568 0.05255870429082081 0 0.043377826892544963 0.057427189309354469 0 0.052468034936787512 0.051606277296612088 0 0.050260101865529053 0.059616374142142659 0 0.052468034936787512 0.051606277296612088 0 0.058903937643697543 0.061802522312327177 0 0.050260101865529053 0.059616374142142659 0 0.040234658204892561 0.0098396947246094397 0 0.056048105378494827 0.012161888776597379 0 0.042122726037603628 -0.0021610766017879451 0 0.040234658204892561 0.0098396947246094397 0 0.038033713460250029 0.021987768007108319 0 0.056048105378494827 0.012161888776597379 0 0.028704521444074631 0.0060135662837132037 0 0.040234658204892561 0.0098396947246094397 0 0.042122726037603628 -0.0021610766017879451 0 0.028808400384360069 0.015644784769761839 0 0.028704521444074631 0.0060135662837132037 0 0.040234658204892561 0.0098396947246094397 0 0.028808400384360069 0.015644784769761839 0 0.040234658204892561 0.0098396947246094397 0 0.038033713460250029 0.021987768007108319 0 0.02586530321570955 0.035456274933790582 0 0.038033713460250029 0.021987768007108319 0 0.054331449004507613 0.03052882287836052 0 0.038033713460250029 0.021987768007108319 0 0.054331449004507613 0.03052882287836052 0 0.056048105378494827 0.012161888776597379 0 0.056048105378494827 0.012161888776597379 0 0.042122726037603628 -0.0021610766017879451 0 0.07019124155528178 -0.0078942103917589643 0 0.056048105378494827 0.012161888776597379 0 0.081556316898992162 0.006260620949295425 0 0.082797594793305396 0.025601370822930521 0 0.056048105378494827 0.012161888776597379 0 0.081556316898992162 0.006260620949295425 0 0.07019124155528178 -0.0078942103917589643 0 0.081556316898992162 0.006260620949295425 0 0.082797594793305396 0.025601370822930521 0 0.1004896233285711 0.0052863644354491758 0 0.054331449004507613 0.03052882287836052 0 0.056048105378494827 0.012161888776597379 0 0.082797594793305396 0.025601370822930521 0 0.054331449004507613 0.03052882287836052 0 0.082797594793305396 0.025601370822930521 0 0.082797594793305396 0.025601370822930521 0 0.067264447057995752 0.040750868153318132 0 0.080607936466860652 0.042673566155068843 0 0.054331449004507613 0.03052882287836052 0 0.082797594793305396 0.025601370822930521 0 0.067264447057995752 0.040750868153318132 0 0.067264447057995752 0.040750868153318132 0 0.073533177570028765 0.050102346398573028 0 0.080607936466860652 0.042673566155068843 0 0.052468034936787512 0.051606277296612088 0 0.0603932566577568 0.05255870429082081 0 0.075212981530086737 0.060934804224836311 0 0.052468034936787512 0.051606277296612088 0 0.075212981530086737 0.060934804224836311 0 0.0603932566577568 0.05255870429082081 0 0.073533177570028765 0.050102346398573028 0 0.075212981530086737 0.060934804224836311 0 0.0603932566577568 0.05255870429082081 0 0.067264447057995752 0.040750868153318132 0 0.073533177570028765 0.050102346398573028 0 0.086813711629988952 0.052125480305940587 0 0.098079720543230303 0.041819311785582243 0 0.095342136067656749 0.063934252611722212 0 0.075212981530086737 0.060934804224836311 0 0.086813711629988952 0.052125480305940587 0 0.095342136067656749 0.063934252611722212 0 0.073533177570028765 0.050102346398573028 0 0.086813711629988952 0.052125480305940587 0 0.080607936466860652 0.042673566155068843 0 0.073533177570028765 0.050102346398573028 0 0.075212981530086737 0.060934804224836311 0 0.086813711629988952 0.052125480305940587 0 0.082797594793305396 0.025601370822930521 0 0.080607936466860652 0.042673566155068843 0 0.098079720543230303 0.041819311785582243 0 0.086813711629988952 0.052125480305940587 0 0.080607936466860652 0.042673566155068843 0 0.098079720543230303 0.041819311785582243 0 0.098079720543230303 0.041819311785582243 0 0.1223906704702877 0.062878575288907321 0 0.095342136067656749 0.063934252611722212 0 0.098079720543230303 0.041819311785582243 0 0.1223906704702877 0.062878575288907321 0 0.12607976175878219 0.03812506588504519 0 0.098079720543230303 0.041819311785582243 0 0.1112637405821032 0.020673918767500511 0 0.12607976175878219 0.03812506588504519 0 0.1112637405821032 0.020673918767500511 0 0.11940402113221719 0.0021974637424521382 0 0.1397298863709012 0.01574646671207048 0 0.1112637405821032 0.020673918767500511 0 0.11940402113221719 0.0021974637424521382 0 0.1004896233285711 0.0052863644354491758 0 0.082797594793305396 0.025601370822930521 0 0.1112637405821032 0.020673918767500511 0 0.1004896233285711 0.0052863644354491758 0 0.082797594793305396 0.025601370822930521 0 0.1112637405821032 0.020673918767500511 0 0.082797594793305396 0.025601370822930521 0 0.098079720543230303 0.041819311785582243 0 0.1112637405821032 0.020673918767500511 0 0.1038404915788492 0.1019519533287816 0 0.081878519745012673 0.1157243685148779 0 0.1025340408214919 0.1299895572366703 0 0.1038404915788492 0.1019519533287816 0 0.1237412673866992 0.1207025317472252 0 0.1025340408214919 0.1299895572366703 0 0.1038404915788492 0.1019519533287816 0 0.1237412673866992 0.1207025317472252 0 0.13461392869402219 0.096127778958814275 0 0.1106037799633014 0.081947155668722113 0 0.12885245119731209 0.078629265380086549 0 0.13461392869402219 0.096127778958814275 0 0.1038404915788492 0.1019519533287816 0 0.1106037799633014 0.081947155668722113 0 0.13461392869402219 0.096127778958814275 0 0.1106037799633014 0.081947155668722113 0 0.1223906704702877 0.062878575288907321 0 0.12885245119731209 0.078629265380086549 0 0.1106037799633014 0.081947155668722113 0 0.1223906704702877 0.062878575288907321 0 0.095342136067656749 0.063934252611722212 0 0.1106037799633014 0.081947155668722113 0 0.095342136067656749 0.063934252611722212 0 0.094638672328582946 0.080007689516086819 0 0.1223906704702877 0.062878575288907321 0 0.095342136067656749 0.063934252611722212 0 0.1038404915788492 0.1019519533287816 0 0.1106037799633014 0.081947155668722113 0 0.094638672328582946 0.080007689516086819 0 0.1038404915788492 0.1019519533287816 0 0.094638672328582946 0.080007689516086819 0 0.079593634044450259 0.09004616503995562 0 0.094638672328582946 0.080007689516086819 0 0.079593634044450259 0.09004616503995562 0 0.081435809744681578 0.074470628009781992 0 0.095342136067656749 0.063934252611722212 0 0.094638672328582946 0.080007689516086819 0 0.081435809744681578 0.074470628009781992 0 0.075212981530086737 0.060934804224836311 0 0.095342136067656749 0.063934252611722212 0 0.068293601665025766 0.064989929934537102 0 0.095342136067656749 0.063934252611722212 0 0.068293601665025766 0.064989929934537102 0 0.095342136067656749 0.063934252611722212 0 0.081435809744681578 0.074470628009781992 0 0.068293601665025766 0.064989929934537102 0 0.058903937643697543 0.061802522312327177 0 0.075212981530086737 0.060934804224836311 0 0.068293601665025766 0.064989929934537102 0 0.081435809744681578 0.074470628009781992 0 0.071044525934779931 0.076694456292050572 0 0.068293601665025766 0.064989929934537102 0 0.071044525934779931 0.076694456292050572 0 0.06505876921423244 0.082941095706876675 0 0.060840815005509627 0.071024462769101404 0 0.071044525934779931 0.076694456292050572 0 0.068293601665025766 0.064989929934537102 0 0.060840815005509627 0.071024462769101404 0 0.058903937643697543 0.061802522312327177 0 0.068293601665025766 0.064989929934537102 0 0.060840815005509627 0.071024462769101404 0 0.079593634044450259 0.09004616503995562 0 0.06505876921423244 0.082941095706876675 0 0.061222998668533403 0.1014591797930854 0 0.079593634044450259 0.09004616503995562 0 0.071044525934779931 0.076694456292050572 0 0.06505876921423244 0.082941095706876675 0 0.079593634044450259 0.09004616503995562 0 0.081435809744681578 0.074470628009781992 0 0.071044525934779931 0.076694456292050572 0 0.079593634044450259 0.09004616503995562 0 0.081878519745012673 0.1157243685148779 0 0.061222998668533403 0.1014591797930854 0 0.081878519745012673 0.1157243685148779 0 0.061222998668533403 0.1014591797930854 0 0.1038404915788492 0.1019519533287816 0 0.079593634044450259 0.09004616503995562 0 0.081878519745012673 0.1157243685148779 0 0.081878519745012673 0.1157243685148779 0 0.1025340408214919 0.1299895572366703 0 0.081878519745012673 0.1157243685148779 0 0.057786825932331663 0.1200586199335255 0 0.061222998668533403 0.1014591797930854 0 0.081878519745012673 0.1157243685148779 0 0.057786825932331663 0.1200586199335255 0 0.070796377867290691 0.12857407515426139 0 0.057786825932331663 0.1200586199335255 0 0.061222998668533403 0.1014591797930854 0 0.039785607042269903 0.1076629184791857 0 0.061222998668533403 0.1014591797930854 0 0.039785607042269903 0.1076629184791857 0 0.040567477592054167 0.087193991071292942 0 0.061222998668533403 0.1014591797930854 0 0.040567477592054167 0.087193991071292942 0 0.039785607042269903 0.1076629184791857 0 0.040567477592054167 0.087193991071292942 0 0.016403428403194739 0.098660354805947648 0 0.039785607042269903 0.1076629184791857 0 0.041067371085954603 0.1246149291029915 0 0.024976924885245149 0.11865872539506669 0 0.057786825932331663 0.1200586199335255 0 0.039785607042269903 0.1076629184791857 0 0.041067371085954603 0.1246149291029915 0 0.058903937643697543 0.061802522312327177 0 0.050260101865529053 0.059616374142142659 0 0.051220177242764918 0.068667404449359787 0 0.050260101865529053 0.059616374142142659 0 0.051220177242764918 0.068667404449359787 0 0.044255334199977403 0.064435313690659315 0 0.058903937643697543 0.061802522312327177 0 0.051220177242764918 0.068667404449359787 0 0.060840815005509627 0.071024462769101404 0 0.051220177242764918 0.068667404449359787 0 0.060840815005509627 0.071024462769101404 0 0.053331232855583208 0.081129975942772464 0 0.051220177242764918 0.068667404449359787 0 0.053331232855583208 0.081129975942772464 0 0.038613391346567473 0.071270008928723649 0 0.061222998668533403 0.1014591797930854 0 0.053331232855583208 0.081129975942772464 0 0.040567477592054167 0.087193991071292942 0 0.06505876921423244 0.082941095706876675 0 0.061222998668533403 0.1014591797930854 0 0.053331232855583208 0.081129975942772464 0 0.06505876921423244 0.082941095706876675 0 0.060840815005509627 0.071024462769101404 0 0.053331232855583208 0.081129975942772464 0 0.053331232855583208 0.081129975942772464 0 0.040567477592054167 0.087193991071292942 0 0.038613391346567473 0.071270008928723649 0 0.040567477592054167 0.087193991071292942 0 0.038613391346567473 0.071270008928723649 0 0.019911956515575001 0.072928802349500527 0 0.035341405588643363 0.060971878685520953 0 0.038613391346567473 0.071270008928723649 0 0.025666155431374332 0.063562696311959654 0 0.051220177242764918 0.068667404449359787 0 0.038613391346567473 0.071270008928723649 0 0.044255334199977403 0.064435313690659315 0 0.035341405588643363 0.060971878685520953 0 0.038613391346567473 0.071270008928723649 0 0.044255334199977403 0.064435313690659315 0 0.038613391346567473 0.071270008928723649 0 0.025666155431374332 0.063562696311959654 0 0.019911956515575001 0.072928802349500527 0 0.01208075295182681 0.062181276128189023 0 0.025666155431374332 0.063562696311959654 0 0.019911956515575001 0.072928802349500527 0 0.040567477592054167 0.087193991071292942 0 0.019911956515575001 0.072928802349500527 0 0.040567477592054167 0.087193991071292942 0 0.019911956515575001 0.072928802349500527 0 0.019306234040738661 0.085470877191357333 0 0.040567477592054167 0.087193991071292942 0 0.019306234040738661 0.085470877191357333 0 0.016403428403194739 0.098660354805947648 0 0.019911956515575001 0.072928802349500527 0 0.019306234040738661 0.085470877191357333 0 0.0078299319211443397 0.078661984216828643 0 0.0078299319211443397 0.078661984216828643 0 0.016403428403194739 0.098660354805947648 0 0.019306234040738661 0.085470877191357333 0 0.0078299319211443397 0.078661984216828643 0 0.016403428403194739 0.098660354805947648 0 0.002793676041261716 0.09208836803534709 0 0.0078299319211443397 0.078661984216828643 0 0.016403428403194739 0.098660354805947648 0 -0.0042936797531556974 0.081347281365948418 0 0.002793676041261716 0.09208836803534709 0 0.0078299319211443397 0.078661984216828643 0 -0.00074356456090495871 0.058663613627709249 0 0.019911956515575001 0.072928802349500527 0 0.0078299319211443397 0.078661984216828643 0 -0.00074356456090495871 0.058663613627709249 0 0.01208075295182681 0.062181276128189023 0 0.019911956515575001 0.072928802349500527 0 -0.00074356456090495871 0.058663613627709249 0 0.0078299319211443397 0.078661984216828643 0 -0.00074356456090495871 0.058663613627709249 0 0.019911956515575001 0.072928802349500527 0 -0.0042314667271256398 0.071296904549836781 0 -0.00074356456090495871 0.058663613627709249 0 0.0078299319211443397 0.078661984216828643 0 0.039785607042269903 0.1076629184791857 0 0.024976924885245149 0.11865872539506669 0 0.016403428403194739 0.098660354805947648 0 0.024976924885245149 0.11865872539506669 0 0.016403428403194739 0.098660354805947648 0 0.024976924885245149 0.11865872539506669 0 0.016403428403194739 0.098660354805947648 0 0.005033691367288021 0.1071795390830385 0 0.002793676041261716 0.09208836803534709 0 0.016403428403194739 0.098660354805947648 0 0.005033691367288021 0.1071795390830385 0 0.024976924885245149 0.11865872539506669 0 0.005033691367288021 0.1071795390830385 0 0.0083094916575321455 0.12528200001600001 0 -0.0071492087137228167 0.11613273193613161 0 0.005033691367288021 0.1071795390830385 0 0.0083094916575321455 0.12528200001600001 0 -0.0022957480434830329 0.1401986952612797 0 0.0083094916575321455 0.12528200001600001 0 0.022041966797239309 0.1404730411574342 0 -0.0022957480434830329 0.1401986952612797 0 0.022041966797239309 0.1404730411574342 0 0.024976924885245149 0.11865872539506669 0 0.0083094916575321455 0.12528200001600001 0 0.022041966797239309 0.1404730411574342 0 0.041067371085954603 0.1246149291029915 0 0.024976924885245149 0.11865872539506669 0 0.022041966797239309 0.1404730411574342 0 0.022041966797239309 0.1404730411574342 0 0.016486266902431601 0.1550936639340055 0 0.034697971956805213 0.15360481786007199 0 -0.0022957480434830329 0.1401986952612797 0 0.016486266902431601 0.1550936639340055 0 0.001784619628955575 0.1604312644381887 0 -0.0022957480434830329 0.1401986952612797 0 0.022041966797239309 0.1404730411574342 0 0.016486266902431601 0.1550936639340055 0 0.001784619628955575 0.1604312644381887 0 0.0058649873013942953 0.18066383361509761 0 0.001784619628955575 0.1604312644381887 0 0.0058649873013942953 0.18066383361509761 0 0.02174206513520854 0.17016375060843361 0 0.016486266902431601 0.1550936639340055 0 0.001784619628955575 0.1604312644381887 0 0.02174206513520854 0.17016375060843361 0 0.0058649873013942953 0.18066383361509761 0 0.020451407548530878 0.18587730988753731 0 0.01575020550470372 0.19348790629659271 0 0.020451407548530878 0.18587730988753731 0 0.03102243986110657 0.18315192804101371 0 0.02174206513520854 0.17016375060843361 0 0.0058649873013942953 0.18066383361509761 0 0.020451407548530878 0.18587730988753731 0 0.02174206513520854 0.17016375060843361 0 0.016486266902431601 0.1550936639340055 0 0.02174206513520854 0.17016375060843361 0 0.034697971956805213 0.15360481786007199 0 0.02174206513520854 0.17016375060843361 0 0.042696992718286232 0.17216618387806071 0 0.034697971956805213 0.15360481786007199 0 0.042696992718286232 0.17216618387806071 0 0.049961778656026523 0.15903115508566701 0 0.034697971956805213 0.15360481786007199 0 0.03102243986110657 0.18315192804101371 0 0.042696992718286232 0.17216618387806071 0 0.042389095342096228 0.19060802366445509 0 0.03102243986110657 0.18315192804101371 0 0.02174206513520854 0.17016375060843361 0 0.042696992718286232 0.17216618387806071 0 0.042696992718286232 0.17216618387806071 0 0.059370628895760592 0.18225377727499481 0 0.059990944959646457 0.16599481545559899 0 0.042696992718286232 0.17216618387806071 0 0.059370628895760592 0.18225377727499481 0 0.042389095342096228 0.19060802366445509 0 0.042696992718286232 0.17216618387806071 0 0.049961778656026523 0.15903115508566701 0 0.059990944959646457 0.16599481545559899 0 0.049961778656026523 0.15903115508566701 0 0.059990944959646457 0.16599481545559899 0 0.057766914389241503 0.154546043063505 0 0.059990944959646457 0.16599481545559899 0 0.057766914389241503 0.154546043063505 0 0.069096506275762748 0.15585045152427879 0 0.057766914389241503 0.154546043063505 0 0.049867506160303977 0.14978802221425219 0 0.057903971220557633 0.14217739675805471 0 0.057766914389241503 0.154546043063505 0 0.057903971220557633 0.14217739675805471 0 0.069096506275762748 0.15585045152427879 0 0.057903971220557633 0.14217739675805471 0 0.046379681637961703 0.14074738705358919 0 0.070717396478684025 0.14102173294974429 0 0.046379681637961703 0.14074738705358919 0 0.070717396478684025 0.14102173294974429 0 0.049961778656026523 0.15903115508566701 0 0.057766914389241503 0.154546043063505 0 0.049867506160303977 0.14978802221425219 0 0.049867506160303977 0.14978802221425219 0 0.057903971220557633 0.14217739675805471 0 0.046379681637961703 0.14074738705358919 0 0.057786825932331663 0.1200586199335255 0 0.041067371085954603 0.1246149291029915 0 0.050429193762976762 0.13049732538060441 0 0.059221895135848968 0.132179828094345 0 0.046379681637961703 0.14074738705358919 0 0.070717396478684025 0.14102173294974429 0 0.057786825932331663 0.1200586199335255 0 0.059221895135848968 0.132179828094345 0 0.050429193762976762 0.13049732538060441 0 0.059221895135848968 0.132179828094345 0 0.050429193762976762 0.13049732538060441 0 0.046379681637961703 0.14074738705358919 0 0.022041966797239309 0.1404730411574342 0 0.046379681637961703 0.14074738705358919 0 0.041067371085954603 0.1246149291029915 0 0.050429193762976762 0.13049732538060441 0 0.046379681637961703 0.14074738705358919 0 0.041067371085954603 0.1246149291029915 0 0.022041966797239309 0.1404730411574342 0 0.046379681637961703 0.14074738705358919 0 0.022041966797239309 0.1404730411574342 0 0.034697971956805213 0.15360481786007199 0 0.046379681637961703 0.14074738705358919 0 0.049961778656026523 0.15903115508566701 0 0.049867506160303977 0.14978802221425219 0 0.034697971956805213 0.15360481786007199 0 0.049867506160303977 0.14978802221425219 0 0.034697971956805213 0.15360481786007199 0 0.046379681637961703 0.14074738705358919 0 0.028416373495514648 0.24618422452601171 0 0.019057379342124099 0.24446671892160871 0 0.025117681763208961 0.25312125345048753 0 0.028416373495514648 0.24618422452601171 0 0.025946249586107941 0.2375505193352484 0 0.019057379342124099 0.24446671892160871 0 0.028416373495514648 0.24618422452601171 0 0.025946249586107941 0.2375505193352484 0 0.035624639232172899 0.23972896581925271 0 0.025946249586107941 0.2375505193352484 0 0.031260389761853302 0.22798645517037949 0 0.035624639232172899 0.23972896581925271 0 0.025946249586107941 0.2375505193352484 0 0.018179965294734889 0.23783189531001059 0 0.01633360233343965 0.23039326250211051 0 0.025946249586107941 0.2375505193352484 0 0.018179965294734889 0.23783189531001059 0 0.019057379342124099 0.24446671892160871 0 0.018179965294734889 0.23783189531001059 0 0.019057379342124099 0.24446671892160871 0 0.01230415164214676 0.23830548807059199 0 0.019057379342124099 0.24446671892160871 0 0.0070739759662896444 0.24486698688876851 0 0.01700132615621144 0.253078387367763 0 0.019057379342124099 0.24446671892160871 0 0.0070739759662896444 0.24486698688876851 0 0.01230415164214676 0.23830548807059199 0 -0.001929197643986852 0.25249673890194402 0 -0.002222462830917453 0.2378618290474552 0 0.0070739759662896444 0.24486698688876851 0 -0.002222462830917453 0.2378618290474552 0 0.0070739759662896444 0.24486698688876851 0 0.0071786552929250921 0.23235264066686101 0 0.018179965294734889 0.23783189531001059 0 0.01230415164214676 0.23830548807059199 0 0.01633360233343965 0.23039326250211051 0 0.0070739759662896444 0.24486698688876851 0 0.01230415164214676 0.23830548807059199 0 0.0071786552929250921 0.23235264066686101 0 0.0071786552929250921 0.23235264066686101 0 0.0093606803541590265 0.22527922005154821 0 0.01633360233343965 0.23039326250211051 0 0.01230415164214676 0.23830548807059199 0 0.0071786552929250921 0.23235264066686101 0 0.01633360233343965 0.23039326250211051 0 0.0071786552929250921 0.23235264066686101 0 0.001486765165363903 0.226841301675966 0 0.0093606803541590265 0.22527922005154821 0 -0.002222462830917453 0.2378618290474552 0 0.0071786552929250921 0.23235264066686101 0 0.001486765165363903 0.226841301675966 0 0.001486765165363903 0.226841301675966 0 0.0044998670812677419 0.21931275383912299 0 0.0093606803541590265 0.22527922005154821 0 -0.002628921599886327 0.22021383939074229 0 0.001486765165363903 0.226841301675966 0 0.0044998670812677419 0.21931275383912299 0 0.0093606803541590265 0.22527922005154821 0 0.019945088602245319 0.22200114201374699 0 0.01216198668933461 0.2181318589327024 0 0.0044998670812677419 0.21931275383912299 0 0.0093606803541590265 0.22527922005154821 0 0.01216198668933461 0.2181318589327024 0 0.0093606803541590265 0.22527922005154821 0 0.019945088602245319 0.22200114201374699 0 0.01633360233343965 0.23039326250211051 0 0.019945088602245319 0.22200114201374699 0 0.01633360233343965 0.23039326250211051 0 0.031260389761853302 0.22798645517037949 0 0.025946249586107941 0.2375505193352484 0 0.01633360233343965 0.23039326250211051 0 0.031260389761853302 0.22798645517037949 0 0.019945088602245319 0.22200114201374699 0 0.028158682239275409 0.21552582145382271 0 0.031260389761853302 0.22798645517037949 0 0.028158682239275409 0.21552582145382271 0 0.01465663913834948 0.2030576130217403 0 0.038169459785255627 0.21024999538924799 0 0.01465663913834948 0.2030576130217403 0 0.038169459785255627 0.21024999538924799 0 0.01465663913834948 0.2030576130217403 0 0.027832638561410949 0.19694437216658181 0 0.038169459785255627 0.21024999538924799 0 0.028158682239275409 0.21552582145382271 0 0.017932909560157771 0.21235292984048629 0 0.01465663913834948 0.2030576130217403 0 0.019945088602245319 0.22200114201374699 0 0.017932909560157771 0.21235292984048629 0 0.01216198668933461 0.2181318589327024 0 0.019945088602245319 0.22200114201374699 0 0.028158682239275409 0.21552582145382271 0 0.017932909560157771 0.21235292984048629 0 0.017932909560157771 0.21235292984048629 0 0.01216198668933461 0.2181318589327024 0 0.0090713878488432129 0.21171324891860741 0 0.0044998670812677419 0.21931275383912299 0 0.01216198668933461 0.2181318589327024 0 0.0090713878488432129 0.21171324891860741 0 -0.001251031128110124 0.21184140745705399 0 0.0044998670812677419 0.21931275383912299 0 0.0090713878488432129 0.21171324891860741 0 -0.001251031128110124 0.21184140745705399 0 -0.002628921599886327 0.22021383939074229 0 0.0044998670812677419 0.21931275383912299 0 -0.001251031128110124 0.21184140745705399 0 0.0090713878488432129 0.21171324891860741 0 0.0041720059838486851 0.20507569813242649 0 0.0041720059838486851 0.20507569813242649 0 0.010432568221963409 0.20606485682968501 0 0.0099453549738330108 0.20089640279200641 0 0.010432568221963409 0.20606485682968501 0 0.01465663913834948 0.2030576130217403 0 0.0099453549738330108 0.20089640279200641 0 0.017932909560157771 0.21235292984048629 0 0.013023376192328471 0.20829716215262981 0 0.01465663913834948 0.2030576130217403 0 0.017932909560157771 0.21235292984048629 0 0.0090713878488432129 0.21171324891860741 0 0.013023376192328471 0.20829716215262981 0 0.0090713878488432129 0.21171324891860741 0 0.010432568221963409 0.20606485682968501 0 0.013023376192328471 0.20829716215262981 0 0.0090713878488432129 0.21171324891860741 0 0.0041720059838486851 0.20507569813242649 0 0.010432568221963409 0.20606485682968501 0 0.010432568221963409 0.20606485682968501 0 0.013023376192328471 0.20829716215262981 0 0.01465663913834948 0.2030576130217403 0 0.01465663913834948 0.2030576130217403 0 0.0099453549738330108 0.20089640279200641 0 0.01575020550470372 0.19348790629659271 0 0.0058649873013942953 0.18066383361509761 0 0.0099453549738330108 0.20089640279200641 0 0.001436842856626886 0.19319603212864381 0 0.0058649873013942953 0.18066383361509761 0 0.0099453549738330108 0.20089640279200641 0 0.0058649873013942953 0.18066383361509761 0 0.0099453549738330108 0.20089640279200641 0 0.01575020550470372 0.19348790629659271 0 0.0099453549738330108 0.20089640279200641 0 0.0029605291845075919 0.2001061772388836 0 0.001436842856626886 0.19319603212864381 0 0.0041720059838486851 0.20507569813242649 0 0.0099453549738330108 0.20089640279200641 0 0.0029605291845075919 0.2001061772388836 0 -0.0037120870762782131 0.20125657590245791 0 0.0029605291845075919 0.2001061772388836 0 0.001436842856626886 0.19319603212864381 0 -0.0037120870762782131 0.20125657590245791 0 0.0041720059838486851 0.20507569813242649 0 0.0029605291845075919 0.2001061772388836 0 0.020451407548530878 0.18587730988753731 0 0.01575020550470372 0.19348790629659271 0 0.027832638561410949 0.19694437216658181 0 0.01465663913834948 0.2030576130217403 0 0.01575020550470372 0.19348790629659271 0 0.027832638561410949 0.19694437216658181 0 0.020451407548530878 0.18587730988753731 0 0.03102243986110657 0.18315192804101371 0 0.027832638561410949 0.19694437216658181 0 0.027832638561410949 0.19694437216658181 0 0.042389095342096228 0.19060802366445509 0 0.038169459785255627 0.21024999538924799 0 0.042389095342096228 0.19060802366445509 0 0.053996344205774663 0.20128652986552631 0 0.038169459785255627 0.21024999538924799 0 0.03102243986110657 0.18315192804101371 0 0.027832638561410949 0.19694437216658181 0 0.042389095342096228 0.19060802366445509 0 0.059370628895760592 0.18225377727499481 0 0.042389095342096228 0.19060802366445509 0 0.053996344205774663 0.20128652986552631 0 0.059370628895760592 0.18225377727499481 0 0.053996344205774663 0.20128652986552631 0 0.070792827869996799 0.201545556348729 0 0.053996344205774663 0.20128652986552631 0 0.061682280432161549 0.21744237775675609 0 0.070792827869996799 0.201545556348729 0 0.061682280432161549 0.21744237775675609 0 0.038169459785255627 0.21024999538924799 0 0.053996344205774663 0.20128652986552631 0 0.061682280432161549 0.21744237775675609 0 0.038169459785255627 0.21024999538924799 0 0.061682280432161549 0.21744237775675609 0 0.038169459785255627 0.21024999538924799 0 0.043881562327431803 0.22099652091076169 0 0.028158682239275409 0.21552582145382271 0 0.038169459785255627 0.21024999538924799 0 0.043881562327431803 0.22099652091076169 0 0.028158682239275409 0.21552582145382271 0 0.031260389761853302 0.22798645517037949 0 0.043881562327431803 0.22099652091076169 0 0.031260389761853302 0.22798645517037949 0 0.045885016183326861 0.2323382575741956 0 0.035624639232172899 0.23972896581925271 0 0.031260389761853302 0.22798645517037949 0 0.045885016183326861 0.2323382575741956 0 0.043881562327431803 0.22099652091076169 0 0.045885016183326861 0.2323382575741956 0 0.043881562327431803 0.22099652091076169 0 0.050358569657740979 0.22598333185728289 0 0.061682280432161549 0.21744237775675609 0 0.043881562327431803 0.22099652091076169 0 0.055090431305426867 0.22424853325224631 0 0.043881562327431803 0.22099652091076169 0 0.050358569657740979 0.22598333185728289 0 0.055090431305426867 0.22424853325224631 0 0.050358569657740979 0.22598333185728289 0 0.055090431305426867 0.22424853325224631 0 0.056577268814778078 0.226350015691928 0 0.061682280432161549 0.21744237775675609 0 0.056577268814778078 0.226350015691928 0 0.061682280432161549 0.21744237775675609 0 0.056577268814778078 0.226350015691928 0 0.068808757414390312 0.2287839857555897 0 0.061682280432161549 0.21744237775675609 0 0.055090431305426867 0.22424853325224631 0 0.056577268814778078 0.226350015691928 0 0.055090431305426867 0.22424853325224631 0 0.056577268814778078 0.226350015691928 0 0.056577268814778078 0.226350015691928 0 0.065441987278760702 0.23887932711138041 0 0.045885016183326861 0.2323382575741956 0 0.050358569657740979 0.22598333185728289 0 0.056577268814778078 0.226350015691928 0 0.046123344565263173 0.24459086981639511 0 0.065441987278760702 0.23887932711138041 0 0.057356196092491603 0.25310031756978602 0 0.056577268814778078 0.226350015691928 0 0.046123344565263173 0.24459086981639511 0 0.056577268814778078 0.226350015691928 0 0.046123344565263173 0.24459086981639511 0 0.065441987278760702 0.23887932711138041 0 0.045885016183326861 0.2323382575741956 0 0.056577268814778078 0.226350015691928 0 0.046123344565263173 0.24459086981639511 0 0.046123344565263173 0.24459086981639511 0 0.035624639232172899 0.23972896581925271 0 0.0361164618009715 0.24972346849328561 0 0.045885016183326861 0.2323382575741956 0 0.046123344565263173 0.24459086981639511 0 0.035624639232172899 0.23972896581925271 0 0.028416373495514648 0.24618422452601171 0 0.035624639232172899 0.23972896581925271 0 0.0361164618009715 0.24972346849328561 0 0.089170556236420659 0.24744925712057469 0 0.091896663598790784 0.2375823302664504 0 0.083327231600771406 0.23911566930246281 0 0.083327231600771406 0.23911566930246281 0 0.074306705742743784 0.25140863853083262 0 0.089170556236420659 0.24744925712057469 0 0.083327231600771406 0.23911566930246281 0 0.074306705742743784 0.25140863853083262 0 0.083327231600771406 0.23911566930246281 0 0.065441987278760702 0.23887932711138041 0 0.074306705742743784 0.25140863853083262 0 0.065441987278760702 0.23887932711138041 0 0.057356196092491603 0.25310031756978602 0 0.074306705742743784 0.25140863853083262 0 0.083327231600771406 0.23911566930246281 0 0.065441987278760702 0.23887932711138041 0 0.068808757414390312 0.2287839857555897 0 0.065441987278760702 0.23887932711138041 0 0.074306705742743784 0.25140863853083262 0 0.083327231600771406 0.23911566930246281 0 0.068808757414390312 0.2287839857555897 0 0.077015018945479866 0.22213253891542151 0 0.056577268814778078 0.226350015691928 0 0.065441987278760702 0.23887932711138041 0 0.068808757414390312 0.2287839857555897 0 0.061682280432161549 0.21744237775675609 0 0.068808757414390312 0.2287839857555897 0 0.077015018945479866 0.22213253891542151 0 0.061682280432161549 0.21744237775675609 0 0.077015018945479866 0.22213253891542151 0 0.077015018945479866 0.22213253891542151 0 0.093263096109875654 0.2255752972010992 0 0.083327231600771406 0.23911566930246281 0 0.077015018945479866 0.22213253891542151 0 0.093263096109875654 0.2255752972010992 0 0.091896663598790784 0.2375823302664504 0 0.093263096109875654 0.2255752972010992 0 0.093832450029105285 0.22727685556755789 0 0.091896663598790784 0.2375823302664504 0 0.083327231600771406 0.23911566930246281 0 0.093263096109875654 0.2255752972010992 0 0.083327231600771406 0.23911566930246281 0 0.093263096109875654 0.2255752972010992 0 0.093263096109875654 0.2255752972010992 0 0.093832450029105285 0.22727685556755789 0 0.077015018945479866 0.22213253891542151 0 0.093263096109875654 0.2255752972010992 0 0.0865832357088544 0.20561201607089991 0 0.077015018945479866 0.22213253891542151 0 0.0865832357088544 0.20561201607089991 0 0.070792827869996799 0.201545556348729 0 0.093263096109875654 0.2255752972010992 0 0.0865832357088544 0.20561201607089991 0 0.061682280432161549 0.21744237775675609 0 0.070792827869996799 0.201545556348729 0 0.061682280432161549 0.21744237775675609 0 0.077015018945479866 0.22213253891542151 0 0.070792827869996799 0.201545556348729 0 0.070792827869996799 0.201545556348729 0 0.079903375307831231 0.1856487349407013 0 0.059370628895760592 0.18225377727499481 0 0.070792827869996799 0.201545556348729 0 0.079903375307831231 0.1856487349407013 0 0.0865832357088544 0.20561201607089991 0 0.070792827869996799 0.201545556348729 0 0.079903375307831231 0.1856487349407013 0 0.0865832357088544 0.20561201607089991 0 0.079903375307831231 0.1856487349407013 0 0.0865832357088544 0.20561201607089991 0 0.099511319131269177 0.19420708966063971 0 0.079903375307831231 0.1856487349407013 0 0.099511319131269177 0.19420708966063971 0 0.1196111064059607 0.1896688229116458 0 0.1073727939009507 0.1797453319466864 0 0.099511319131269177 0.19420708966063971 0 0.1034184600538391 0.21173579621957159 0 0.099511319131269177 0.19420708966063971 0 0.1196111064059607 0.1896688229116458 0 0.1034184600538391 0.21173579621957159 0 0.1196111064059607 0.1896688229116458 0 0.10897084741943221 0.21088300127004059 0 0.12777839416023981 0.20429079300688421 0 0.1196111064059607 0.1896688229116458 0 0.1034184600538391 0.21173579621957159 0 0.10897084741943221 0.21088300127004059 0 0.13744963452827499 0.21856181835731969 0 0.12777839416023981 0.20429079300688421 0 0.1196111064059607 0.1896688229116458 0 0.1034184600538391 0.21173579621957159 0 0.10897084741943221 0.21088300127004059 0 0.10897084741943221 0.21088300127004059 0 0.13744963452827499 0.21856181835731969 0 0.1131621390219547 0.21734629997770161 0 0.10897084741943221 0.21088300127004059 0 0.13744963452827499 0.21856181835731969 0 0.093263096109875654 0.2255752972010992 0 0.0865832357088544 0.20561201607089991 0 0.1034184600538391 0.21173579621957159 0 0.0865832357088544 0.20561201607089991 0 0.099511319131269177 0.19420708966063971 0 0.1034184600538391 0.21173579621957159 0 0.1131621390219547 0.21734629997770161 0 0.1034184600538391 0.21173579621957159 0 0.10897084741943221 0.21088300127004059 0 0.093263096109875654 0.2255752972010992 0 0.1034184600538391 0.21173579621957159 0 0.1034184600538391 0.21173579621957159 0 0.1072609348398669 0.2289743894311147 0 0.1034184600538391 0.21173579621957159 0 0.099397407841656946 0.22897913131949979 0 0.1072609348398669 0.2289743894311147 0 0.093832450029105285 0.22727685556755789 0 0.099397407841656946 0.22897913131949979 0 0.1003621976042226 0.24679151286957099 0 0.093263096109875654 0.2255752972010992 0 0.1034184600538391 0.21173579621957159 0 0.099397407841656946 0.22897913131949979 0 0.1131621390219547 0.21734629997770161 0 0.1034184600538391 0.21173579621957159 0 0.1072609348398669 0.2289743894311147 0 0.093263096109875654 0.2255752972010992 0 0.093832450029105285 0.22727685556755789 0 0.099397407841656946 0.22897913131949979 0 0.093832450029105285 0.22727685556755789 0 0.099397407841656946 0.22897913131949979 0 0.099397407841656946 0.22897913131949979 0 0.1072609348398669 0.2289743894311147 0 0.1033949254845276 0.23624541969176971 0 0.1131621390219547 0.21734629997770161 0 0.1072609348398669 0.2289743894311147 0 0.12239132724749099 0.23244466864230051 0 0.1131621390219547 0.21734629997770161 0 0.12239132724749099 0.23244466864230051 0 0.13744963452827499 0.21856181835731969 0 0.1131621390219547 0.21734629997770161 0 0.12239132724749099 0.23244466864230051 0 0.1072609348398669 0.2289743894311147 0 0.12239132724749099 0.23244466864230051 0 0.1111034096258936 0.24621298264265809 0 0.1111034096258936 0.24621298264265809 0 0.13162051547302811 0.24754303730689889 0 0.12239132724749099 0.23244466864230051 0 0.1111034096258936 0.24621298264265809 0 0.13162051547302811 0.24754303730689889 0 0.1111034096258936 0.24621298264265809 0 0.13162051547302811 0.24754303730689889 0 0.1232137546478884 0.25477962304982538 0 0.1072609348398669 0.2289743894311147 0 0.1111034096258936 0.24621298264265809 0 0.093832450029105285 0.22727685556755789 0 0.1003621976042226 0.24679151286957099 0 0.1111034096258936 0.24621298264265809 0 0.106559161652364 0.24023664514689341 0 0.1003621976042226 0.24679151286957099 0 0.099397407841656946 0.22897913131949979 0 0.1033949254845276 0.23624541969176971 0 0.1003621976042226 0.24679151286957099 0 0.091896663598790784 0.2375823302664504 0 0.093832450029105285 0.22727685556755789 0 0.1003621976042226 0.24679151286957099 0 0.1072609348398669 0.2289743894311147 0 0.1111034096258936 0.24621298264265809 0 0.106559161652364 0.24023664514689341 0 0.1033949254845276 0.23624541969176971 0 0.106559161652364 0.24023664514689341 0 0.1003621976042226 0.24679151286957099 0 0.1072609348398669 0.2289743894311147 0 0.1033949254845276 0.23624541969176971 0 0.106559161652364 0.24023664514689341 0 0.089170556236420659 0.24744925712057469 0 0.091896663598790784 0.2375823302664504 0 0.1003621976042226 0.24679151286957099 0 0.070717396478684025 0.14102173294974429 0 0.095055111319406291 0.1412960788458994 0 0.085386288649966974 0.143727340646846 0 0.070717396478684025 0.14102173294974429 0 0.095055111319406291 0.1412960788458994 0 0.085386288649966974 0.143727340646846 0 0.087337253371491896 0.1534761891278327 0 0.076014607694239109 0.15067850199979591 0 0.087337253371491896 0.1534761891278327 0 0.076014607694239109 0.15067850199979591 0 0.080349018953416271 0.15816113194196729 0 0.085386288649966974 0.143727340646846 0 0.087337253371491896 0.1534761891278327 0 0.097326625472637859 0.15361230259975631 0 0.082997064752580424 0.13132867700650269 0 0.070717396478684025 0.14102173294974429 0 0.095055111319406291 0.1412960788458994 0 0.081878519745012673 0.1157243685148779 0 0.082997064752580424 0.13132867700650269 0 0.1025340408214919 0.1299895572366703 0 0.082997064752580424 0.13132867700650269 0 0.095055111319406291 0.1412960788458994 0 0.1025340408214919 0.1299895572366703 0 0.081878519745012673 0.1157243685148779 0 0.082997064752580424 0.13132867700650269 0 0.070796377867290691 0.12857407515426139 0 0.082997064752580424 0.13132867700650269 0 0.070796377867290691 0.12857407515426139 0 0.070717396478684025 0.14102173294974429 0 0.057786825932331663 0.1200586199335255 0 0.059221895135848968 0.132179828094345 0 0.070796377867290691 0.12857407515426139 0 0.059221895135848968 0.132179828094345 0 0.070796377867290691 0.12857407515426139 0 0.070717396478684025 0.14102173294974429 0 0.057903971220557633 0.14217739675805471 0 0.076014607694239109 0.15067850199979591 0 0.069096506275762748 0.15585045152427879 0 0.057903971220557633 0.14217739675805471 0 0.085386288649966974 0.143727340646846 0 0.076014607694239109 0.15067850199979591 0 0.057903971220557633 0.14217739675805471 0 0.085386288649966974 0.143727340646846 0 0.070717396478684025 0.14102173294974429 0 0.057903971220557633 0.14217739675805471 0 0.085386288649966974 0.143727340646846 0 0.076014607694239109 0.15067850199979591 0 0.069096506275762748 0.15585045152427879 0 0.080349018953416271 0.15816113194196729 0 0.059990944959646457 0.16599481545559899 0 0.069096506275762748 0.15585045152427879 0 0.073725346981937417 0.16718521790653801 0 0.059370628895760592 0.18225377727499481 0 0.059990944959646457 0.16599481545559899 0 0.073725346981937417 0.16718521790653801 0 0.069096506275762748 0.15585045152427879 0 0.073725346981937417 0.16718521790653801 0 0.080349018953416271 0.15816113194196729 0 0.073725346981937417 0.16718521790653801 0 0.079903375307831231 0.1856487349407013 0 0.059370628895760592 0.18225377727499481 0 0.073725346981937417 0.16718521790653801 0 0.079903375307831231 0.1856487349407013 0 0.099511319131269177 0.19420708966063971 0 0.079903375307831231 0.1856487349407013 0 0.09584576253877243 0.1805106576864012 0 0.079903375307831231 0.1856487349407013 0 0.090334867927308771 0.16744702134198761 0 0.09584576253877243 0.1805106576864012 0 0.073725346981937417 0.16718521790653801 0 0.079903375307831231 0.1856487349407013 0 0.090334867927308771 0.16744702134198761 0 0.079903375307831231 0.1856487349407013 0 0.090334867927308771 0.16744702134198761 0 0.073725346981937417 0.16718521790653801 0 0.080349018953416271 0.15816113194196729 0 0.090334867927308771 0.16744702134198761 0 0.087337253371491896 0.1534761891278327 0 0.090334867927308771 0.16744702134198761 0 0.097326625472637859 0.15361230259975631 0 0.087337253371491896 0.1534761891278327 0 0.080349018953416271 0.15816113194196729 0 0.090334867927308771 0.16744702134198761 0 0.090334867927308771 0.16744702134198761 0 0.1027574168062451 0.16813093276035099 0 0.097326625472637859 0.15361230259975631 0 0.1027574168062451 0.16813093276035099 0 0.1128686060793764 0.1452772845356364 0 0.099511319131269177 0.19420708966063971 0 0.09584576253877243 0.1805106576864012 0 0.1073727939009507 0.1797453319466864 0 0.090334867927308771 0.16744702134198761 0 0.1027574168062451 0.16813093276035099 0 0.09584576253877243 0.1805106576864012 0 0.1027574168062451 0.16813093276035099 0 0.09584576253877243 0.1805106576864012 0 0.1073727939009507 0.1797453319466864 0 0.1196111064059607 0.1896688229116458 0 0.119138364622506 0.16620915671439429 0 0.13580375275808301 0.16760184960372049 0 0.1196111064059607 0.1896688229116458 0 0.1073727939009507 0.1797453319466864 0 0.119138364622506 0.16620915671439429 0 0.1027574168062451 0.16813093276035099 0 0.1073727939009507 0.1797453319466864 0 0.119138364622506 0.16620915671439429 0 0.1027574168062451 0.16813093276035099 0 0.119138364622506 0.16620915671439429 0 0.1128686060793764 0.1452772845356364 0 0.1128686060793764 0.1452772845356364 0 0.13413773908576179 0.1464768181196523 0 0.119138364622506 0.16620915671439429 0 0.1128686060793764 0.1452772845356364 0 0.13413773908576179 0.1464768181196523 0 0.085386288649966974 0.143727340646846 0 0.1128686060793764 0.1452772845356364 0 0.097326625472637859 0.15361230259975631 0 0.1027574168062451 0.16813093276035099 0 0.1128686060793764 0.1452772845356364 0 0.097326625472637859 0.15361230259975631 0 0.085386288649966974 0.143727340646846 0 0.1128686060793764 0.1452772845356364 0 0.085386288649966974 0.143727340646846 0 0.1128686060793764 0.1452772845356364 0 0.095055111319406291 0.1412960788458994 0 0.1128686060793764 0.1452772845356364 0 0.095055111319406291 0.1412960788458994 0 0.1025340408214919 0.1299895572366703 0 0.1237412673866992 0.1207025317472252 0 0.1128686060793764 0.1452772845356364 0 0.13413773908576179 0.1464768181196523 0 0.1237412673866992 0.1207025317472252 0 0.1128686060793764 0.1452772845356364 0 0.1237412673866992 0.1207025317472252 0 0.1128686060793764 0.1452772845356364 0 0.1025340408214919 0.1299895572366703 0 0.1237412673866992 0.1207025317472252 0 0.1489754283795458 0.12744814879502581 0 0.13413773908576179 0.1464768181196523 0 0.1489754283795458 0.12744814879502581 0 0.15116242560213791 0.15326747704258631 0 0.13413773908576179 0.1464768181196523 0 0.1489754283795458 0.12744814879502581 0 0.15116242560213791 0.15326747704258631 0 0.1669477740878923 0.14261089378470271 0 0.15116242560213791 0.15326747704258631 0 0.13413773908576179 0.1464768181196523 0 0.13580375275808301 0.16760184960372049 0 0.119138364622506 0.16620915671439429 0 0.13413773908576179 0.1464768181196523 0 0.13580375275808301 0.16760184960372049 0 0.1196111064059607 0.1896688229116458 0 0.13580375275808301 0.16760184960372049 0 0.14389897383617711 0.1913082754295003 0 0.1196111064059607 0.1896688229116458 0 0.13580375275808301 0.16760184960372049 0 0.13580375275808301 0.16760184960372049 0 0.16660798993763329 0.1704874743380016 0 0.14389897383617711 0.1913082754295003 0 0.15116242560213791 0.15326747704258631 0 0.13580375275808301 0.16760184960372049 0 0.16660798993763329 0.1704874743380016 0 0.16660798993763329 0.1704874743380016 0 0.1669477740878923 0.14261089378470271 0 0.16660798993763329 0.1704874743380016 0 0.18217403682044189 0.18213051192556209 0 0.16626820578737439 0.1983640548913006 0 0.16660798993763329 0.1704874743380016 0 0.14389897383617711 0.1913082754295003 0 0.16626820578737439 0.1983640548913006 0 0.16660798993763329 0.1704874743380016 0 0.16626820578737439 0.1983640548913006 0 0.16660798993763329 0.1704874743380016 0 0.18217403682044189 0.18213051192556209 0 0.1876673790797411 0.1561009149252397 0 0.16660798993763329 0.1704874743380016 0 0.1669477740878923 0.14261089378470271 0 0.1876673790797411 0.1561009149252397 0 0.1669477740878923 0.14261089378470271 0 0.19451501675432539 0.13205691289703431 0 0.1876673790797411 0.1561009149252397 0 0.1669477740878923 0.14261089378470271 0 0.19451501675432539 0.13205691289703431 0 0.1710759479682239 0.1239243176008443 0 0.1489754283795458 0.12744814879502581 0 0.1669477740878923 0.14261089378470271 0 0.1710759479682239 0.1239243176008443 0 0.15116242560213791 0.15326747704258631 0 0.16660798993763329 0.1704874743380016 0 0.1669477740878923 0.14261089378470271 0 0.14863120117614381 0.24864578259806411 0 0.14398168735493849 0.23522233921604821 0 0.13162051547302811 0.24754303730689889 0 0.14863120117614381 0.24864578259806411 0 0.14398168735493849 0.23522233921604821 0 0.15786902406757569 0.2378980929471082 0 0.14863120117614381 0.24864578259806411 0 0.13162051547302811 0.24754303730689889 0 0.12239132724749099 0.23244466864230051 0 0.14398168735493849 0.23522233921604821 0 0.13162051547302811 0.24754303730689889 0 0.12239132724749099 0.23244466864230051 0 0.13162051547302811 0.24754303730689889 0 0.12239132724749099 0.23244466864230051 0 0.14398168735493849 0.23522233921604821 0 0.13744963452827499 0.21856181835731969 0 0.14398168735493849 0.23522233921604821 0 0.13744963452827499 0.21856181835731969 0 0.1659284216371176 0.22624063544459941 0 0.14398168735493849 0.23522233921604821 0 0.1659284216371176 0.22624063544459941 0 0.15786902406757569 0.2378980929471082 0 0.13744963452827499 0.21856181835731969 0 0.1659284216371176 0.22624063544459941 0 0.15347636185181121 0.21101212380780421 0 0.13744963452827499 0.21856181835731969 0 0.1659284216371176 0.22624063544459941 0 0.15347636185181121 0.21101212380780421 0 0.14065084109412579 0.2062932526503771 0 0.13744963452827499 0.21856181835731969 0 0.14065084109412579 0.2062932526503771 0 0.13744963452827499 0.21856181835731969 0 0.12777839416023981 0.20429079300688421 0 0.14065084109412579 0.2062932526503771 0 0.12777839416023981 0.20429079300688421 0 0.14389897383617711 0.1913082754295003 0 0.1196111064059607 0.1896688229116458 0 0.12777839416023981 0.20429079300688421 0 0.14389897383617711 0.1913082754295003 0 0.15347636185181121 0.21101212380780421 0 0.14389897383617711 0.1913082754295003 0 0.16626820578737439 0.1983640548913006 0 0.15347636185181121 0.21101212380780421 0 0.14065084109412579 0.2062932526503771 0 0.14389897383617711 0.1913082754295003 0 0.18217403682044189 0.18213051192556209 0 0.16626820578737439 0.1983640548913006 0 0.1921444794468237 0.19843505428565611 0 0.16626820578737439 0.1983640548913006 0 0.18062193390787559 0.21362356566769231 0 0.1921444794468237 0.19843505428565611 0 0.16626820578737439 0.1983640548913006 0 0.1659284216371176 0.22624063544459941 0 0.15347636185181121 0.21101212380780421 0 0.16626820578737439 0.1983640548913006 0 0.1659284216371176 0.22624063544459941 0 0.16626820578737439 0.1983640548913006 0 0.18062193390787559 0.21362356566769231 0 0.1659284216371176 0.22624063544459941 0 0.18062193390787559 0.21362356566769231 0 0.1659284216371176 0.22624063544459941 0 0.18654540031224739 0.2317996505646458 0 0.1659284216371176 0.22624063544459941 0 0.18654540031224739 0.2317996505646458 0 0.1659284216371176 0.22624063544459941 0 0.18654540031224739 0.2317996505646458 0 0.17405199691681289 0.23839635896521391 0 0.18654540031224739 0.2317996505646458 0 0.17405199691681289 0.23839635896521391 0 0.1809260299556962 0.25073934725425939 0 0.17405199691681289 0.23839635896521391 0 0.16564188687925929 0.24974852788923091 0 0.1809260299556962 0.25073934725425939 0 0.1659284216371176 0.22624063544459941 0 0.16564188687925929 0.24974852788923091 0 0.1659284216371176 0.22624063544459941 0 0.17405199691681289 0.23839635896521391 0 0.16564188687925929 0.24974852788923091 0 0.1659284216371176 0.22624063544459941 0 0.16564188687925929 0.24974852788923091 0 0.15786902406757569 0.2378980929471082 0 0.14863120117614381 0.24864578259806411 0 0.16564188687925929 0.24974852788923091 0 0.14863120117614381 0.24864578259806411 0 0.16564188687925929 0.24974852788923091 0 0.15786902406757569 0.2378980929471082 0 0.2071623789873771 0.23735866568469269 0 0.19621017303213309 0.25173016661928799 0 0.2073774026308422 0.25580268532727751 0 0.2071623789873771 0.23735866568469269 0 0.2073774026308422 0.25580268532727751 0 0.21925853352151431 0.25159648248408772 0 0.2071623789873771 0.23735866568469269 0 0.22105796523579491 0.2371577254092169 0 0.21925853352151431 0.25159648248408772 0 0.18654540031224739 0.2317996505646458 0 0.1809260299556962 0.25073934725425939 0 0.19621017303213309 0.25173016661928799 0 0.18654540031224739 0.2317996505646458 0 0.2071623789873771 0.23735866568469269 0 0.18654540031224739 0.2317996505646458 0 0.2071623789873771 0.23735866568469269 0 0.19621017303213309 0.25173016661928799 0 0.18062193390787559 0.21362356566769231 0 0.18654540031224739 0.2317996505646458 0 0.1955081852574731 0.21340438329016809 0 0.18654540031224739 0.2317996505646458 0 0.2071623789873771 0.23735866568469269 0 0.20025246406198191 0.22558198776199029 0 0.18654540031224739 0.2317996505646458 0 0.20025246406198191 0.22558198776199029 0 0.1955081852574731 0.21340438329016809 0 0.2071623789873771 0.23735866568469269 0 0.20025246406198191 0.22558198776199029 0 0.2102378824805507 0.21681288328339071 0 0.2071623789873771 0.23735866568469269 0 0.2102378824805507 0.21681288328339071 0 0.2220999059361429 0.2233295257228223 0 0.2071623789873771 0.23735866568469269 0 0.2220999059361429 0.2233295257228223 0 0.22105796523579491 0.2371577254092169 0 0.2102378824805507 0.21681288328339071 0 0.21934180219461991 0.20925566866791689 0 0.2220999059361429 0.2233295257228223 0 0.20715110336361231 0.2048876706411113 0 0.21791771719326181 0.197509825623952 0 0.21934180219461991 0.20925566866791689 0 0.20715110336361231 0.2048876706411113 0 0.2102378824805507 0.21681288328339071 0 0.21934180219461991 0.20925566866791689 0 0.20715110336361231 0.2048876706411113 0 0.2102378824805507 0.21681288328339071 0 0.1955081852574731 0.21340438329016809 0 0.20025246406198191 0.22558198776199029 0 0.2102378824805507 0.21681288328339071 0 0.1955081852574731 0.21340438329016809 0 0.18062193390787559 0.21362356566769231 0 0.1955081852574731 0.21340438329016809 0 0.1921444794468237 0.19843505428565611 0 0.20715110336361231 0.2048876706411113 0 0.1955081852574731 0.21340438329016809 0 0.1921444794468237 0.19843505428565611 0 0.18217403682044189 0.18213051192556209 0 0.1921444794468237 0.19843505428565611 0 0.19767213231280609 0.18613001183318439 0 0.20715110336361231 0.2048876706411113 0 0.1921444794468237 0.19843505428565611 0 0.20507696608366879 0.19404649020656131 0 0.1921444794468237 0.19843505428565611 0 0.20507696608366879 0.19404649020656131 0 0.19767213231280609 0.18613001183318439 0 0.20507696608366879 0.19404649020656131 0 0.19767213231280609 0.18613001183318439 0 0.2102942201489158 0.18343055922550411 0 0.20715110336361231 0.2048876706411113 0 0.20507696608366879 0.19404649020656131 0 0.21791771719326181 0.197509825623952 0 0.20507696608366879 0.19404649020656131 0 0.21791771719326181 0.197509825623952 0 0.2102942201489158 0.18343055922550411 0 0.21791771719326181 0.197509825623952 0 0.22560701614763989 0.18810621192914581 0 0.2102942201489158 0.18343055922550411 0 0.21791771719326181 0.197509825623952 0 0.235361174393144 0.1955811415501908 0 0.21791771719326181 0.197509825623952 0 0.235361174393144 0.1955811415501908 0 0.2286067157271417 0.20394472473762459 0 0.21791771719326181 0.197509825623952 0 0.22560701614763989 0.18810621192914581 0 0.235361174393144 0.1955811415501908 0 0.22560701614763989 0.18810621192914581 0 0.235361174393144 0.1955811415501908 0 0.242881991307064 0.18690680833733939 0 0.235361174393144 0.1955811415501908 0 0.2424425901990768 0.20778076280738411 0 0.25280463159302602 0.1936524574764282 0 0.235361174393144 0.1955811415501908 0 0.25280463159302602 0.1936524574764282 0 0.235361174393144 0.1955811415501908 0 0.242881991307064 0.18690680833733939 0 0.25280463159302602 0.1936524574764282 0 0.2424425901990768 0.20778076280738411 0 0.25280463159302602 0.1936524574764282 0 0.235361174393144 0.1955811415501908 0 0.2424425901990768 0.20778076280738411 0 0.2286067157271417 0.20394472473762459 0 0.23062477863026221 0.212817590853661 0 0.24899874225078231 0.2225933472544209 0 0.2424425901990768 0.20778076280738411 0 0.23062477863026221 0.212817590853661 0 0.24899874225078231 0.2225933472544209 0 0.2424425901990768 0.20778076280738411 0 0.24899874225078231 0.2225933472544209 0 0.25671888818861738 0.20909982030253341 0 0.2424425901990768 0.20778076280738411 0 0.23062477863026221 0.212817590853661 0 0.2286067157271417 0.20394472473762459 0 0.21791771719326181 0.197509825623952 0 0.2286067157271417 0.20394472473762459 0 0.21934180219461991 0.20925566866791689 0 0.23062477863026221 0.212817590853661 0 0.2286067157271417 0.20394472473762459 0 0.21934180219461991 0.20925566866791689 0 0.23062477863026221 0.212817590853661 0 0.21934180219461991 0.20925566866791689 0 0.2220999059361429 0.2233295257228223 0 0.2220999059361429 0.2233295257228223 0 0.2317953673390368 0.23277263206180959 0 0.22105796523579491 0.2371577254092169 0 0.23062477863026221 0.212817590853661 0 0.2220999059361429 0.2233295257228223 0 0.2333796985390561 0.22287827397317839 0 0.2220999059361429 0.2233295257228223 0 0.2317953673390368 0.23277263206180959 0 0.2333796985390561 0.22287827397317839 0 0.2317953673390368 0.23277263206180959 0 0.24899874225078231 0.2225933472544209 0 0.24576288521902601 0.2367514452761286 0 0.23062477863026221 0.212817590853661 0 0.2333796985390561 0.22287827397317839 0 0.24899874225078231 0.2225933472544209 0 0.2317953673390368 0.23277263206180959 0 0.2333796985390561 0.22287827397317839 0 0.24899874225078231 0.2225933472544209 0 0.24576288521902601 0.2367514452761286 0 0.2371930846548288 0.25302587335583621 0 0.25469112926727061 0.24735262204999481 0 0.24576288521902601 0.2367514452761286 0 0.22792745325535729 0.24381773352640959 0 0.2371930846548288 0.25302587335583621 0 0.2317953673390368 0.23277263206180959 0 0.24576288521902601 0.2367514452761286 0 0.22792745325535729 0.24381773352640959 0 0.22792745325535729 0.24381773352640959 0 0.21925853352151431 0.25159648248408772 0 0.2371930846548288 0.25302587335583621 0 0.2317953673390368 0.23277263206180959 0 0.22792745325535729 0.24381773352640959 0 0.22105796523579491 0.2371577254092169 0 0.22792745325535729 0.24381773352640959 0 0.22105796523579491 0.2371577254092169 0 0.21925853352151431 0.25159648248408772 0 0.20448066008190369 0.14727690197782001 0 0.20904519351127021 0.16251388506211081 0 0.2193790940645218 0.15140936808089159 0 0.20448066008190369 0.14727690197782001 0 0.2193790940645218 0.15140936808089159 0 0.22005576892068821 0.136506558369274 0 0.19451501675432539 0.13205691289703431 0 0.22005576892068821 0.136506558369274 0 0.2159347571296647 0.1182695555800497 0 0.20448066008190369 0.14727690197782001 0 0.19451501675432539 0.13205691289703431 0 0.22005576892068821 0.136506558369274 0 0.20448066008190369 0.14727690197782001 0 0.19451501675432539 0.13205691289703431 0 0.1876673790797411 0.1561009149252397 0 0.20448066008190369 0.14727690197782001 0 0.1876673790797411 0.1561009149252397 0 0.20904519351127021 0.16251388506211081 0 0.18217403682044189 0.18213051192556209 0 0.1876673790797411 0.1561009149252397 0 0.19768610489014379 0.17337866229032639 0 0.1876673790797411 0.1561009149252397 0 0.19768610489014379 0.17337866229032639 0 0.20904519351127021 0.16251388506211081 0 0.18217403682044189 0.18213051192556209 0 0.19768610489014379 0.17337866229032639 0 0.19767213231280609 0.18613001183318439 0 0.19768610489014379 0.17337866229032639 0 0.19767213231280609 0.18613001183318439 0 0.2102942201489158 0.18343055922550411 0 0.19768610489014379 0.17337866229032639 0 0.2102942201489158 0.18343055922550411 0 0.20904519351127021 0.16251388506211081 0 0.2102942201489158 0.18343055922550411 0 0.20904519351127021 0.16251388506211081 0 0.22457853726832949 0.16763035045449759 0 0.20904519351127021 0.16251388506211081 0 0.22457853726832949 0.16763035045449759 0 0.2193790940645218 0.15140936808089159 0 0.22560701614763989 0.18810621192914581 0 0.2102942201489158 0.18343055922550411 0 0.22457853726832949 0.16763035045449759 0 0.22560701614763989 0.18810621192914581 0 0.24312800656083611 0.1704664171387664 0 0.22560701614763989 0.18810621192914581 0 0.22457853726832949 0.16763035045449759 0 0.24312800656083611 0.1704664171387664 0 0.242881991307064 0.18690680833733939 0 0.24312800656083611 0.1704664171387664 0 0.25379526172670452 0.18061833659426699 0 0.22560701614763989 0.18810621192914581 0 0.242881991307064 0.18690680833733939 0 0.24312800656083611 0.1704664171387664 0 0.242881991307064 0.18690680833733939 0 0.25379526172670452 0.18061833659426699 0 0.25280463159302602 0.1936524574764282 0 0.22457853726832949 0.16763035045449759 0 0.24312800656083611 0.1704664171387664 0 0.2391354248219569 0.14958550948486241 0 0.24312800656083611 0.1704664171387664 0 0.2391354248219569 0.14958550948486241 0 0.26064899697403232 0.15282662234838679 0 0.22457853726832949 0.16763035045449759 0 0.2391354248219569 0.14958550948486241 0 0.2193790940645218 0.15140936808089159 0 0.2391354248219569 0.14958550948486241 0 0.2193790940645218 0.15140936808089159 0 0.22005576892068821 0.136506558369274 0 0.2391354248219569 0.14958550948486241 0 0.22005576892068821 0.136506558369274 0 0.23981929909650421 0.12712535337400541 0 0.22005576892068821 0.136506558369274 0 0.23981929909650421 0.12712535337400541 0 0.2159347571296647 0.1182695555800497 0 0.2391354248219569 0.14958550948486241 0 0.23981929909650421 0.12712535337400541 0 0.25190461453233132 0.14042974416662601 0 0.23981929909650421 0.12712535337400541 0 0.25027055211512 0.10653107456547579 0 0.23981929909650421 0.12712535337400541 0 0.25027055211512 0.10653107456547579 0 0.25977188912404442 0.127458514331382 0 0.23981929909650421 0.12712535337400541 0 0.2319852465490429 0.1072646702939181 0 0.25027055211512 0.10653107456547579 0 0.2370073958057326 0.089234548447235107 0 0.26072180513373577 0.085936795756946086 0 0.25027055211512 0.10653107456547579 0 0.2319852465490429 0.1072646702939181 0 0.2370073958057326 0.089234548447235107 0 0.25027055211512 0.10653107456547579 0 0.2319852465490429 0.1072646702939181 0 0.2168942285981931 0.09516281950282432 0 0.2370073958057326 0.089234548447235107 0 0.2319852465490429 0.1072646702939181 0 0.2159347571296647 0.1182695555800497 0 0.2168942285981931 0.09516281950282432 0 0.23981929909650421 0.12712535337400541 0 0.2319852465490429 0.1072646702939181 0 0.2159347571296647 0.1182695555800497 0 0.19451501675432539 0.13205691289703431 0 0.2159347571296647 0.1182695555800497 0 0.20150161452434751 0.11012390715045919 0 0.2159347571296647 0.1182695555800497 0 0.2168942285981931 0.09516281950282432 0 0.20150161452434751 0.11012390715045919 0 0.2168942285981931 0.09516281950282432 0 0.19581770013941521 0.093777739565210433 0 0.20150161452434751 0.11012390715045919 0 0.19581770013941521 0.093777739565210433 0 0.20150161452434751 0.11012390715045919 0 0.18434637000013909 0.1113525082071775 0 0.19451501675432539 0.13205691289703431 0 0.18434637000013909 0.1113525082071775 0 0.19451501675432539 0.13205691289703431 0 0.20150161452434751 0.11012390715045919 0 0.18434637000013909 0.1113525082071775 0 0.1920565134958043 0.07650882332888273 0 0.2063043214921049 0.062615532014197922 0 0.19450717271155979 0.055304124877499167 0 0.1920565134958043 0.07650882332888273 0 0.19450717271155979 0.055304124877499167 0 0.18197621555274771 0.060459811852269563 0 0.1920565134958043 0.07650882332888273 0 0.20658738245317709 0.080454303254159504 0 0.2063043214921049 0.062615532014197922 0 0.19581770013941521 0.093777739565210433 0 0.1920565134958043 0.07650882332888273 0 0.20658738245317709 0.080454303254159504 0 0.2168942285981931 0.09516281950282432 0 0.20658738245317709 0.080454303254159504 0 0.22186414854036809 0.07420660185968217 0 0.2168942285981931 0.09516281950282432 0 0.19581770013941521 0.093777739565210433 0 0.20658738245317709 0.080454303254159504 0 0.20658738245317709 0.080454303254159504 0 0.2063043214921049 0.062615532014197922 0 0.22186414854036809 0.07420660185968217 0 0.2063043214921049 0.062615532014197922 0 0.22186414854036809 0.07420660185968217 0 0.22065827241197289 0.057231387042787192 0 0.22186414854036809 0.07420660185968217 0 0.2370073958057326 0.089234548447235107 0 0.2410670791918299 0.066657374978017381 0 0.22186414854036809 0.07420660185968217 0 0.2410670791918299 0.066657374978017381 0 0.22065827241197289 0.057231387042787192 0 0.2168942285981931 0.09516281950282432 0 0.22186414854036809 0.07420660185968217 0 0.2370073958057326 0.089234548447235107 0 0.2370073958057326 0.089234548447235107 0 0.2410670791918299 0.066657374978017381 0 0.26072180513373577 0.085936795756946086 0 0.2335549293522062 0.037120766249025328 0 0.23392735815060739 0.05145053802463876 0 0.25182118552613297 0.052917828428107848 0 0.2410670791918299 0.066657374978017381 0 0.23392735815060739 0.05145053802463876 0 0.25182118552613297 0.052917828428107848 0 0.24229683167898761 0.026863171001088801 0 0.25182118552613297 0.052917828428107848 0 0.2335549293522062 0.037120766249025328 0 0.24229683167898761 0.026863171001088801 0 0.25182118552613297 0.052917828428107848 0 0.2335549293522062 0.037120766249025328 0 0.22141060848779151 0.042627489477287728 0 0.23392735815060739 0.05145053802463876 0 0.2335549293522062 0.037120766249025328 0 0.22141060848779151 0.042627489477287728 0 0.21956658621910449 0.02743956935445277 0 0.22141060848779151 0.042627489477287728 0 0.22065827241197289 0.057231387042787192 0 0.23392735815060739 0.05145053802463876 0 0.2410670791918299 0.066657374978017381 0 0.22065827241197289 0.057231387042787192 0 0.23392735815060739 0.05145053802463876 0 0.24229683167898761 0.026863171001088801 0 0.2327724778318416 0.00080851357406988567 0 0.24229683167898761 0.026863171001088801 0 0.2327724778318416 0.00080851357406988567 0 0.25766864249577431 0.016273971229392298 0 0.2327724778318416 0.00080851357406988567 0 0.25766864249577431 0.016273971229392298 0 0.24297595284734999 -0.00032384243858780282 0 0.2327724778318416 0.00080851357406988567 0 0.25766864249577431 0.016273971229392298 0 0.2335549293522062 0.037120766249025328 0 0.24229683167898761 0.026863171001088801 0 0.23023395565047691 0.020918542915729421 0 0.24229683167898761 0.026863171001088801 0 0.23023395565047691 0.020918542915729421 0 0.2327724778318416 0.00080851357406988567 0 0.2335549293522062 0.037120766249025328 0 0.21956658621910449 0.02743956935445277 0 0.23023395565047691 0.020918542915729421 0 0.21956658621910449 0.02743956935445277 0 0.23023395565047691 0.020918542915729421 0 0.22297895317024491 0.01236069440001028 0 0.23023395565047691 0.020918542915729421 0 0.22297895317024491 0.01236069440001028 0 0.2327724778318416 0.00080851357406988567 0 0.22297895317024491 0.01236069440001028 0 0.2216901033440723 0.0019520988824035101 0 0.2327724778318416 0.00080851357406988567 0 0.22297895317024491 0.01236069440001028 0 0.2216901033440723 0.0019520988824035101 0 0.2130584992776822 0.0064991310057278227 0 0.2130584992776822 0.0064991310057278227 0 0.2128063672562063 -0.0010087193959307549 0 0.20483123724834651 -0.00017065645069986779 0 0.2130584992776822 0.0064991310057278227 0 0.20126901801950209 0.01179146639325649 0 0.20483123724834651 -0.00017065645069986779 0 0.2216901033440723 0.0019520988824035101 0 0.2130584992776822 0.0064991310057278227 0 0.2128063672562063 -0.0010087193959307549 0 0.22297895317024491 0.01236069440001028 0 0.2130584992776822 0.0064991310057278227 0 0.21205218799292139 0.016527111033415611 0 0.2130584992776822 0.0064991310057278227 0 0.21205218799292139 0.016527111033415611 0 0.20126901801950209 0.01179146639325649 0 0.21956658621910449 0.02743956935445277 0 0.20338788327807339 0.0245446940136307 0 0.20823786853085649 0.036724839620522289 0 0.21956658621910449 0.02743956935445277 0 0.21205218799292139 0.016527111033415611 0 0.20338788327807339 0.0245446940136307 0 0.21205218799292139 0.016527111033415611 0 0.20338788327807339 0.0245446940136307 0 0.20126901801950209 0.01179146639325649 0 0.21956658621910449 0.02743956935445277 0 0.22297895317024491 0.01236069440001028 0 0.21205218799292139 0.016527111033415611 0 0.20338788327807339 0.0245446940136307 0 0.20823786853085649 0.036724839620522289 0 0.19140067181019821 0.031634518812069669 0 0.20338788327807339 0.0245446940136307 0 0.19391887342743841 0.019785768854086071 0 0.19140067181019821 0.031634518812069669 0 0.19391887342743841 0.019785768854086071 0 0.19140067181019821 0.031634518812069669 0 0.18436216668368841 0.019280027735249072 0 0.19391887342743841 0.019785768854086071 0 0.18917462734572971 0.011678137316224409 0 0.18436216668368841 0.019280027735249072 0 0.20338788327807339 0.0245446940136307 0 0.19391887342743841 0.019785768854086071 0 0.20126901801950209 0.01179146639325649 0 0.19391887342743841 0.019785768854086071 0 0.20126901801950209 0.01179146639325649 0 0.18917462734572971 0.011678137316224409 0 0.20126901801950209 0.01179146639325649 0 0.18917462734572971 0.011678137316224409 0 0.1933073427054901 0.001884839783417182 0 0.18917462734572971 0.011678137316224409 0 0.1933073427054901 0.001884839783417182 0 0.18476487371872691 0.0023264512215359291 0 0.20126901801950209 0.01179146639325649 0 0.1933073427054901 0.001884839783417182 0 0.20483123724834651 -0.00017065645069986779 0 0.2063043214921049 0.062615532014197922 0 0.22065827241197289 0.057231387042787192 0 0.208050482594408 0.049622361634724062 0 0.22141060848779151 0.042627489477287728 0 0.22065827241197289 0.057231387042787192 0 0.208050482594408 0.049622361634724062 0 0.22141060848779151 0.042627489477287728 0 0.208050482594408 0.049622361634724062 0 0.20823786853085649 0.036724839620522289 0 0.22141060848779151 0.042627489477287728 0 0.21956658621910449 0.02743956935445277 0 0.20823786853085649 0.036724839620522289 0 0.208050482594408 0.049622361634724062 0 0.20823786853085649 0.036724839620522289 0 0.1971846519321625 0.043230796776050087 0 0.20823786853085649 0.036724839620522289 0 0.1971846519321625 0.043230796776050087 0 0.19140067181019821 0.031634518812069669 0 0.1971846519321625 0.043230796776050087 0 0.19140067181019821 0.031634518812069669 0 0.18531973405815019 0.046489196876265147 0 0.1971846519321625 0.043230796776050087 0 0.19450717271155979 0.055304124877499167 0 0.18531973405815019 0.046489196876265147 0 0.208050482594408 0.049622361634724062 0 0.1971846519321625 0.043230796776050087 0 0.19450717271155979 0.055304124877499167 0 0.2063043214921049 0.062615532014197922 0 0.208050482594408 0.049622361634724062 0 0.19450717271155979 0.055304124877499167 0 0.18197621555274771 0.060459811852269563 0 0.171860345410176 0.061318468395994037 0 0.17037456882029359 0.048081677127667977 0 0.18197621555274771 0.060459811852269563 0 0.18531973405815019 0.046489196876265147 0 0.17037456882029359 0.048081677127667977 0 0.19450717271155979 0.055304124877499167 0 0.18197621555274771 0.060459811852269563 0 0.18531973405815019 0.046489196876265147 0 0.19140067181019821 0.031634518812069669 0 0.17819301944822391 0.036436949827214918 0 0.18013862322197541 0.027475951869370241 0 0.19140067181019821 0.031634518812069669 0 0.18531973405815019 0.046489196876265147 0 0.17819301944822391 0.036436949827214918 0 0.17819301944822391 0.036436949827214918 0 0.16695912467681209 0.035657520739454551 0 0.170611959883048 0.025162781018820812 0 0.18531973405815019 0.046489196876265147 0 0.17819301944822391 0.036436949827214918 0 0.17037456882029359 0.048081677127667977 0 0.17819301944822391 0.036436949827214918 0 0.16695912467681209 0.035657520739454551 0 0.17037456882029359 0.048081677127667977 0 0.16695912467681209 0.035657520739454551 0 0.15794296507339831 0.039358811099459858 0 0.17037456882029359 0.048081677127667977 0 0.15794296507339831 0.039358811099459858 0 0.17037456882029359 0.048081677127667977 0 0.15384042973758019 0.049239294137607047 0 0.16695912467681209 0.035657520739454551 0 0.15794296507339831 0.039358811099459858 0 0.1591354732211282 0.02932566858810675 0 0.171860345410176 0.061318468395994037 0 0.15384042973758019 0.049239294137607047 0 0.16400907649176649 0.069943698827463874 0 0.15384042973758019 0.049239294137607047 0 0.16400907649176649 0.069943698827463874 0 0.171860345410176 0.061318468395994037 0 0.17037456882029359 0.048081677127667977 0 0.15384042973758019 0.049239294137607047 0 0.17194389469659341 0.0046427798174643251 0 0.1786011239164817 0.0106129176826319 0 0.17678423811432731 -0.0040137111683443459 0 0.18476487371872691 0.0023264512215359291 0 0.1786011239164817 0.0106129176826319 0 0.17678423811432731 -0.0040137111683443459 0 0.18917462734572971 0.011678137316224409 0 0.1786011239164817 0.0106129176826319 0 0.18436216668368841 0.019280027735249072 0 0.18917462734572971 0.011678137316224409 0 0.18476487371872691 0.0023264512215359291 0 0.1786011239164817 0.0106129176826319 0 0.17194389469659341 0.0046427798174643251 0 0.1786011239164817 0.0106129176826319 0 0.168196032159699 0.010819014656640461 0 0.1786011239164817 0.0106129176826319 0 0.17402308352386969 0.017143416486653559 0 0.168196032159699 0.010819014656640461 0 0.1786011239164817 0.0106129176826319 0 0.17402308352386969 0.017143416486653559 0 0.18436216668368841 0.019280027735249072 0 0.17402308352386969 0.017143416486653559 0 0.18013862322197541 0.027475951869370241 0 0.170611959883048 0.025162781018820812 0 0.17402308352386969 0.017143416486653559 0 0.18436216668368841 0.019280027735249072 0 0.18013862322197541 0.027475951869370241 0 0.19140067181019821 0.031634518812069669 0 0.18436216668368841 0.019280027735249072 0 0.18013862322197541 0.027475951869370241 0 0.17819301944822391 0.036436949827214918 0 0.18013862322197541 0.027475951869370241 0 0.170611959883048 0.025162781018820812 0 0.170611959883048 0.025162781018820812 0 0.1591354732211282 0.02932566858810675 0 0.16272947657852599 0.020020095540895459 0 0.16695912467681209 0.035657520739454551 0 0.170611959883048 0.025162781018820812 0 0.1591354732211282 0.02932566858810675 0 0.1591354732211282 0.02932566858810675 0 0.16272947657852599 0.020020095540895459 0 0.15287875628496209 0.02165362601569434 0 0.16272947657852599 0.020020095540895459 0 0.168196032159699 0.010819014656640461 0 0.15287875628496209 0.02165362601569434 0 0.17402308352386969 0.017143416486653559 0 0.170611959883048 0.025162781018820812 0 0.16889013803628569 0.01828632692575257 0 0.16272947657852599 0.020020095540895459 0 0.16889013803628569 0.01828632692575257 0 0.168196032159699 0.010819014656640461 0 0.170611959883048 0.025162781018820812 0 0.16272947657852599 0.020020095540895459 0 0.16889013803628569 0.01828632692575257 0 0.17194389469659341 0.0046427798174643251 0 0.16500663457783829 0.0066594038351828963 0 0.16394258331322331 -0.010299091428861359 0 0.168196032159699 0.010819014656640461 0 0.16500663457783829 0.0066594038351828963 0 0.1397298863709012 0.01574646671207048 0 0.17402308352386969 0.017143416486653559 0 0.16889013803628569 0.01828632692575257 0 0.168196032159699 0.010819014656640461 0 0.17194389469659341 0.0046427798174643251 0 0.168196032159699 0.010819014656640461 0 0.16500663457783829 0.0066594038351828963 0 0.168196032159699 0.010819014656640461 0 0.1397298863709012 0.01574646671207048 0 0.14865092338076161 0.0029196368863995291 0 0.1397298863709012 0.01574646671207048 0 0.13534696994241319 -0.0012545724301827831 0 0.16500663457783829 0.0066594038351828963 0 0.14865092338076161 0.0029196368863995291 0 0.1397298863709012 0.01574646671207048 0 0.168196032159699 0.010819014656640461 0 0.15287875628496209 0.02165362601569434 0 0.1397298863709012 0.01574646671207048 0 0.15287875628496209 0.02165362601569434 0 0.1397298863709012 0.01574646671207048 0 0.14642457160892891 0.034865657931651091 0 0.1591354732211282 0.02932566858810675 0 0.15287875628496209 0.02165362601569434 0 0.14642457160892891 0.034865657931651091 0 0.1397298863709012 0.01574646671207048 0 0.14642457160892891 0.034865657931651091 0 0.12607976175878219 0.03812506588504519 0 0.1112637405821032 0.020673918767500511 0 0.1397298863709012 0.01574646671207048 0 0.12607976175878219 0.03812506588504519 0 0.1112637405821032 0.020673918767500511 0 0.1397298863709012 0.01574646671207048 0 0.11940402113221719 0.0021974637424521382 0 0.1397298863709012 0.01574646671207048 0 0.13534696994241319 -0.0012545724301827831 0 0.1494392048729187 0.06182289796609243 0 0.15384042973758019 0.049239294137607047 0 0.16400907649176649 0.069943698827463874 0 0.1494392048729187 0.06182289796609243 0 0.15384042973758019 0.049239294137607047 0 0.13963492768969951 0.049386298241860617 0 0.15794296507339831 0.039358811099459858 0 0.15384042973758019 0.049239294137607047 0 0.14642457160892891 0.034865657931651091 0 0.15794296507339831 0.039358811099459858 0 0.1591354732211282 0.02932566858810675 0 0.14642457160892891 0.034865657931651091 0 0.15384042973758019 0.049239294137607047 0 0.14642457160892891 0.034865657931651091 0 0.13963492768969951 0.049386298241860617 0 0.14642457160892891 0.034865657931651091 0 0.12607976175878219 0.03812506588504519 0 0.13963492768969951 0.049386298241860617 0 0.1223906704702877 0.062878575288907321 0 0.12607976175878219 0.03812506588504519 0 0.13963492768969951 0.049386298241860617 0 0.1223906704702877 0.062878575288907321 0 0.1494392048729187 0.06182289796609243 0 0.1223906704702877 0.062878575288907321 0 0.1494392048729187 0.06182289796609243 0 0.13963492768969951 0.049386298241860617 0 0.1223906704702877 0.062878575288907321 0 0.1494392048729187 0.06182289796609243 0 0.14548659000134531 0.071553026170403253 0 0.1223906704702877 0.062878575288907321 0 0.14548659000134531 0.071553026170403253 0 0.12885245119731209 0.078629265380086549 0 0.1494392048729187 0.06182289796609243 0 0.14548659000134531 0.071553026170403253 0 0.16400907649176649 0.069943698827463874 0 0.14548659000134531 0.071553026170403253 0 0.1557764938104608 0.086885146358856677 0 0.16400907649176649 0.069943698827463874 0 0.14548659000134531 0.071553026170403253 0 0.1557764938104608 0.086885146358856677 0 0.13461392869402219 0.096127778958814275 0 0.14548659000134531 0.071553026170403253 0 0.12885245119731209 0.078629265380086549 0 0.13461392869402219 0.096127778958814275 0 0.14548659000134531 0.071553026170403253 0 0.13461392869402219 0.096127778958814275 0 0.1489754283795458 0.12744814879502581 0 0.13461392869402219 0.096127778958814275 0 0.160595150619217 0.1061531243202813 0 0.1237412673866992 0.1207025317472252 0 0.1489754283795458 0.12744814879502581 0 0.13461392869402219 0.096127778958814275 0 0.1237412673866992 0.1207025317472252 0 0.13461392869402219 0.096127778958814275 0 0.1557764938104608 0.086885146358856677 0 0.13461392869402219 0.096127778958814275 0 0.160595150619217 0.1061531243202813 0 0.1557764938104608 0.086885146358856677 0 0.160595150619217 0.1061531243202813 0 0.17417772324595279 0.090648103517320666 0 0.1489754283795458 0.12744814879502581 0 0.160595150619217 0.1061531243202813 0 0.1710759479682239 0.1239243176008443 0 0.19451501675432539 0.13205691289703431 0 0.1710759479682239 0.1239243176008443 0 0.18434637000013909 0.1113525082071775 0 0.160595150619217 0.1061531243202813 0 0.1710759479682239 0.1239243176008443 0 0.18434637000013909 0.1113525082071775 0 0.18434637000013909 0.1113525082071775 0 0.17417772324595279 0.090648103517320666 0 0.160595150619217 0.1061531243202813 0 0.18434637000013909 0.1113525082071775 0 0.17417772324595279 0.090648103517320666 0 0.19581770013941521 0.093777739565210433 0 0.18434637000013909 0.1113525082071775 0 0.17417772324595279 0.090648103517320666 0 0.19581770013941521 0.093777739565210433 0 0.1920565134958043 0.07650882332888273 0 0.17417772324595279 0.090648103517320666 0 0.1920565134958043 0.07650882332888273 0 0.17417772324595279 0.090648103517320666 0 0.178169411527523 0.072357808904897292 0 0.1920565134958043 0.07650882332888273 0 0.18197621555274771 0.060459811852269563 0 0.178169411527523 0.072357808904897292 0 0.17417772324595279 0.090648103517320666 0 0.178169411527523 0.072357808904897292 0 0.16400907649176649 0.069943698827463874 0 0.18197621555274771 0.060459811852269563 0 0.171860345410176 0.061318468395994037 0 0.178169411527523 0.072357808904897292 0 0.171860345410176 0.061318468395994037 0 0.178169411527523 0.072357808904897292 0 0.16400907649176649 0.069943698827463874 0 0.1557764938104608 0.086885146358856677 0 0.17417772324595279 0.090648103517320666 0 0.16400907649176649 0.069943698827463874 0 0.17417772324595279 0.090648103517320666 0 0.16400907649176649 0.069943698827463874 0 0.094867698081550447 0.48088595445029958 0 0.1174862751349369 0.48299076978920769 0 0.1082700490887219 0.46833573557879649 0 0.094867698081550447 0.48088595445029958 0 0.1082700490887219 0.46833573557879649 0 0.093200474236568895 0.46081904744354968 0 0.094867698081550447 0.48088595445029958 0 0.10140934024091269 0.5 0 0.1174862751349369 0.48299076978920769 0 0.10140934024091269 0.5 0 0.1174862751349369 0.48299076978920769 0 0.13042781381703469 0.5 0 0.1174862751349369 0.48299076978920769 0 0.1082700490887219 0.46833573557879649 0 0.1264519596290487 0.46600733397067817 0 0.111174885940482 0.44787847442397949 0 0.1082700490887219 0.46833573557879649 0 0.1264519596290487 0.46600733397067817 0 0.111174885940482 0.44787847442397949 0 0.1307920793393513 0.44899231966976122 0 0.1264519596290487 0.46600733397067817 0 0.111174885940482 0.44787847442397949 0 0.12581458238117599 0.43558451542114701 0 0.1307920793393513 0.44899231966976122 0 0.111174885940482 0.44787847442397949 0 0.088376757121350513 0.44410381578626162 0 0.099073729424092261 0.43416708990787062 0 0.111174885940482 0.44787847442397949 0 0.093200474236568895 0.46081904744354968 0 0.088376757121350513 0.44410381578626162 0 0.111174885940482 0.44787847442397949 0 0.1082700490887219 0.46833573557879649 0 0.093200474236568895 0.46081904744354968 0 0.093200474236568895 0.46081904744354968 0 0.077032561875206546 0.45444964245676628 0 0.076449183123371733 0.47317017389024352 0 0.088376757121350513 0.44410381578626162 0 0.078385588630658892 0.43453041977814583 0 0.099073729424092261 0.43416708990787062 0 0.093200474236568895 0.46081904744354968 0 0.088376757121350513 0.44410381578626162 0 0.077032561875206546 0.45444964245676628 0 0.088376757121350513 0.44410381578626162 0 0.077032561875206546 0.45444964245676628 0 0.078385588630658892 0.43453041977814583 0 0.077032561875206546 0.45444964245676628 0 0.061686043415868849 0.44922877092356689 0 0.078385588630658892 0.43453041977814583 0 0.061686043415868849 0.44922877092356689 0 0.061053491803744683 0.43139368598685601 0 0.078385588630658892 0.43453041977814583 0 0.077032561875206546 0.45444964245676628 0 0.064097324723420529 0.4648456269188308 0 0.076449183123371733 0.47317017389024352 0 0.077032561875206546 0.45444964245676628 0 0.064097324723420529 0.4648456269188308 0 0.061686043415868849 0.44922877092356689 0 0.076449183123371733 0.47317017389024352 0 0.072390866664790665 0.5 0 0.056799601741266442 0.47864002737115913 0 0.064097324723420529 0.4648456269188308 0 0.076449183123371733 0.47317017389024352 0 0.056799601741266442 0.47864002737115913 0 0.094867698081550447 0.48088595445029958 0 0.093200474236568895 0.46081904744354968 0 0.076449183123371733 0.47317017389024352 0 0.094867698081550447 0.48088595445029958 0 0.076449183123371733 0.47317017389024352 0 0.072390866664790665 0.5 0 0.094867698081550447 0.48088595445029958 0 0.10140934024091269 0.5 0 0.072390866664790665 0.5 0 0.072390866664790665 0.5 0 0.050213059405039402 0.48952140430777707 0 0.056799601741266442 0.47864002737115913 0 0.050213059405039402 0.48952140430777707 0 0.056799601741266442 0.47864002737115913 0 0.039846119550708992 0.48509751393944123 0 0.072390866664790665 0.5 0 0.050213059405039402 0.48952140430777707 0 0.043372393088668693 0.5 0 0.039846119550708992 0.48509751393944123 0 0.022460391137727961 0.48647759911998978 0 0.038175432401479623 0.46120182189057141 0 0.056799601741266442 0.47864002737115913 0 0.039846119550708992 0.48509751393944123 0 0.038175432401479623 0.46120182189057141 0 0.050213059405039402 0.48952140430777707 0 0.043372393088668693 0.5 0 0.039846119550708992 0.48509751393944123 0 0.043372393088668693 0.5 0 0.039846119550708992 0.48509751393944123 0 0.028950657829746981 0.4997391174028441 0 0.028950657829746981 0.4997391174028441 0 0.022460391137727961 0.48647759911998978 0 0.022460391137727961 0.48647759911998978 0 0.015655935202729829 0.47279530129319092 0 0.01437902095145943 0.49947552315392951 0 0.039846119550708992 0.48509751393944123 0 0.028950657829746981 0.4997391174028441 0 0.022460391137727961 0.48647759911998978 0 0.022460391137727961 0.48647759911998978 0 0.01437902095145943 0.49947552315392951 0 0.028950657829746981 0.4997391174028441 0 0.022460391137727961 0.48647759911998978 0 0.01437902095145943 0.49947552315392951 0 0.022460391137727961 0.48647759911998978 0 0.023987842402680828 0.46423433360116001 0 0.038175432401479623 0.46120182189057141 0 0.022460391137727961 0.48647759911998978 0 0.038175432401479623 0.46120182189057141 0 0.022460391137727961 0.48647759911998978 0 0.015655935202729829 0.47279530129319092 0 0.023987842402680828 0.46423433360116001 0 0.022460391137727961 0.48647759911998978 0 0.015655935202729829 0.47279530129319092 0 -0.00054723394969197626 0.46676005618269939 0 -0.001052221165061246 0.48536631712071471 0 0.015655935202729829 0.47279530129319092 0 -0.001052221165061246 0.48536631712071471 0 0.015655935202729829 0.47279530129319092 0 0.01437902095145943 0.49947552315392951 0 0.015655935202729829 0.47279530129319092 0 0.01437902095145943 0.49947552315392951 0 0.0098077210910302737 0.43921130403008918 0 0.016716128659398949 0.45064330744464443 0 0.01777632211606887 0.42849131359609788 0 -0.0052827057786810254 0.43069219639650802 0 0.0098077210910302737 0.43921130403008918 0 0.0051866147120248028 0.45174374884484919 0 0.0098077210910302737 0.43921130403008918 0 0.0051866147120248028 0.45174374884484919 0 0.016716128659398949 0.45064330744464443 0 0.015655935202729829 0.47279530129319092 0 0.0051866147120248028 0.45174374884484919 0 0.015655935202729829 0.47279530129319092 0 0.0051866147120248028 0.45174374884484919 0 0.016716128659398949 0.45064330744464443 0 -0.00054723394969197626 0.46676005618269939 0 0.015655935202729829 0.47279530129319092 0 0.0051866147120248028 0.45174374884484919 0 0.015655935202729829 0.47279530129319092 0 0.016716128659398949 0.45064330744464443 0 0.015655935202729829 0.47279530129319092 0 0.023987842402680828 0.46423433360116001 0 0.016716128659398949 0.45064330744464443 0 0.023987842402680828 0.46423433360116001 0 0.028161155852698981 0.45247874812862787 0 0.016716128659398949 0.45064330744464443 0 0.023987842402680828 0.46423433360116001 0 0.028161155852698981 0.45247874812862787 0 0.038175432401479623 0.46120182189057141 0 0.016716128659398949 0.45064330744464443 0 0.01777632211606887 0.42849131359609788 0 0.028161155852698981 0.45247874812862787 0 0.02587186285020638 0.44009083425668749 0 0.036054512949729139 0.44622344345007608 0 0.028161155852698981 0.45247874812862787 0 0.016716128659398949 0.45064330744464443 0 0.02587186285020638 0.44009083425668749 0 0.016716128659398949 0.45064330744464443 0 0.02587186285020638 0.44009083425668749 0 0.01777632211606887 0.42849131359609788 0 0.036054512949729139 0.44622344345007608 0 0.038175432401479623 0.46120182189057141 0 0.048599498976414503 0.44193922754055781 0 0.02587186285020638 0.44009083425668749 0 0.036054512949729139 0.44622344345007608 0 0.037466339947393117 0.43363885587584933 0 0.036054512949729139 0.44622344345007608 0 0.048599498976414503 0.44193922754055781 0 0.037466339947393117 0.43363885587584933 0 0.028161155852698981 0.45247874812862787 0 0.036054512949729139 0.44622344345007608 0 0.038175432401479623 0.46120182189057141 0 0.064097324723420529 0.4648456269188308 0 0.056799601741266442 0.47864002737115913 0 0.038175432401479623 0.46120182189057141 0 0.064097324723420529 0.4648456269188308 0 0.038175432401479623 0.46120182189057141 0 0.061686043415868849 0.44922877092356689 0 0.038175432401479623 0.46120182189057141 0 0.048599498976414503 0.44193922754055781 0 0.061686043415868849 0.44922877092356689 0 0.048599498976414503 0.44193922754055781 0 0.061686043415868849 0.44922877092356689 0 0.061053491803744683 0.43139368598685601 0 0.061053491803744683 0.43139368598685601 0 0.060080189917441573 0.41651103129495443 0 0.046125333464130253 0.42792226756130047 0 0.048599498976414503 0.44193922754055781 0 0.061053491803744683 0.43139368598685601 0 0.046125333464130253 0.42792226756130047 0 0.060080189917441573 0.41651103129495443 0 0.046125333464130253 0.42792226756130047 0 0.052234607732921642 0.39950221197148972 0 0.046125333464130253 0.42792226756130047 0 0.052234607732921642 0.39950221197148972 0 0.060080189917441573 0.41651103129495443 0 0.052234607732921642 0.39950221197148972 0 0.068627421694469004 0.4035904612393284 0 0.038112366655082802 0.40929901971107568 0 0.037466339947393117 0.43363885587584933 0 0.038112366655082802 0.40929901971107568 0 0.046125333464130253 0.42792226756130047 0 0.052234607732921642 0.39950221197148972 0 0.038112366655082802 0.40929901971107568 0 0.037466339947393117 0.43363885587584933 0 0.029245612433218129 0.42375002047639138 0 0.038112366655082802 0.40929901971107568 0 0.046125333464130253 0.42792226756130047 0 0.037466339947393117 0.43363885587584933 0 0.048599498976414503 0.44193922754055781 0 0.046125333464130253 0.42792226756130047 0 0.037466339947393117 0.43363885587584933 0 0.037466339947393117 0.43363885587584933 0 0.027590034336721619 0.43149275605125648 0 0.029245612433218129 0.42375002047639138 0 0.02587186285020638 0.44009083425668749 0 0.027590034336721619 0.43149275605125648 0 0.01777632211606887 0.42849131359609788 0 0.02587186285020638 0.44009083425668749 0 0.037466339947393117 0.43363885587584933 0 0.027590034336721619 0.43149275605125648 0 0.027590034336721619 0.43149275605125648 0 0.01777632211606887 0.42849131359609788 0 0.029245612433218129 0.42375002047639138 0 0.01777632211606887 0.42849131359609788 0 0.029245612433218129 0.42375002047639138 0 0.023472495749296021 0.41434418295722741 0 0.038112366655082802 0.40929901971107568 0 0.029245612433218129 0.42375002047639138 0 0.023472495749296021 0.41434418295722741 0 0.038112366655082802 0.40929901971107568 0 0.023472495749296021 0.41434418295722741 0 0.027451596253749828 0.3965636295443915 0 0.023472495749296021 0.41434418295722741 0 0.01093466137855514 0.4133358899672479 0 0.01656852306443108 0.40561218522774878 0 0.01777632211606887 0.42849131359609788 0 0.023472495749296021 0.41434418295722741 0 0.0091104191888871262 0.42254537594120578 0 0.023472495749296021 0.41434418295722741 0 0.0091104191888871262 0.42254537594120578 0 0.023472495749296021 0.41434418295722741 0 0.01093466137855514 0.4133358899672479 0 0.0091104191888871262 0.42254537594120578 0 0.01093466137855514 0.4133358899672479 0 0.006082570973155732 0.40748354646665719 0 0.01656852306443108 0.40561218522774878 0 -0.00056070208299427145 0.41669415924340047 0 0.01093466137855514 0.4133358899672479 0 0.006082570973155732 0.40748354646665719 0 -0.00056070208299427145 0.41669415924340047 0 0.01093466137855514 0.4133358899672479 0 0.0091104191888871262 0.42254537594120578 0 -0.0052827057786810254 0.43069219639650802 0 0.0092765291324470277 0.43070465329062402 0 0.0091104191888871262 0.42254537594120578 0 -0.0052827057786810254 0.43069219639650802 0 -0.00056070208299427145 0.41669415924340047 0 0.0091104191888871262 0.42254537594120578 0 -0.0052827057786810254 0.43069219639650802 0 0.0091104191888871262 0.42254537594120578 0 -0.0052827057786810254 0.43069219639650802 0 0.0098077210910302737 0.43921130403008918 0 0.0092765291324470277 0.43070465329062402 0 0.0098077210910302737 0.43921130403008918 0 0.01777632211606887 0.42849131359609788 0 0.0092765291324470277 0.43070465329062402 0 0.01777632211606887 0.42849131359609788 0 0.0092765291324470277 0.43070465329062402 0 0.0091104191888871262 0.42254537594120578 0 -0.0012592731398407789 0.38926924851584688 0 0.01445674872800521 0.38347817486037439 0 0.012467467502573999 0.39552460631214681 0 -0.0012592731398407789 0.38926924851584688 0 0.01445674872800521 0.38347817486037439 0 0.0022016208263191542 0.37487773095411731 0 0.01445674872800521 0.38347817486037439 0 0.0022016208263191542 0.37487773095411731 0 0.014832313671166081 0.37034218927776141 0 -0.0012592731398407789 0.38926924851584688 0 0.001751226425469755 0.39891512208642832 0 0.012467467502573999 0.39552460631214681 0 -0.0076380311104497509 0.40288532747675682 0 0.006082570973155732 0.40748354646665719 0 0.001751226425469755 0.39891512208642832 0 0.006082570973155732 0.40748354646665719 0 0.001751226425469755 0.39891512208642832 0 0.012467467502573999 0.39552460631214681 0 0.006082570973155732 0.40748354646665719 0 0.012467467502573999 0.39552460631214681 0 0.01656852306443108 0.40561218522774878 0 0.023472495749296021 0.41434418295722741 0 0.01656852306443108 0.40561218522774878 0 0.027451596253749828 0.3965636295443915 0 0.01445674872800521 0.38347817486037439 0 0.012467467502573999 0.39552460631214681 0 0.027451596253749828 0.3965636295443915 0 0.012467467502573999 0.39552460631214681 0 0.01656852306443108 0.40561218522774878 0 0.027451596253749828 0.3965636295443915 0 0.027451596253749828 0.3965636295443915 0 0.02628693341788237 0.37758628847012388 0 0.038758393362772467 0.38495918354630221 0 0.01445674872800521 0.38347817486037439 0 0.027451596253749828 0.3965636295443915 0 0.02628693341788237 0.37758628847012388 0 0.01445674872800521 0.38347817486037439 0 0.02628693341788237 0.37758628847012388 0 0.014832313671166081 0.37034218927776141 0 0.038112366655082802 0.40929901971107568 0 0.038758393362772467 0.38495918354630221 0 0.052234607732921642 0.39950221197148972 0 0.038112366655082802 0.40929901971107568 0 0.038758393362772467 0.38495918354630221 0 0.038112366655082802 0.40929901971107568 0 0.027451596253749828 0.3965636295443915 0 0.038758393362772467 0.38495918354630221 0 0.052234607732921642 0.39950221197148972 0 0.066059736325524337 0.38728617407708121 0 0.068627421694469004 0.4035904612393284 0 0.038758393362772467 0.38495918354630221 0 0.052234607732921642 0.39950221197148972 0 0.058343882001713067 0.37108215638167868 0 0.052234607732921642 0.39950221197148972 0 0.058343882001713067 0.37108215638167868 0 0.052234607732921642 0.39950221197148972 0 0.066059736325524337 0.38728617407708121 0 0.058343882001713067 0.37108215638167868 0 0.066059736325524337 0.38728617407708121 0 0.078352576029653689 0.39168622917414292 0 0.078660311933750643 0.37119987576667851 0 0.066059736325524337 0.38728617407708121 0 0.078660311933750643 0.37119987576667851 0 0.058343882001713067 0.37108215638167868 0 0.092384725440017162 0.38638943832234129 0 0.078352576029653689 0.39168622917414292 0 0.078660311933750643 0.37119987576667851 0 0.092384725440017162 0.38638943832234129 0 0.086017530883827853 0.40448706080732522 0 0.078352576029653689 0.39168622917414292 0 0.066059736325524337 0.38728617407708121 0 0.078352576029653689 0.39168622917414292 0 0.068627421694469004 0.4035904612393284 0 0.086017530883827853 0.40448706080732522 0 0.078352576029653689 0.39168622917414292 0 0.068627421694469004 0.4035904612393284 0 0.086017530883827853 0.40448706080732522 0 0.068627421694469004 0.4035904612393284 0 0.074379081651587756 0.41877698418077042 0 0.060080189917441573 0.41651103129495443 0 0.068627421694469004 0.4035904612393284 0 0.074379081651587756 0.41877698418077042 0 0.061053491803744683 0.43139368598685601 0 0.074379081651587756 0.41877698418077042 0 0.078385588630658892 0.43453041977814583 0 0.061053491803744683 0.43139368598685601 0 0.060080189917441573 0.41651103129495443 0 0.074379081651587756 0.41877698418077042 0 0.074379081651587756 0.41877698418077042 0 0.078385588630658892 0.43453041977814583 0 0.095180316321774899 0.41953215873143002 0 0.078385588630658892 0.43453041977814583 0 0.095180316321774899 0.41953215873143002 0 0.099073729424092261 0.43416708990787062 0 0.086017530883827853 0.40448706080732522 0 0.074379081651587756 0.41877698418077042 0 0.095180316321774899 0.41953215873143002 0 0.086017530883827853 0.40448706080732522 0 0.095180316321774899 0.41953215873143002 0 0.10463529938414599 0.4028446697191479 0 0.095180316321774899 0.41953215873143002 0 0.1127063874622533 0.41324842338834977 0 0.10463529938414599 0.4028446697191479 0 0.095180316321774899 0.41953215873143002 0 0.1139301498233308 0.42702554980275631 0 0.1127063874622533 0.41324842338834977 0 0.095180316321774899 0.41953215873143002 0 0.099073729424092261 0.43416708990787062 0 0.1139301498233308 0.42702554980275631 0 0.111174885940482 0.44787847442397949 0 0.099073729424092261 0.43416708990787062 0 0.1139301498233308 0.42702554980275631 0 0.111174885940482 0.44787847442397949 0 0.1139301498233308 0.42702554980275631 0 0.12581458238117599 0.43558451542114701 0 0.1139301498233308 0.42702554980275631 0 0.12581458238117599 0.43558451542114701 0 0.1347633494099347 0.42456093513989779 0 0.1127063874622533 0.41324842338834977 0 0.12084623516827479 0.4028724230229937 0 0.10463529938414599 0.4028446697191479 0 0.1139301498233308 0.42702554980275631 0 0.1127063874622533 0.41324842338834977 0 0.12693079159237619 0.41356755043673088 0 0.1127063874622533 0.41324842338834977 0 0.12084623516827479 0.4028724230229937 0 0.12693079159237619 0.41356755043673088 0 0.12084623516827479 0.4028724230229937 0 0.1084401194737083 0.38247531005546848 0 0.10463529938414599 0.4028446697191479 0 0.12084623516827479 0.4028724230229937 0 0.1084401194737083 0.38247531005546848 0 0.12760868922718199 0.39497300920620049 0 0.12084623516827479 0.4028724230229937 0 0.1084401194737083 0.38247531005546848 0 0.1084401194737083 0.38247531005546848 0 0.12881436557845349 0.38480192854135092 0 0.12760868922718199 0.39497300920620049 0 0.1084401194737083 0.38247531005546848 0 0.1205101049768115 0.37459865494383021 0 0.12881436557845349 0.38480192854135092 0 0.092384725440017162 0.38638943832234129 0 0.1084401194737083 0.38247531005546848 0 0.098202514935016902 0.36564348441128469 0 0.092384725440017162 0.38638943832234129 0 0.1084401194737083 0.38247531005546848 0 0.10463529938414599 0.4028446697191479 0 0.092384725440017162 0.38638943832234129 0 0.086017530883827853 0.40448706080732522 0 0.10463529938414599 0.4028446697191479 0 0.1084401194737083 0.38247531005546848 0 0.10463529938414599 0.4028446697191479 0 0.10447805614653929 0.35313071325368428 0 0.098202514935016902 0.36564348441128469 0 0.087964910396324231 0.34881165876710168 0 0.10447805614653929 0.35313071325368428 0 0.087964910396324231 0.34881165876710168 0 0.10447805614653929 0.35313071325368428 0 0.099519430049570118 0.33467381241480909 0 0.087964910396324231 0.34881165876710168 0 0.10447805614653929 0.35313071325368428 0 0.098202514935016902 0.36564348441128469 0 0.1130670362201513 0.35770480077417188 0 0.1084401194737083 0.38247531005546848 0 0.098202514935016902 0.36564348441128469 0 0.1084401194737083 0.38247531005546848 0 0.098202514935016902 0.36564348441128469 0 0.1130670362201513 0.35770480077417188 0 0.1205101049768115 0.37459865494383021 0 0.1130670362201513 0.35770480077417188 0 0.12763192434187659 0.36588202031585071 0 0.1084401194737083 0.38247531005546848 0 0.1205101049768115 0.37459865494383021 0 0.1130670362201513 0.35770480077417188 0 0.1084401194737083 0.38247531005546848 0 0.1130670362201513 0.35770480077417188 0 0.10447805614653929 0.35313071325368428 0 0.1130670362201513 0.35770480077417188 0 0.1176939529665936 0.33293429149287512 0 0.1130670362201513 0.35770480077417188 0 0.1176939529665936 0.33293429149287512 0 0.1130670362201513 0.35770480077417188 0 0.1176939529665936 0.33293429149287512 0 0.12974583980004989 0.34021453573736099 0 0.1176939529665936 0.33293429149287512 0 0.10918138164236441 0.31598583178952522 0 0.12232086971303591 0.30816378221157842 0 0.1176939529665936 0.33293429149287512 0 0.12232086971303591 0.30816378221157842 0 0.1176939529665936 0.33293429149287512 0 0.10918138164236441 0.31598583178952522 0 0.099519430049570118 0.33467381241480909 0 0.10918138164236441 0.31598583178952522 0 0.095696383109489427 0.31846146073028669 0 0.099519430049570118 0.33467381241480909 0 0.10447805614653929 0.35313071325368428 0 0.1176939529665936 0.33293429149287512 0 0.099519430049570118 0.33467381241480909 0 0.099519430049570118 0.33467381241480909 0 0.075103790402318751 0.32766646522988879 0 0.087964910396324231 0.34881165876710168 0 0.075103790402318751 0.32766646522988879 0 0.087964910396324231 0.34881165876710168 0 0.095696383109489427 0.31846146073028669 0 0.075103790402318751 0.32766646522988879 0 0.08472897645723311 0.29986555526701048 0 0.095696383109489427 0.31846146073028669 0 0.099519430049570118 0.33467381241480909 0 0.075103790402318751 0.32766646522988879 0 0.075103790402318751 0.32766646522988879 0 0.068415825140639291 0.32422795221409839 0 0.062242670408311558 0.30652127169267701 0 0.075103790402318751 0.32766646522988879 0 0.062242670408311558 0.30652127169267701 0 0.068415825140639291 0.32422795221409839 0 0.064453156270504477 0.34266210079186782 0 0.059502212215842482 0.32670849982642258 0 0.068415825140639291 0.32422795221409839 0 0.064453156270504477 0.34266210079186782 0 0.075103790402318751 0.32766646522988879 0 0.064453156270504477 0.34266210079186782 0 0.087964910396324231 0.34881165876710168 0 0.075103790402318751 0.32766646522988879 0 0.068415825140639291 0.32422795221409839 0 0.064453156270504477 0.34266210079186782 0 0.064453156270504477 0.34266210079186782 0 0.072355565150573523 0.35843894792683129 0 0.058343882001713067 0.37108215638167868 0 0.064453156270504477 0.34266210079186782 0 0.087964910396324231 0.34881165876710168 0 0.064453156270504477 0.34266210079186782 0 0.072355565150573523 0.35843894792683129 0 0.087964910396324231 0.34881165876710168 0 0.098202514935016902 0.36564348441128469 0 0.087964910396324231 0.34881165876710168 0 0.098202514935016902 0.36564348441128469 0 0.087964910396324231 0.34881165876710168 0 0.078660311933750643 0.37119987576667851 0 0.072355565150573523 0.35843894792683129 0 0.087964910396324231 0.34881165876710168 0 0.078660311933750643 0.37119987576667851 0 0.092384725440017162 0.38638943832234129 0 0.098202514935016902 0.36564348441128469 0 0.078660311933750643 0.37119987576667851 0 0.072355565150573523 0.35843894792683129 0 0.078660311933750643 0.37119987576667851 0 0.058343882001713067 0.37108215638167868 0 0.064453156270504477 0.34266210079186782 0 0.058343882001713067 0.37108215638167868 0 0.064453156270504477 0.34266210079186782 0 0.039404420070462153 0.3606193473815289 0 0.040050446778153698 0.33627951121675559 0 0.064453156270504477 0.34266210079186782 0 0.058343882001713067 0.37108215638167868 0 0.039404420070462153 0.3606193473815289 0 0.039404420070462153 0.3606193473815289 0 0.040050446778153698 0.33627951121675559 0 0.039404420070462153 0.3606193473815289 0 0.026415305199116581 0.34039433529568058 0 0.040050446778153698 0.33627951121675559 0 0.038758393362772467 0.38495918354630221 0 0.039404420070462153 0.3606193473815289 0 0.038758393362772467 0.38495918354630221 0 0.058343882001713067 0.37108215638167868 0 0.039404420070462153 0.3606193473815289 0 0.02628693341788237 0.37758628847012388 0 0.038758393362772467 0.38495918354630221 0 0.039404420070462153 0.3606193473815289 0 0.02628693341788237 0.37758628847012388 0 0.019974427477922441 0.35582013569409582 0 0.02628693341788237 0.37758628847012388 0 0.039404420070462153 0.3606193473815289 0 0.019974427477922441 0.35582013569409582 0 0.02628693341788237 0.37758628847012388 0 0.019974427477922441 0.35582013569409582 0 0.014832313671166081 0.37034218927776141 0 0.039404420070462153 0.3606193473815289 0 0.019974427477922441 0.35582013569409582 0 0.026415305199116581 0.34039433529568058 0 0.019974427477922441 0.35582013569409582 0 0.0136619215379622 0.33405398291806759 0 -0.0018581631687612751 0.3552044043817652 0 0.0136619215379622 0.33405398291806759 0 -0.0018581631687612751 0.3552044043817652 0 0.019974427477922441 0.35582013569409582 0 0.0136619215379622 0.33405398291806759 0 -0.0018581631687612751 0.3552044043817652 0 0.019974427477922441 0.35582013569409582 0 0.014832313671166081 0.37034218927776141 0 -0.0018581631687612751 0.3552044043817652 0 0.0022016208263191542 0.37487773095411731 0 0.014832313671166081 0.37034218927776141 0 0.0079414334181218387 0.31432916688554641 0 0.01219435951576551 0.32899368206650981 0 0.016540927957094959 0.33013053789105767 0 -0.01046290093808098 0.32306761904393072 0 0.0011833167759787489 0.32212892083165617 0 0.01219435951576551 0.32899368206650981 0 -0.01046290093808098 0.32306761904393072 0 0.01219435951576551 0.32899368206650981 0 0.0079414334181218387 0.31432916688554641 0 0.01219435951576551 0.32899368206650981 0 -0.00031144100700618749 0.31417227031794248 0 0.0079414334181218387 0.31432916688554641 0 0.0011833167759787489 0.32212892083165617 0 0.0079414334181218387 0.31432916688554641 0 0.0011833167759787489 0.32212892083165617 0 0.01219435951576551 0.32899368206650981 0 -0.0094592222341694544 0.32477240676708169 0 0.002312440597944485 0.33608895260951682 0 0.01219435951576551 0.32899368206650981 0 -0.0018581631687612751 0.3552044043817652 0 0.002312440597944485 0.33608895260951682 0 0.0136619215379622 0.33405398291806759 0 0.002312440597944485 0.33608895260951682 0 0.0136619215379622 0.33405398291806759 0 0.01219435951576551 0.32899368206650981 0 0.0136619215379622 0.33405398291806759 0 0.016540927957094959 0.33013053789105767 0 0.0136619215379622 0.33405398291806759 0 0.01219435951576551 0.32899368206650981 0 0.01219435951576551 0.32899368206650981 0 0.016540927957094959 0.33013053789105767 0 0.0136619215379622 0.33405398291806759 0 0.01219435951576551 0.32899368206650981 0 0.016540927957094959 0.33013053789105767 0 0.016540927957094959 0.33013053789105767 0 0.026415305199116581 0.34039433529568058 0 0.040050446778153698 0.33627951121675559 0 0.016540927957094959 0.33013053789105767 0 0.040050446778153698 0.33627951121675559 0 0.019974427477922441 0.35582013569409582 0 0.0136619215379622 0.33405398291806759 0 0.026415305199116581 0.34039433529568058 0 0.0136619215379622 0.33405398291806759 0 0.016540927957094959 0.33013053789105767 0 0.026415305199116581 0.34039433529568058 0 0.0079414334181218387 0.31432916688554641 0 0.016540927957094959 0.33013053789105767 0 0.032961239185697107 0.30775330802326051 0 0.016540927957094959 0.33013053789105767 0 0.032961239185697107 0.30775330802326051 0 0.016540927957094959 0.33013053789105767 0 0.040308757239835742 0.32654735271278579 0 0.032961239185697107 0.30775330802326051 0 0.040308757239835742 0.32654735271278579 0 0.043881177370588248 0.31517752164340918 0 0.032961239185697107 0.30775330802326051 0 0.040308757239835742 0.32654735271278579 0 0.043881177370588248 0.31517752164340918 0 0.053865809022049412 0.31937115896837892 0 0.016540927957094959 0.33013053789105767 0 0.040308757239835742 0.32654735271278579 0 0.040050446778153698 0.33627951121675559 0 0.040308757239835742 0.32654735271278579 0 0.040050446778153698 0.33627951121675559 0 0.040308757239835742 0.32654735271278579 0 0.040050446778153698 0.33627951121675559 0 0.051636076305277188 0.33031372470324211 0 0.064453156270504477 0.34266210079186782 0 0.051636076305277188 0.33031372470324211 0 0.059502212215842482 0.32670849982642258 0 0.064453156270504477 0.34266210079186782 0 0.040050446778153698 0.33627951121675559 0 0.064453156270504477 0.34266210079186782 0 0.040050446778153698 0.33627951121675559 0 0.051636076305277188 0.33031372470324211 0 0.068415825140639291 0.32422795221409839 0 0.053865809022049412 0.31937115896837892 0 0.062242670408311558 0.30652127169267701 0 0.043881177370588248 0.31517752164340918 0 0.053865809022049412 0.31937115896837892 0 0.048388904034770731 0.3070382668692116 0 0.040308757239835742 0.32654735271278579 0 0.051636076305277188 0.33031372470324211 0 0.053865809022049412 0.31937115896837892 0 0.068415825140639291 0.32422795221409839 0 0.053865809022049412 0.31937115896837892 0 0.059502212215842482 0.32670849982642258 0 0.051636076305277188 0.33031372470324211 0 0.053865809022049412 0.31937115896837892 0 0.059502212215842482 0.32670849982642258 0 0.062242670408311558 0.30652127169267701 0 0.048388904034770731 0.3070382668692116 0 0.049381550414302859 0.28537607815546612 0 0.053865809022049412 0.31937115896837892 0 0.062242670408311558 0.30652127169267701 0 0.048388904034770731 0.3070382668692116 0 0.062242670408311558 0.30652127169267701 0 0.049381550414302859 0.28537607815546612 0 0.062242670408311558 0.30652127169267701 0 0.049381550414302859 0.28537607815546612 0 0.06994167638231738 0.28717607458928313 0 0.049381550414302859 0.28537607815546612 0 0.032961239185697107 0.30775330802326051 0 0.049381550414302859 0.28537607815546612 0 0.032961239185697107 0.30775330802326051 0 0.028839847800519781 0.28995615011682241 0 0.049381550414302859 0.28537607815546612 0 0.028839847800519781 0.28995615011682241 0 0.02805818628156017 0.28005270364183421 0 0.048388904034770731 0.3070382668692116 0 0.049381550414302859 0.28537607815546612 0 0.032961239185697107 0.30775330802326051 0 0.043881177370588248 0.31517752164340918 0 0.048388904034770731 0.3070382668692116 0 0.032961239185697107 0.30775330802326051 0 0.0079414334181218387 0.31432916688554641 0 0.032961239185697107 0.30775330802326051 0 0.01664302798518371 0.2958862000612118 0 0.032961239185697107 0.30775330802326051 0 0.028839847800519781 0.28995615011682241 0 0.01664302798518371 0.2958862000612118 0 0.028839847800519781 0.28995615011682241 0 0.0164440827235392 0.28118111050916439 0 0.02805818628156017 0.28005270364183421 0 0.028839847800519781 0.28995615011682241 0 0.01664302798518371 0.2958862000612118 0 0.0164440827235392 0.28118111050916439 0 0.01664302798518371 0.2958862000612118 0 0.0036218862169032778 0.28727876264082469 0 0.003688507320478407 0.29966465170458301 0 0.01664302798518371 0.2958862000612118 0 0.0036218862169032778 0.28727876264082469 0 0.0164440827235392 0.28118111050916439 0 0.0079414334181218387 0.31432916688554641 0 0.01664302798518371 0.2958862000612118 0 0.003688507320478407 0.29966465170458301 0 -0.00031144100700618749 0.31417227031794248 0 0.0079414334181218387 0.31432916688554641 0 0.003688507320478407 0.29966465170458301 0 0.0079414334181218387 0.31432916688554641 0 0.003688507320478407 0.29966465170458301 0 0.01385583597743691 0.26000412871736622 0 0.0053505978239543383 0.2623879654846023 0 0.014372815305107711 0.26780257104636063 0 0.01385583597743691 0.26000412871736622 0 0.0086394546720443104 0.2545630395502107 0 0.0053505978239543383 0.2623879654846023 0 0.01385583597743691 0.26000412871736622 0 0.0086394546720443104 0.2545630395502107 0 0.01700132615621144 0.253078387367763 0 0.0070739759662896444 0.24486698688876851 0 0.0086394546720443104 0.2545630395502107 0 0.01700132615621144 0.253078387367763 0 -0.001929197643986852 0.25249673890194402 0 0.0086394546720443104 0.2545630395502107 0 0.0053505978239543383 0.2623879654846023 0 -0.001929197643986852 0.25249673890194402 0 0.0070739759662896444 0.24486698688876851 0 0.0086394546720443104 0.2545630395502107 0 -0.006782571146791443 0.26609624414014699 0 0.0053505978239543383 0.2623879654846023 0 0.0039862574867759772 0.27390840501826019 0 0.0036218862169032778 0.28727876264082469 0 0.0039862574867759772 0.27390840501826019 0 0.0164440827235392 0.28118111050916439 0 0.0039862574867759772 0.27390840501826019 0 0.014372815305107711 0.26780257104636063 0 0.0164440827235392 0.28118111050916439 0 0.0053505978239543383 0.2623879654846023 0 0.0039862574867759772 0.27390840501826019 0 0.014372815305107711 0.26780257104636063 0 0.014372815305107711 0.26780257104636063 0 0.022731467198907611 0.2723254786871766 0 0.023914985929866739 0.26218868013789431 0 0.022731467198907611 0.2723254786871766 0 0.0164440827235392 0.28118111050916439 0 0.02805818628156017 0.28005270364183421 0 0.014372815305107711 0.26780257104636063 0 0.022731467198907611 0.2723254786871766 0 0.0164440827235392 0.28118111050916439 0 0.022731467198907611 0.2723254786871766 0 0.02805818628156017 0.28005270364183421 0 0.031047987313156 0.27089557472399611 0 0.022731467198907611 0.2723254786871766 0 0.031047987313156 0.27089557472399611 0 0.023914985929866739 0.26218868013789431 0 0.031047987313156 0.27089557472399611 0 0.023914985929866739 0.26218868013789431 0 0.035669420315747637 0.26283172394086202 0 0.023914985929866739 0.26218868013789431 0 0.031831492748056169 0.25652171973917132 0 0.035669420315747637 0.26283172394086202 0 0.01385583597743691 0.26000412871736622 0 0.023914985929866739 0.26218868013789431 0 0.01700132615621144 0.253078387367763 0 0.01385583597743691 0.26000412871736622 0 0.014372815305107711 0.26780257104636063 0 0.023914985929866739 0.26218868013789431 0 0.023914985929866739 0.26218868013789431 0 0.01700132615621144 0.253078387367763 0 0.025117681763208961 0.25312125345048753 0 0.019057379342124099 0.24446671892160871 0 0.01700132615621144 0.253078387367763 0 0.025117681763208961 0.25312125345048753 0 0.028416373495514648 0.24618422452601171 0 0.025117681763208961 0.25312125345048753 0 0.031831492748056169 0.25652171973917132 0 0.023914985929866739 0.26218868013789431 0 0.025117681763208961 0.25312125345048753 0 0.031831492748056169 0.25652171973917132 0 0.046123344565263173 0.24459086981639511 0 0.035669420315747637 0.26283172394086202 0 0.057356196092491603 0.25310031756978602 0 0.028416373495514648 0.24618422452601171 0 0.0361164618009715 0.24972346849328561 0 0.031831492748056169 0.25652171973917132 0 0.046123344565263173 0.24459086981639511 0 0.0361164618009715 0.24972346849328561 0 0.035669420315747637 0.26283172394086202 0 0.0361164618009715 0.24972346849328561 0 0.031831492748056169 0.25652171973917132 0 0.035669420315747637 0.26283172394086202 0 0.046123344565263173 0.24459086981639511 0 0.035669420315747637 0.26283172394086202 0 0.031831492748056169 0.25652171973917132 0 0.035669420315747637 0.26283172394086202 0 0.049381550414302859 0.28537607815546612 0 0.02805818628156017 0.28005270364183421 0 0.031047987313156 0.27089557472399611 0 0.049381550414302859 0.28537607815546612 0 0.031047987313156 0.27089557472399611 0 0.035669420315747637 0.26283172394086202 0 0.049381550414302859 0.28537607815546612 0 0.035669420315747637 0.26283172394086202 0 0.031047987313156 0.27089557472399611 0 0.035669420315747637 0.26283172394086202 0 0.049381550414302859 0.28537607815546612 0 0.061844128078521993 0.26839235834314829 0 0.049381550414302859 0.28537607815546612 0 0.061844128078521993 0.26839235834314829 0 0.06994167638231738 0.28717607458928313 0 0.049381550414302859 0.28537607815546612 0 0.035669420315747637 0.26283172394086202 0 0.061844128078521993 0.26839235834314829 0 0.035669420315747637 0.26283172394086202 0 0.061844128078521993 0.26839235834314829 0 0.057356196092491603 0.25310031756978602 0 0.061844128078521993 0.26839235834314829 0 0.057356196092491603 0.25310031756978602 0 0.074306705742743784 0.25140863853083262 0 0.061844128078521993 0.26839235834314829 0 0.074306705742743784 0.25140863853083262 0 0.091511056553215883 0.27572510948811457 0 0.061844128078521993 0.26839235834314829 0 0.074306705742743784 0.25140863853083262 0 0.074306705742743784 0.25140863853083262 0 0.091511056553215883 0.27572510948811457 0 0.093832982325318254 0.26016098392317599 0 0.074306705742743784 0.25140863853083262 0 0.091511056553215883 0.27572510948811457 0 0.089170556236420659 0.24744925712057469 0 0.074306705742743784 0.25140863853083262 0 0.093832982325318254 0.26016098392317599 0 0.061844128078521993 0.26839235834314829 0 0.091511056553215883 0.27572510948811457 0 0.06994167638231738 0.28717607458928313 0 0.075103790402318751 0.32766646522988879 0 0.062242670408311558 0.30652127169267701 0 0.08472897645723311 0.29986555526701048 0 0.062242670408311558 0.30652127169267701 0 0.06994167638231738 0.28717607458928313 0 0.08472897645723311 0.29986555526701048 0 0.091511056553215883 0.27572510948811457 0 0.06994167638231738 0.28717607458928313 0 0.08472897645723311 0.29986555526701048 0 0.091511056553215883 0.27572510948811457 0 0.1087154073636884 0.30004158044539642 0 0.091511056553215883 0.27572510948811457 0 0.08472897645723311 0.29986555526701048 0 0.1087154073636884 0.30004158044539642 0 0.091511056553215883 0.27572510948811457 0 0.10727958178184439 0.28244123756662609 0 0.1087154073636884 0.30004158044539642 0 0.095696383109489427 0.31846146073028669 0 0.08472897645723311 0.29986555526701048 0 0.1087154073636884 0.30004158044539642 0 0.10918138164236441 0.31598583178952522 0 0.095696383109489427 0.31846146073028669 0 0.1087154073636884 0.30004158044539642 0 0.1087154073636884 0.30004158044539642 0 0.12232086971303591 0.30816378221157842 0 0.11671361279439491 0.29056654206792282 0 0.10918138164236441 0.31598583178952522 0 0.1087154073636884 0.30004158044539642 0 0.12232086971303591 0.30816378221157842 0 0.12232086971303591 0.30816378221157842 0 0.11671361279439491 0.29056654206792282 0 0.12694778645947821 0.28339327293028171 0 0.10727958178184439 0.28244123756662609 0 0.1087154073636884 0.30004158044539642 0 0.11671361279439491 0.29056654206792282 0 0.12232086971303591 0.30816378221157842 0 0.12694778645947821 0.28339327293028171 0 0.10727958178184439 0.28244123756662609 0 0.11671361279439491 0.29056654206792282 0 0.1177216667190614 0.27853458490720429 0 0.11671361279439491 0.29056654206792282 0 0.1177216667190614 0.27853458490720429 0 0.12694778645947821 0.28339327293028171 0 0.1177216667190614 0.27853458490720429 0 0.1232546068507976 0.26896233434811567 0 0.12694778645947821 0.28339327293028171 0 0.10727958178184439 0.28244123756662609 0 0.1177216667190614 0.27853458490720429 0 0.10980412489464229 0.27391859576201588 0 0.1177216667190614 0.27853458490720429 0 0.10980412489464229 0.27391859576201588 0 0.11623237128677 0.26922317492575509 0 0.10980412489464229 0.27391859576201588 0 0.11623237128677 0.26922317492575509 0 0.10689194517933839 0.26630617017158459 0 0.1177216667190614 0.27853458490720429 0 0.11623237128677 0.26922317492575509 0 0.1232546068507976 0.26896233434811567 0 0.1111034096258936 0.24621298264265809 0 0.11623237128677 0.26922317492575509 0 0.1232137546478884 0.25477962304982538 0 0.1111034096258936 0.24621298264265809 0 0.11623237128677 0.26922317492575509 0 0.10689194517933839 0.26630617017158459 0 0.11623237128677 0.26922317492575509 0 0.1232546068507976 0.26896233434811567 0 0.1232137546478884 0.25477962304982538 0 0.1111034096258936 0.24621298264265809 0 0.11623237128677 0.26922317492575509 0 0.1003621976042226 0.24679151286957099 0 0.093832982325318254 0.26016098392317599 0 0.10689194517933839 0.26630617017158459 0 0.1111034096258936 0.24621298264265809 0 0.1003621976042226 0.24679151286957099 0 0.10689194517933839 0.26630617017158459 0 0.1003621976042226 0.24679151286957099 0 0.10689194517933839 0.26630617017158459 0 0.089170556236420659 0.24744925712057469 0 0.1003621976042226 0.24679151286957099 0 0.093832982325318254 0.26016098392317599 0 0.091511056553215883 0.27572510948811457 0 0.10727958178184439 0.28244123756662609 0 0.1008777706090644 0.27242170925991632 0 0.091511056553215883 0.27572510948811457 0 0.093832982325318254 0.26016098392317599 0 0.1008777706090644 0.27242170925991632 0 0.093832982325318254 0.26016098392317599 0 0.1008777706090644 0.27242170925991632 0 0.10689194517933839 0.26630617017158459 0 0.10727958178184439 0.28244123756662609 0 0.10980412489464229 0.27391859576201588 0 0.1008777706090644 0.27242170925991632 0 0.10980412489464229 0.27391859576201588 0 0.1008777706090644 0.27242170925991632 0 0.10689194517933839 0.26630617017158459 0 0.1410576855902782 0.26298165120216699 0 0.16450261275174641 0.27375819776182669 0 0.1410576855902782 0.26298165120216699 0 0.1415246231243025 0.28371217799897908 0 0.15649196408171481 0.28823115538835309 0 0.15510015736462759 0.26032775948284231 0 0.1410576855902782 0.26298165120216699 0 0.16450261275174641 0.27375819776182669 0 0.1410576855902782 0.26298165120216699 0 0.15649196408171481 0.28823115538835309 0 0.16450261275174641 0.27375819776182669 0 0.1410576855902782 0.26298165120216699 0 0.15649196408171481 0.28823115538835309 0 0.14863120117614381 0.24864578259806411 0 0.15510015736462759 0.26032775948284231 0 0.1587190639708872 0.25496607513995811 0 0.14863120117614381 0.24864578259806411 0 0.15510015736462759 0.26032775948284231 0 0.1410576855902782 0.26298165120216699 0 0.1410576855902782 0.26298165120216699 0 0.13157470320592329 0.25862276364898551 0 0.14863120117614381 0.24864578259806411 0 0.13162051547302811 0.24754303730689889 0 0.1410576855902782 0.26298165120216699 0 0.13162051547302811 0.24754303730689889 0 0.1410576855902782 0.26298165120216699 0 0.13157470320592329 0.25862276364898551 0 0.13162051547302811 0.24754303730689889 0 0.1410576855902782 0.26298165120216699 0 0.1232137546478884 0.25477962304982538 0 0.13157470320592329 0.25862276364898551 0 0.13162051547302811 0.24754303730689889 0 0.1232137546478884 0.25477962304982538 0 0.13157470320592329 0.25862276364898551 0 0.1232546068507976 0.26896233434811567 0 0.1232137546478884 0.25477962304982538 0 0.13157470320592329 0.25862276364898551 0 0.13157470320592329 0.25862276364898551 0 0.12694778645947821 0.28339327293028171 0 0.1410576855902782 0.26298165120216699 0 0.13157470320592329 0.25862276364898551 0 0.12694778645947821 0.28339327293028171 0 0.1232546068507976 0.26896233434811567 0 0.13157470320592329 0.25862276364898551 0 0.12694778645947821 0.28339327293028171 0 0.1410576855902782 0.26298165120216699 0 0.12694778645947821 0.28339327293028171 0 0.1415246231243025 0.28371217799897908 0 0.12694778645947821 0.28339327293028171 0 0.14160105636573819 0.30024263247511501 0 0.1415246231243025 0.28371217799897908 0 0.12232086971303591 0.30816378221157842 0 0.12694778645947821 0.28339327293028171 0 0.14160105636573819 0.30024263247511501 0 0.12232086971303591 0.30816378221157842 0 0.14160105636573819 0.30024263247511501 0 0.13530190868676431 0.32197135992560272 0 0.14160105636573819 0.30024263247511501 0 0.1554285632369577 0.30382330335007912 0 0.15152291285096539 0.3183527036398533 0 0.14160105636573819 0.30024263247511501 0 0.1554285632369577 0.30382330335007912 0 0.15649196408171481 0.28823115538835309 0 0.14160105636573819 0.30024263247511501 0 0.1415246231243025 0.28371217799897908 0 0.15649196408171481 0.28823115538835309 0 0.15649196408171481 0.28823115538835309 0 0.16952752852246211 0.30439524918130351 0 0.17235800801597889 0.28755947557023059 0 0.15649196408171481 0.28823115538835309 0 0.17235800801597889 0.28755947557023059 0 0.16450261275174641 0.27375819776182669 0 0.1554285632369577 0.30382330335007912 0 0.15649196408171481 0.28823115538835309 0 0.16952752852246211 0.30439524918130351 0 0.1554285632369577 0.30382330335007912 0 0.16952752852246211 0.30439524918130351 0 0.16596553202552719 0.31679345887357052 0 0.16952752852246211 0.30439524918130351 0 0.17235800801597889 0.28755947557023059 0 0.1914357063753582 0.30452563591776971 0 0.16952752852246211 0.30439524918130351 0 0.1914357063753582 0.30452563591776971 0 0.18334611501726189 0.31989526646264532 0 0.17235800801597889 0.28755947557023059 0 0.187947539913215 0.28453474432148529 0 0.1914357063753582 0.30452563591776971 0 0.17235800801597889 0.28755947557023059 0 0.16450261275174641 0.27375819776182669 0 0.187947539913215 0.28453474432148529 0 0.16450261275174641 0.27375819776182669 0 0.187947539913215 0.28453474432148529 0 0.1813390079709182 0.26779091606937511 0 0.16450261275174641 0.27375819776182669 0 0.187947539913215 0.28453474432148529 0 0.1813390079709182 0.26779091606937511 0 0.16450261275174641 0.27375819776182669 0 0.16550301046351809 0.26114223058969499 0 0.14863120117614381 0.24864578259806411 0 0.16564188687925929 0.24974852788923091 0 0.1587190639708872 0.25496607513995811 0 0.16564188687925929 0.24974852788923091 0 0.1587190639708872 0.25496607513995811 0 0.16550301046351809 0.26114223058969499 0 0.15510015736462759 0.26032775948284231 0 0.1587190639708872 0.25496607513995811 0 0.16550301046351809 0.26114223058969499 0 0.15510015736462759 0.26032775948284231 0 0.16450261275174641 0.27375819776182669 0 0.16550301046351809 0.26114223058969499 0 0.16564188687925929 0.24974852788923091 0 0.16550301046351809 0.26114223058969499 0 0.16564188687925929 0.24974852788923091 0 0.16550301046351809 0.26114223058969499 0 0.1809260299556962 0.25073934725425939 0 0.1813390079709182 0.26779091606937511 0 0.1809260299556962 0.25073934725425939 0 0.19621017303213309 0.25173016661928799 0 0.16564188687925929 0.24974852788923091 0 0.1809260299556962 0.25073934725425939 0 0.1813390079709182 0.26779091606937511 0 0.16550301046351809 0.26114223058969499 0 0.1809260299556962 0.25073934725425939 0 0.1813390079709182 0.26779091606937511 0 0.19621017303213309 0.25173016661928799 0 0.19842481760027669 0.26899818385252772 0 0.1809260299556962 0.25073934725425939 0 0.19621017303213309 0.25173016661928799 0 0.19621017303213309 0.25173016661928799 0 0.19842481760027669 0.26899818385252772 0 0.2073774026308422 0.25580268532727751 0 0.1813390079709182 0.26779091606937511 0 0.19842481760027669 0.26899818385252772 0 0.187947539913215 0.28453474432148529 0 0.19842481760027669 0.26899818385252772 0 0.21583111001290969 0.26932992799579109 0 0.2113924670746837 0.29531129088114388 0 0.19842481760027669 0.26899818385252772 0 0.21583111001290969 0.26932992799579109 0 0.2073774026308422 0.25580268532727751 0 0.21583111001290969 0.26932992799579109 0 0.2073774026308422 0.25580268532727751 0 0.21925853352151431 0.25159648248408772 0 0.21583111001290969 0.26932992799579109 0 0.22787890001526401 0.26316977676526998 0 0.21925853352151431 0.25159648248408772 0 0.22787890001526401 0.26316977676526998 0 0.21925853352151431 0.25159648248408772 0 0.2371930846548288 0.25302587335583621 0 0.21583111001290969 0.26932992799579109 0 0.22787890001526401 0.26316977676526998 0 0.22774183438851439 0.27992538809349332 0 0.22787890001526401 0.26316977676526998 0 0.22774183438851439 0.27992538809349332 0 0.2400297057305916 0.26987079876185838 0 0.2400297057305916 0.26987079876185838 0 0.25399566878284502 0.26074565356189189 0 0.25488008865455442 0.27870182215812211 0 0.22774183438851439 0.27992538809349332 0 0.2400297057305916 0.26987079876185838 0 0.24201714875905131 0.28702077599381037 0 0.2400297057305916 0.26987079876185838 0 0.24201714875905131 0.28702077599381037 0 0.25488008865455442 0.27870182215812211 0 0.2371930846548288 0.25302587335583621 0 0.25399566878284502 0.26074565356189189 0 0.25469112926727061 0.24735262204999481 0 0.2400297057305916 0.26987079876185838 0 0.2371930846548288 0.25302587335583621 0 0.25399566878284502 0.26074565356189189 0 0.22787890001526401 0.26316977676526998 0 0.2400297057305916 0.26987079876185838 0 0.2371930846548288 0.25302587335583621 0 0.23483739423615249 0.30608783744080259 0 0.25828232139762097 0.31686438400046169 0 0.25030669222164897 0.3017866639727268 0 0.23483739423615249 0.30608783744080259 0 0.24201714875905131 0.28702077599381037 0 0.25030669222164897 0.3017866639727268 0 0.23483739423615249 0.30608783744080259 0 0.25828232139762097 0.31686438400046169 0 0.24201714875905131 0.28702077599381037 0 0.25030669222164897 0.3017866639727268 0 0.23483739423615249 0.30608783744080259 0 0.24201714875905131 0.28702077599381037 0 0.2292728614488555 0.29245213953669702 0 0.22774183438851439 0.27992538809349332 0 0.2292728614488555 0.29245213953669702 0 0.2113924670746837 0.29531129088114388 0 0.22774183438851439 0.27992538809349332 0 0.24201714875905131 0.28702077599381037 0 0.2292728614488555 0.29245213953669702 0 0.23483739423615249 0.30608783744080259 0 0.2292728614488555 0.29245213953669702 0 0.2113924670746837 0.29531129088114388 0 0.23483739423615249 0.30608783744080259 0 0.2113924670746837 0.29531129088114388 0 0.23483739423615249 0.30608783744080259 0 0.2113924670746837 0.29531129088114388 0 0.2149561442222693 0.31483702987298001 0 0.2113924670746837 0.29531129088114388 0 0.1914357063753582 0.30452563591776971 0 0.2149561442222693 0.31483702987298001 0 0.21583111001290969 0.26932992799579109 0 0.22774183438851439 0.27992538809349332 0 0.2113924670746837 0.29531129088114388 0 0.19842481760027669 0.26899818385252772 0 0.2113924670746837 0.29531129088114388 0 0.187947539913215 0.28453474432148529 0 0.2113924670746837 0.29531129088114388 0 0.187947539913215 0.28453474432148529 0 0.2113924670746837 0.29531129088114388 0 0.187947539913215 0.28453474432148529 0 0.1914357063753582 0.30452563591776971 0 0.1914357063753582 0.30452563591776971 0 0.20052214186163689 0.32514639513459992 0 0.2149561442222693 0.31483702987298001 0 0.1914357063753582 0.30452563591776971 0 0.20052214186163689 0.32514639513459992 0 0.18334611501726189 0.31989526646264532 0 0.20052214186163689 0.32514639513459992 0 0.19285237421355311 0.34138723608303978 0 0.18334611501726189 0.31989526646264532 0 0.19285237421355311 0.34138723608303978 0 0.21727742459120819 0.33736074502450603 0 0.19285237421355311 0.34138723608303978 0 0.21727742459120819 0.33736074502450603 0 0.20917671850630579 0.34826638639035989 0 0.20052214186163689 0.32514639513459992 0 0.19285237421355311 0.34138723608303978 0 0.21727742459120819 0.33736074502450603 0 0.20052214186163689 0.32514639513459992 0 0.21727742459120819 0.33736074502450603 0 0.2149561442222693 0.31483702987298001 0 0.23483739423615249 0.30608783744080259 0 0.2149561442222693 0.31483702987298001 0 0.2298574406061889 0.32115673772680881 0 0.21727742459120819 0.33736074502450603 0 0.2149561442222693 0.31483702987298001 0 0.2298574406061889 0.32115673772680881 0 0.21727742459120819 0.33736074502450603 0 0.23156264962097961 0.34340682042008192 0 0.24170247496886341 0.33333425396597199 0 0.21727742459120819 0.33736074502450603 0 0.2298574406061889 0.32115673772680881 0 0.24170247496886341 0.33333425396597199 0 0.21727742459120819 0.33736074502450603 0 0.24170247496886341 0.33333425396597199 0 0.21727742459120819 0.33736074502450603 0 0.23156264962097961 0.34340682042008192 0 0.2218225336819819 0.34981958701669869 0 0.23156264962097961 0.34340682042008192 0 0.24170247496886341 0.33333425396597199 0 0.23156264962097961 0.34340682042008192 0 0.24170247496886341 0.33333425396597199 0 0.24566457739029471 0.34357471280060048 0 0.24170247496886341 0.33333425396597199 0 0.24566457739029471 0.34357471280060048 0 0.24882522992865611 0.33728654714727518 0 0.24170247496886341 0.33333425396597199 0 0.24622102445129401 0.33258936710566928 0 0.24170247496886341 0.33333425396597199 0 0.24882522992865611 0.33728654714727518 0 0.24622102445129401 0.33258936710566928 0 0.24882522992865611 0.33728654714727518 0 0.24622102445129401 0.33258936710566928 0 0.2536313303106485 0.33467873756621669 0 0.24170247496886341 0.33333425396597199 0 0.25828232139762097 0.31686438400046169 0 0.24170247496886341 0.33333425396597199 0 0.24622102445129401 0.33258936710566928 0 0.25828232139762097 0.31686438400046169 0 0.24170247496886341 0.33333425396597199 0 0.2410970030477895 0.31878336095531962 0 0.25828232139762097 0.31686438400046169 0 0.23483739423615249 0.30608783744080259 0 0.2410970030477895 0.31878336095531962 0 0.25828232139762097 0.31686438400046169 0 0.23483739423615249 0.30608783744080259 0 0.2298574406061889 0.32115673772680881 0 0.2410970030477895 0.31878336095531962 0 0.2298574406061889 0.32115673772680881 0 0.24170247496886341 0.33333425396597199 0 0.2410970030477895 0.31878336095531962 0 0.24546206847462301 0.36438275394215741 0 0.23206138149565611 0.37409198760985601 0 0.25223887686111818 0.37750785406457837 0 0.24546206847462301 0.36438275394215741 0 0.23244793130022581 0.35867414449465751 0 0.23206138149565611 0.37409198760985601 0 0.24546206847462301 0.36438275394215741 0 0.24088888734160729 0.35237248352937373 0 0.25181430083604889 0.35338203205652841 0 0.24566457739029471 0.34357471280060048 0 0.24088888734160729 0.35237248352937373 0 0.25181430083604889 0.35338203205652841 0 0.23156264962097961 0.34340682042008192 0 0.24088888734160729 0.35237248352937373 0 0.23244793130022581 0.35867414449465751 0 0.23156264962097961 0.34340682042008192 0 0.24566457739029471 0.34357471280060048 0 0.24088888734160729 0.35237248352937373 0 0.24546206847462301 0.36438275394215741 0 0.24088888734160729 0.35237248352937373 0 0.23244793130022581 0.35867414449465751 0 0.23156264962097961 0.34340682042008192 0 0.23244793130022581 0.35867414449465751 0 0.2218225336819819 0.34981958701669869 0 0.23244793130022581 0.35867414449465751 0 0.2218225336819819 0.34981958701669869 0 0.21864794439118981 0.36138983875388803 0 0.23206138149565611 0.37409198760985601 0 0.2122193945134026 0.37465247833536047 0 0.21864794439118981 0.36138983875388803 0 0.23244793130022581 0.35867414449465751 0 0.23206138149565611 0.37409198760985601 0 0.21864794439118981 0.36138983875388803 0 0.2122193945134026 0.37465247833536047 0 0.21864794439118981 0.36138983875388803 0 0.20476953787160129 0.36174116702821302 0 0.21727742459120819 0.33736074502450603 0 0.2218225336819819 0.34981958701669869 0 0.20917671850630579 0.34826638639035989 0 0.2218225336819819 0.34981958701669869 0 0.21864794439118981 0.36138983875388803 0 0.20917671850630579 0.34826638639035989 0 0.21864794439118981 0.36138983875388803 0 0.20476953787160129 0.36174116702821302 0 0.20917671850630579 0.34826638639035989 0 0.20476953787160129 0.36174116702821302 0 0.20917671850630579 0.34826638639035989 0 0.19573614769115499 0.35024262241814569 0 0.19285237421355311 0.34138723608303978 0 0.20917671850630579 0.34826638639035989 0 0.19573614769115499 0.35024262241814569 0 0.19285237421355311 0.34138723608303978 0 0.19573614769115499 0.35024262241814569 0 0.17958785514339359 0.35757996918888529 0 0.2122193945134026 0.37465247833536047 0 0.20476953787160129 0.36174116702821302 0 0.19098457909878491 0.37438556613100271 0 0.19573614769115499 0.35024262241814569 0 0.19098457909878491 0.37438556613100271 0 0.19573614769115499 0.35024262241814569 0 0.19098457909878491 0.37438556613100271 0 0.17958785514339359 0.35757996918888529 0 0.20476953787160129 0.36174116702821302 0 0.19573614769115499 0.35024262241814569 0 0.19098457909878491 0.37438556613100271 0 0.19098457909878491 0.37438556613100271 0 0.16939049476252421 0.37188576852536759 0 0.17958785514339359 0.35757996918888529 0 0.16939049476252421 0.37188576852536759 0 0.15897613001777161 0.36157991077434581 0 0.17958785514339359 0.35757996918888529 0 0.16939049476252421 0.37188576852536759 0 0.15897613001777161 0.36157991077434581 0 0.14952493619964169 0.37774609440711482 0 0.15897613001777161 0.36157991077434581 0 0.15704843230868759 0.35317831443446462 0 0.16842732383589809 0.34541372714157481 0 0.15897613001777161 0.36157991077434581 0 0.16842732383589809 0.34541372714157481 0 0.17958785514339359 0.35757996918888529 0 0.15897613001777161 0.36157991077434581 0 0.16842732383589809 0.34541372714157481 0 0.1610362419162151 0.34663215350313059 0 0.15704843230868759 0.35317831443446462 0 0.16842732383589809 0.34541372714157481 0 0.1610362419162151 0.34663215350313059 0 0.16842732383589809 0.34541372714157481 0 0.16103079657952499 0.33995035812837099 0 0.1610362419162151 0.34663215350313059 0 0.16842732383589809 0.34541372714157481 0 0.19285237421355311 0.34138723608303978 0 0.16842732383589809 0.34541372714157481 0 0.17958785514339359 0.35757996918888529 0 0.19285237421355311 0.34138723608303978 0 0.16842732383589809 0.34541372714157481 0 0.19285237421355311 0.34138723608303978 0 0.16842732383589809 0.34541372714157481 0 0.18334611501726189 0.31989526646264532 0 0.16842732383589809 0.34541372714157481 0 0.18334611501726189 0.31989526646264532 0 0.16952752852246211 0.30439524918130351 0 0.18334611501726189 0.31989526646264532 0 0.16596553202552719 0.31679345887357052 0 0.18334611501726189 0.31989526646264532 0 0.16596553202552719 0.31679345887357052 0 0.1622523677059399 0.33098258892034832 0 0.16596553202552719 0.31679345887357052 0 0.1622523677059399 0.33098258892034832 0 0.15152291285096539 0.3183527036398533 0 0.1554285632369577 0.30382330335007912 0 0.16596553202552719 0.31679345887357052 0 0.15152291285096539 0.3183527036398533 0 0.16842732383589809 0.34541372714157481 0 0.18334611501726189 0.31989526646264532 0 0.1622523677059399 0.33098258892034832 0 0.1622523677059399 0.33098258892034832 0 0.16103079657952499 0.33995035812837099 0 0.1533561394310495 0.34141884507073827 0 0.16842732383589809 0.34541372714157481 0 0.1622523677059399 0.33098258892034832 0 0.16103079657952499 0.33995035812837099 0 0.1610362419162151 0.34663215350313059 0 0.16103079657952499 0.33995035812837099 0 0.1533561394310495 0.34141884507073827 0 0.1533561394310495 0.34141884507073827 0 0.14670066884681079 0.33494835279454888 0 0.149475180920877 0.34985096936039461 0 0.1622523677059399 0.33098258892034832 0 0.1533561394310495 0.34141884507073827 0 0.14670066884681079 0.33494835279454888 0 0.14670066884681079 0.33494835279454888 0 0.15152291285096539 0.3183527036398533 0 0.13530190868676431 0.32197135992560272 0 0.14160105636573819 0.30024263247511501 0 0.15152291285096539 0.3183527036398533 0 0.13530190868676431 0.32197135992560272 0 0.1622523677059399 0.33098258892034832 0 0.14670066884681079 0.33494835279454888 0 0.15152291285096539 0.3183527036398533 0 0.1176939529665936 0.33293429149287512 0 0.12232086971303591 0.30816378221157842 0 0.13530190868676431 0.32197135992560272 0 0.1176939529665936 0.33293429149287512 0 0.13530190868676431 0.32197135992560272 0 0.12974583980004989 0.34021453573736099 0 0.14670066884681079 0.33494835279454888 0 0.13530190868676431 0.32197135992560272 0 0.12974583980004989 0.34021453573736099 0 0.14670066884681079 0.33494835279454888 0 0.12974583980004989 0.34021453573736099 0 0.13596563227992939 0.35351387369960641 0 0.1130670362201513 0.35770480077417188 0 0.13596563227992939 0.35351387369960641 0 0.12763192434187659 0.36588202031585071 0 0.1130670362201513 0.35770480077417188 0 0.12974583980004989 0.34021453573736099 0 0.13596563227992939 0.35351387369960641 0 0.12763192434187659 0.36588202031585071 0 0.13746012479787331 0.36639926710766729 0 0.13308830268679511 0.37597089529514077 0 0.1205101049768115 0.37459865494383021 0 0.12763192434187659 0.36588202031585071 0 0.13308830268679511 0.37597089529514077 0 0.13746012479787331 0.36639926710766729 0 0.14328747982809081 0.37421473483486267 0 0.13308830268679511 0.37597089529514077 0 0.13596563227992939 0.35351387369960641 0 0.13746012479787331 0.36639926710766729 0 0.14732728485267449 0.3624148113928759 0 0.13596563227992939 0.35351387369960641 0 0.12763192434187659 0.36588202031585071 0 0.13746012479787331 0.36639926710766729 0 0.15897613001777161 0.36157991077434581 0 0.14952493619964169 0.37774609440711482 0 0.15897613001777161 0.36157991077434581 0 0.14732728485267449 0.3624148113928759 0 0.14952493619964169 0.37774609440711482 0 0.13746012479787331 0.36639926710766729 0 0.14732728485267449 0.3624148113928759 0 0.14328747982809081 0.37421473483486267 0 0.14732728485267449 0.3624148113928759 0 0.14328747982809081 0.37421473483486267 0 0.14952493619964169 0.37774609440711482 0 0.14670066884681079 0.33494835279454888 0 0.13596563227992939 0.35351387369960641 0 0.149475180920877 0.34985096936039461 0 0.15897613001777161 0.36157991077434581 0 0.15704843230868759 0.35317831443446462 0 0.14732728485267449 0.3624148113928759 0 0.15704843230868759 0.35317831443446462 0 0.14732728485267449 0.3624148113928759 0 0.149475180920877 0.34985096936039461 0 0.1610362419162151 0.34663215350313059 0 0.15704843230868759 0.35317831443446462 0 0.149475180920877 0.34985096936039461 0 0.1610362419162151 0.34663215350313059 0 0.1533561394310495 0.34141884507073827 0 0.149475180920877 0.34985096936039461 0 0.13596563227992939 0.35351387369960641 0 0.14732728485267449 0.3624148113928759 0 0.149475180920877 0.34985096936039461 0 0.15044407407775329 0.39667646592546069 0 0.14952493619964169 0.37774609440711482 0 0.13548304578510789 0.40176462406177232 0 0.15044407407775329 0.39667646592546069 0 0.13548304578510789 0.40176462406177232 0 0.14385558190535561 0.41193334720461522 0 0.15044407407775329 0.39667646592546069 0 0.14385558190535561 0.41193334720461522 0 0.1572013833131311 0.40807442409328237 0 0.15044407407775329 0.39667646592546069 0 0.14952493619964169 0.37774609440711482 0 0.16787897335302709 0.3881373021254883 0 0.14952493619964169 0.37774609440711482 0 0.13548304578510789 0.40176462406177232 0 0.14328747982809081 0.37421473483486267 0 0.14952493619964169 0.37774609440711482 0 0.13308830268679511 0.37597089529514077 0 0.14328747982809081 0.37421473483486267 0 0.14952493619964169 0.37774609440711482 0 0.14952493619964169 0.37774609440711482 0 0.12881436557845349 0.38480192854135092 0 0.13548304578510789 0.40176462406177232 0 0.14952493619964169 0.37774609440711482 0 0.13308830268679511 0.37597089529514077 0 0.12881436557845349 0.38480192854135092 0 0.1205101049768115 0.37459865494383021 0 0.13308830268679511 0.37597089529514077 0 0.12881436557845349 0.38480192854135092 0 0.12881436557845349 0.38480192854135092 0 0.12760868922718199 0.39497300920620049 0 0.13548304578510789 0.40176462406177232 0 0.12084623516827479 0.4028724230229937 0 0.12760868922718199 0.39497300920620049 0 0.13548304578510789 0.40176462406177232 0 0.12084623516827479 0.4028724230229937 0 0.13548304578510789 0.40176462406177232 0 0.12693079159237619 0.41356755043673088 0 0.13548304578510789 0.40176462406177232 0 0.12693079159237619 0.41356755043673088 0 0.14385558190535561 0.41193334720461522 0 0.1139301498233308 0.42702554980275631 0 0.12693079159237619 0.41356755043673088 0 0.1347633494099347 0.42456093513989779 0 0.12693079159237619 0.41356755043673088 0 0.1347633494099347 0.42456093513989779 0 0.14385558190535561 0.41193334720461522 0 0.12581458238117599 0.43558451542114701 0 0.1347633494099347 0.42456093513989779 0 0.14408138095432169 0.44103631186414188 0 0.1347633494099347 0.42456093513989779 0 0.1561811452275168 0.42516931775454819 0 0.14408138095432169 0.44103631186414188 0 0.1561811452275168 0.42516931775454819 0 0.1635583473125006 0.4410329550276722 0 0.14408138095432169 0.44103631186414188 0 0.1347633494099347 0.42456093513989779 0 0.1561811452275168 0.42516931775454819 0 0.14385558190535561 0.41193334720461522 0 0.1561811452275168 0.42516931775454819 0 0.14385558190535561 0.41193334720461522 0 0.1572013833131311 0.40807442409328237 0 0.1561811452275168 0.42516931775454819 0 0.1814011624546821 0.42307935726914558 0 0.17254442835069611 0.40873026564062159 0 0.1561811452275168 0.42516931775454819 0 0.1572013833131311 0.40807442409328237 0 0.17254442835069611 0.40873026564062159 0 0.1561811452275168 0.42516931775454819 0 0.1814011624546821 0.42307935726914558 0 0.1635583473125006 0.4410329550276722 0 0.1814011624546821 0.42307935726914558 0 0.1765693144029494 0.44763020469443132 0 0.1635583473125006 0.4410329550276722 0 0.1814011624546821 0.42307935726914558 0 0.1884343592946249 0.43798852850804071 0 0.1765693144029494 0.44763020469443132 0 0.1814011624546821 0.42307935726914558 0 0.1765693144029494 0.44763020469443132 0 0.1814011624546821 0.42307935726914558 0 0.17254442835069611 0.40873026564062159 0 0.18623301050641389 0.39852850984385968 0 0.1814011624546821 0.42307935726914558 0 0.18623301050641389 0.39852850984385968 0 0.18623301050641389 0.39852850984385968 0 0.16787897335302709 0.3881373021254883 0 0.17254442835069611 0.40873026564062159 0 0.18623301050641389 0.39852850984385968 0 0.16787897335302709 0.3881373021254883 0 0.1572013833131311 0.40807442409328237 0 0.17254442835069611 0.40873026564062159 0 0.16787897335302709 0.3881373021254883 0 0.15044407407775329 0.39667646592546069 0 0.1572013833131311 0.40807442409328237 0 0.16787897335302709 0.3881373021254883 0 0.14952493619964169 0.37774609440711482 0 0.16787897335302709 0.3881373021254883 0 0.16939049476252421 0.37188576852536759 0 0.14952493619964169 0.37774609440711482 0 0.16787897335302709 0.3881373021254883 0 0.19098457909878491 0.37438556613100271 0 0.18623301050641389 0.39852850984385968 0 0.16787897335302709 0.3881373021254883 0 0.19098457909878491 0.37438556613100271 0 0.16939049476252421 0.37188576852536759 0 0.16787897335302709 0.3881373021254883 0 0.19098457909878491 0.37438556613100271 0 0.18623301050641389 0.39852850984385968 0 0.2122193945134026 0.37465247833536047 0 0.19098457909878491 0.37438556613100271 0 0.203123840938054 0.3888341547217728 0 0.19098457909878491 0.37438556613100271 0 0.18623301050641389 0.39852850984385968 0 0.203123840938054 0.3888341547217728 0 0.18623301050641389 0.39852850984385968 0 0.203123840938054 0.3888341547217728 0 0.20537023212937189 0.40936312041890022 0 0.18623301050641389 0.39852850984385968 0 0.20537023212937189 0.40936312041890022 0 0.203123840938054 0.3888341547217728 0 0.22372908328512961 0.38747215576743083 0 0.20537023212937189 0.40936312041890022 0 0.2122193945134026 0.37465247833536047 0 0.203123840938054 0.3888341547217728 0 0.22372908328512961 0.38747215576743083 0 0.23206138149565611 0.37409198760985601 0 0.2122193945134026 0.37465247833536047 0 0.22372908328512961 0.38747215576743083 0 0.23206138149565611 0.37409198760985601 0 0.22372908328512961 0.38747215576743083 0 0.24260146648673531 0.39479574479861163 0 0.22372908328512961 0.38747215576743083 0 0.22745736027980831 0.40543321475488697 0 0.24260146648673531 0.39479574479861163 0 0.22372908328512961 0.38747215576743083 0 0.22745736027980831 0.40543321475488697 0 0.20537023212937189 0.40936312041890022 0 0.22745736027980831 0.40543321475488697 0 0.24260146648673531 0.39479574479861163 0 0.24107856574547351 0.41533732179555338 0 0.23206138149565611 0.37409198760985601 0 0.24260146648673531 0.39479574479861163 0 0.25223887686111818 0.37750785406457837 0 0.23447749575838869 0.43101575796981911 0 0.24364467537528961 0.43103234156897829 0 0.22741591616094281 0.44080065621479531 0 0.24364467537528961 0.43103234156897829 0 0.22741591616094281 0.44080065621479531 0 0.25092690418392649 0.43634294896236231 0 0.24364467537528961 0.43103234156897829 0 0.24107856574547351 0.41533732179555338 0 0.25184460097933559 0.43104717538756387 0 0.24364467537528961 0.43103234156897829 0 0.24107856574547351 0.41533732179555338 0 0.22450745375233111 0.42019773099393859 0 0.23447749575838869 0.43101575796981911 0 0.24364467537528961 0.43103234156897829 0 0.24364467537528961 0.43103234156897829 0 0.25184460097933559 0.43104717538756387 0 0.24364467537528961 0.43103234156897829 0 0.25249850641679078 0.43604497157984801 0 0.24364467537528961 0.43103234156897829 0 0.25184460097933559 0.43104717538756387 0 0.25249850641679078 0.43604497157984801 0 0.24364467537528961 0.43103234156897829 0 0.25092690418392649 0.43634294896236231 0 0.25249850641679078 0.43604497157984801 0 0.24107856574547351 0.41533732179555338 0 0.25520197612629758 0.411672694978785 0 0.25184460097933559 0.43104717538756387 0 0.24260146648673531 0.39479574479861163 0 0.24107856574547351 0.41533732179555338 0 0.25520197612629758 0.411672694978785 0 0.22745736027980831 0.40543321475488697 0 0.22450745375233111 0.42019773099393859 0 0.20537023212937189 0.40936312041890022 0 0.22745736027980831 0.40543321475488697 0 0.24107856574547351 0.41533732179555338 0 0.22450745375233111 0.42019773099393859 0 0.23447749575838869 0.43101575796981911 0 0.24364467537528961 0.43103234156897829 0 0.22450745375233111 0.42019773099393859 0 0.24364467537528961 0.43103234156897829 0 0.22450745375233111 0.42019773099393859 0 0.22450745375233111 0.42019773099393859 0 0.2240032996372342 0.43089727951843831 0 0.21361512324094181 0.43224212623363051 0 0.23447749575838869 0.43101575796981911 0 0.22450745375233111 0.42019773099393859 0 0.2240032996372342 0.43089727951843831 0 0.23447749575838869 0.43101575796981911 0 0.2240032996372342 0.43089727951843831 0 0.22741591616094281 0.44080065621479531 0 0.2240032996372342 0.43089727951843831 0 0.21361512324094181 0.43224212623363051 0 0.22741591616094281 0.44080065621479531 0 0.21361512324094181 0.43224212623363051 0 0.20537023212937189 0.40936312041890022 0 0.19940781203637739 0.42620021081745568 0 0.21361512324094181 0.43224212623363051 0 0.19940781203637739 0.42620021081745568 0 0.2039049281379588 0.4452583634672268 0 0.22450745375233111 0.42019773099393859 0 0.20537023212937189 0.40936312041890022 0 0.22450745375233111 0.42019773099393859 0 0.21361512324094181 0.43224212623363051 0 0.20537023212937189 0.40936312041890022 0 0.1814011624546821 0.42307935726914558 0 0.20537023212937189 0.40936312041890022 0 0.19940781203637739 0.42620021081745568 0 0.1814011624546821 0.42307935726914558 0 0.18623301050641389 0.39852850984385968 0 0.20537023212937189 0.40936312041890022 0 0.1814011624546821 0.42307935726914558 0 0.19940781203637739 0.42620021081745568 0 0.1884343592946249 0.43798852850804071 0 0.19940781203637739 0.42620021081745568 0 0.1884343592946249 0.43798852850804071 0 0.2039049281379588 0.4452583634672268 0 0.1884343592946249 0.43798852850804071 0 0.2039049281379588 0.4452583634672268 0 0.1803939401149747 0.4497160707196583 0 0.19501877181059921 0.45784145798690001 0 0.2039049281379588 0.4452583634672268 0 0.1803939401149747 0.4497160707196583 0 0.2039049281379588 0.4452583634672268 0 0.1803939401149747 0.4497160707196583 0 0.19501877181059921 0.45784145798690001 0 0.1978276357097806 0.47038004391505978 0 0.18261067064624961 0.46347054608941313 0 0.19501877181059921 0.45784145798690001 0 0.21035668444403241 0.46038226574314173 0 0.2039049281379588 0.4452583634672268 0 0.19501877181059921 0.45784145798690001 0 0.21035668444403241 0.46038226574314173 0 0.1978276357097806 0.47038004391505978 0 0.21035668444403241 0.46038226574314173 0 0.22196881814815339 0.474207908837669 0 0.1978276357097806 0.47038004391505978 0 0.2039049281379588 0.4452583634672268 0 0.22741591616094281 0.44080065621479531 0 0.21035668444403241 0.46038226574314173 0 0.2039049281379588 0.4452583634672268 0 0.22741591616094281 0.44080065621479531 0 0.21361512324094181 0.43224212623363051 0 0.2039049281379588 0.4452583634672268 0 0.22741591616094281 0.44080065621479531 0 0.21035668444403241 0.46038226574314173 0 0.22741591616094281 0.44080065621479531 0 0.2281168862034679 0.45784043840904498 0 0.22741591616094281 0.44080065621479531 0 0.2281168862034679 0.45784043840904498 0 0.23776440703460081 0.44976418296539872 0 0.21035668444403241 0.46038226574314173 0 0.2281168862034679 0.45784043840904498 0 0.22196881814815339 0.474207908837669 0 0.2281168862034679 0.45784043840904498 0 0.24611723795052981 0.46409819826656612 0 0.22196881814815339 0.474207908837669 0 0.2281168862034679 0.45784043840904498 0 0.24611723795052981 0.46409819826656612 0 0.23776440703460081 0.44976418296539872 0 0.24611723795052981 0.46409819826656612 0 0.25092690418392649 0.43634294896236231 0 0.22741591616094281 0.44080065621479531 0 0.25092690418392649 0.43634294896236231 0 0.22741591616094281 0.44080065621479531 0 0.23776440703460081 0.44976418296539872 0 0.25092690418392649 0.43634294896236231 0 0.24611723795052981 0.46409819826656612 0 0.23776440703460081 0.44976418296539872 0 0.25092690418392649 0.43634294896236231 0 0.24130757171713721 0.49185344757077049 0 0.24650170812152331 0.5 0 0.21748323454540119 0.5 0 0.24130757171713721 0.49185344757077049 0 0.24650170812152331 0.5 0 0.26051913939495219 0.48464270054171998 0 0.24611723795052981 0.46409819826656612 0 0.24130757171713721 0.49185344757077049 0 0.22196881814815339 0.474207908837669 0 0.24611723795052981 0.46409819826656612 0 0.24130757171713721 0.49185344757077049 0 0.26051913939495219 0.48464270054171998 0 0.24611723795052981 0.46409819826656612 0 0.24130757171713721 0.49185344757077049 0 0.24130757171713721 0.49185344757077049 0 0.22404401316344669 0.48823904153515851 0 0.21748323454540119 0.5 0 0.24130757171713721 0.49185344757077049 0 0.22196881814815339 0.474207908837669 0 0.22404401316344669 0.48823904153515851 0 0.2048367018488495 0.48652992493782449 0 0.21748323454540119 0.5 0 0.188464760969279 0.5 0 0.22404401316344669 0.48823904153515851 0 0.2048367018488495 0.48652992493782449 0 0.21748323454540119 0.5 0 0.22196881814815339 0.474207908837669 0 0.22404401316344669 0.48823904153515851 0 0.2048367018488495 0.48652992493782449 0 0.22196881814815339 0.474207908837669 0 0.2048367018488495 0.48652992493782449 0 0.1978276357097806 0.47038004391505978 0 0.2048367018488495 0.48652992493782449 0 0.1978276357097806 0.47038004391505978 0 0.1809471012948238 0.4851991026201718 0 0.2048367018488495 0.48652992493782449 0 0.188464760969279 0.5 0 0.1809471012948238 0.4851991026201718 0 0.188464760969279 0.5 0 0.1809471012948238 0.4851991026201718 0 0.16690561829948411 0.49673189954500291 0 0.1809471012948238 0.4851991026201718 0 0.16690561829948411 0.49673189954500291 0 0.17173746635121681 0.47218105211971712 0 0.16690561829948411 0.49673189954500291 0 0.17173746635121681 0.47218105211971712 0 0.16690561829948411 0.49673189954500291 0 0.17173746635121681 0.47218105211971712 0 0.15470851890430981 0.48553049373325269 0 0.188464760969279 0.5 0 0.16690561829948411 0.49673189954500291 0 0.1594462873931568 0.5 0 0.16690561829948411 0.49673189954500291 0 0.1594462873931568 0.5 0 0.15470851890430981 0.48553049373325269 0 0.17173746635121681 0.47218105211971712 0 0.15740286745276211 0.46724641707472198 0 0.15470851890430981 0.48553049373325269 0 0.1978276357097806 0.47038004391505978 0 0.1809471012948238 0.4851991026201718 0 0.18261067064624961 0.46347054608941313 0 0.1809471012948238 0.4851991026201718 0 0.17173746635121681 0.47218105211971712 0 0.18261067064624961 0.46347054608941313 0 0.17173746635121681 0.47218105211971712 0 0.1765693144029494 0.44763020469443132 0 0.17173746635121681 0.47218105211971712 0 0.18261067064624961 0.46347054608941313 0 0.1765693144029494 0.44763020469443132 0 0.18261067064624961 0.46347054608941313 0 0.1803939401149747 0.4497160707196583 0 0.1765693144029494 0.44763020469443132 0 0.19501877181059921 0.45784145798690001 0 0.18261067064624961 0.46347054608941313 0 0.1803939401149747 0.4497160707196583 0 0.1884343592946249 0.43798852850804071 0 0.1803939401149747 0.4497160707196583 0 0.1765693144029494 0.44763020469443132 0 0.1765693144029494 0.44763020469443132 0 0.1635583473125006 0.4410329550276722 0 0.1654371882087291 0.45615961783251591 0 0.1635583473125006 0.4410329550276722 0 0.1654371882087291 0.45615961783251591 0 0.15551871745558091 0.45384624444178301 0 0.17173746635121681 0.47218105211971712 0 0.1654371882087291 0.45615961783251591 0 0.15740286745276211 0.46724641707472198 0 0.17173746635121681 0.47218105211971712 0 0.1765693144029494 0.44763020469443132 0 0.1654371882087291 0.45615961783251591 0 0.1654371882087291 0.45615961783251591 0 0.15740286745276211 0.46724641707472198 0 0.15551871745558091 0.45384624444178301 0 0.15740286745276211 0.46724641707472198 0 0.14259155261400111 0.45939484671744152 0 0.13993183204356829 0.47816237785582022 0 0.15740286745276211 0.46724641707472198 0 0.15551871745558091 0.45384624444178301 0 0.14259155261400111 0.45939484671744152 0 0.1635583473125006 0.4410329550276722 0 0.15551871745558091 0.45384624444178301 0 0.14408138095432169 0.44103631186414188 0 0.15551871745558091 0.45384624444178301 0 0.14259155261400111 0.45939484671744152 0 0.14408138095432169 0.44103631186414188 0 0.12581458238117599 0.43558451542114701 0 0.14408138095432169 0.44103631186414188 0 0.1307920793393513 0.44899231966976122 0 0.14259155261400111 0.45939484671744152 0 0.14408138095432169 0.44103631186414188 0 0.1307920793393513 0.44899231966976122 0 0.14259155261400111 0.45939484671744152 0 0.1264519596290487 0.46600733397067817 0 0.13993183204356829 0.47816237785582022 0 0.14259155261400111 0.45939484671744152 0 0.1307920793393513 0.44899231966976122 0 0.1264519596290487 0.46600733397067817 0 0.1174862751349369 0.48299076978920769 0 0.1264519596290487 0.46600733397067817 0 0.13993183204356829 0.47816237785582022 0 0.1174862751349369 0.48299076978920769 0 0.13993183204356829 0.47816237785582022 0 0.13042781381703469 0.5 0 0.13993183204356829 0.47816237785582022 0 0.13042781381703469 0.5 0 0.15470851890430981 0.48553049373325269 0 0.1594462873931568 0.5 0 0.13042781381703469 0.5 0 0.15470851890430981 0.48553049373325269 0 0.15740286745276211 0.46724641707472198 0 0.13993183204356829 0.47816237785582022 0 0.15470851890430981 0.48553049373325269 0 0.34406334019035573 0.48138993548232589 0 0.36336743938769273 0.46446500356666559 0 0.34406334019035573 0.48138993548232589 0 0.36302555917851992 0.5 0 0.33385710001822849 0.5 0 0.34406334019035573 0.48138993548232589 0 0.36302555917851992 0.5 0 0.37231271511160657 0.48183561470949499 0 0.34406334019035573 0.48138993548232589 0 0.37231271511160657 0.48183561470949499 0 0.36336743938769273 0.46446500356666559 0 0.37231271511160657 0.48183561470949499 0 0.36336743938769273 0.46446500356666559 0 0.38139011217877611 0.46554983394391802 0 0.36336743938769273 0.46446500356666559 0 0.38267153858502978 0.44754007165100518 0 0.36093901280877527 0.4458329203651944 0 0.38229372058655747 0.43229115045649208 0 0.36336743938769273 0.46446500356666559 0 0.36093901280877527 0.4458329203651944 0 0.38267153858502978 0.44754007165100518 0 0.36093901280877527 0.4458329203651944 0 0.34035917950317962 0.44303347685907141 0 0.34891640266930468 0.4312227800900239 0 0.36093901280877527 0.4458329203651944 0 0.33958430503099313 0.4593746902738966 0 0.34035917950317962 0.44303347685907141 0 0.36093901280877527 0.4458329203651944 0 0.33958430503099313 0.4593746902738966 0 0.36336743938769273 0.46446500356666559 0 0.36093901280877527 0.4458329203651944 0 0.33958430503099313 0.4593746902738966 0 0.34406334019035573 0.48138993548232589 0 0.36336743938769273 0.46446500356666559 0 0.33958430503099313 0.4593746902738966 0 0.33958430503099313 0.4593746902738966 0 0.31822959725321082 0.47291646018259881 0 0.33958430503099313 0.4593746902738966 0 0.32687766020540981 0.44755661304954869 0 0.3215312626592956 0.45998413224013818 0 0.34035917950317962 0.44303347685907141 0 0.32687766020540981 0.44755661304954869 0 0.32547851680141499 0.43118038051669288 0 0.33958430503099313 0.4593746902738966 0 0.34035917950317962 0.44303347685907141 0 0.32687766020540981 0.44755661304954869 0 0.32687766020540981 0.44755661304954869 0 0.31908273917124008 0.44001272556169629 0 0.32547851680141499 0.43118038051669288 0 0.32687766020540981 0.44755661304954869 0 0.3183672438638035 0.44646599080147648 0 0.31908273917124008 0.44001272556169629 0 0.32687766020540981 0.44755661304954869 0 0.31850387730580509 0.45249251870555052 0 0.3183672438638035 0.44646599080147648 0 0.31850387730580509 0.45249251870555052 0 0.31261904507714522 0.44948368507170039 0 0.3183672438638035 0.44646599080147648 0 0.31261904507714522 0.44948368507170039 0 0.3183672438638035 0.44646599080147648 0 0.31320937201370441 0.44275346896966428 0 0.3183672438638035 0.44646599080147648 0 0.31320937201370441 0.44275346896966428 0 0.31908273917124008 0.44001272556169629 0 0.31320937201370441 0.44275346896966428 0 0.31908273917124008 0.44001272556169629 0 0.31324466556825681 0.43678633578690912 0 0.33958430503099313 0.4593746902738966 0 0.3215312626592956 0.45998413224013818 0 0.31822959725321082 0.47291646018259881 0 0.32687766020540981 0.44755661304954869 0 0.31850387730580509 0.45249251870555052 0 0.3215312626592956 0.45998413224013818 0 0.31850387730580509 0.45249251870555052 0 0.31261904507714522 0.44948368507170039 0 0.31003712363194619 0.45891028706644382 0 0.31850387730580509 0.45249251870555052 0 0.3215312626592956 0.45998413224013818 0 0.31003712363194619 0.45891028706644382 0 0.3215312626592956 0.45998413224013818 0 0.31185130582221959 0.46964778398207302 0 0.31003712363194619 0.45891028706644382 0 0.3215312626592956 0.45998413224013818 0 0.31822959725321082 0.47291646018259881 0 0.31185130582221959 0.46964778398207302 0 0.34406334019035573 0.48138993548232589 0 0.31822959725321082 0.47291646018259881 0 0.31941054549979159 0.48923632723851451 0 0.34406334019035573 0.48138993548232589 0 0.33958430503099313 0.4593746902738966 0 0.31822959725321082 0.47291646018259881 0 0.34406334019035573 0.48138993548232589 0 0.33385710001822849 0.5 0 0.31941054549979159 0.48923632723851451 0 0.33385710001822849 0.5 0 0.31941054549979159 0.48923632723851451 0 0.30468864085793701 0.5 0 0.31941054549979159 0.48923632723851451 0 0.30468864085793701 0.5 0 0.29687488947542862 0.48645823009130112 0 0.31185130582221959 0.46964778398207302 0 0.29272999176814729 0.47282173874392658 0 0.29687488947542862 0.48645823009130112 0 0.31822959725321082 0.47291646018259881 0 0.29687488947542862 0.48645823009130112 0 0.31822959725321082 0.47291646018259881 0 0.31941054549979159 0.48923632723851451 0 0.29687488947542862 0.48645823009130112 0 0.31822959725321082 0.47291646018259881 0 0.31185130582221959 0.46964778398207302 0 0.29687488947542862 0.48645823009130112 0 0.29272999176814729 0.47282173874392658 0 0.29687488947542862 0.48645823009130112 0 0.27975995482745353 0.48230536330754392 0 0.29272999176814729 0.47282173874392658 0 0.27975995482745353 0.48230536330754392 0 0.2731555718010934 0.4676041471607687 0 0.29687488947542862 0.48645823009130112 0 0.27552018169764553 0.50000000000000189 0 0.30468864085793701 0.5 0 0.29687488947542862 0.48645823009130112 0 0.27552018169764553 0.50000000000000189 0 0.29687488947542862 0.48645823009130112 0 0.27552018169764553 0.50000000000000189 0 0.27975995482745353 0.48230536330754392 0 0.27552018169764553 0.50000000000000189 0 0.27975995482745353 0.48230536330754392 0 0.26051913939495219 0.48464270054171998 0 0.27975995482745353 0.48230536330754392 0 0.26051913939495219 0.48464270054171998 0 0.2731555718010934 0.4676041471607687 0 0.24611723795052981 0.46409819826656612 0 0.26051913939495219 0.48464270054171998 0 0.2731555718010934 0.4676041471607687 0 0.24650170812152331 0.5 0 0.27552018169764553 0.50000000000000189 0 0.26051913939495219 0.48464270054171998 0 0.24611723795052981 0.46409819826656612 0 0.2575188823944155 0.45120750920064362 0 0.25092690418392649 0.43634294896236231 0 0.27228277288526842 0.44724590904725392 0 0.25249850641679078 0.43604497157984801 0 0.2575188823944155 0.45120750920064362 0 0.27228277288526842 0.44724590904725392 0 0.25249850641679078 0.43604497157984801 0 0.2575188823944155 0.45120750920064362 0 0.25092690418392649 0.43634294896236231 0 0.25249850641679078 0.43604497157984801 0 0.24611723795052981 0.46409819826656612 0 0.2575188823944155 0.45120750920064362 0 0.2731555718010934 0.4676041471607687 0 0.2731555718010934 0.4676041471607687 0 0.27228277288526842 0.44724590904725392 0 0.29206703935374401 0.4584468465146635 0 0.2575188823944155 0.45120750920064362 0 0.2731555718010934 0.4676041471607687 0 0.27228277288526842 0.44724590904725392 0 0.27228277288526842 0.44724590904725392 0 0.27860274506563543 0.43109558137003079 0 0.25249850641679078 0.43604497157984801 0 0.27228277288526842 0.44724590904725392 0 0.29051069650435052 0.4384536317036668 0 0.27860274506563543 0.43109558137003079 0 0.27228277288526842 0.44724590904725392 0 0.29206703935374401 0.4584468465146635 0 0.29051069650435052 0.4384536317036668 0 0.29206703935374401 0.4584468465146635 0 0.29931248417204809 0.4456173049304667 0 0.27228277288526842 0.44724590904725392 0 0.29051069650435052 0.4384536317036668 0 0.29206703935374401 0.4584468465146635 0 0.29272999176814729 0.47282173874392658 0 0.2731555718010934 0.4676041471607687 0 0.29206703935374401 0.4584468465146635 0 0.31185130582221959 0.46964778398207302 0 0.29206703935374401 0.4584468465146635 0 0.31185130582221959 0.46964778398207302 0 0.29272999176814729 0.47282173874392658 0 0.29206703935374401 0.4584468465146635 0 0.29206703935374401 0.4584468465146635 0 0.31003712363194619 0.45891028706644382 0 0.30444721470855218 0.45167876596002388 0 0.31185130582221959 0.46964778398207302 0 0.29206703935374401 0.4584468465146635 0 0.31003712363194619 0.45891028706644382 0 0.31261904507714522 0.44948368507170039 0 0.31003712363194619 0.45891028706644382 0 0.30444721470855218 0.45167876596002388 0 0.29051069650435052 0.4384536317036668 0 0.30083677019091259 0.43840782967700198 0 0.29931248417204809 0.4456173049304667 0 0.30083677019091259 0.43840782967700198 0 0.29931248417204809 0.4456173049304667 0 0.30807820470834768 0.43977223703087992 0 0.29206703935374401 0.4584468465146635 0 0.30444721470855218 0.45167876596002388 0 0.29931248417204809 0.4456173049304667 0 0.30444721470855218 0.45167876596002388 0 0.29931248417204809 0.4456173049304667 0 0.30820038130787758 0.4459357062168447 0 0.31261904507714522 0.44948368507170039 0 0.30444721470855218 0.45167876596002388 0 0.30820038130787758 0.4459357062168447 0 0.31261904507714522 0.44948368507170039 0 0.31320937201370441 0.44275346896966428 0 0.30820038130787758 0.4459357062168447 0 0.29931248417204809 0.4456173049304667 0 0.30820038130787758 0.4459357062168447 0 0.30807820470834768 0.43977223703087992 0 0.31320937201370441 0.44275346896966428 0 0.30820038130787758 0.4459357062168447 0 0.30807820470834768 0.43977223703087992 0 0.30083677019091259 0.43840782967700198 0 0.30807820470834768 0.43977223703087992 0 0.30605006785026062 0.43652609585953822 0 0.31320937201370441 0.44275346896966428 0 0.30807820470834768 0.43977223703087992 0 0.31324466556825681 0.43678633578690912 0 0.30807820470834768 0.43977223703087992 0 0.30605006785026062 0.43652609585953822 0 0.31324466556825681 0.43678633578690912 0 0.30605006785026062 0.43652609585953822 0 0.30204063093352518 0.43113798094336192 0 0.31324466556825681 0.43678633578690912 0 0.30394105125383908 0.42629141273411192 0 0.30204063093352518 0.43113798094336192 0 0.32547851680141499 0.43118038051669288 0 0.29051069650435052 0.4384536317036668 0 0.30083677019091259 0.43840782967700198 0 0.30204063093352518 0.43113798094336192 0 0.30083677019091259 0.43840782967700198 0 0.30605006785026062 0.43652609585953822 0 0.30204063093352518 0.43113798094336192 0 0.30394105125383908 0.42629141273411192 0 0.30150245566600897 0.40195192802791613 0 0.32321050462535661 0.400542360012558 0 0.30394105125383908 0.42629141273411192 0 0.28035562260843111 0.40870179276135488 0 0.30150245566600897 0.40195192802791613 0 0.30394105125383908 0.42629141273411192 0 0.30204063093352518 0.43113798094336192 0 0.27860274506563543 0.43109558137003079 0 0.30394105125383908 0.42629141273411192 0 0.27860274506563543 0.43109558137003079 0 0.30204063093352518 0.43113798094336192 0 0.27860274506563543 0.43109558137003079 0 0.29051069650435052 0.4384536317036668 0 0.30204063093352518 0.43113798094336192 0 0.27860274506563543 0.43109558137003079 0 0.30394105125383908 0.42629141273411192 0 0.27860274506563543 0.43109558137003079 0 0.28035562260843111 0.40870179276135488 0 0.27860274506563543 0.43109558137003079 0 0.28035562260843111 0.40870179276135488 0 0.25520197612629758 0.411672694978785 0 0.25520197612629758 0.411672694978785 0 0.25184460097933559 0.43104717538756387 0 0.27860274506563543 0.43109558137003079 0 0.25184460097933559 0.43104717538756387 0 0.27860274506563543 0.43109558137003079 0 0.25184460097933559 0.43104717538756387 0 0.25249850641679078 0.43604497157984801 0 0.27860274506563543 0.43109558137003079 0 0.25520197612629758 0.411672694978785 0 0.25184460097933559 0.43104717538756387 0 0.27860274506563543 0.43109558137003079 0 0.25249850641679078 0.43604497157984801 0 0.25184460097933559 0.43104717538756387 0 0.25249850641679078 0.43604497157984801 0 0.25092690418392649 0.43634294896236231 0 0.25249850641679078 0.43604497157984801 0 0.25223887686111818 0.37750785406457837 0 0.26224589938522752 0.39201822775060169 0 0.27043467926948622 0.37873019681974002 0 0.24260146648673531 0.39479574479861163 0 0.25223887686111818 0.37750785406457837 0 0.26224589938522752 0.39201822775060169 0 0.24260146648673531 0.39479574479861163 0 0.25520197612629758 0.411672694978785 0 0.26224589938522752 0.39201822775060169 0 0.28035562260843111 0.40870179276135488 0 0.25520197612629758 0.411672694978785 0 0.26224589938522752 0.39201822775060169 0 0.28035562260843111 0.40870179276135488 0 0.26224589938522752 0.39201822775060169 0 0.28063960815357819 0.38918091170668428 0 0.26224589938522752 0.39201822775060169 0 0.28063960815357819 0.38918091170668428 0 0.27043467926948622 0.37873019681974002 0 0.28063960815357819 0.38918091170668428 0 0.27043467926948622 0.37873019681974002 0 0.28982628431938279 0.37211285263153548 0 0.28063960815357819 0.38918091170668428 0 0.29649372476375191 0.38670785988481948 0 0.28982628431938279 0.37211285263153548 0 0.28035562260843111 0.40870179276135488 0 0.28063960815357819 0.38918091170668428 0 0.30150245566600897 0.40195192802791613 0 0.28063960815357819 0.38918091170668428 0 0.29649372476375191 0.38670785988481948 0 0.30150245566600897 0.40195192802791613 0 0.30150245566600897 0.40195192802791613 0 0.31107440996379732 0.37962288396052979 0 0.32321050462535661 0.400542360012558 0 0.29649372476375191 0.38670785988481948 0 0.31107440996379732 0.37962288396052979 0 0.28982628431938279 0.37211285263153548 0 0.29649372476375191 0.38670785988481948 0 0.30150245566600897 0.40195192802791613 0 0.31107440996379732 0.37962288396052979 0 0.31107440996379732 0.37962288396052979 0 0.33101820253604253 0.37756117691693958 0 0.32321050462535661 0.400542360012558 0 0.34288352952666279 0.38989078233011609 0 0.33101820253604253 0.37756117691693958 0 0.34957797697354759 0.37590218617732829 0 0.34288352952666279 0.38989078233011609 0 0.33101820253604253 0.37756117691693958 0 0.32321050462535661 0.400542360012558 0 0.34288352952666279 0.38989078233011609 0 0.34101651790393561 0.40607338453887931 0 0.32321050462535661 0.400542360012558 0 0.30394105125383908 0.42629141273411192 0 0.32321050462535661 0.400542360012558 0 0.32927935744204262 0.42148724409819288 0 0.30204063093352518 0.43113798094336192 0 0.31324466556825681 0.43678633578690912 0 0.32547851680141499 0.43118038051669288 0 0.30394105125383908 0.42629141273411192 0 0.32547851680141499 0.43118038051669288 0 0.32927935744204262 0.42148724409819288 0 0.30204063093352518 0.43113798094336192 0 0.32547851680141499 0.43118038051669288 0 0.30394105125383908 0.42629141273411192 0 0.32927935744204262 0.42148724409819288 0 0.31908273917124008 0.44001272556169629 0 0.31324466556825681 0.43678633578690912 0 0.32547851680141499 0.43118038051669288 0 0.34035917950317962 0.44303347685907141 0 0.32547851680141499 0.43118038051669288 0 0.34891640266930468 0.4312227800900239 0 0.32547851680141499 0.43118038051669288 0 0.34891640266930468 0.4312227800900239 0 0.32547851680141499 0.43118038051669288 0 0.32927935744204262 0.42148724409819288 0 0.34891640266930468 0.4312227800900239 0 0.34101651790393561 0.40607338453887931 0 0.32927935744204262 0.42148724409819288 0 0.35461766363024622 0.41668307546227401 0 0.32927935744204262 0.42148724409819288 0 0.35461766363024622 0.41668307546227401 0 0.34101651790393561 0.40607338453887931 0 0.32321050462535661 0.400542360012558 0 0.32927935744204262 0.42148724409819288 0 0.32927935744204262 0.42148724409819288 0 0.35461766363024622 0.41668307546227401 0 0.34891640266930468 0.4312227800900239 0 0.36093901280877527 0.4458329203651944 0 0.34891640266930468 0.4312227800900239 0 0.36568023253862642 0.42940852557186038 0 0.35461766363024622 0.41668307546227401 0 0.34891640266930468 0.4312227800900239 0 0.36568023253862642 0.42940852557186038 0 0.36093901280877527 0.4458329203651944 0 0.36568023253862642 0.42940852557186038 0 0.38229372058655747 0.43229115045649208 0 0.35461766363024622 0.41668307546227401 0 0.36231076125818051 0.39336258276968578 0 0.37995596981844992 0.41187890682635497 0 0.35461766363024622 0.41668307546227401 0 0.36568023253862642 0.42940852557186038 0 0.37995596981844992 0.41187890682635497 0 0.35461766363024622 0.41668307546227401 0 0.37995596981844992 0.41187890682635497 0 0.36231076125818051 0.39336258276968578 0 0.36537856512772232 0.37105754052093382 0 0.3764668726657 0.38117041745600011 0 0.36231076125818051 0.39336258276968578 0 0.34957797697354759 0.37590218617732829 0 0.36537856512772232 0.37105754052093382 0 0.34288352952666279 0.38989078233011609 0 0.36231076125818051 0.39336258276968578 0 0.34957797697354759 0.37590218617732829 0 0.34288352952666279 0.38989078233011609 0 0.34101651790393561 0.40607338453887931 0 0.36231076125818051 0.39336258276968578 0 0.34101651790393561 0.40607338453887931 0 0.35461766363024622 0.41668307546227401 0 0.36231076125818051 0.39336258276968578 0 0.35787467094982728 0.34626364313268632 0 0.34379570720196878 0.3477067768967651 0 0.35045442574035918 0.34065895126866741 0 0.35787467094982728 0.34626364313268632 0 0.34379570720196878 0.3477067768967651 0 0.35220243833007192 0.36031300172404263 0 0.34379570720196878 0.3477067768967651 0 0.35220243833007192 0.36031300172404263 0 0.33717495727728802 0.36073463694560981 0 0.34957797697354759 0.37590218617732829 0 0.35220243833007192 0.36031300172404263 0 0.36537856512772232 0.37105754052093382 0 0.34957797697354759 0.37590218617732829 0 0.35220243833007192 0.36031300172404263 0 0.33717495727728802 0.36073463694560981 0 0.35220243833007192 0.36031300172404263 0 0.36537856512772232 0.37105754052093382 0 0.37203753533867912 0.35485031491787372 0 0.35787467094982728 0.34626364313268632 0 0.35220243833007192 0.36031300172404263 0 0.37203753533867912 0.35485031491787372 0 0.35787467094982728 0.34626364313268632 0 0.37203753533867912 0.35485031491787372 0 0.37069762144115292 0.33982204165680741 0 0.37069762144115292 0.33982204165680741 0 0.36757076937482408 0.32623181450980288 0 0.38201645205652018 0.33218132276933099 0 0.37069762144115292 0.33982204165680741 0 0.36757076937482408 0.32623181450980288 0 0.35799114506107821 0.33637319627958218 0 0.35787467094982728 0.34626364313268632 0 0.37069762144115292 0.33982204165680741 0 0.35799114506107821 0.33637319627958218 0 0.36724135121771312 0.3127044829703266 0 0.36757076937482408 0.32623181450980288 0 0.37973294640935801 0.31921225452171692 0 0.36724135121771312 0.3127044829703266 0 0.36757076937482408 0.32623181450980288 0 0.35984494692297259 0.31821827086620491 0 0.36724135121771312 0.3127044829703266 0 0.35984494692297259 0.31821827086620491 0 0.35440991977585012 0.31110090371365839 0 0.36757076937482408 0.32623181450980288 0 0.35015774732350341 0.32283588227103172 0 0.34215617974856261 0.33229218876563588 0 0.36757076937482408 0.32623181450980288 0 0.35984494692297259 0.31821827086620491 0 0.35015774732350341 0.32283588227103172 0 0.35984494692297259 0.31821827086620491 0 0.35015774732350341 0.32283588227103172 0 0.35440991977585012 0.31110090371365839 0 0.35015774732350341 0.32283588227103172 0 0.34552658790968399 0.3125197247455262 0 0.35015774732350341 0.32283588227103172 0 0.34552658790968399 0.3125197247455262 0 0.35440991977585012 0.31110090371365839 0 0.35799114506107821 0.33637319627958218 0 0.35045442574035918 0.34065895126866741 0 0.34215617974856261 0.33229218876563588 0 0.36757076937482408 0.32623181450980288 0 0.35799114506107821 0.33637319627958218 0 0.34215617974856261 0.33229218876563588 0 0.36757076937482408 0.32623181450980288 0 0.34215617974856261 0.33229218876563588 0 0.35787467094982728 0.34626364313268632 0 0.35799114506107821 0.33637319627958218 0 0.35045442574035918 0.34065895126866741 0 0.34379570720196878 0.3477067768967651 0 0.35045442574035918 0.34065895126866741 0 0.34215617974856261 0.33229218876563588 0 0.34379570720196878 0.3477067768967651 0 0.34215617974856261 0.33229218876563588 0 0.33162259497429641 0.34647972203649702 0 0.34215617974856261 0.33229218876563588 0 0.31674159012230102 0.33835256302146882 0 0.34215617974856261 0.33229218876563588 0 0.33523765770149272 0.32446811679110499 0 0.31674159012230102 0.33835256302146882 0 0.34215617974856261 0.33229218876563588 0 0.31674159012230102 0.33835256302146882 0 0.33162259497429641 0.34647972203649702 0 0.34552658790968399 0.3125197247455262 0 0.33523765770149272 0.32446811679110499 0 0.32160618340341213 0.31634022515186172 0 0.34552658790968399 0.3125197247455262 0 0.32160618340341213 0.31634022515186172 0 0.35015774732350341 0.32283588227103172 0 0.34552658790968399 0.3125197247455262 0 0.33523765770149272 0.32446811679110499 0 0.35015774732350341 0.32283588227103172 0 0.34215617974856261 0.33229218876563588 0 0.33523765770149272 0.32446811679110499 0 0.33523765770149272 0.32446811679110499 0 0.32160618340341213 0.31634022515186172 0 0.31674159012230102 0.33835256302146882 0 0.31674159012230102 0.33835256302146882 0 0.3215667160750118 0.3584359288323154 0 0.33162259497429641 0.34647972203649702 0 0.31674159012230102 0.33835256302146882 0 0.3215667160750118 0.3584359288323154 0 0.30535889430643409 0.35894974941670937 0 0.3215667160750118 0.3584359288323154 0 0.33162259497429641 0.34647972203649702 0 0.33717495727728802 0.36073463694560981 0 0.34379570720196878 0.3477067768967651 0 0.33162259497429641 0.34647972203649702 0 0.33717495727728802 0.36073463694560981 0 0.33101820253604253 0.37756117691693958 0 0.34957797697354759 0.37590218617732829 0 0.33717495727728802 0.36073463694560981 0 0.33101820253604253 0.37756117691693958 0 0.3215667160750118 0.3584359288323154 0 0.33717495727728802 0.36073463694560981 0 0.31107440996379732 0.37962288396052979 0 0.33101820253604253 0.37756117691693958 0 0.3215667160750118 0.3584359288323154 0 0.31107440996379732 0.37962288396052979 0 0.3215667160750118 0.3584359288323154 0 0.30535889430643409 0.35894974941670937 0 0.31107440996379732 0.37962288396052979 0 0.30535889430643409 0.35894974941670937 0 0.28982628431938279 0.37211285263153548 0 0.31674159012230102 0.33835256302146882 0 0.30535889430643409 0.35894974941670937 0 0.29432405686268071 0.34950876572276718 0 0.29432405686268071 0.34950876572276718 0 0.28982628431938279 0.37211285263153548 0 0.28030820522054162 0.35522736093492441 0 0.29432405686268071 0.34950876572276718 0 0.28030820522054162 0.35522736093492441 0 0.2883622798051787 0.33475784582485441 0 0.28982628431938279 0.37211285263153548 0 0.27757688401952979 0.36789230222665742 0 0.28030820522054162 0.35522736093492441 0 0.30535889430643409 0.35894974941670937 0 0.29432405686268071 0.34950876572276718 0 0.28982628431938279 0.37211285263153548 0 0.27043467926948622 0.37873019681974002 0 0.28982628431938279 0.37211285263153548 0 0.27757688401952979 0.36789230222665742 0 0.27757688401952979 0.36789230222665742 0 0.28030820522054162 0.35522736093492441 0 0.2644111445087507 0.36495642625555741 0 0.27043467926948622 0.37873019681974002 0 0.27757688401952979 0.36789230222665742 0 0.2644111445087507 0.36495642625555741 0 0.28030820522054162 0.35522736093492441 0 0.26508607181122462 0.35124636832921657 0 0.2644111445087507 0.36495642625555741 0 0.28030820522054162 0.35522736093492441 0 0.2719899659686022 0.34041035810115527 0 0.28030820522054162 0.35522736093492441 0 0.26508607181122462 0.35124636832921657 0 0.2719899659686022 0.34041035810115527 0 0.26508607181122462 0.35124636832921657 0 0.25181430083604889 0.35338203205652841 0 0.2644111445087507 0.36495642625555741 0 0.26508607181122462 0.35124636832921657 0 0.25690674252217988 0.34225566429791782 0 0.2719899659686022 0.34041035810115527 0 0.26508607181122462 0.35124636832921657 0 0.25181430083604889 0.35338203205652841 0 0.25690674252217988 0.34225566429791782 0 0.24566457739029471 0.34357471280060048 0 0.25181430083604889 0.35338203205652841 0 0.25690674252217988 0.34225566429791782 0 0.24546206847462301 0.36438275394215741 0 0.25223887686111818 0.37750785406457837 0 0.2644111445087507 0.36495642625555741 0 0.25223887686111818 0.37750785406457837 0 0.27043467926948622 0.37873019681974002 0 0.2644111445087507 0.36495642625555741 0 0.24546206847462301 0.36438275394215741 0 0.25181430083604889 0.35338203205652841 0 0.2644111445087507 0.36495642625555741 0 0.24622102445129401 0.33258936710566928 0 0.25828232139762097 0.31686438400046169 0 0.25451558262271368 0.32705574910868718 0 0.26367172671666272 0.32559335526738642 0 0.25828232139762097 0.31686438400046169 0 0.26367172671666272 0.32559335526738642 0 0.25828232139762097 0.31686438400046169 0 0.25451558262271368 0.32705574910868718 0 0.26367172671666272 0.32559335526738642 0 0.25451558262271368 0.32705574910868718 0 0.26367172671666272 0.32559335526738642 0 0.25828232139762097 0.31686438400046169 0 0.26776170709257341 0.32122161832220059 0 0.25828232139762097 0.31686438400046169 0 0.26776170709257341 0.32122161832220059 0 0.24622102445129401 0.33258936710566928 0 0.25451558262271368 0.32705574910868718 0 0.2536313303106485 0.33467873756621669 0 0.25451558262271368 0.32705574910868718 0 0.2536313303106485 0.33467873756621669 0 0.26014306962816142 0.33399877286827268 0 0.24566457739029471 0.34357471280060048 0 0.24882522992865611 0.33728654714727518 0 0.25690674252217988 0.34225566429791782 0 0.24882522992865611 0.33728654714727518 0 0.2536313303106485 0.33467873756621669 0 0.25690674252217988 0.34225566429791782 0 0.2536313303106485 0.33467873756621669 0 0.25690674252217988 0.34225566429791782 0 0.26014306962816142 0.33399877286827268 0 0.25690674252217988 0.34225566429791782 0 0.26014306962816142 0.33399877286827268 0 0.2719899659686022 0.34041035810115527 0 0.26367172671666272 0.32559335526738642 0 0.26014306962816142 0.33399877286827268 0 0.2719899659686022 0.34041035810115527 0 0.26367172671666272 0.32559335526738642 0 0.25451558262271368 0.32705574910868718 0 0.26014306962816142 0.33399877286827268 0 0.2719899659686022 0.34041035810115527 0 0.27716198763350391 0.33087056766743173 0 0.27376537439086818 0.32398122596453321 0 0.26367172671666272 0.32559335526738642 0 0.2719899659686022 0.34041035810115527 0 0.27376537439086818 0.32398122596453321 0 0.2719899659686022 0.34041035810115527 0 0.27716198763350391 0.33087056766743173 0 0.2883622798051787 0.33475784582485441 0 0.26367172671666272 0.32559335526738642 0 0.2719899659686022 0.34041035810115527 0 0.28030820522054162 0.35522736093492441 0 0.2719899659686022 0.34041035810115527 0 0.2883622798051787 0.33475784582485441 0 0.27716198763350391 0.33087056766743173 0 0.27376537439086818 0.32398122596453321 0 0.2883622798051787 0.33475784582485441 0 0.27376537439086818 0.32398122596453321 0 0.26776170709257341 0.32122161832220059 0 0.28448350971902681 0.31429431299226052 0 0.25828232139762097 0.31686438400046169 0 0.26776170709257341 0.32122161832220059 0 0.27223736305537499 0.30300190810516331 0 0.26367172671666272 0.32559335526738642 0 0.27376537439086818 0.32398122596453321 0 0.26367172671666272 0.32559335526738642 0 0.27376537439086818 0.32398122596453321 0 0.26776170709257341 0.32122161832220059 0 0.27376537439086818 0.32398122596453321 0 0.26776170709257341 0.32122161832220059 0 0.27376537439086818 0.32398122596453321 0 0.2883622798051787 0.33475784582485441 0 0.2976857788971401 0.32016072555819658 0 0.27376537439086818 0.32398122596453321 0 0.2976857788971401 0.32016072555819658 0 0.27376537439086818 0.32398122596453321 0 0.28448350971902681 0.31429431299226052 0 0.2976857788971401 0.32016072555819658 0 0.31674159012230102 0.33835256302146882 0 0.29432405686268071 0.34950876572276718 0 0.2883622798051787 0.33475784582485441 0 0.31674159012230102 0.33835256302146882 0 0.2883622798051787 0.33475784582485441 0 0.2976857788971401 0.32016072555819658 0 0.32160618340341213 0.31634022515186172 0 0.2976857788971401 0.32016072555819658 0 0.32160618340341213 0.31634022515186172 0 0.31674159012230102 0.33835256302146882 0 0.2976857788971401 0.32016072555819658 0 0.32160618340341213 0.31634022515186172 0 0.2976857788971401 0.32016072555819658 0 0.30811995401356618 0.30024129033251618 0 0.30811995401356618 0.30024129033251618 0 0.29869480838945128 0.27858235547982357 0 0.31663317510761102 0.28848271051310981 0 0.28322825774101251 0.29990198690101211 0 0.29869480838945128 0.27858235547982357 0 0.30811995401356618 0.30024129033251618 0 0.28322825774101251 0.29990198690101211 0 0.29869480838945128 0.27858235547982357 0 0.28587849042650398 0.28945126425868378 0 0.28322825774101251 0.29990198690101211 0 0.29869480838945128 0.27858235547982357 0 0.28587849042650398 0.28945126425868378 0 0.28808842269694951 0.27790402242299689 0 0.29869480838945128 0.27858235547982357 0 0.28448350971902681 0.31429431299226052 0 0.30811995401356618 0.30024129033251618 0 0.28322825774101251 0.29990198690101211 0 0.28448350971902681 0.31429431299226052 0 0.2976857788971401 0.32016072555819658 0 0.30811995401356618 0.30024129033251618 0 0.26776170709257341 0.32122161832220059 0 0.28322825774101251 0.29990198690101211 0 0.26776170709257341 0.32122161832220059 0 0.28322825774101251 0.29990198690101211 0 0.27223736305537499 0.30300190810516331 0 0.26776170709257341 0.32122161832220059 0 0.28448350971902681 0.31429431299226052 0 0.28322825774101251 0.29990198690101211 0 0.28587849042650398 0.28945126425868378 0 0.28322825774101251 0.29990198690101211 0 0.27223736305537499 0.30300190810516331 0 0.28587849042650398 0.28945126425868378 0 0.27223736305537499 0.30300190810516331 0 0.27046862864258958 0.28765643470515739 0 0.28587849042650398 0.28945126425868378 0 0.27223736305537499 0.30300190810516331 0 0.28587849042650398 0.28945126425868378 0 0.27046862864258958 0.28765643470515739 0 0.2780193994738866 0.27471161415232542 0 0.27223736305537499 0.30300190810516331 0 0.27046862864258958 0.28765643470515739 0 0.25919111998886057 0.29329488952416849 0 0.24201714875905131 0.28702077599381037 0 0.25919111998886057 0.29329488952416849 0 0.25488008865455442 0.27870182215812211 0 0.24201714875905131 0.28702077599381037 0 0.25919111998886057 0.29329488952416849 0 0.25030669222164897 0.3017866639727268 0 0.27046862864258958 0.28765643470515739 0 0.25919111998886057 0.29329488952416849 0 0.25488008865455442 0.27870182215812211 0 0.25919111998886057 0.29329488952416849 0 0.25030669222164897 0.3017866639727268 0 0.26037447312340328 0.30416647474525788 0 0.25828232139762097 0.31686438400046169 0 0.25030669222164897 0.3017866639727268 0 0.26037447312340328 0.30416647474525788 0 0.25828232139762097 0.31686438400046169 0 0.25030669222164897 0.3017866639727268 0 0.25828232139762097 0.31686438400046169 0 0.27223736305537499 0.30300190810516331 0 0.26037447312340328 0.30416647474525788 0 0.25828232139762097 0.31686438400046169 0 0.27223736305537499 0.30300190810516331 0 0.27223736305537499 0.30300190810516331 0 0.25919111998886057 0.29329488952416849 0 0.26037447312340328 0.30416647474525788 0 0.25399566878284502 0.26074565356189189 0 0.2703081024252923 0.26042648260146672 0 0.2669353122202206 0.24907042731734361 0 0.25399566878284502 0.26074565356189189 0 0.2669353122202206 0.24907042731734361 0 0.25469112926727061 0.24735262204999481 0 0.25399566878284502 0.26074565356189189 0 0.25488008865455442 0.27870182215812211 0 0.2703081024252923 0.26042648260146672 0 0.25488008865455442 0.27870182215812211 0 0.2703081024252923 0.26042648260146672 0 0.25488008865455442 0.27870182215812211 0 0.2780193994738866 0.27471161415232542 0 0.2703081024252923 0.26042648260146672 0 0.27046862864258958 0.28765643470515739 0 0.25488008865455442 0.27870182215812211 0 0.2780193994738866 0.27471161415232542 0 0.2703081024252923 0.26042648260146672 0 0.28628686012270538 0.25826067836103489 0 0.28574109184797331 0.24215534348259041 0 0.2780193994738866 0.27471161415232542 0 0.2703081024252923 0.26042648260146672 0 0.28628686012270538 0.25826067836103489 0 0.2703081024252923 0.26042648260146672 0 0.28574109184797331 0.24215534348259041 0 0.2703081024252923 0.26042648260146672 0 0.27823915624892809 0.24552658539675279 0 0.2669353122202206 0.24907042731734361 0 0.28628686012270538 0.25826067836103489 0 0.29995401426485557 0.2497037920572899 0 0.28574109184797331 0.24215534348259041 0 0.28628686012270538 0.25826067836103489 0 0.28976672056487279 0.2696504958585012 0 0.2977716068625717 0.26253608115158761 0 0.28628686012270538 0.25826067836103489 0 0.2977716068625717 0.26253608115158761 0 0.29995401426485557 0.2497037920572899 0 0.2780193994738866 0.27471161415232542 0 0.28628686012270538 0.25826067836103489 0 0.28976672056487279 0.2696504958585012 0 0.28976672056487279 0.2696504958585012 0 0.29869480838945128 0.27858235547982357 0 0.2977716068625717 0.26253608115158761 0 0.28587849042650398 0.28945126425868378 0 0.2780193994738866 0.27471161415232542 0 0.28808842269694951 0.27790402242299689 0 0.2780193994738866 0.27471161415232542 0 0.28808842269694951 0.27790402242299689 0 0.28976672056487279 0.2696504958585012 0 0.28808842269694951 0.27790402242299689 0 0.28976672056487279 0.2696504958585012 0 0.29869480838945128 0.27858235547982357 0 0.29869480838945128 0.27858235547982357 0 0.31416135903789072 0.25726272405863537 0 0.29869480838945128 0.27858235547982357 0 0.2977716068625717 0.26253608115158761 0 0.31416135903789072 0.25726272405863537 0 0.29869480838945128 0.27858235547982357 0 0.31755340403883081 0.27487781946581352 0 0.31663317510761102 0.28848271051310981 0 0.29869480838945128 0.27858235547982357 0 0.31416135903789072 0.25726272405863537 0 0.31755340403883081 0.27487781946581352 0 0.2977716068625717 0.26253608115158761 0 0.31416135903789072 0.25726272405863537 0 0.29995401426485557 0.2497037920572899 0 0.31416135903789072 0.25726272405863537 0 0.29995401426485557 0.2497037920572899 0 0.31124097988072691 0.25013535213493993 0 0.31416135903789072 0.25726272405863537 0 0.29995401426485557 0.2497037920572899 0 0.31416135903789072 0.25726272405863537 0 0.32277867139561062 0.26184751306650672 0 0.31755340403883081 0.27487781946581352 0 0.31416135903789072 0.25726272405863537 0 0.31821315740023343 0.25167758425328141 0 0.32277867139561062 0.26184751306650672 0 0.31821315740023343 0.25167758425328141 0 0.32765878468273468 0.25504289580986411 0 0.33612538188821528 0.24889966137315681 0 0.31124097988072691 0.25013535213493993 0 0.31416135903789072 0.25726272405863537 0 0.31821315740023343 0.25167758425328141 0 0.31416135903789072 0.25726272405863537 0 0.31821315740023343 0.25167758425328141 0 0.31416135903789072 0.25726272405863537 0 0.32277867139561062 0.26184751306650672 0 0.31821315740023343 0.25167758425328141 0 0.32277867139561062 0.26184751306650672 0 0.31821315740023343 0.25167758425328141 0 0.32277867139561062 0.26184751306650672 0 0.32765878468273468 0.25504289580986411 0 0.32277867139561062 0.26184751306650672 0 0.32765878468273468 0.25504289580986411 0 0.34084623047913198 0.27146024878345459 0 0.32765878468273468 0.25504289580986411 0 0.34084623047913198 0.27146024878345459 0 0.33612538188821528 0.24889966137315681 0 0.34084623047913198 0.27146024878345459 0 0.35375279146260019 0.25317428802075892 0 0.33612538188821528 0.24889966137315681 0 0.32277867139561062 0.26184751306650672 0 0.34084623047913198 0.27146024878345459 0 0.33306353389361493 0.28475759932719519 0 0.32277867139561062 0.26184751306650672 0 0.34084623047913198 0.27146024878345459 0 0.34084623047913198 0.27146024878345459 0 0.33306353389361493 0.28475759932719519 0 0.34492619044888417 0.28220671539937198 0 0.32277867139561062 0.26184751306650672 0 0.33306353389361493 0.28475759932719519 0 0.32277867139561062 0.26184751306650672 0 0.31755340403883081 0.27487781946581352 0 0.33306353389361493 0.28475759932719519 0 0.31755340403883081 0.27487781946581352 0 0.31663317510761102 0.28848271051310981 0 0.33306353389361493 0.28475759932719519 0 0.31663317510761102 0.28848271051310981 0 0.32573417520259151 0.30395448796020058 0 0.33306353389361493 0.28475759932719519 0 0.32160618340341213 0.31634022515186172 0 0.30811995401356618 0.30024129033251618 0 0.32573417520259151 0.30395448796020058 0 0.30811995401356618 0.30024129033251618 0 0.31663317510761102 0.28848271051310981 0 0.32573417520259151 0.30395448796020058 0 0.30811995401356618 0.30024129033251618 0 0.32573417520259151 0.30395448796020058 0 0.32573417520259151 0.30395448796020058 0 0.34334839639161691 0.30766768558788482 0 0.33306353389361493 0.28475759932719519 0 0.32573417520259151 0.30395448796020058 0 0.34334839639161691 0.30766768558788482 0 0.32160618340341213 0.31634022515186172 0 0.32573417520259151 0.30395448796020058 0 0.34334839639161691 0.30766768558788482 0 0.34552658790968399 0.3125197247455262 0 0.32160618340341213 0.31634022515186172 0 0.34334839639161691 0.30766768558788482 0 0.34334839639161691 0.30766768558788482 0 0.33306353389361493 0.28475759932719519 0 0.34688120786013571 0.29153602898643732 0 0.34334839639161691 0.30766768558788482 0 0.33306353389361493 0.28475759932719519 0 0.33306353389361493 0.28475759932719519 0 0.34492619044888417 0.28220671539937198 0 0.34688120786013571 0.29153602898643732 0 0.34688120786013571 0.29153602898643732 0 0.36008145318468499 0.29814798859093949 0 0.35891378956265418 0.28107298450040108 0 0.34492619044888417 0.28220671539937198 0 0.34688120786013571 0.29153602898643732 0 0.35891378956265418 0.28107298450040108 0 0.36724135121771312 0.3127044829703266 0 0.34334839639161691 0.30766768558788482 0 0.36724135121771312 0.3127044829703266 0 0.34334839639161691 0.30766768558788482 0 0.35440991977585012 0.31110090371365839 0 0.36724135121771312 0.3127044829703266 0 0.34334839639161691 0.30766768558788482 0 0.36008145318468499 0.29814798859093949 0 0.34334839639161691 0.30766768558788482 0 0.34688120786013571 0.29153602898643732 0 0.36008145318468499 0.29814798859093949 0 0.34552658790968399 0.3125197247455262 0 0.35440991977585012 0.31110090371365839 0 0.34552658790968399 0.3125197247455262 0 0.34334839639161691 0.30766768558788482 0 0.35440991977585012 0.31110090371365839 0 0.34552658790968399 0.3125197247455262 0 0.34334839639161691 0.30766768558788482 0 0.36008145318468499 0.29814798859093949 0 0.37281612264816122 0.3020847061123606 0 0.37698134864617577 0.29068572021734879 0 0.36724135121771312 0.3127044829703266 0 0.36008145318468499 0.29814798859093949 0 0.37281612264816122 0.3020847061123606 0 0.35891378956265418 0.28107298450040108 0 0.37698134864617577 0.29068572021734879 0 0.36008145318468499 0.29814798859093949 0 0.35891378956265418 0.28107298450040108 0 0.37698134864617577 0.29068572021734879 0 0.36536707005438751 0.27193000411905421 0 0.37698134864617577 0.29068572021734879 0 0.36536707005438751 0.27193000411905421 0 0.38158475690038268 0.27451273104133461 0 0.37698134864617577 0.29068572021734879 0 0.36536707005438751 0.27193000411905421 0 0.35891378956265418 0.28107298450040108 0 0.37698134864617577 0.29068572021734879 0 0.36536707005438751 0.27193000411905421 0 0.37017485774649572 0.26270180193783321 0 0.38158475690038268 0.27451273104133461 0 0.37017485774649572 0.26270180193783321 0 0.35375279146260019 0.25317428802075892 0 0.36602873626671428 0.24753889456754241 0 0.36536707005438751 0.27193000411905421 0 0.37017485774649572 0.26270180193783321 0 0.35375279146260019 0.25317428802075892 0 0.37017485774649572 0.26270180193783321 0 0.36602873626671428 0.24753889456754241 0 0.38302269682145762 0.2407745680815867 0 0.36536707005438751 0.27193000411905421 0 0.35375279146260019 0.25317428802075892 0 0.36536707005438751 0.27193000411905421 0 0.35375279146260019 0.25317428802075892 0 0.35313632301990833 0.27014623330501381 0 0.34084623047913198 0.27146024878345459 0 0.35375279146260019 0.25317428802075892 0 0.35313632301990833 0.27014623330501381 0 0.34084623047913198 0.27146024878345459 0 0.35891378956265418 0.28107298450040108 0 0.35313632301990833 0.27014623330501381 0 0.34084623047913198 0.27146024878345459 0 0.34492619044888417 0.28220671539937198 0 0.35891378956265418 0.28107298450040108 0 0.34084623047913198 0.27146024878345459 0 0.35891378956265418 0.28107298450040108 0 0.36536707005438751 0.27193000411905421 0 0.35891378956265418 0.28107298450040108 0 0.35313632301990833 0.27014623330501381 0 0.40259262485812197 0.26780448228131132 0 0.38800042801244777 0.25834820960113319 0 0.38158475690038268 0.27451273104133461 0 0.40259262485812197 0.26780448228131132 0 0.38158475690038268 0.27451273104133461 0 0.39629213075573921 0.28392796121430319 0 0.40259262485812197 0.26780448228131132 0 0.38800042801244777 0.25834820960113319 0 0.40597266594897641 0.24236965432817781 0 0.37017485774649572 0.26270180193783321 0 0.38800042801244777 0.25834820960113319 0 0.38302269682145762 0.2407745680815867 0 0.37017485774649572 0.26270180193783321 0 0.38800042801244777 0.25834820960113319 0 0.38158475690038268 0.27451273104133461 0 0.37017485774649572 0.26270180193783321 0 0.38302269682145762 0.2407745680815867 0 0.37698134864617577 0.29068572021734879 0 0.39778171423435099 0.30175242913417882 0 0.39629213075573921 0.28392796121430319 0 0.37698134864617577 0.29068572021734879 0 0.39778171423435099 0.30175242913417882 0 0.38158475690038268 0.27451273104133461 0 0.37698134864617577 0.29068572021734879 0 0.39629213075573921 0.28392796121430319 0 0.36724135121771312 0.3127044829703266 0 0.38696033754407039 0.30680063267082902 0 0.39113430604380928 0.31774128035276822 0 0.37698134864617577 0.29068572021734879 0 0.38696033754407039 0.30680063267082902 0 0.37698134864617577 0.29068572021734879 0 0.38696033754407039 0.30680063267082902 0 0.39778171423435099 0.30175242913417882 0 0.36724135121771312 0.3127044829703266 0 0.37281612264816122 0.3020847061123606 0 0.38696033754407039 0.30680063267082902 0 0.37281612264816122 0.3020847061123606 0 0.37698134864617577 0.29068572021734879 0 0.38696033754407039 0.30680063267082902 0 0.38696033754407039 0.30680063267082902 0 0.39569952705840239 0.30972125039471682 0 0.39778171423435099 0.30175242913417882 0 0.38696033754407039 0.30680063267082902 0 0.39569952705840239 0.30972125039471682 0 0.39113430604380928 0.31774128035276822 0 0.39569952705840239 0.30972125039471682 0 0.39778171423435099 0.30175242913417882 0 0.40507181037160528 0.3105766565380611 0 0.39569952705840239 0.30972125039471682 0 0.40507181037160528 0.3105766565380611 0 0.40037557902751519 0.31421624003209447 0 0.39778171423435099 0.30175242913417882 0 0.39629213075573921 0.28392796121430319 0 0.42252020913966509 0.28488444339734159 0 0.39778171423435099 0.30175242913417882 0 0.41858207982252221 0.31281913805101669 0 0.39778171423435099 0.30175242913417882 0 0.40507181037160528 0.3105766565380611 0 0.41858207982252221 0.31281913805101669 0 0.39778171423435099 0.30175242913417882 0 0.42252020913966509 0.28488444339734159 0 0.41858207982252221 0.31281913805101669 0 0.42252020913966509 0.28488444339734159 0 0.41858207982252221 0.31281913805101669 0 0.43205616648139689 0.30103996830563712 0 0.42252020913966509 0.28488444339734159 0 0.41858207982252221 0.31281913805101669 0 0.42675028208217669 0.31211984179812158 0 0.43205616648139689 0.30103996830563712 0 0.41858207982252221 0.31281913805101669 0 0.42675028208217669 0.31211984179812158 0 0.43205616648139689 0.30103996830563712 0 0.43701609536514902 0.30818875062458989 0 0.43205616648139689 0.30103996830563712 0 0.42252020913966509 0.28488444339734159 0 0.43969418724738918 0.28474814911606777 0 0.42252020913966509 0.28488444339734159 0 0.42645833845681058 0.25694974874366722 0 0.43969418724738918 0.28474814911606777 0 0.42252020913966509 0.28488444339734159 0 0.42645833845681058 0.25694974874366722 0 0.40259262485812197 0.26780448228131132 0 0.39629213075573921 0.28392796121430319 0 0.42252020913966509 0.28488444339734159 0 0.40259262485812197 0.26780448228131132 0 0.42252020913966509 0.28488444339734159 0 0.42645833845681058 0.25694974874366722 0 0.40259262485812197 0.26780448228131132 0 0.42645833845681058 0.25694974874366722 0 0.40597266594897641 0.24236965432817781 0 0.42645833845681058 0.25694974874366722 0 0.45340131521648308 0.26352742615763308 0 0.44793440932526851 0.24372790195292879 0 0.45340131521648308 0.26352742615763308 0 0.45979612483159421 0.28630245135949373 0 0.43969418724738918 0.28474814911606777 0 0.42645833845681058 0.25694974874366722 0 0.45340131521648308 0.26352742615763308 0 0.43969418724738918 0.28474814911606777 0 0.45340131521648308 0.26352742615763308 0 0.47381925033194822 0.26606967870208048 0 0.45979612483159421 0.28630245135949373 0 0.45340131521648308 0.26352742615763308 0 0.44793440932526851 0.24372790195292879 0 0.47647197505969702 0.2436065613626649 0 0.45340131521648308 0.26352742615763308 0 0.47381925033194822 0.26606967870208048 0 0.47647197505969702 0.2436065613626649 0 0.47381925033194822 0.26606967870208048 0 0.49999999999999889 0.26167240331464331 0 0.47647197505969702 0.2436065613626649 0 0.47381925033194822 0.26606967870208048 0 0.47989806241579919 0.28785675360291968 0 0.45979612483159421 0.28630245135949373 0 0.47381925033194822 0.26606967870208048 0 0.48846672198772539 0.27552272818609508 0 0.47989806241579919 0.28785675360291968 0 0.47381925033194822 0.26606967870208048 0 0.48846672198772539 0.27552272818609508 0 0.49999999999999889 0.26167240331464331 0 0.48846672198772539 0.27552272818609508 0 0.49999999999999889 0.26167240331464331 0 0.50000000000000411 0.28941105584634602 0 0.49999999999999889 0.26167240331464331 0 0.47647197505969702 0.2436065613626649 0 0.48579564706955608 0.3032799574916003 0 0.50000000000000411 0.28941105584634602 0 0.5 0.31778029876343339 0 0.50000000000000411 0.28941105584634602 0 0.47989806241579919 0.28785675360291968 0 0.48846672198772539 0.27552272818609508 0 0.50000000000000411 0.28941105584634602 0 0.47989806241579919 0.28785675360291968 0 0.48579564706955608 0.3032799574916003 0 0.50000000000000411 0.28941105584634602 0 0.47989806241579919 0.28785675360291968 0 0.47989806241579919 0.28785675360291968 0 0.45979612483159421 0.28630245135949373 0 0.47989806241579919 0.28785675360291968 0 0.46909298787511561 0.30002195372545892 0 0.45979612483159421 0.28630245135949373 0 0.48579564706955608 0.3032799574916003 0 0.47989806241579919 0.28785675360291968 0 0.46909298787511561 0.30002195372545892 0 0.48579564706955608 0.3032799574916003 0 0.46909298787511561 0.30002195372545892 0 0.47183416337797601 0.31813856782640371 0 0.46909298787511561 0.30002195372545892 0 0.44814094168065238 0.30453203834687681 0 0.47183416337797601 0.31813856782640371 0 0.46909298787511561 0.30002195372545892 0 0.45979612483159421 0.28630245135949373 0 0.44814094168065238 0.30453203834687681 0 0.45979612483159421 0.28630245135949373 0 0.43969418724738918 0.28474814911606777 0 0.44814094168065238 0.30453203834687681 0 0.43205616648139689 0.30103996830563712 0 0.43969418724738918 0.28474814911606777 0 0.44814094168065238 0.30453203834687681 0 0.45979612483159421 0.28630245135949373 0 0.43969418724738918 0.28474814911606777 0 0.43205616648139689 0.30103996830563712 0 0.43701609536514902 0.30818875062458989 0 0.44814094168065238 0.30453203834687681 0 0.43701609536514902 0.30818875062458989 0 0.44814094168065238 0.30453203834687681 0 0.44528614637622299 0.32702687541950459 0 0.44528614637622299 0.32702687541950459 0 0.44982332054562768 0.34699795590419857 0 0.43160021912057861 0.34412196323253719 0 0.44528614637622299 0.32702687541950459 0 0.47036984988349062 0.34037250841303462 0 0.44982332054562768 0.34699795590419857 0 0.44528614637622299 0.32702687541950459 0 0.47036984988349062 0.34037250841303462 0 0.44528614637622299 0.32702687541950459 0 0.47183416337797601 0.31813856782640371 0 0.47036984988349062 0.34037250841303462 0 0.44814094168065238 0.30453203834687681 0 0.44528614637622299 0.32702687541950459 0 0.47183416337797601 0.31813856782640371 0 0.47183416337797601 0.31813856782640371 0 0.47036984988349062 0.34037250841303462 0 0.48753151333044492 0.33523181161799143 0 0.47036984988349062 0.34037250841303462 0 0.48753151333044492 0.33523181161799143 0 0.49545355339075797 0.35371814140656449 0 0.48753151333044492 0.33523181161799143 0 0.5 0.31778029876343339 0 0.5 0.34614954168052081 0 0.48579564706955608 0.3032799574916003 0 0.47183416337797601 0.31813856782640371 0 0.5 0.31778029876343339 0 0.47183416337797601 0.31813856782640371 0 0.48753151333044492 0.33523181161799143 0 0.5 0.31778029876343339 0 0.5 0.37451878459760818 0 0.49545355339075797 0.35371814140656449 0 0.48374204154260653 0.3679592085584017 0 0.48753151333044492 0.33523181161799143 0 0.5 0.34614954168052081 0 0.49545355339075797 0.35371814140656449 0 0.5 0.37451878459760818 0 0.5 0.34614954168052081 0 0.49545355339075797 0.35371814140656449 0 0.47036984988349062 0.34037250841303462 0 0.49545355339075797 0.35371814140656449 0 0.47036984988349062 0.34037250841303462 0 0.49545355339075797 0.35371814140656449 0 0.48374204154260653 0.3679592085584017 0 0.47036984988349062 0.34037250841303462 0 0.48374204154260653 0.3679592085584017 0 0.46025610165948161 0.36166988080622031 0 0.48374204154260653 0.3679592085584017 0 0.46025610165948161 0.36166988080622031 0 0.46556439291418061 0.37948629372242748 0 0.48374204154260653 0.3679592085584017 0 0.46556439291418061 0.37948629372242748 0 0.46025610165948161 0.36166988080622031 0 0.45015679188583452 0.37528543496302658 0 0.46556439291418061 0.37948629372242748 0 0.47036984988349062 0.34037250841303462 0 0.46025610165948161 0.36166988080622031 0 0.44982332054562768 0.34699795590419857 0 0.46025610165948161 0.36166988080622031 0 0.44982332054562768 0.34699795590419857 0 0.44160428568836479 0.36179855164969621 0 0.44982332054562768 0.34699795590419857 0 0.44160428568836479 0.36179855164969621 0 0.43160021912057861 0.34412196323253719 0 0.46025610165948161 0.36166988080622031 0 0.44160428568836479 0.36179855164969621 0 0.45015679188583452 0.37528543496302658 0 0.44160428568836479 0.36179855164969621 0 0.43024145145636472 0.38059251978062691 0 0.45015679188583452 0.37528543496302658 0 0.44160428568836479 0.36179855164969621 0 0.41184711231699772 0.36059290209428208 0 0.43024145145636472 0.38059251978062691 0 0.41184711231699772 0.36059290209428208 0 0.40857069416182512 0.38383382014235801 0 0.41184711231699772 0.36059290209428208 0 0.43160021912057861 0.34412196323253719 0 0.41512353047217032 0.33735198404620609 0 0.41184711231699772 0.36059290209428208 0 0.41512353047217032 0.33735198404620609 0 0.41184711231699772 0.36059290209428208 0 0.41512353047217032 0.33735198404620609 0 0.40067674085149468 0.34978701555526459 0 0.44160428568836479 0.36179855164969621 0 0.41184711231699772 0.36059290209428208 0 0.43160021912057861 0.34412196323253719 0 0.43160021912057861 0.34412196323253719 0 0.42608542167261149 0.32768828410372708 0 0.41512353047217032 0.33735198404620609 0 0.44528614637622299 0.32702687541950459 0 0.43160021912057861 0.34412196323253719 0 0.42608542167261149 0.32768828410372708 0 0.44528614637622299 0.32702687541950459 0 0.42608542167261149 0.32768828410372708 0 0.4202024428689547 0.31368124242597623 0 0.42675028208217669 0.31211984179812158 0 0.44528614637622299 0.32702687541950459 0 0.4202024428689547 0.31368124242597623 0 0.44528614637622299 0.32702687541950459 0 0.4202024428689547 0.31368124242597623 0 0.42675028208217669 0.31211984179812158 0 0.43701609536514902 0.30818875062458989 0 0.44528614637622299 0.32702687541950459 0 0.42675028208217669 0.31211984179812158 0 0.4202024428689547 0.31368124242597623 0 0.41858207982252221 0.31281913805101669 0 0.40727453339062492 0.32377497219610513 0 0.41512353047217032 0.33735198404620609 0 0.42608542167261149 0.32768828410372708 0 0.41858207982252221 0.31281913805101669 0 0.41512353047217032 0.33735198404620609 0 0.41858207982252221 0.31281913805101669 0 0.40727453339062492 0.32377497219610513 0 0.39298535900108561 0.32017144025396987 0 0.40507181037160528 0.3105766565380611 0 0.41858207982252221 0.31281913805101669 0 0.40037557902751519 0.31421624003209447 0 0.41858207982252221 0.31281913805101669 0 0.41512353047217032 0.33735198404620609 0 0.42675028208217669 0.31211984179812158 0 0.41858207982252221 0.31281913805101669 0 0.4202024428689547 0.31368124242597623 0 0.42608542167261149 0.32768828410372708 0 0.41858207982252221 0.31281913805101669 0 0.4202024428689547 0.31368124242597623 0 0.41858207982252221 0.31281913805101669 0 0.4202024428689547 0.31368124242597623 0 0.40727453339062492 0.32377497219610513 0 0.41512353047217032 0.33735198404620609 0 0.40006164249417658 0.33532515060101331 0 0.41512353047217032 0.33735198404620609 0 0.40006164249417658 0.33532515060101331 0 0.40067674085149468 0.34978701555526459 0 0.40727453339062492 0.32377497219610513 0 0.40006164249417658 0.33532515060101331 0 0.39801244116108758 0.32739690091070639 0 0.40006164249417658 0.33532515060101331 0 0.39172822975846339 0.33031604059173753 0 0.39801244116108758 0.32739690091070639 0 0.40006164249417658 0.33532515060101331 0 0.38645969875443631 0.34488537444165851 0 0.40067674085149468 0.34978701555526459 0 0.40006164249417658 0.33532515060101331 0 0.39172822975846339 0.33031604059173753 0 0.38645969875443631 0.34488537444165851 0 0.41858207982252221 0.31281913805101669 0 0.40037557902751519 0.31421624003209447 0 0.39298535900108561 0.32017144025396987 0 0.41858207982252221 0.31281913805101669 0 0.39298535900108561 0.32017144025396987 0 0.40727453339062492 0.32377497219610513 0 0.39801244116108758 0.32739690091070639 0 0.39298535900108561 0.32017144025396987 0 0.39172822975846339 0.33031604059173753 0 0.39801244116108758 0.32739690091070639 0 0.39298535900108561 0.32017144025396987 0 0.40037557902751519 0.31421624003209447 0 0.39298535900108561 0.32017144025396987 0 0.39113430604380928 0.31774128035276822 0 0.39569952705840239 0.30972125039471682 0 0.40037557902751519 0.31421624003209447 0 0.39113430604380928 0.31774128035276822 0 0.36724135121771312 0.3127044829703266 0 0.39113430604380928 0.31774128035276822 0 0.37973294640935801 0.31921225452171692 0 0.36724135121771312 0.3127044829703266 0 0.39113430604380928 0.31774128035276822 0 0.36757076937482408 0.32623181450980288 0 0.39298535900108561 0.32017144025396987 0 0.38201645205652018 0.33218132276933099 0 0.36757076937482408 0.32623181450980288 0 0.39298535900108561 0.32017144025396987 0 0.36757076937482408 0.32623181450980288 0 0.39298535900108561 0.32017144025396987 0 0.37973294640935801 0.31921225452171692 0 0.39298535900108561 0.32017144025396987 0 0.39113430604380928 0.31774128035276822 0 0.37973294640935801 0.31921225452171692 0 0.39172822975846339 0.33031604059173753 0 0.39298535900108561 0.32017144025396987 0 0.38201645205652018 0.33218132276933099 0 0.37069762144115292 0.33982204165680741 0 0.38201645205652018 0.33218132276933099 0 0.38645969875443631 0.34488537444165851 0 0.39172822975846339 0.33031604059173753 0 0.38201645205652018 0.33218132276933099 0 0.38645969875443631 0.34488537444165851 0 0.37203753533867912 0.35485031491787372 0 0.37069762144115292 0.33982204165680741 0 0.38645969875443631 0.34488537444165851 0 0.37203753533867912 0.35485031491787372 0 0.38645969875443631 0.34488537444165851 0 0.38888953171271989 0.36748092606130123 0 0.36537856512772232 0.37105754052093382 0 0.37203753533867912 0.35485031491787372 0 0.38888953171271989 0.36748092606130123 0 0.36537856512772232 0.37105754052093382 0 0.38888953171271989 0.36748092606130123 0 0.3764668726657 0.38117041745600011 0 0.41184711231699772 0.36059290209428208 0 0.38888953171271989 0.36748092606130123 0 0.40857069416182512 0.38383382014235801 0 0.38645969875443631 0.34488537444165851 0 0.38888953171271989 0.36748092606130123 0 0.40067674085149468 0.34978701555526459 0 0.41184711231699772 0.36059290209428208 0 0.38888953171271989 0.36748092606130123 0 0.40067674085149468 0.34978701555526459 0 0.38928863256417751 0.39278062047207962 0 0.37995596981844992 0.41187890682635497 0 0.40529427600665308 0.40707473819043388 0 0.38928863256417751 0.39278062047207962 0 0.40529427600665308 0.40707473819043388 0 0.40857069416182512 0.38383382014235801 0 0.38888953171271989 0.36748092606130123 0 0.38928863256417751 0.39278062047207962 0 0.40857069416182512 0.38383382014235801 0 0.36231076125818051 0.39336258276968578 0 0.3764668726657 0.38117041745600011 0 0.38928863256417751 0.39278062047207962 0 0.38888953171271989 0.36748092606130123 0 0.3764668726657 0.38117041745600011 0 0.38928863256417751 0.39278062047207962 0 0.36231076125818051 0.39336258276968578 0 0.38928863256417751 0.39278062047207962 0 0.37995596981844992 0.41187890682635497 0 0.37995596981844992 0.41187890682635497 0 0.38229372058655747 0.43229115045649208 0 0.40364842836433662 0.41874938054778499 0 0.38229372058655747 0.43229115045649208 0 0.40197563778236739 0.4306151397353456 0 0.38267153858502978 0.44754007165100518 0 0.36568023253862642 0.42940852557186038 0 0.37995596981844992 0.41187890682635497 0 0.38229372058655747 0.43229115045649208 0 0.38229372058655747 0.43229115045649208 0 0.40197563778236739 0.4306151397353456 0 0.40364842836433662 0.41874938054778499 0 0.38229372058655747 0.43229115045649208 0 0.40364842836433662 0.41874938054778499 0 0.40197563778236739 0.4306151397353456 0 0.40364842836433662 0.41874938054778499 0 0.37995596981844992 0.41187890682635497 0 0.40529427600665308 0.40707473819043388 0 0.37995596981844992 0.41187890682635497 0 0.40364842836433662 0.41874938054778499 0 0.40529427600665308 0.40707473819043388 0 0.40364842836433662 0.41874938054778499 0 0.40529427600665308 0.40707473819043388 0 0.40364842836433662 0.41874938054778499 0 0.41658839364271372 0.41780335838733701 0 0.42920909565732962 0.40254046405047988 0 0.40364842836433662 0.41874938054778499 0 0.40529427600665308 0.40707473819043388 0 0.42920909565732962 0.40254046405047988 0 0.40364842836433662 0.41874938054778499 0 0.42920909565732962 0.40254046405047988 0 0.40197563778236739 0.4306151397353456 0 0.41464478005298899 0.43154761084323567 0 0.40965168246842221 0.44281131253502359 0 0.40197563778236739 0.4306151397353456 0 0.41658839364271372 0.41780335838733701 0 0.41464478005298899 0.43154761084323567 0 0.40197563778236739 0.4306151397353456 0 0.41658839364271372 0.41780335838733701 0 0.40197563778236739 0.4306151397353456 0 0.40364842836433662 0.41874938054778499 0 0.41658839364271372 0.41780335838733701 0 0.41658839364271372 0.41780335838733701 0 0.41464478005298899 0.43154761084323567 0 0.42374344448656431 0.42685134825409438 0 0.41464478005298899 0.43154761084323567 0 0.42374344448656431 0.42685134825409438 0 0.42185625058091791 0.44032097903512601 0 0.42374344448656431 0.42685134825409438 0 0.43421620114112303 0.43507582088741348 0 0.42185625058091791 0.44032097903512601 0 0.42374344448656431 0.42685134825409438 0 0.43338117113269242 0.42307809724704021 0 0.42772097482353022 0.41712794947061549 0 0.42374344448656431 0.42685134825409438 0 0.43338117113269242 0.42307809724704021 0 0.43421620114112303 0.43507582088741348 0 0.41658839364271372 0.41780335838733701 0 0.43120114950306049 0.40499157703932909 0 0.42920909565732962 0.40254046405047988 0 0.41658839364271372 0.41780335838733701 0 0.43120114950306049 0.40499157703932909 0 0.41658839364271372 0.41780335838733701 0 0.42772097482353022 0.41712794947061549 0 0.43120114950306049 0.40499157703932909 0 0.41658839364271372 0.41780335838733701 0 0.42374344448656431 0.42685134825409438 0 0.42772097482353022 0.41712794947061549 0 0.43338117113269242 0.42307809724704021 0 0.43369071535261988 0.41291536642527688 0 0.44278805018751949 0.41854150159261011 0 0.43338117113269242 0.42307809724704021 0 0.42772097482353022 0.41712794947061549 0 0.43369071535261988 0.41291536642527688 0 0.43369071535261988 0.41291536642527688 0 0.436442040365566 0.40590226622026498 0 0.43120114950306049 0.40499157703932909 0 0.43369071535261988 0.41291536642527688 0 0.436442040365566 0.40590226622026498 0 0.44154960743607991 0.40868163964819082 0 0.42772097482353022 0.41712794947061549 0 0.43369071535261988 0.41291536642527688 0 0.43120114950306049 0.40499157703932909 0 0.43354408375822018 0.40171854589554618 0 0.42920909565732962 0.40254046405047988 0 0.44738674428575481 0.39101337888645321 0 0.42920909565732962 0.40254046405047988 0 0.43024145145636472 0.38059251978062691 0 0.44738674428575481 0.39101337888645321 0 0.436442040365566 0.40590226622026498 0 0.43354408375822018 0.40171854589554618 0 0.44193959002428462 0.40229693711507369 0 0.436442040365566 0.40590226622026498 0 0.43354408375822018 0.40171854589554618 0 0.43120114950306049 0.40499157703932909 0 0.43354408375822018 0.40171854589554618 0 0.42920909565732962 0.40254046405047988 0 0.43354408375822018 0.40171854589554618 0 0.43120114950306049 0.40499157703932909 0 0.42920909565732962 0.40254046405047988 0 0.40529427600665308 0.40707473819043388 0 0.42920909565732962 0.40254046405047988 0 0.40857069416182512 0.38383382014235801 0 0.40529427600665308 0.40707473819043388 0 0.40857069416182512 0.38383382014235801 0 0.40529427600665308 0.40707473819043388 0 0.42920909565732962 0.40254046405047988 0 0.41184711231699772 0.36059290209428208 0 0.40857069416182512 0.38383382014235801 0 0.43024145145636472 0.38059251978062691 0 0.42920909565732962 0.40254046405047988 0 0.40857069416182512 0.38383382014235801 0 0.43024145145636472 0.38059251978062691 0 0.43024145145636472 0.38059251978062691 0 0.45015679188583452 0.37528543496302658 0 0.44738674428575481 0.39101337888645321 0 0.42920909565732962 0.40254046405047988 0 0.44738674428575481 0.39101337888645321 0 0.44193959002428462 0.40229693711507369 0 0.45077547427580172 0.40416885492491328 0 0.44154960743607991 0.40868163964819082 0 0.436442040365566 0.40590226622026498 0 0.44193959002428462 0.40229693711507369 0 0.44154960743607991 0.40868163964819082 0 0.43354408375822018 0.40171854589554618 0 0.44193959002428462 0.40229693711507369 0 0.44738674428575481 0.39101337888645321 0 0.44193959002428462 0.40229693711507369 0 0.44738674428575481 0.39101337888645321 0 0.45077547427580172 0.40416885492491328 0 0.44738674428575481 0.39101337888645321 0 0.45077547427580172 0.40416885492491328 0 0.46512394536637242 0.39866832111088002 0 0.45077547427580172 0.40416885492491328 0 0.46512394536637242 0.39866832111088002 0 0.4599206958743744 0.41273624169713008 0 0.45015679188583452 0.37528543496302658 0 0.44738674428575481 0.39101337888645321 0 0.46556439291418061 0.37948629372242748 0 0.44738674428575481 0.39101337888645321 0 0.46556439291418061 0.37948629372242748 0 0.44738674428575481 0.39101337888645321 0 0.46512394536637242 0.39866832111088002 0 0.46556439291418061 0.37948629372242748 0 0.46512394536637242 0.39866832111088002 0 0.46556439291418061 0.37948629372242748 0 0.48387210684197202 0.38902596270610512 0 0.48374204154260653 0.3679592085584017 0 0.46556439291418061 0.37948629372242748 0 0.48387210684197202 0.38902596270610512 0 0.46512394536637242 0.39866832111088002 0 0.48387210684197202 0.38902596270610512 0 0.47883453983207402 0.41401037351773212 0 0.48387210684197202 0.38902596270610512 0 0.5 0.40288802751469571 0 0.47883453983207402 0.41401037351773212 0 0.5 0.37451878459760818 0 0.48374204154260653 0.3679592085584017 0 0.48387210684197202 0.38902596270610512 0 0.5 0.37451878459760818 0 0.48387210684197202 0.38902596270610512 0 0.5 0.40288802751469571 0 0.5 0.43125727043178319 0 0.47883453983207402 0.41401037351773212 0 0.47830650290725019 0.436153432658416 0 0.5 0.40288802751469571 0 0.5 0.43125727043178319 0 0.47883453983207402 0.41401037351773212 0 0.47883453983207402 0.41401037351773212 0 0.47830650290725019 0.436153432658416 0 0.46366595507111341 0.42766591515506902 0 0.46366595507111341 0.42766591515506902 0 0.44705288400500959 0.43091083881267622 0 0.46116288414391582 0.44506538369413828 0 0.46366595507111341 0.42766591515506902 0 0.4523749584104792 0.42051276867426579 0 0.44705288400500959 0.43091083881267622 0 0.47830650290725019 0.436153432658416 0 0.46366595507111341 0.42766591515506902 0 0.46116288414391582 0.44506538369413828 0 0.47883453983207402 0.41401037351773212 0 0.46366595507111341 0.42766591515506902 0 0.4599206958743744 0.41273624169713008 0 0.46512394536637242 0.39866832111088002 0 0.47883453983207402 0.41401037351773212 0 0.4599206958743744 0.41273624169713008 0 0.4599206958743744 0.41273624169713008 0 0.44844720691437889 0.41270934611384358 0 0.4523749584104792 0.42051276867426579 0 0.46366595507111341 0.42766591515506902 0 0.4599206958743744 0.41273624169713008 0 0.4523749584104792 0.42051276867426579 0 0.45077547427580172 0.40416885492491328 0 0.44844720691437889 0.41270934611384358 0 0.44154960743607991 0.40868163964819082 0 0.45077547427580172 0.40416885492491328 0 0.4599206958743744 0.41273624169713008 0 0.44844720691437889 0.41270934611384358 0 0.44844720691437889 0.41270934611384358 0 0.4523749584104792 0.42051276867426579 0 0.44278805018751949 0.41854150159261011 0 0.43369071535261988 0.41291536642527688 0 0.44278805018751949 0.41854150159261011 0 0.44154960743607991 0.40868163964819082 0 0.44844720691437889 0.41270934611384358 0 0.44278805018751949 0.41854150159261011 0 0.44154960743607991 0.40868163964819082 0 0.4523749584104792 0.42051276867426579 0 0.44278805018751949 0.41854150159261011 0 0.44705288400500959 0.43091083881267622 0 0.43338117113269242 0.42307809724704021 0 0.44278805018751949 0.41854150159261011 0 0.44705288400500959 0.43091083881267622 0 0.43338117113269242 0.42307809724704021 0 0.43421620114112303 0.43507582088741348 0 0.44705288400500959 0.43091083881267622 0 0.43421620114112303 0.43507582088741348 0 0.44705288400500959 0.43091083881267622 0 0.4476980995236759 0.44403549919921897 0 0.43421620114112303 0.43507582088741348 0 0.4476980995236759 0.44403549919921897 0 0.43542368458675212 0.44787957123825389 0 0.4476980995236759 0.44403549919921897 0 0.45003972958078831 0.45945261823967659 0 0.43542368458675212 0.44787957123825389 0 0.4476980995236759 0.44403549919921897 0 0.45003972958078831 0.45945261823967659 0 0.46116288414391582 0.44506538369413828 0 0.44705288400500959 0.43091083881267622 0 0.4476980995236759 0.44403549919921897 0 0.46116288414391582 0.44506538369413828 0 0.45003972958078831 0.45945261823967659 0 0.43523664704459991 0.47490036341564779 0 0.43542368458675212 0.44787957123825389 0 0.45003972958078831 0.45945261823967659 0 0.46496033530244202 0.46552475016542672 0 0.45449806799291848 0.4790002954677639 0 0.45003972958078831 0.45945261823967659 0 0.46496033530244202 0.46552475016542672 0 0.46116288414391582 0.44506538369413828 0 0.46496033530244202 0.46552475016542672 0 0.46116288414391582 0.44506538369413828 0 0.4774729323040286 0.4560761887905817 0 0.47830650290725019 0.436153432658416 0 0.46116288414391582 0.44506538369413828 0 0.4774729323040286 0.4560761887905817 0 0.46496033530244202 0.46552475016542672 0 0.4774729323040286 0.4560761887905817 0 0.48293493916653518 0.4740108640860568 0 0.4774729323040286 0.4560761887905817 0 0.5 0.45962651334887072 0 0.48293493916653518 0.4740108640860568 0 0.5 0.43125727043178319 0 0.47830650290725019 0.436153432658416 0 0.5 0.45962651334887072 0 0.47830650290725019 0.436153432658416 0 0.4774729323040286 0.4560761887905817 0 0.5 0.45962651334887072 0 0.4850830589683699 0.49399787813297752 0 0.5 0.5 0 0.47016611793674151 0.49999999999999839 0 0.4850830589683699 0.49399787813297752 0 0.49999999999999889 0.48799575626595831 0 0.48293493916653518 0.4740108640860568 0 0.4850830589683699 0.49399787813297752 0 0.5 0.5 0 0.49999999999999889 0.48799575626595831 0 0.4850830589683699 0.49399787813297752 0 0.49999999999999889 0.48799575626595831 0 0.5 0.45962651334887072 0 0.49999999999999889 0.48799575626595831 0 0.48293493916653518 0.4740108640860568 0 0.46496033530244202 0.46552475016542672 0 0.48293493916653518 0.4740108640860568 0 0.47096222736365029 0.48382258407943368 0 0.4850830589683699 0.49399787813297752 0 0.48293493916653518 0.4740108640860568 0 0.47096222736365029 0.48382258407943368 0 0.4850830589683699 0.49399787813297752 0 0.47096222736365029 0.48382258407943368 0 0.47016611793674151 0.49999999999999839 0 0.4850830589683699 0.49399787813297752 0 0.47016611793674151 0.49999999999999839 0 0.47096222736365029 0.48382258407943368 0 0.47016611793674151 0.49999999999999839 0 0.45995045784101868 0.4907057198867994 0 0.47016611793674151 0.49999999999999839 0 0.45995045784101868 0.4907057198867994 0 0.44417541807076483 0.5 0 0.47096222736365029 0.48382258407943368 0 0.45995045784101868 0.4907057198867994 0 0.45449806799291848 0.4790002954677639 0 0.46496033530244202 0.46552475016542672 0 0.47096222736365029 0.48382258407943368 0 0.45449806799291848 0.4790002954677639 0 0.45003972958078831 0.45945261823967659 0 0.45449806799291848 0.4790002954677639 0 0.43523664704459991 0.47490036341564779 0 0.45995045784101868 0.4907057198867994 0 0.45449806799291848 0.4790002954677639 0 0.44417541807076483 0.5 0 0.45449806799291848 0.4790002954677639 0 0.44417541807076483 0.5 0 0.43523664704459991 0.47490036341564779 0 0.44417541807076483 0.5 0 0.41818471820478809 0.5 0 0.43523664704459991 0.47490036341564779 0 0.41818471820478809 0.5 0 0.41436964748118099 0.48101581199728882 0 0.43523664704459991 0.47490036341564779 0 0.41818471820478809 0.5 0 0.41436964748118099 0.48101581199728882 0 0.39219401833881118 0.49999999999999151 0 0.41436964748118099 0.48101581199728882 0 0.41668882052398792 0.46046401620365263 0 0.39545455815332942 0.47687171324510952 0 0.41436964748118099 0.48101581199728882 0 0.43523664704459991 0.47490036341564779 0 0.41668882052398792 0.46046401620365263 0 0.43523664704459991 0.47490036341564779 0 0.43542368458675212 0.44787957123825389 0 0.41668882052398792 0.46046401620365263 0 0.43542368458675212 0.44787957123825389 0 0.42185625058091791 0.44032097903512601 0 0.41668882052398792 0.46046401620365263 0 0.43421620114112303 0.43507582088741348 0 0.43542368458675212 0.44787957123825389 0 0.42185625058091791 0.44032097903512601 0 0.40965168246842221 0.44281131253502359 0 0.41668882052398792 0.46046401620365263 0 0.39871509796784882 0.45374342649022759 0 0.42185625058091791 0.44032097903512601 0 0.40965168246842221 0.44281131253502359 0 0.41668882052398792 0.46046401620365263 0 0.41464478005298899 0.43154761084323567 0 0.42185625058091791 0.44032097903512601 0 0.40965168246842221 0.44281131253502359 0 0.39871509796784882 0.45374342649022759 0 0.38139011217877611 0.46554983394391802 0 0.39545455815332942 0.47687171324510952 0 0.39871509796784882 0.45374342649022759 0 0.39545455815332942 0.47687171324510952 0 0.41668882052398792 0.46046401620365263 0 0.39871509796784882 0.45374342649022759 0 0.39545455815332942 0.47687171324510952 0 0.40197563778236739 0.4306151397353456 0 0.38267153858502978 0.44754007165100518 0 0.40197563778236739 0.4306151397353456 0 0.39871509796784882 0.45374342649022759 0 0.38267153858502978 0.44754007165100518 0 0.40197563778236739 0.4306151397353456 0 0.40965168246842221 0.44281131253502359 0 0.39871509796784882 0.45374342649022759 0 0.40197563778236739 0.4306151397353456 0 0.39871509796784882 0.45374342649022759 0 0.36093901280877527 0.4458329203651944 0 0.38229372058655747 0.43229115045649208 0 0.38267153858502978 0.44754007165100518 0 0.39871509796784882 0.45374342649022759 0 0.38267153858502978 0.44754007165100518 0 0.38139011217877611 0.46554983394391802 0 0.36336743938769273 0.46446500356666559 0 0.38267153858502978 0.44754007165100518 0 0.38139011217877611 0.46554983394391802 0 0.37231271511160657 0.48183561470949499 0 0.38139011217877611 0.46554983394391802 0 0.39545455815332942 0.47687171324510952 0 0.37231271511160657 0.48183561470949499 0 0.39219401833881118 0.49999999999999151 0 0.39545455815332942 0.47687171324510952 0 0.36302555917851992 0.5 0 0.37231271511160657 0.48183561470949499 0 0.39219401833881118 0.49999999999999151 0 0.41436964748118099 0.48101581199728882 0 0.39219401833881118 0.49999999999999151 0 0.39545455815332942 0.47687171324510952 0 0.39219401833881118 0.49999999999999151 0 0.39545455815332942 0.47687171324510952 0 0.33434525985227692 0.085223886848625724 0 0.33295678237235837 0.074893155024705782 0 0.32602880821617569 0.083645774024160707 0 0.33434525985227692 0.085223886848625724 0 0.32602880821617569 0.083645774024160707 0 0.33041479664506218 0.094181855435424067 0 0.33434525985227692 0.085223886848625724 0 0.34071241049088308 0.092130631414454905 0 0.33041479664506218 0.094181855435424067 0 0.33434525985227692 0.085223886848625724 0 0.34071241049088308 0.092130631414454905 0 0.34161350153690478 0.081268018344383103 0 0.34071241049088308 0.092130631414454905 0 0.34161350153690478 0.081268018344383103 0 0.34657148655642123 0.086647532759032087 0 0.33434525985227692 0.085223886848625724 0 0.34161350153690478 0.081268018344383103 0 0.33295678237235837 0.074893155024705782 0 0.34161350153690478 0.081268018344383103 0 0.34232160884578589 0.068860258481103484 0 0.33295678237235837 0.074893155024705782 0 0.34232160884578589 0.068860258481103484 0 0.34865566537940218 0.067553398393598155 0 0.33656383503670528 0.062486619514863027 0 0.34232160884578589 0.068860258481103484 0 0.33235713648757398 0.062670344195356747 0 0.33656383503670528 0.062486619514863027 0 0.34232160884578589 0.068860258481103484 0 0.33235713648757398 0.062670344195356747 0 0.34232160884578589 0.068860258481103484 0 0.33656383503670528 0.062486619514863027 0 0.33235713648757398 0.062670344195356747 0 0.33295678237235837 0.074893155024705782 0 0.32356636207862999 0.07263450921363096 0 0.34232160884578589 0.068860258481103484 0 0.33235713648757398 0.062670344195356747 0 0.33295678237235837 0.074893155024705782 0 0.33235713648757398 0.062670344195356747 0 0.33656383503670528 0.062486619514863027 0 0.33295678237235837 0.074893155024705782 0 0.32356636207862999 0.07263450921363096 0 0.32602880821617569 0.083645774024160707 0 0.33235713648757398 0.062670344195356747 0 0.31196244370916693 0.063561068446377017 0 0.33235713648757398 0.062670344195356747 0 0.32356636207862999 0.07263450921363096 0 0.31196244370916693 0.063561068446377017 0 0.32356636207862999 0.07263450921363096 0 0.31441924175684671 0.078804472958115254 0 0.31196244370916693 0.063561068446377017 0 0.31441924175684671 0.078804472958115254 0 0.32602880821617569 0.083645774024160707 0 0.31737223579994472 0.10312874901782761 0 0.32602880821617569 0.083645774024160707 0 0.31737223579994472 0.10312874901782761 0 0.33041479664506218 0.094181855435424067 0 0.32356636207862999 0.07263450921363096 0 0.31441924175684671 0.078804472958115254 0 0.32602880821617569 0.083645774024160707 0 0.31737223579994472 0.10312874901782761 0 0.33041479664506218 0.094181855435424067 0 0.33330470471333618 0.10494316204185181 0 0.31456226573870572 0.1188145171696544 0 0.33123347744569942 0.1212212529499641 0 0.31588783824187888 0.12963869222719099 0 0.31737223579994472 0.10312874901782761 0 0.31456226573870572 0.1188145171696544 0 0.33123347744569942 0.1212212529499641 0 0.31737223579994472 0.10312874901782761 0 0.31456226573870572 0.1188145171696544 0 0.30624020578140893 0.11367679579694361 0 0.31737223579994472 0.10312874901782761 0 0.33123347744569942 0.1212212529499641 0 0.33330470471333618 0.10494316204185181 0 0.31737223579994472 0.10312874901782761 0 0.33123347744569942 0.1212212529499641 0 0.33123347744569942 0.1212212529499641 0 0.33330470471333618 0.10494316204185181 0 0.34544726938425913 0.1109786392591034 0 0.33123347744569942 0.1212212529499641 0 0.34773068287978609 0.1245784996473145 0 0.34544726938425913 0.1109786392591034 0 0.34071241049088308 0.092130631414454905 0 0.33041479664506218 0.094181855435424067 0 0.33330470471333618 0.10494316204185181 0 0.33330470471333618 0.10494316204185181 0 0.34811428724040611 0.1004277981593413 0 0.34544726938425913 0.1109786392591034 0 0.34071241049088308 0.092130631414454905 0 0.33330470471333618 0.10494316204185181 0 0.34811428724040611 0.1004277981593413 0 0.34071241049088308 0.092130631414454905 0 0.34811428724040611 0.1004277981593413 0 0.34993085205738322 0.091371379664849428 0 0.34811428724040611 0.1004277981593413 0 0.35486742081066841 0.106063808358349 0 0.34544726938425913 0.1109786392591034 0 0.35486742081066841 0.106063808358349 0 0.35813617926949909 0.097580332816774584 0 0.36320319731235018 0.1016970897903782 0 0.34811428724040611 0.1004277981593413 0 0.35486742081066841 0.106063808358349 0 0.35813617926949909 0.097580332816774584 0 0.34811428724040611 0.1004277981593413 0 0.35813617926949909 0.097580332816774584 0 0.34993085205738322 0.091371379664849428 0 0.34773068287978609 0.1245784996473145 0 0.34544726938425913 0.1109786392591034 0 0.35212396698882892 0.1166423822157673 0 0.35486742081066841 0.106063808358349 0 0.34544726938425913 0.1109786392591034 0 0.35212396698882892 0.1166423822157673 0 0.35212396698882892 0.1166423822157673 0 0.36114027346562888 0.11824685649907329 0 0.36217962466866749 0.1090566079087292 0 0.35486742081066841 0.106063808358349 0 0.35212396698882892 0.1166423822157673 0 0.36217962466866749 0.1090566079087292 0 0.34773068287978609 0.1245784996473145 0 0.35212396698882892 0.1166423822157673 0 0.36114027346562888 0.11824685649907329 0 0.34773068287978609 0.1245784996473145 0 0.36114027346562888 0.11824685649907329 0 0.36075382445134618 0.1280917515473739 0 0.36114027346562888 0.11824685649907329 0 0.37120354339752631 0.11933077434222621 0 0.36075382445134618 0.1280917515473739 0 0.36114027346562888 0.11824685649907329 0 0.36217962466866749 0.1090566079087292 0 0.37283881518866352 0.1092023578701464 0 0.36114027346562888 0.11824685649907329 0 0.37120354339752631 0.11933077434222621 0 0.37283881518866352 0.1092023578701464 0 0.36573675543524009 0.094779944743779626 0 0.36320319731235018 0.1016970897903782 0 0.36982684613364503 0.099307521254285991 0 0.35813617926949909 0.097580332816774584 0 0.36573675543524009 0.094779944743779626 0 0.35813617926949909 0.097580332816774584 0 0.36573675543524009 0.094779944743779626 0 0.36320319731235018 0.1016970897903782 0 0.35486742081066841 0.106063808358349 0 0.36320319731235018 0.1016970897903782 0 0.36217962466866749 0.1090566079087292 0 0.36320319731235018 0.1016970897903782 0 0.36701212082583151 0.1048158942058849 0 0.36982684613364503 0.099307521254285991 0 0.36320319731235018 0.1016970897903782 0 0.36217962466866749 0.1090566079087292 0 0.36701212082583151 0.1048158942058849 0 0.36701212082583151 0.1048158942058849 0 0.37283881518866352 0.1092023578701464 0 0.36982684613364503 0.099307521254285991 0 0.36217962466866749 0.1090566079087292 0 0.36701212082583151 0.1048158942058849 0 0.37283881518866352 0.1092023578701464 0 0.36573675543524009 0.094779944743779626 0 0.36982684613364503 0.099307521254285991 0 0.36573675543524009 0.094779944743779626 0 0.37449503421231478 0.081860185604329117 0 0.36425719543108898 0.084348464620327995 0 0.36573675543524009 0.094779944743779626 0 0.36982684613364503 0.099307521254285991 0 0.38739311114497182 0.086800786465305049 0 0.37449503421231478 0.081860185604329117 0 0.36425719543108898 0.084348464620327995 0 0.36458221102563088 0.072899006778559497 0 0.36573675543524009 0.094779944743779626 0 0.35402918214051371 0.081820101612440924 0 0.36573675543524009 0.094779944743779626 0 0.36425719543108898 0.084348464620327995 0 0.35402918214051371 0.081820101612440924 0 0.35813617926949909 0.097580332816774584 0 0.35402918214051371 0.081820101612440924 0 0.34993085205738322 0.091371379664849428 0 0.35813617926949909 0.097580332816774584 0 0.36573675543524009 0.094779944743779626 0 0.35402918214051371 0.081820101612440924 0 0.36425719543108898 0.084348464620327995 0 0.35402918214051371 0.081820101612440924 0 0.35620223234105808 0.073627892518187993 0 0.34161350153690478 0.081268018344383103 0 0.35402918214051371 0.081820101612440924 0 0.34657148655642123 0.086647532759032087 0 0.35402918214051371 0.081820101612440924 0 0.34993085205738322 0.091371379664849428 0 0.34657148655642123 0.086647532759032087 0 0.34071241049088308 0.092130631414454905 0 0.34993085205738322 0.091371379664849428 0 0.34657148655642123 0.086647532759032087 0 0.34865566537940218 0.067553398393598155 0 0.35434537534549282 0.061710022909774523 0 0.33656383503670528 0.062486619514863027 0 0.34232160884578589 0.068860258481103484 0 0.34865566537940218 0.067553398393598155 0 0.35068547246007609 0.074055877176102125 0 0.34232160884578589 0.068860258481103484 0 0.35068547246007609 0.074055877176102125 0 0.34232160884578589 0.068860258481103484 0 0.35402918214051371 0.081820101612440924 0 0.34161350153690478 0.081268018344383103 0 0.34232160884578589 0.068860258481103484 0 0.35402918214051371 0.081820101612440924 0 0.34232160884578589 0.068860258481103484 0 0.35402918214051371 0.081820101612440924 0 0.35068547246007609 0.074055877176102125 0 0.35402918214051371 0.081820101612440924 0 0.35068547246007609 0.074055877176102125 0 0.35620223234105808 0.073627892518187993 0 0.34865566537940218 0.067553398393598155 0 0.35068547246007609 0.074055877176102125 0 0.35620223234105808 0.073627892518187993 0 0.34865566537940218 0.067553398393598155 0 0.35620223234105808 0.073627892518187993 0 0.35434537534549282 0.061710022909774523 0 0.35620223234105808 0.073627892518187993 0 0.36458221102563088 0.072899006778559497 0 0.35434537534549282 0.061710022909774523 0 0.36458221102563088 0.072899006778559497 0 0.37212691565428019 0.06093342630468538 0 0.35434537534549282 0.061710022909774523 0 0.37449503421231478 0.081860185604329117 0 0.37212691565428019 0.06093342630468538 0 0.37449503421231478 0.081860185604329117 0 0.36458221102563088 0.072899006778559497 0 0.37212691565428019 0.06093342630468538 0 0.36425719543108898 0.084348464620327995 0 0.35620223234105808 0.073627892518187993 0 0.36458221102563088 0.072899006778559497 0 0.37212691565428019 0.06093342630468538 0 0.36919054831138548 0.034985125535885932 0 0.380293339954552 0.051151997288722093 0 0.37212691565428019 0.06093342630468538 0 0.36919054831138548 0.034985125535885932 0 0.37212691565428019 0.06093342630468538 0 0.36173455356601553 0.049106415544006063 0 0.35434537534549282 0.061710022909774523 0 0.37212691565428019 0.06093342630468538 0 0.35434537534549282 0.061710022909774523 0 0.37212691565428019 0.06093342630468538 0 0.36173455356601553 0.049106415544006063 0 0.36919054831138548 0.034985125535885932 0 0.36919054831138548 0.034985125535885932 0 0.35796885987439342 0.040027147951826179 0 0.35659641833881178 0.031235829446382139 0 0.36173455356601553 0.049106415544006063 0 0.36919054831138548 0.034985125535885932 0 0.35796885987439342 0.040027147951826179 0 0.36173455356601553 0.049106415544006063 0 0.35796885987439342 0.040027147951826179 0 0.35301299584274942 0.047536057305405187 0 0.35796885987439342 0.040027147951826179 0 0.34930978331300472 0.037272311927451549 0 0.35301299584274942 0.047536057305405187 0 0.35796885987439342 0.040027147951826179 0 0.34930978331300472 0.037272311927451549 0 0.35659641833881178 0.031235829446382139 0 0.34930978331300472 0.037272311927451549 0 0.35659641833881178 0.031235829446382139 0 0.34983165429550023 0.028368671678766218 0 0.34930978331300472 0.037272311927451549 0 0.34428485728400271 0.030005401355308711 0 0.34138554356790868 0.034687097574719723 0 0.34930978331300472 0.037272311927451549 0 0.34983165429550023 0.028368671678766218 0 0.34428485728400271 0.030005401355308711 0 0.34930978331300472 0.037272311927451549 0 0.34126215607840221 0.040750250202241461 0 0.34138554356790868 0.034687097574719723 0 0.34930978331300472 0.037272311927451549 0 0.34614202918886172 0.04495084918918707 0 0.34126215607840221 0.040750250202241461 0 0.34930978331300472 0.037272311927451549 0 0.34614202918886172 0.04495084918918707 0 0.35301299584274942 0.047536057305405187 0 0.34677892346112132 0.052289896261448143 0 0.35434537534549282 0.061710022909774523 0 0.35301299584274942 0.047536057305405187 0 0.35434537534549282 0.061710022909774523 0 0.33656383503670528 0.062486619514863027 0 0.34196216895507758 0.05603592695369191 0 0.34614202918886172 0.04495084918918707 0 0.34677892346112132 0.052289896261448143 0 0.34026427424152977 0.048466856868302197 0 0.35434537534549282 0.061710022909774523 0 0.33656383503670528 0.062486619514863027 0 0.34614202918886172 0.04495084918918707 0 0.34677892346112132 0.052289896261448143 0 0.35301299584274942 0.047536057305405187 0 0.34677892346112132 0.052289896261448143 0 0.35434537534549282 0.061710022909774523 0 0.34196216895507758 0.05603592695369191 0 0.36173455356601553 0.049106415544006063 0 0.35434537534549282 0.061710022909774523 0 0.35301299584274942 0.047536057305405187 0 0.36550899953369981 0.0024517522133788799 0 0.36745106585583581 0.0096593148345833872 0 0.37089158385951743 0.0034932803020960969 0 0.37956009188044232 0.0054639270967038961 0 0.37335478626556751 -0.0010199995163838169 0 0.37089158385951743 0.0034932803020960969 0 0.36745106585583581 0.0096593148345833872 0 0.37956009188044232 0.0054639270967038961 0 0.36550899953369981 0.0024517522133788799 0 0.37089158385951743 0.0034932803020960969 0 0.37335478626556751 -0.0010199995163838169 0 0.36550899953369981 0.0024517522133788799 0 0.37089158385951743 0.0034932803020960969 0 0.36745106585583581 0.0096593148345833872 0 0.36745106585583581 0.0096593148345833872 0 0.36021524735595539 0.010233273742162379 0 0.35850969402454402 0.0088072403270883903 0 0.36745106585583581 0.0096593148345833872 0 0.36222173146214581 0.01250586891256893 0 0.36237142560905727 0.01777768451344203 0 0.36745106585583581 0.0096593148345833872 0 0.35850969402454402 0.0088072403270883903 0 0.3525825563107593 0.005303006154672248 0 0.36745106585583581 0.0096593148345833872 0 0.36021524735595539 0.010233273742162379 0 0.36222173146214581 0.01250586891256893 0 0.36237142560905727 0.01777768451344203 0 0.35689925508096138 0.01520074180235689 0 0.35933889019421789 0.01327468512299256 0 0.36222173146214581 0.01250586891256893 0 0.36237142560905727 0.01777768451344203 0 0.35933889019421789 0.01327468512299256 0 0.36021524735595539 0.010233273742162379 0 0.36222173146214581 0.01250586891256893 0 0.35933889019421789 0.01327468512299256 0 0.36919054831138548 0.034985125535885932 0 0.36745106585583581 0.0096593148345833872 0 0.36237142560905727 0.01777768451344203 0 0.36919054831138548 0.034985125535885932 0 0.36745106585583581 0.0096593148345833872 0 0.37089736354892361 0.022449509562283719 0 0.36919054831138548 0.034985125535885932 0 0.36745106585583581 0.0096593148345833872 0 0.36919054831138548 0.034985125535885932 0 0.36237142560905727 0.01777768451344203 0 0.35853498599235478 0.023050639323253439 0 0.36745106585583581 0.0096593148345833872 0 0.37089736354892361 0.022449509562283719 0 0.36919054831138548 0.034985125535885932 0 0.37089736354892361 0.022449509562283719 0 0.38109424490894372 0.031302638199904267 0 0.36919054831138548 0.034985125535885932 0 0.35659641833881178 0.031235829446382139 0 0.35853498599235478 0.023050639323253439 0 0.35659641833881178 0.031235829446382139 0 0.35294422793862601 0.023851380212371869 0 0.35853498599235478 0.023050639323253439 0 0.35659641833881178 0.031235829446382139 0 0.35294422793862601 0.023851380212371869 0 0.34983165429550023 0.028368671678766218 0 0.34983165429550023 0.028368671678766218 0 0.34839312609445638 0.019747637033799861 0 0.34231291710592582 0.023914615526936009 0 0.35294422793862601 0.023851380212371869 0 0.34983165429550023 0.028368671678766218 0 0.34839312609445638 0.019747637033799861 0 0.34983165429550023 0.028368671678766218 0 0.34428485728400271 0.030005401355308711 0 0.34231291710592582 0.023914615526936009 0 0.34839312609445638 0.019747637033799861 0 0.34058208040281768 0.014824466778771349 0 0.34231291710592582 0.023914615526936009 0 0.34839312609445638 0.019747637033799861 0 0.34689066124018592 0.013720245915012899 0 0.34058208040281768 0.014824466778771349 0 0.34839312609445638 0.019747637033799861 0 0.35157848766937322 0.01463989357766558 0 0.34689066124018592 0.013720245915012899 0 0.34839312609445638 0.019747637033799861 0 0.35367001655515429 0.01929805838988953 0 0.35157848766937322 0.01463989357766558 0 0.35367001655515429 0.01929805838988953 0 0.35853498599235478 0.023050639323253439 0 0.35689925508096138 0.01520074180235689 0 0.35367001655515429 0.01929805838988953 0 0.35689925508096138 0.01520074180235689 0 0.35157848766937322 0.01463989357766558 0 0.36237142560905727 0.01777768451344203 0 0.35853498599235478 0.023050639323253439 0 0.35689925508096138 0.01520074180235689 0 0.35294422793862601 0.023851380212371869 0 0.34839312609445638 0.019747637033799861 0 0.35367001655515429 0.01929805838988953 0 0.35294422793862601 0.023851380212371869 0 0.35367001655515429 0.01929805838988953 0 0.35853498599235478 0.023050639323253439 0 0.36550899953369981 0.0024517522133788799 0 0.36745106585583581 0.0096593148345833872 0 0.34048390649112098 -0.004366084792897738 0 0.36745106585583581 0.0096593148345833872 0 0.34048390649112098 -0.004366084792897738 0 0.36745106585583581 0.0096593148345833872 0 0.3525825563107593 0.005303006154672248 0 0.34048390649112098 -0.004366084792897738 0 0.35689925508096138 0.01520074180235689 0 0.35933889019421789 0.01327468512299256 0 0.35498679146296958 0.010655856644432559 0 0.36021524735595539 0.010233273742162379 0 0.35850969402454402 0.0088072403270883903 0 0.35498679146296958 0.010655856644432559 0 0.36021524735595539 0.010233273742162379 0 0.35933889019421789 0.01327468512299256 0 0.35498679146296958 0.010655856644432559 0 0.35498679146296958 0.010655856644432559 0 0.34967236977288868 0.010048493035362019 0 0.3525825563107593 0.005303006154672248 0 0.35850969402454402 0.0088072403270883903 0 0.35498679146296958 0.010655856644432559 0 0.3525825563107593 0.005303006154672248 0 0.35689925508096138 0.01520074180235689 0 0.35498679146296958 0.010655856644432559 0 0.35157848766937322 0.01463989357766558 0 0.35498679146296958 0.010655856644432559 0 0.35157848766937322 0.01463989357766558 0 0.34967236977288868 0.010048493035362019 0 0.35157848766937322 0.01463989357766558 0 0.34689066124018592 0.013720245915012899 0 0.34967236977288868 0.010048493035362019 0 0.34689066124018592 0.013720245915012899 0 0.34555775455485188 0.0090199269618207907 0 0.34058208040281768 0.014824466778771349 0 0.34689066124018592 0.013720245915012899 0 0.34555775455485188 0.0090199269618207907 0 0.34967236977288868 0.010048493035362019 0 0.34555775455485188 0.0090199269618207907 0 0.34967236977288868 0.010048493035362019 0 0.34874324465030648 0.0067332563582576527 0 0.34874324465030648 0.0067332563582576527 0 0.34661422612040882 0.0032960273972630801 0 0.3525825563107593 0.005303006154672248 0 0.34967236977288868 0.010048493035362019 0 0.34874324465030648 0.0067332563582576527 0 0.3525825563107593 0.005303006154672248 0 0.34661422612040882 0.0032960273972630801 0 0.3525825563107593 0.005303006154672248 0 0.34048390649112098 -0.004366084792897738 0 0.34555775455485188 0.0090199269618207907 0 0.34661422612040882 0.0032960273972630801 0 0.33958905890479751 0.0062575172292186308 0 0.34555775455485188 0.0090199269618207907 0 0.34874324465030648 0.0067332563582576527 0 0.34661422612040882 0.0032960273972630801 0 0.33231672106315707 0.00076736276325971243 0 0.32927132637571033 0.0091537903724042483 0 0.3237582470597658 -0.0036832242047534821 0 0.33231672106315707 0.00076736276325971243 0 0.33958905890479751 0.0062575172292186308 0 0.32927132637571033 0.0091537903724042483 0 0.33231672106315707 0.00076736276325971243 0 0.34063004757963988 0.0011895600491483281 0 0.33958905890479751 0.0062575172292186308 0 0.34661422612040882 0.0032960273972630801 0 0.34063004757963988 0.0011895600491483281 0 0.34048390649112098 -0.004366084792897738 0 0.34661422612040882 0.0032960273972630801 0 0.34063004757963988 0.0011895600491483281 0 0.33958905890479751 0.0062575172292186308 0 0.34555775455485188 0.0090199269618207907 0 0.33958905890479751 0.0062575172292186308 0 0.34058208040281768 0.014824466778771349 0 0.33958905890479751 0.0062575172292186308 0 0.34058208040281768 0.014824466778771349 0 0.32927132637571033 0.0091537903724042483 0 0.34058208040281768 0.014824466778771349 0 0.32927132637571033 0.0091537903724042483 0 0.33259179226175811 0.02124494498093614 0 0.34058208040281768 0.014824466778771349 0 0.33259179226175811 0.02124494498093614 0 0.34231291710592582 0.023914615526936009 0 0.33259179226175811 0.02124494498093614 0 0.34231291710592582 0.023914615526936009 0 0.33701607703249692 0.0298701225898034 0 0.34428485728400271 0.030005401355308711 0 0.34231291710592582 0.023914615526936009 0 0.33701607703249692 0.0298701225898034 0 0.33259179226175811 0.02124494498093614 0 0.33701607703249692 0.0298701225898034 0 0.32817092864320679 0.030804032229243241 0 0.33259179226175811 0.02124494498093614 0 0.32817092864320679 0.030804032229243241 0 0.32049330478588373 0.018989680506113261 0 0.32817092864320679 0.030804032229243241 0 0.31729285203700458 0.030715300411105088 0 0.32049330478588373 0.018989680506113261 0 0.31729285203700458 0.030715300411105088 0 0.32049330478588373 0.018989680506113261 0 0.30565777065165689 0.017187559291614821 0 0.32927132637571033 0.0091537903724042483 0 0.33259179226175811 0.02124494498093614 0 0.32049330478588373 0.018989680506113261 0 0.32927132637571033 0.0091537903724042483 0 0.32049330478588373 0.018989680506113261 0 0.31505504448721611 0.0068383069611849916 0 0.32049330478588373 0.018989680506113261 0 0.31505504448721611 0.0068383069611849916 0 0.30565777065165689 0.017187559291614821 0 0.32927132637571033 0.0091537903724042483 0 0.31505504448721611 0.0068383069611849916 0 0.3237582470597658 -0.0036832242047534821 0 0.33235713648757398 0.062670344195356747 0 0.33656383503670528 0.062486619514863027 0 0.31800271709620059 0.041940160330230729 0 0.33545387579140629 0.052532674854295643 0 0.329754536179657 0.047339616089383058 0 0.33656383503670528 0.062486619514863027 0 0.33545387579140629 0.052532674854295643 0 0.329754536179657 0.047339616089383058 0 0.33453276772620782 0.046578197002638079 0 0.33545387579140629 0.052532674854295643 0 0.33656383503670528 0.062486619514863027 0 0.34196216895507758 0.05603592695369191 0 0.34677892346112132 0.052289896261448143 0 0.34196216895507758 0.05603592695369191 0 0.34026427424152977 0.048466856868302197 0 0.33545387579140629 0.052532674854295643 0 0.34196216895507758 0.05603592695369191 0 0.34026427424152977 0.048466856868302197 0 0.33545387579140629 0.052532674854295643 0 0.34026427424152977 0.048466856868302197 0 0.33453276772620782 0.046578197002638079 0 0.34614202918886172 0.04495084918918707 0 0.34026427424152977 0.048466856868302197 0 0.34126215607840221 0.040750250202241461 0 0.34126215607840221 0.040750250202241461 0 0.33612307176769429 0.042924799851400963 0 0.33434823439141431 0.036199585802387309 0 0.34026427424152977 0.048466856868302197 0 0.33612307176769429 0.042924799851400963 0 0.33453276772620782 0.046578197002638079 0 0.34026427424152977 0.048466856868302197 0 0.34126215607840221 0.040750250202241461 0 0.33612307176769429 0.042924799851400963 0 0.34428485728400271 0.030005401355308711 0 0.33701607703249692 0.0298701225898034 0 0.34138554356790868 0.034687097574719723 0 0.34126215607840221 0.040750250202241461 0 0.34138554356790868 0.034687097574719723 0 0.33434823439141431 0.036199585802387309 0 0.33701607703249692 0.0298701225898034 0 0.34138554356790868 0.034687097574719723 0 0.33434823439141431 0.036199585802387309 0 0.33434823439141431 0.036199585802387309 0 0.33106808065075138 0.041627037349808563 0 0.32586879358179099 0.03804064066389571 0 0.33701607703249692 0.0298701225898034 0 0.32817092864320679 0.030804032229243241 0 0.33434823439141431 0.036199585802387309 0 0.32817092864320679 0.030804032229243241 0 0.33434823439141431 0.036199585802387309 0 0.32586879358179099 0.03804064066389571 0 0.329754536179657 0.047339616089383058 0 0.33106808065075138 0.041627037349808563 0 0.32586879358179099 0.03804064066389571 0 0.33612307176769429 0.042924799851400963 0 0.33453276772620782 0.046578197002638079 0 0.33106808065075138 0.041627037349808563 0 0.33612307176769429 0.042924799851400963 0 0.33434823439141431 0.036199585802387309 0 0.33106808065075138 0.041627037349808563 0 0.329754536179657 0.047339616089383058 0 0.33453276772620782 0.046578197002638079 0 0.33106808065075138 0.041627037349808563 0 0.329754536179657 0.047339616089383058 0 0.32586879358179099 0.03804064066389571 0 0.31800271709620059 0.041940160330230729 0 0.32817092864320679 0.030804032229243241 0 0.31729285203700458 0.030715300411105088 0 0.32586879358179099 0.03804064066389571 0 0.31729285203700458 0.030715300411105088 0 0.32586879358179099 0.03804064066389571 0 0.31800271709620059 0.041940160330230729 0 0.31729285203700458 0.030715300411105088 0 0.31800271709620059 0.041940160330230729 0 0.30430888894076069 0.032396547794509983 0 0.33235713648757398 0.062670344195356747 0 0.30746097182364029 0.047204886540035899 0 0.33235713648757398 0.062670344195356747 0 0.30746097182364029 0.047204886540035899 0 0.31196244370916693 0.063561068446377017 0 0.33235713648757398 0.062670344195356747 0 0.31800271709620059 0.041940160330230729 0 0.30746097182364029 0.047204886540035899 0 0.33656383503670528 0.062486619514863027 0 0.31800271709620059 0.041940160330230729 0 0.329754536179657 0.047339616089383058 0 0.33656383503670528 0.062486619514863027 0 0.31800271709620059 0.041940160330230729 0 0.30037374277061518 0.057171553561993042 0 0.30746097182364029 0.047204886540035899 0 0.29162395104825473 0.050372783329083598 0 0.30037374277061518 0.057171553561993042 0 0.30746097182364029 0.047204886540035899 0 0.31196244370916693 0.063561068446377017 0 0.30037374277061518 0.057171553561993042 0 0.29156775093075987 0.064451792697398216 0 0.31196244370916693 0.063561068446377017 0 0.31800271709620059 0.041940160330230729 0 0.30746097182364029 0.047204886540035899 0 0.30430888894076069 0.032396547794509983 0 0.30746097182364029 0.047204886540035899 0 0.30430888894076069 0.032396547794509983 0 0.28256480715970728 0.031739428884714087 0 0.30746097182364029 0.047204886540035899 0 0.28256480715970728 0.031739428884714087 0 0.29162395104825473 0.050372783329083598 0 0.30746097182364029 0.047204886540035899 0 0.28256480715970728 0.031739428884714087 0 0.28256480715970728 0.031739428884714087 0 0.29162395104825473 0.050372783329083598 0 0.27807602661496489 0.051740161625822317 0 0.28627399927090991 0.056554752876118553 0 0.29162395104825473 0.050372783329083598 0 0.27807602661496489 0.051740161625822317 0 0.28627399927090991 0.056554752876118553 0 0.27117305815235271 0.065342516948417001 0 0.29156775093075987 0.064451792697398216 0 0.28627399927090991 0.056554752876118553 0 0.29315213512213811 0.057160125427339427 0 0.29156775093075987 0.064451792697398216 0 0.28627399927090991 0.056554752876118553 0 0.29315213512213811 0.057160125427339427 0 0.29162395104825473 0.050372783329083598 0 0.30037374277061518 0.057171553561993042 0 0.29315213512213811 0.057160125427339427 0 0.29156775093075987 0.064451792697398216 0 0.30037374277061518 0.057171553561993042 0 0.29315213512213811 0.057160125427339427 0 0.29162395104825473 0.050372783329083598 0 0.30565777065165689 0.017187559291614821 0 0.29000131310831129 0.01212208907156186 0 0.30332321409842661 -0.0035271610948642922 0 0.31505504448721611 0.0068383069611849916 0 0.30565777065165689 0.017187559291614821 0 0.30332321409842661 -0.0035271610948642922 0 0.30565777065165689 0.017187559291614821 0 0.29563319496510909 0.023361406260600188 0 0.29000131310831129 0.01212208907156186 0 0.31729285203700458 0.030715300411105088 0 0.30430888894076069 0.032396547794509983 0 0.30565777065165689 0.017187559291614821 0 0.30430888894076069 0.032396547794509983 0 0.30565777065165689 0.017187559291614821 0 0.29563319496510909 0.023361406260600188 0 0.28256480715970728 0.031739428884714087 0 0.29000131310831129 0.01212208907156186 0 0.27385935584050519 0.0059842219239403492 0 0.30430888894076069 0.032396547794509983 0 0.28256480715970728 0.031739428884714087 0 0.29563319496510909 0.023361406260600188 0 0.28256480715970728 0.031739428884714087 0 0.29563319496510909 0.023361406260600188 0 0.29000131310831129 0.01212208907156186 0 0.29000131310831129 0.01212208907156186 0 0.28513605537496112 -0.0059817668724007544 0 0.30332321409842661 -0.0035271610948642922 0 0.29000131310831129 0.01212208907156186 0 0.27385935584050519 0.0059842219239403492 0 0.28513605537496112 -0.0059817668724007544 0 0.28256480715970728 0.031739428884714087 0 0.25766864249577431 0.016273971229392298 0 0.26394178344579589 0.038232396156398493 0 0.28256480715970728 0.031739428884714087 0 0.25766864249577431 0.016273971229392298 0 0.28256480715970728 0.031739428884714087 0 0.27385935584050519 0.0059842219239403492 0 0.25766864249577431 0.016273971229392298 0 0.24229683167898761 0.026863171001088801 0 0.25766864249577431 0.016273971229392298 0 0.26394178344579589 0.038232396156398493 0 0.27385935584050519 0.0059842219239403492 0 0.25766864249577431 0.016273971229392298 0 0.25772642959595549 -0.002976658867858078 0 0.25766864249577431 0.016273971229392298 0 0.25772642959595549 -0.002976658867858078 0 0.24297595284734999 -0.00032384243858780282 0 0.26625301343481173 0.052058225789686413 0 0.27807602661496489 0.051740161625822317 0 0.26394178344579589 0.038232396156398493 0 0.26625301343481173 0.052058225789686413 0 0.27807602661496489 0.051740161625822317 0 0.27117305815235271 0.065342516948417001 0 0.28627399927090991 0.056554752876118553 0 0.27807602661496489 0.051740161625822317 0 0.27117305815235271 0.065342516948417001 0 0.27807602661496489 0.051740161625822317 0 0.27117305815235271 0.065342516948417001 0 0.28256480715970728 0.031739428884714087 0 0.27807602661496489 0.051740161625822317 0 0.26394178344579589 0.038232396156398493 0 0.24229683167898761 0.026863171001088801 0 0.26394178344579589 0.038232396156398493 0 0.25182118552613297 0.052917828428107848 0 0.2410670791918299 0.066657374978017381 0 0.25182118552613297 0.052917828428107848 0 0.27117305815235271 0.065342516948417001 0 0.26625301343481173 0.052058225789686413 0 0.25182118552613297 0.052917828428107848 0 0.27117305815235271 0.065342516948417001 0 0.26625301343481173 0.052058225789686413 0 0.26394178344579589 0.038232396156398493 0 0.25182118552613297 0.052917828428107848 0 0.2410670791918299 0.066657374978017381 0 0.26072180513373577 0.085936795756946086 0 0.27117305815235271 0.065342516948417001 0 0.2410670791918299 0.066657374978017381 0 0.27117305815235271 0.065342516948417001 0 0.26072180513373577 0.085936795756946086 0 0.27725340110454971 0.083162132562700469 0 0.27220310585693469 0.098309572479642407 0 0.27725340110454971 0.083162132562700469 0 0.28885029006970409 0.093276108479906222 0 0.27220310585693469 0.098309572479642407 0 0.26072180513373577 0.085936795756946086 0 0.27725340110454971 0.083162132562700469 0 0.27117305815235271 0.065342516948417001 0 0.27117305815235271 0.065342516948417001 0 0.28072632105441681 0.072734423530977893 0 0.28964975250843522 0.066943741153554726 0 0.26072180513373577 0.085936795756946086 0 0.27117305815235271 0.065342516948417001 0 0.27725340110454971 0.083162132562700469 0 0.27117305815235271 0.065342516948417001 0 0.28072632105441681 0.072734423530977893 0 0.28964975250843522 0.066943741153554726 0 0.28784126666311421 0.079995815969332112 0 0.30351099415418997 0.085036245085691187 0 0.27117305815235271 0.065342516948417001 0 0.29156775093075987 0.064451792697398216 0 0.28964975250843522 0.066943741153554726 0 0.30351099415418997 0.085036245085691187 0 0.27117305815235271 0.065342516948417001 0 0.29156775093075987 0.064451792697398216 0 0.28964975250843522 0.066943741153554726 0 0.29156775093075987 0.064451792697398216 0 0.28964975250843522 0.066943741153554726 0 0.30224351618208528 0.071679010352115324 0 0.28072632105441681 0.072734423530977893 0 0.28964975250843522 0.066943741153554726 0 0.28784126666311421 0.079995815969332112 0 0.27725340110454971 0.083162132562700469 0 0.28784126666311421 0.079995815969332112 0 0.28885029006970409 0.093276108479906222 0 0.27725340110454971 0.083162132562700469 0 0.28072632105441681 0.072734423530977893 0 0.28784126666311421 0.079995815969332112 0 0.28784126666311421 0.079995815969332112 0 0.28885029006970409 0.093276108479906222 0 0.30351099415418997 0.085036245085691187 0 0.31441924175684671 0.078804472958115254 0 0.31737223579994472 0.10312874901782761 0 0.30351099415418997 0.085036245085691187 0 0.31441924175684671 0.078804472958115254 0 0.30351099415418997 0.085036245085691187 0 0.30224351618208528 0.071679010352115324 0 0.28964975250843522 0.066943741153554726 0 0.30351099415418997 0.085036245085691187 0 0.30224351618208528 0.071679010352115324 0 0.31441924175684671 0.078804472958115254 0 0.31196244370916693 0.063561068446377017 0 0.30224351618208528 0.071679010352115324 0 0.29156775093075987 0.064451792697398216 0 0.31196244370916693 0.063561068446377017 0 0.30224351618208528 0.071679010352115324 0 0.29156775093075987 0.064451792697398216 0 0.31196244370916693 0.063561068446377017 0 0.30624020578140893 0.11367679579694361 0 0.3002303182879893 0.104151681104711 0 0.29569097780042503 0.1175470327676276 0 0.30334523127997998 0.12474199892489719 0 0.29569097780042503 0.1175470327676276 0 0.29199113398189969 0.129844918616564 0 0.30334523127997998 0.12474199892489719 0 0.30624020578140893 0.11367679579694361 0 0.29569097780042503 0.1175470327676276 0 0.31456226573870572 0.1188145171696544 0 0.30334523127997998 0.12474199892489719 0 0.30624020578140893 0.11367679579694361 0 0.31456226573870572 0.1188145171696544 0 0.30334523127997998 0.12474199892489719 0 0.31588783824187888 0.12963869222719099 0 0.31737223579994472 0.10312874901782761 0 0.30624020578140893 0.11367679579694361 0 0.3002303182879893 0.104151681104711 0 0.31737223579994472 0.10312874901782761 0 0.30351099415418997 0.085036245085691187 0 0.3002303182879893 0.104151681104711 0 0.28885029006970409 0.093276108479906222 0 0.30351099415418997 0.085036245085691187 0 0.3002303182879893 0.104151681104711 0 0.31737223579994472 0.10312874901782761 0 0.30351099415418997 0.085036245085691187 0 0.28885029006970409 0.093276108479906222 0 0.3002303182879893 0.104151681104711 0 0.28557265862698028 0.1099644670429365 0 0.28885029006970409 0.093276108479906222 0 0.28557265862698028 0.1099644670429365 0 0.27220310585693469 0.098309572479642407 0 0.28557265862698028 0.1099644670429365 0 0.29569097780042503 0.1175470327676276 0 0.28035700577734191 0.1208679653546077 0 0.29569097780042503 0.1175470327676276 0 0.28035700577734191 0.1208679653546077 0 0.2781699873872287 0.13518682755800721 0 0.3002303182879893 0.104151681104711 0 0.28557265862698028 0.1099644670429365 0 0.29569097780042503 0.1175470327676276 0 0.28035700577734191 0.1208679653546077 0 0.2704150330379923 0.1149160643801431 0 0.2721784788316518 0.12460734290603501 0 0.28557265862698028 0.1099644670429365 0 0.28035700577734191 0.1208679653546077 0 0.2704150330379923 0.1149160643801431 0 0.2704150330379923 0.1149160643801431 0 0.2721784788316518 0.12460734290603501 0 0.25977188912404442 0.127458514331382 0 0.28557265862698028 0.1099644670429365 0 0.2704150330379923 0.1149160643801431 0 0.27220310585693469 0.098309572479642407 0 0.26072180513373577 0.085936795756946086 0 0.25027055211512 0.10653107456547579 0 0.2704150330379923 0.1149160643801431 0 0.27220310585693469 0.098309572479642407 0 0.25027055211512 0.10653107456547579 0 0.26072180513373577 0.085936795756946086 0 0.27220310585693469 0.098309572479642407 0 0.25027055211512 0.10653107456547579 0 0.2704150330379923 0.1149160643801431 0 0.25027055211512 0.10653107456547579 0 0.25977188912404442 0.127458514331382 0 0.23981929909650421 0.12712535337400541 0 0.25190461453233132 0.14042974416662601 0 0.25977188912404442 0.127458514331382 0 0.25190461453233132 0.14042974416662601 0 0.25977188912404442 0.127458514331382 0 0.2781699873872287 0.13518682755800721 0 0.2721784788316518 0.12460734290603501 0 0.25977188912404442 0.127458514331382 0 0.2781699873872287 0.13518682755800721 0 0.28035700577734191 0.1208679653546077 0 0.2721784788316518 0.12460734290603501 0 0.2781699873872287 0.13518682755800721 0 0.2781699873872287 0.13518682755800721 0 0.26064899697403232 0.15282662234838679 0 0.2781699873872287 0.13518682755800721 0 0.26064899697403232 0.15282662234838679 0 0.27817144763994989 0.1590656315065512 0 0.25190461453233132 0.14042974416662601 0 0.2781699873872287 0.13518682755800721 0 0.26064899697403232 0.15282662234838679 0 0.2391354248219569 0.14958550948486241 0 0.25190461453233132 0.14042974416662601 0 0.26064899697403232 0.15282662234838679 0 0.24312800656083611 0.1704664171387664 0 0.26452018327415799 0.16505387358409651 0 0.26415122127537188 0.17513792412533399 0 0.24312800656083611 0.1704664171387664 0 0.26064899697403232 0.15282662234838679 0 0.24312800656083611 0.1704664171387664 0 0.26064899697403232 0.15282662234838679 0 0.26452018327415799 0.16505387358409651 0 0.25379526172670452 0.18061833659426699 0 0.2655845558199349 0.1762274477973782 0 0.25280463159302602 0.1936524574764282 0 0.24312800656083611 0.1704664171387664 0 0.25379526172670452 0.18061833659426699 0 0.26415122127537188 0.17513792412533399 0 0.2655845558199349 0.1762274477973782 0 0.25280463159302602 0.1936524574764282 0 0.26838947342952268 0.19192927634910451 0 0.2655845558199349 0.1762274477973782 0 0.25280463159302602 0.1936524574764282 0 0.25379526172670452 0.18061833659426699 0 0.26415122127537188 0.17513792412533399 0 0.2655845558199349 0.1762274477973782 0 0.26452018327415799 0.16505387358409651 0 0.26415122127537188 0.17513792412533399 0 0.2655845558199349 0.1762274477973782 0 0.26415122127537188 0.17513792412533399 0 0.2655845558199349 0.1762274477973782 0 0.2655845558199349 0.1762274477973782 0 0.28397431526601952 0.1902060952217817 0 0.2655845558199349 0.1762274477973782 0 0.26838947342952268 0.19192927634910451 0 0.28397431526601952 0.1902060952217817 0 0.2655845558199349 0.1762274477973782 0 0.28160729615982699 0.17709381942700039 0 0.28397431526601952 0.1902060952217817 0 0.26452018327415799 0.16505387358409651 0 0.2655845558199349 0.1762274477973782 0 0.27817144763994989 0.1590656315065512 0 0.26064899697403232 0.15282662234838679 0 0.26452018327415799 0.16505387358409651 0 0.27817144763994989 0.1590656315065512 0 0.2655845558199349 0.1762274477973782 0 0.27817144763994989 0.1590656315065512 0 0.28160729615982699 0.17709381942700039 0 0.2655845558199349 0.1762274477973782 0 0.27817144763994989 0.1590656315065512 0 0.27817144763994989 0.1590656315065512 0 0.29285077824744599 0.16989413434348061 0 0.29321317337315911 0.1558940049872565 0 0.27817144763994989 0.1590656315065512 0 0.29285077824744599 0.16989413434348061 0 0.28160729615982699 0.17709381942700039 0 0.29285077824744599 0.16989413434348061 0 0.30238860720380489 0.159953170666119 0 0.29321317337315911 0.1558940049872565 0 0.30509596617710433 0.17708477247384641 0 0.28552832603060763 0.19003427172499421 0 0.29285077824744599 0.16989413434348061 0 0.28160729615982699 0.17709381942700039 0 0.28552832603060763 0.19003427172499421 0 0.29285077824744599 0.16989413434348061 0 0.30509596617710433 0.17708477247384641 0 0.28552832603060763 0.19003427172499421 0 0.28160729615982699 0.17709381942700039 0 0.28552832603060763 0.19003427172499421 0 0.28397431526601952 0.1902060952217817 0 0.30509596617710433 0.17708477247384641 0 0.28552832603060763 0.19003427172499421 0 0.3067712299162022 0.18768549132354551 0 0.30509596617710433 0.17708477247384641 0 0.3067712299162022 0.18768549132354551 0 0.31898170251104568 0.17716368752596071 0 0.30509596617710433 0.17708477247384641 0 0.3067712299162022 0.18768549132354551 0 0.29285077824744599 0.16989413434348061 0 0.30509596617710433 0.17708477247384641 0 0.30238860720380489 0.159953170666119 0 0.30509596617710433 0.17708477247384641 0 0.30238860720380489 0.159953170666119 0 0.30509596617710433 0.17708477247384641 0 0.30238860720380489 0.159953170666119 0 0.31491051914611462 0.15519412691148751 0 0.30238860720380489 0.159953170666119 0 0.30363072739965458 0.14793496631437819 0 0.31491051914611462 0.15519412691148751 0 0.30238860720380489 0.159953170666119 0 0.30363072739965458 0.14793496631437819 0 0.29321317337315911 0.1558940049872565 0 0.30363072739965458 0.14793496631437819 0 0.30538859960393638 0.13710004223225669 0 0.29075833945996499 0.14190381521572409 0 0.30363072739965458 0.14793496631437819 0 0.3133208616382035 0.14128073847909309 0 0.31491051914611462 0.15519412691148751 0 0.30363072739965458 0.14793496631437819 0 0.30538859960393638 0.13710004223225669 0 0.3133208616382035 0.14128073847909309 0 0.30334523127997998 0.12474199892489719 0 0.29075833945996499 0.14190381521572409 0 0.30538859960393638 0.13710004223225669 0 0.31588783824187888 0.12963869222719099 0 0.3133208616382035 0.14128073847909309 0 0.30334523127997998 0.12474199892489719 0 0.30538859960393638 0.13710004223225669 0 0.29075833945996499 0.14190381521572409 0 0.30334523127997998 0.12474199892489719 0 0.30538859960393638 0.13710004223225669 0 0.31588783824187888 0.12963869222719099 0 0.29569097780042503 0.1175470327676276 0 0.2781699873872287 0.13518682755800721 0 0.29569097780042503 0.1175470327676276 0 0.2781699873872287 0.13518682755800721 0 0.29199113398189969 0.129844918616564 0 0.30334523127997998 0.12474199892489719 0 0.29199113398189969 0.129844918616564 0 0.29075833945996499 0.14190381521572409 0 0.2781699873872287 0.13518682755800721 0 0.29199113398189969 0.129844918616564 0 0.29075833945996499 0.14190381521572409 0 0.27817144763994989 0.1590656315065512 0 0.29075833945996499 0.14190381521572409 0 0.2781699873872287 0.13518682755800721 0 0.27817144763994989 0.1590656315065512 0 0.29075833945996499 0.14190381521572409 0 0.27817144763994989 0.1590656315065512 0 0.29321317337315911 0.1558940049872565 0 0.29075833945996499 0.14190381521572409 0 0.30363072739965458 0.14793496631437819 0 0.29321317337315911 0.1558940049872565 0 0.29075833945996499 0.14190381521572409 0 0.26737270587130241 0.23236910365518071 0 0.28079618337662338 0.23333799818769069 0 0.28574109184797331 0.24215534348259041 0 0.27823915624892809 0.24552658539675279 0 0.26737270587130241 0.23236910365518071 0 0.28574109184797331 0.24215534348259041 0 0.2703081024252923 0.26042648260146672 0 0.27823915624892809 0.24552658539675279 0 0.28574109184797331 0.24215534348259041 0 0.27823915624892809 0.24552658539675279 0 0.2669353122202206 0.24907042731734361 0 0.26737270587130241 0.23236910365518071 0 0.26737270587130241 0.23236910365518071 0 0.28574109184797331 0.24215534348259041 0 0.2669353122202206 0.24907042731734361 0 0.25469112926727061 0.24735262204999481 0 0.26737270587130241 0.23236910365518071 0 0.24576288521902601 0.2367514452761286 0 0.25469112926727061 0.24735262204999481 0 0.26737270587130241 0.23236910365518071 0 0.24899874225078231 0.2225933472544209 0 0.24576288521902601 0.2367514452761286 0 0.26737270587130241 0.23236910365518071 0 0.24899874225078231 0.2225933472544209 0 0.26737270587130241 0.23236910365518071 0 0.24899874225078231 0.2225933472544209 0 0.2623955021598039 0.2196326924212644 0 0.26737270587130241 0.23236910365518071 0 0.2623955021598039 0.2196326924212644 0 0.26737270587130241 0.23236910365518071 0 0.27511983106222032 0.22005176739878321 0 0.26737270587130241 0.23236910365518071 0 0.27511983106222032 0.22005176739878321 0 0.28185499529242641 0.22742931065624719 0 0.26737270587130241 0.23236910365518071 0 0.28079618337662338 0.23333799818769069 0 0.28185499529242641 0.22742931065624719 0 0.27511983106222032 0.22005176739878321 0 0.28371887378016619 0.22118149885169611 0 0.28185499529242641 0.22742931065624719 0 0.27511983106222032 0.22005176739878321 0 0.27702998138370161 0.2091610942093306 0 0.28374707245340192 0.21445660914503559 0 0.27511983106222032 0.22005176739878321 0 0.28374707245340192 0.21445660914503559 0 0.28371887378016619 0.22118149885169611 0 0.27702998138370161 0.2091610942093306 0 0.27736242369158259 0.2019260455529876 0 0.28420181614487788 0.20308234698808059 0 0.27702998138370161 0.2091610942093306 0 0.27035577107718678 0.20684085319389869 0 0.27736242369158259 0.2019260455529876 0 0.27702998138370161 0.2091610942093306 0 0.27035577107718678 0.20684085319389869 0 0.26815385046657297 0.21321874094785279 0 0.27035577107718678 0.20684085319389869 0 0.25671888818861738 0.20909982030253341 0 0.27064781268025351 0.19988191789205689 0 0.27511983106222032 0.22005176739878321 0 0.27702998138370161 0.2091610942093306 0 0.26815385046657297 0.21321874094785279 0 0.2623955021598039 0.2196326924212644 0 0.27511983106222032 0.22005176739878321 0 0.26815385046657297 0.21321874094785279 0 0.2623955021598039 0.2196326924212644 0 0.26815385046657297 0.21321874094785279 0 0.25671888818861738 0.20909982030253341 0 0.24899874225078231 0.2225933472544209 0 0.2623955021598039 0.2196326924212644 0 0.25671888818861738 0.20909982030253341 0 0.2424425901990768 0.20778076280738411 0 0.25671888818861738 0.20909982030253341 0 0.25280463159302602 0.1936524574764282 0 0.25671888818861738 0.20909982030253341 0 0.27064781268025351 0.19988191789205689 0 0.27035577107718678 0.20684085319389869 0 0.26815385046657297 0.21321874094785279 0 0.25671888818861738 0.20909982030253341 0 0.25671888818861738 0.20909982030253341 0 0.26120255247795582 0.1982671462563099 0 0.27064781268025351 0.19988191789205689 0 0.25671888818861738 0.20909982030253341 0 0.26120255247795582 0.1982671462563099 0 0.25280463159302602 0.1936524574764282 0 0.26120255247795582 0.1982671462563099 0 0.25280463159302602 0.1936524574764282 0 0.26838947342952268 0.19192927634910451 0 0.25280463159302602 0.1936524574764282 0 0.26838947342952268 0.19192927634910451 0 0.26120255247795582 0.1982671462563099 0 0.26838947342952268 0.19192927634910451 0 0.27064781268025351 0.19988191789205689 0 0.27035577107718678 0.20684085319389869 0 0.27064781268025351 0.19988191789205689 0 0.27736242369158259 0.2019260455529876 0 0.27064781268025351 0.19988191789205689 0 0.27736242369158259 0.2019260455529876 0 0.28552832603060763 0.19003427172499421 0 0.26838947342952268 0.19192927634910451 0 0.28397431526601952 0.1902060952217817 0 0.27064781268025351 0.19988191789205689 0 0.28552832603060763 0.19003427172499421 0 0.28397431526601952 0.1902060952217817 0 0.27064781268025351 0.19988191789205689 0 0.28552832603060763 0.19003427172499421 0 0.26838947342952268 0.19192927634910451 0 0.27064781268025351 0.19988191789205689 0 0.28397431526601952 0.1902060952217817 0 0.28552832603060763 0.19003427172499421 0 0.3067712299162022 0.18768549132354551 0 0.28552832603060763 0.19003427172499421 0 0.3067712299162022 0.18768549132354551 0 0.29745653453650778 0.20045436357098659 0 0.28552832603060763 0.19003427172499421 0 0.28397431526601952 0.1902060952217817 0 0.27736242369158259 0.2019260455529876 0 0.28552832603060763 0.19003427172499421 0 0.28420181614487788 0.20308234698808059 0 0.28552832603060763 0.19003427172499421 0 0.28420181614487788 0.20308234698808059 0 0.29745653453650778 0.20045436357098659 0 0.28552832603060763 0.19003427172499421 0 0.29745653453650778 0.20045436357098659 0 0.3067712299162022 0.18768549132354551 0 0.29745653453650778 0.20045436357098659 0 0.31033633190112309 0.21024471166040121 0 0.3067712299162022 0.18768549132354551 0 0.31033633190112309 0.21024471166040121 0 0.3067712299162022 0.18768549132354551 0 0.31033633190112309 0.21024471166040121 0 0.31700194550752459 0.19967060378525561 0 0.29745653453650778 0.20045436357098659 0 0.31033633190112309 0.21024471166040121 0 0.31033633190112309 0.21024471166040121 0 0.30767912338270831 0.21615843178658911 0 0.31341799873595733 0.2297448553942458 0 0.29745653453650778 0.20045436357098659 0 0.30087771464145319 0.21049822606172269 0 0.31033633190112309 0.21024471166040121 0 0.30087771464145319 0.21049822606172269 0 0.31033633190112309 0.21024471166040121 0 0.30767912338270831 0.21615843178658911 0 0.30767912338270831 0.21615843178658911 0 0.30156740539807297 0.2157565878813876 0 0.29829981230656588 0.2203681910213037 0 0.30087771464145319 0.21049822606172269 0 0.30767912338270831 0.21615843178658911 0 0.30156740539807297 0.2157565878813876 0 0.30087771464145319 0.21049822606172269 0 0.30156740539807297 0.2157565878813876 0 0.29558708481026302 0.21707959238435659 0 0.30156740539807297 0.2157565878813876 0 0.29558708481026302 0.21707959238435659 0 0.29829981230656588 0.2203681910213037 0 0.29558708481026302 0.21707959238435659 0 0.28929922869792019 0.21742855657611851 0 0.29134698553312549 0.2081850868241141 0 0.30087771464145319 0.21049822606172269 0 0.29558708481026302 0.21707959238435659 0 0.29134698553312549 0.2081850868241141 0 0.29745653453650778 0.20045436357098659 0 0.30087771464145319 0.21049822606172269 0 0.29134698553312549 0.2081850868241141 0 0.28420181614487788 0.20308234698808059 0 0.29745653453650778 0.20045436357098659 0 0.29134698553312549 0.2081850868241141 0 0.29134698553312549 0.2081850868241141 0 0.28377512175051001 0.2086536536496246 0 0.28374707245340192 0.21445660914503559 0 0.28420181614487788 0.20308234698808059 0 0.29134698553312549 0.2081850868241141 0 0.28377512175051001 0.2086536536496246 0 0.27702998138370161 0.2091610942093306 0 0.28420181614487788 0.20308234698808059 0 0.28377512175051001 0.2086536536496246 0 0.27702998138370161 0.2091610942093306 0 0.28377512175051001 0.2086536536496246 0 0.28374707245340192 0.21445660914503559 0 0.28929922869792019 0.21742855657611851 0 0.29134698553312549 0.2081850868241141 0 0.28374707245340192 0.21445660914503559 0 0.28929922869792019 0.21742855657611851 0 0.28374707245340192 0.21445660914503559 0 0.28371887378016619 0.22118149885169611 0 0.28371887378016619 0.22118149885169611 0 0.28185499529242641 0.22742931065624719 0 0.28995782815241611 0.2236915556384847 0 0.28929922869792019 0.21742855657611851 0 0.28371887378016619 0.22118149885169611 0 0.28995782815241611 0.2236915556384847 0 0.28185499529242641 0.22742931065624719 0 0.28821036285094198 0.2314087183833943 0 0.28995782815241611 0.2236915556384847 0 0.28079618337662338 0.23333799818769069 0 0.28185499529242641 0.22742931065624719 0 0.28821036285094198 0.2314087183833943 0 0.28821036285094198 0.2314087183833943 0 0.29670761978936933 0.2291547874157002 0 0.28574109184797331 0.24215534348259041 0 0.28821036285094198 0.2314087183833943 0 0.29670761978936933 0.2291547874157002 0 0.28995782815241611 0.2236915556384847 0 0.29670761978936933 0.2291547874157002 0 0.28995782815241611 0.2236915556384847 0 0.29829981230656588 0.2203681910213037 0 0.29558708481026302 0.21707959238435659 0 0.28995782815241611 0.2236915556384847 0 0.29829981230656588 0.2203681910213037 0 0.29558708481026302 0.21707959238435659 0 0.28929922869792019 0.21742855657611851 0 0.28995782815241611 0.2236915556384847 0 0.30767912338270831 0.21615843178658911 0 0.29670761978936933 0.2291547874157002 0 0.29829981230656588 0.2203681910213037 0 0.30767912338270831 0.21615843178658911 0 0.29670761978936933 0.2291547874157002 0 0.30767912338270831 0.21615843178658911 0 0.29670761978936933 0.2291547874157002 0 0.30521268222532261 0.22520550703621539 0 0.31033633190112309 0.21024471166040121 0 0.31341799873595733 0.2297448553942458 0 0.30767912338270831 0.21615843178658911 0 0.30521268222532261 0.22520550703621539 0 0.31341799873595733 0.2297448553942458 0 0.29958062209438568 0.23595249972423801 0 0.310353192110847 0.23716776251637001 0 0.31341799873595733 0.2297448553942458 0 0.30521268222532261 0.22520550703621539 0 0.29958062209438568 0.23595249972423801 0 0.31341799873595733 0.2297448553942458 0 0.29958062209438568 0.23595249972423801 0 0.31341799873595733 0.2297448553942458 0 0.29670761978936933 0.2291547874157002 0 0.30521268222532261 0.22520550703621539 0 0.29958062209438568 0.23595249972423801 0 0.29958062209438568 0.23595249972423801 0 0.310353192110847 0.23716776251637001 0 0.30690223216298279 0.24441920825023791 0 0.31108813176625888 0.24181473984910781 0 0.310353192110847 0.23716776251637001 0 0.31555760856208481 0.24328385924509191 0 0.31108813176625888 0.24181473984910781 0 0.310353192110847 0.23716776251637001 0 0.30690223216298279 0.24441920825023791 0 0.31124097988072691 0.25013535213493993 0 0.30690223216298279 0.24441920825023791 0 0.29995401426485557 0.2497037920572899 0 0.31124097988072691 0.25013535213493993 0 0.31206486838379588 0.2450731742654956 0 0.30690223216298279 0.24441920825023791 0 0.31108813176625888 0.24181473984910781 0 0.31206486838379588 0.2450731742654956 0 0.30690223216298279 0.24441920825023791 0 0.29958062209438568 0.23595249972423801 0 0.30690223216298279 0.24441920825023791 0 0.29995401426485557 0.2497037920572899 0 0.29958062209438568 0.23595249972423801 0 0.29995401426485557 0.2497037920572899 0 0.28574109184797331 0.24215534348259041 0 0.29995401426485557 0.2497037920572899 0 0.28574109184797331 0.24215534348259041 0 0.29958062209438568 0.23595249972423801 0 0.28574109184797331 0.24215534348259041 0 0.29670761978936933 0.2291547874157002 0 0.28574109184797331 0.24215534348259041 0 0.29670761978936933 0.2291547874157002 0 0.29958062209438568 0.23595249972423801 0 0.28574109184797331 0.24215534348259041 0 0.28079618337662338 0.23333799818769069 0 0.28821036285094198 0.2314087183833943 0 0.28574109184797331 0.24215534348259041 0 0.27823915624892809 0.24552658539675279 0 0.28574109184797331 0.24215534348259041 0 0.31821315740023343 0.25167758425328141 0 0.33612538188821528 0.24889966137315681 0 0.3347875482485535 0.2288308673641091 0 0.33612538188821528 0.24889966137315681 0 0.34213851287081321 0.23441857192246329 0 0.3347875482485535 0.2288308673641091 0 0.31821315740023343 0.25167758425328141 0 0.3347875482485535 0.2288308673641091 0 0.31821315740023343 0.25167758425328141 0 0.32085404993273009 0.23710447240219201 0 0.3347875482485535 0.2288308673641091 0 0.31821315740023343 0.25167758425328141 0 0.31553538954692589 0.24571271184810051 0 0.31821315740023343 0.25167758425328141 0 0.31553538954692589 0.24571271184810051 0 0.32085404993273009 0.23710447240219201 0 0.31108813176625888 0.24181473984910781 0 0.31206486838379588 0.2450731742654956 0 0.31555760856208481 0.24328385924509191 0 0.31206486838379588 0.2450731742654956 0 0.31553538954692589 0.24571271184810051 0 0.31555760856208481 0.24328385924509191 0 0.31124097988072691 0.25013535213493993 0 0.31821315740023343 0.25167758425328141 0 0.31553538954692589 0.24571271184810051 0 0.31124097988072691 0.25013535213493993 0 0.31206486838379588 0.2450731742654956 0 0.31553538954692589 0.24571271184810051 0 0.31553538954692589 0.24571271184810051 0 0.31555760856208481 0.24328385924509191 0 0.32085404993273009 0.23710447240219201 0 0.310353192110847 0.23716776251637001 0 0.31555760856208481 0.24328385924509191 0 0.31341799873595733 0.2297448553942458 0 0.31555760856208481 0.24328385924509191 0 0.31341799873595733 0.2297448553942458 0 0.31555760856208481 0.24328385924509191 0 0.32085404993273009 0.23710447240219201 0 0.31341799873595733 0.2297448553942458 0 0.32085404993273009 0.23710447240219201 0 0.31341799873595733 0.2297448553942458 0 0.32761259710262469 0.22337695630832499 0 0.32085404993273009 0.23710447240219201 0 0.32761259710262469 0.22337695630832499 0 0.3347875482485535 0.2288308673641091 0 0.31033633190112309 0.21024471166040121 0 0.31341799873595733 0.2297448553942458 0 0.31406124164951038 0.21845372777261199 0 0.32761259710262469 0.22337695630832499 0 0.31661326282418739 0.21501600867155629 0 0.31406124164951038 0.21845372777261199 0 0.31341799873595733 0.2297448553942458 0 0.32761259710262469 0.22337695630832499 0 0.31406124164951038 0.21845372777261199 0 0.32761259710262469 0.22337695630832499 0 0.31661326282418739 0.21501600867155629 0 0.31341799873595733 0.2297448553942458 0 0.32761259710262469 0.22337695630832499 0 0.32761259710262469 0.22337695630832499 0 0.3347875482485535 0.2288308673641091 0 0.33903800568073511 0.22297188898648959 0 0.32761259710262469 0.22337695630832499 0 0.33903800568073511 0.22297188898648959 0 0.35416838806748441 0.21146365008840681 0 0.32761259710262469 0.22337695630832499 0 0.3347875482485535 0.2288308673641091 0 0.34213851287081321 0.23441857192246329 0 0.33905206701900581 0.2294343189883046 0 0.34987588119774699 0.22617953759315779 0 0.3347875482485535 0.2288308673641091 0 0.33905206701900581 0.2294343189883046 0 0.33903800568073511 0.22297188898648959 0 0.34213851287081321 0.23441857192246329 0 0.3347875482485535 0.2288308673641091 0 0.34213851287081321 0.23441857192246329 0 0.3347875482485535 0.2288308673641091 0 0.33905206701900581 0.2294343189883046 0 0.34213851287081321 0.23441857192246329 0 0.33905206701900581 0.2294343189883046 0 0.33905206701900581 0.2294343189883046 0 0.33903800568073511 0.22297188898648959 0 0.34987588119774699 0.22617953759315779 0 0.3347875482485535 0.2288308673641091 0 0.33903800568073511 0.22297188898648959 0 0.32761259710262469 0.22337695630832499 0 0.35416838806748441 0.21146365008840681 0 0.32761259710262469 0.22337695630832499 0 0.33665214806656057 0.20898602666537511 0 0.35416838806748441 0.21146365008840681 0 0.33665214806656057 0.20898602666537511 0 0.32731068880038627 0.2123585151409717 0 0.32810495967505132 0.19953603297239031 0 0.32761259710262469 0.22337695630832499 0 0.33665214806656057 0.20898602666537511 0 0.32731068880038627 0.2123585151409717 0 0.32761259710262469 0.22337695630832499 0 0.32731068880038627 0.2123585151409717 0 0.31661326282418739 0.21501600867155629 0 0.31033633190112309 0.21024471166040121 0 0.31661326282418739 0.21501600867155629 0 0.31406124164951038 0.21845372777261199 0 0.31033633190112309 0.21024471166040121 0 0.31661326282418739 0.21501600867155629 0 0.31661326282418739 0.21501600867155629 0 0.31406124164951038 0.21845372777261199 0 0.31033633190112309 0.21024471166040121 0 0.31661326282418739 0.21501600867155629 0 0.31700194550752459 0.19967060378525561 0 0.32731068880038627 0.2123585151409717 0 0.31661326282418739 0.21501600867155629 0 0.32810495967505132 0.19953603297239031 0 0.31661326282418739 0.21501600867155629 0 0.32810495967505132 0.19953603297239031 0 0.31700194550752459 0.19967060378525561 0 0.31661326282418739 0.21501600867155629 0 0.32810495967505132 0.19953603297239031 0 0.3067712299162022 0.18768549132354551 0 0.31700194550752459 0.19967060378525561 0 0.32318394322105859 0.18587077429838489 0 0.32810495967505132 0.19953603297239031 0 0.31700194550752459 0.19967060378525561 0 0.32318394322105859 0.18587077429838489 0 0.32810495967505132 0.19953603297239031 0 0.34412750730809732 0.20030844207406359 0 0.33959665652591509 0.18405605727322441 0 0.32810495967505132 0.19953603297239031 0 0.32318394322105859 0.18587077429838489 0 0.33959665652591509 0.18405605727322441 0 0.33665214806656057 0.20898602666537511 0 0.32810495967505132 0.19953603297239031 0 0.34412750730809732 0.20030844207406359 0 0.32810495967505132 0.19953603297239031 0 0.33959665652591509 0.18405605727322441 0 0.34412750730809732 0.20030844207406359 0 0.35802557617453151 0.19643804349817701 0 0.33959665652591509 0.18405605727322441 0 0.34412750730809732 0.20030844207406359 0 0.35802557617453151 0.19643804349817701 0 0.35416838806748441 0.21146365008840681 0 0.35802557617453151 0.19643804349817701 0 0.36691984236605929 0.18103499368643369 0 0.37713587054321468 0.20320227462326801 0 0.35416838806748441 0.21146365008840681 0 0.36760042821346761 0.2308626972882008 0 0.37713587054321468 0.20320227462326801 0 0.35802557617453151 0.19643804349817701 0 0.35416838806748441 0.21146365008840681 0 0.37713587054321468 0.20320227462326801 0 0.33665214806656057 0.20898602666537511 0 0.34412750730809732 0.20030844207406359 0 0.35416838806748441 0.21146365008840681 0 0.34987588119774699 0.22617953759315779 0 0.36760042821346761 0.2308626972882008 0 0.35153852976624822 0.23549359054628671 0 0.35416838806748441 0.21146365008840681 0 0.34987588119774699 0.22617953759315779 0 0.36760042821346761 0.2308626972882008 0 0.33903800568073511 0.22297188898648959 0 0.35416838806748441 0.21146365008840681 0 0.34987588119774699 0.22617953759315779 0 0.34213851287081321 0.23441857192246329 0 0.34987588119774699 0.22617953759315779 0 0.35153852976624822 0.23549359054628671 0 0.36760042821346761 0.2308626972882008 0 0.36602873626671428 0.24753889456754241 0 0.38302269682145762 0.2407745680815867 0 0.36760042821346761 0.2308626972882008 0 0.36602873626671428 0.24753889456754241 0 0.35508966936836822 0.24426316238317231 0 0.35375279146260019 0.25317428802075892 0 0.33612538188821528 0.24889966137315681 0 0.34213851287081321 0.23441857192246329 0 0.35375279146260019 0.25317428802075892 0 0.36602873626671428 0.24753889456754241 0 0.35508966936836822 0.24426316238317231 0 0.35375279146260019 0.25317428802075892 0 0.34213851287081321 0.23441857192246329 0 0.35375279146260019 0.25317428802075892 0 0.34213851287081321 0.23441857192246329 0 0.35508966936836822 0.24426316238317231 0 0.36760042821346761 0.2308626972882008 0 0.35508966936836822 0.24426316238317231 0 0.35153852976624822 0.23549359054628671 0 0.34213851287081321 0.23441857192246329 0 0.35508966936836822 0.24426316238317231 0 0.34213851287081321 0.23441857192246329 0 0.35508966936836822 0.24426316238317231 0 0.35153852976624822 0.23549359054628671 0 0.32580266228605748 0.14062533981134101 0 0.32964203892920979 0.16084063938767629 0 0.34509471909145412 0.1393137568821006 0 0.32964203892920979 0.16084063938767629 0 0.35418811168131492 0.14459650630150539 0 0.32964203892920979 0.16084063938767629 0 0.35418811168131492 0.14459650630150539 0 0.34509471909145412 0.1393137568821006 0 0.33123347744569942 0.1212212529499641 0 0.34773068287978609 0.1245784996473145 0 0.34509471909145412 0.1393137568821006 0 0.33123347744569942 0.1212212529499641 0 0.34509471909145412 0.1393137568821006 0 0.33123347744569942 0.1212212529499641 0 0.32580266228605748 0.14062533981134101 0 0.34509471909145412 0.1393137568821006 0 0.33123347744569942 0.1212212529499641 0 0.31588783824187888 0.12963869222719099 0 0.32580266228605748 0.14062533981134101 0 0.31588783824187888 0.12963869222719099 0 0.3133208616382035 0.14128073847909309 0 0.32580266228605748 0.14062533981134101 0 0.32580266228605748 0.14062533981134101 0 0.31491051914611462 0.15519412691148751 0 0.32964203892920979 0.16084063938767629 0 0.3133208616382035 0.14128073847909309 0 0.32580266228605748 0.14062533981134101 0 0.31491051914611462 0.15519412691148751 0 0.30509596617710433 0.17708477247384641 0 0.32964203892920979 0.16084063938767629 0 0.30509596617710433 0.17708477247384641 0 0.31898170251104568 0.17716368752596071 0 0.32964203892920979 0.16084063938767629 0 0.30509596617710433 0.17708477247384641 0 0.31491051914611462 0.15519412691148751 0 0.32964203892920979 0.16084063938767629 0 0.31898170251104568 0.17716368752596071 0 0.33087639626975879 0.17449799381532929 0 0.32964203892920979 0.16084063938767629 0 0.3067712299162022 0.18768549132354551 0 0.32318394322105859 0.18587077429838489 0 0.3067712299162022 0.18768549132354551 0 0.31898170251104568 0.17716368752596071 0 0.32318394322105859 0.18587077429838489 0 0.31898170251104568 0.17716368752596071 0 0.32318394322105859 0.18587077429838489 0 0.33087639626975879 0.17449799381532929 0 0.33087639626975879 0.17449799381532929 0 0.33959665652591509 0.18405605727322441 0 0.35237000846231792 0.1668496185602554 0 0.32318394322105859 0.18587077429838489 0 0.33959665652591509 0.18405605727322441 0 0.32318394322105859 0.18587077429838489 0 0.33087639626975879 0.17449799381532929 0 0.33959665652591509 0.18405605727322441 0 0.33087639626975879 0.17449799381532929 0 0.32964203892920979 0.16084063938767629 0 0.35237000846231792 0.1668496185602554 0 0.32964203892920979 0.16084063938767629 0 0.35237000846231792 0.1668496185602554 0 0.35418811168131492 0.14459650630150539 0 0.35237000846231792 0.1668496185602554 0 0.36514336039872058 0.14964317984728651 0 0.33959665652591509 0.18405605727322441 0 0.36691984236605929 0.18103499368643369 0 0.33959665652591509 0.18405605727322441 0 0.35237000846231792 0.1668496185602554 0 0.36691984236605929 0.18103499368643369 0 0.35802557617453151 0.19643804349817701 0 0.33959665652591509 0.18405605727322441 0 0.36691984236605929 0.18103499368643369 0 0.33959665652591509 0.18405605727322441 0 0.35237000846231792 0.1668496185602554 0 0.35237000846231792 0.1668496185602554 0 0.36691984236605929 0.18103499368643369 0 0.37453262066430792 0.16441069273100409 0 0.35237000846231792 0.1668496185602554 0 0.37453262066430792 0.16441069273100409 0 0.36514336039872058 0.14964317984728651 0 0.36514336039872058 0.14964317984728651 0 0.37791671233512342 0.1324367411343175 0 0.37584595869444087 0.14411102853080179 0 0.36514336039872058 0.14964317984728651 0 0.35418811168131492 0.14459650630150539 0 0.37791671233512342 0.1324367411343175 0 0.37458497022856041 0.15303940812565789 0 0.36514336039872058 0.14964317984728651 0 0.37584595869444087 0.14411102853080179 0 0.37453262066430792 0.16441069273100409 0 0.37458497022856041 0.15303940812565789 0 0.36514336039872058 0.14964317984728651 0 0.36514336039872058 0.14964317984728651 0 0.37791671233512342 0.1324367411343175 0 0.35237000846231792 0.1668496185602554 0 0.36514336039872058 0.14964317984728651 0 0.35418811168131492 0.14459650630150539 0 0.35418811168131492 0.14459650630150539 0 0.35194183452597527 0.13414512859457359 0 0.36075382445134618 0.1280917515473739 0 0.34773068287978609 0.1245784996473145 0 0.34509471909145412 0.1393137568821006 0 0.35194183452597527 0.13414512859457359 0 0.35418811168131492 0.14459650630150539 0 0.34509471909145412 0.1393137568821006 0 0.35194183452597527 0.13414512859457359 0 0.34773068287978609 0.1245784996473145 0 0.35194183452597527 0.13414512859457359 0 0.36075382445134618 0.1280917515473739 0 0.35418811168131492 0.14459650630150539 0 0.37873418443342 0.12835237321533449 0 0.35418811168131492 0.14459650630150539 0 0.37791671233512342 0.1324367411343175 0 0.37873418443342 0.12835237321533449 0 0.37120354339752631 0.11933077434222621 0 0.36075382445134618 0.1280917515473739 0 0.37873418443342 0.12835237321533449 0 0.35418811168131492 0.14459650630150539 0 0.36075382445134618 0.1280917515473739 0 0.37873418443342 0.12835237321533449 0 0.37873418443342 0.12835237321533449 0 0.38520123005928258 0.13849860636324121 0 0.39770831430295561 0.1348776670413192 0 0.37791671233512342 0.1324367411343175 0 0.37584595869444087 0.14411102853080179 0 0.38066964716674018 0.14132237318053389 0 0.37791671233512342 0.1324367411343175 0 0.37873418443342 0.12835237321533449 0 0.38520123005928258 0.13849860636324121 0 0.37791671233512342 0.1324367411343175 0 0.38520123005928258 0.13849860636324121 0 0.38066964716674018 0.14132237318053389 0 0.37873418443342 0.12835237321533449 0 0.39770831430295561 0.1348776670413192 0 0.40328025718552513 0.11210824012916359 0 0.38520123005928258 0.13849860636324121 0 0.39770831430295561 0.1348776670413192 0 0.39287246788057562 0.14645017295584939 0 0.39770831430295561 0.1348776670413192 0 0.40309868305912461 0.14912898523550799 0 0.41689700284805781 0.14499144509544429 0 0.39770831430295561 0.1348776670413192 0 0.40309868305912461 0.14912898523550799 0 0.39287246788057562 0.14645017295584939 0 0.40309868305912461 0.14912898523550799 0 0.39287246788057562 0.14645017295584939 0 0.39358563390189888 0.15937673483244461 0 0.39287246788057562 0.14645017295584939 0 0.38371468757811389 0.15024311669377499 0 0.39358563390189888 0.15937673483244461 0 0.38520123005928258 0.13849860636324121 0 0.39287246788057562 0.14645017295584939 0 0.38371468757811389 0.15024311669377499 0 0.38520123005928258 0.13849860636324121 0 0.38371468757811389 0.15024311669377499 0 0.38066964716674018 0.14132237318053389 0 0.38371468757811389 0.15024311669377499 0 0.37584595869444087 0.14411102853080179 0 0.38066964716674018 0.14132237318053389 0 0.37453262066430792 0.16441069273100409 0 0.37458497022856041 0.15303940812565789 0 0.38371468757811389 0.15024311669377499 0 0.37458497022856041 0.15303940812565789 0 0.38371468757811389 0.15024311669377499 0 0.37584595869444087 0.14411102853080179 0 0.37453262066430792 0.16441069273100409 0 0.39424302820620372 0.17801393009964309 0 0.39358563390189888 0.15937673483244461 0 0.37453262066430792 0.16441069273100409 0 0.38371468757811389 0.15024311669377499 0 0.39358563390189888 0.15937673483244461 0 0.36691984236605929 0.18103499368643369 0 0.39424302820620372 0.17801393009964309 0 0.37713587054321468 0.20320227462326801 0 0.36691984236605929 0.18103499368643369 0 0.39424302820620372 0.17801393009964309 0 0.36691984236605929 0.18103499368643369 0 0.37453262066430792 0.16441069273100409 0 0.39424302820620372 0.17801393009964309 0 0.39424302820620372 0.17801393009964309 0 0.39358563390189888 0.15937673483244461 0 0.41044219526397568 0.16098632736270141 0 0.40309868305912461 0.14912898523550799 0 0.39358563390189888 0.15937673483244461 0 0.41044219526397568 0.16098632736270141 0 0.41044219526397568 0.16098632736270141 0 0.42156621404634759 0.1749928665128497 0 0.4323945988937461 0.15651220797960419 0 0.39424302820620372 0.17801393009964309 0 0.41044219526397568 0.16098632736270141 0 0.42156621404634759 0.1749928665128497 0 0.39424302820620372 0.17801393009964309 0 0.42156621404634759 0.1749928665128497 0 0.40871837497138158 0.1969201003690938 0 0.39424302820620372 0.17801393009964309 0 0.42156621404634759 0.1749928665128497 0 0.42156621404634759 0.1749928665128497 0 0.40871837497138158 0.1969201003690938 0 0.4343345970911015 0.20108035943631811 0 0.43827272640824638 0.1731456647826434 0 0.42156621404634759 0.1749928665128497 0 0.4343345970911015 0.20108035943631811 0 0.43827272640824638 0.1731456647826434 0 0.42156621404634759 0.1749928665128497 0 0.43827272640824638 0.1731456647826434 0 0.4323945988937461 0.15651220797960419 0 0.44074785507469311 0.15558860711450059 0 0.43827272640824638 0.1731456647826434 0 0.42156621404634759 0.1749928665128497 0 0.4323945988937461 0.15651220797960419 0 0.42156621404634759 0.1749928665128497 0 0.4323945988937461 0.15651220797960419 0 0.43827272640824638 0.1731456647826434 0 0.4323945988937461 0.15651220797960419 0 0.41689700284805781 0.14499144509544429 0 0.44322298374114399 0.1380315494463584 0 0.41782818697981883 0.1288743616201482 0 0.44322298374114399 0.1380315494463584 0 0.42803237682141598 0.1143629063884561 0 0.41782818697981883 0.1288743616201482 0 0.41689700284805781 0.14499144509544429 0 0.44322298374114399 0.1380315494463584 0 0.39770831430295561 0.1348776670413192 0 0.41782818697981883 0.1288743616201482 0 0.40328025718552513 0.11210824012916359 0 0.39770831430295561 0.1348776670413192 0 0.41782818697981883 0.1288743616201482 0 0.41689700284805781 0.14499144509544429 0 0.40309868305912461 0.14912898523550799 0 0.41044219526397568 0.16098632736270141 0 0.41689700284805781 0.14499144509544429 0 0.41044219526397568 0.16098632736270141 0 0.4323945988937461 0.15651220797960419 0 0.41689700284805781 0.14499144509544429 0 0.38800042801244777 0.25834820960113319 0 0.40597266594897641 0.24236965432817781 0 0.38302269682145762 0.2407745680815867 0 0.38302269682145762 0.2407745680815867 0 0.39587053589641957 0.2188473342253402 0 0.36760042821346761 0.2308626972882008 0 0.38302269682145762 0.2407745680815867 0 0.39587053589641957 0.2188473342253402 0 0.40597266594897641 0.24236965432817781 0 0.39587053589641957 0.2188473342253402 0 0.4155688581447699 0.2156615971229891 0 0.40597266594897641 0.24236965432817781 0 0.38302269682145762 0.2407745680815867 0 0.39587053589641957 0.2188473342253402 0 0.39587053589641957 0.2188473342253402 0 0.37713587054321468 0.20320227462326801 0 0.40871837497138158 0.1969201003690938 0 0.39424302820620372 0.17801393009964309 0 0.37713587054321468 0.20320227462326801 0 0.40871837497138158 0.1969201003690938 0 0.39587053589641957 0.2188473342253402 0 0.40871837497138158 0.1969201003690938 0 0.36760042821346761 0.2308626972882008 0 0.39587053589641957 0.2188473342253402 0 0.37713587054321468 0.20320227462326801 0 0.42156621404634759 0.1749928665128497 0 0.40871837497138158 0.1969201003690938 0 0.4343345970911015 0.20108035943631811 0 0.4343345970911015 0.20108035943631811 0 0.4155688581447699 0.2156615971229891 0 0.43039646777395602 0.22901505408999259 0 0.4343345970911015 0.20108035943631811 0 0.43039646777395602 0.22901505408999259 0 0.40871837497138158 0.1969201003690938 0 0.4343345970911015 0.20108035943631811 0 0.4155688581447699 0.2156615971229891 0 0.39587053589641957 0.2188473342253402 0 0.40871837497138158 0.1969201003690938 0 0.4155688581447699 0.2156615971229891 0 0.40597266594897641 0.24236965432817781 0 0.4155688581447699 0.2156615971229891 0 0.43039646777395602 0.22901505408999259 0 0.42645833845681058 0.25694974874366722 0 0.43039646777395602 0.22901505408999259 0 0.44793440932526851 0.24372790195292879 0 0.42645833845681058 0.25694974874366722 0 0.43039646777395602 0.22901505408999259 0 0.42645833845681058 0.25694974874366722 0 0.40597266594897641 0.24236965432817781 0 0.43039646777395602 0.22901505408999259 0 0.44793440932526851 0.24372790195292879 0 0.45294395011939559 0.2255407194106861 0 0.47647197505969702 0.2436065613626649 0 0.45294395011939559 0.2255407194106861 0 0.47647197505969702 0.2436065613626649 0 0.43039646777395602 0.22901505408999259 0 0.44793440932526851 0.24372790195292879 0 0.45294395011939559 0.2255407194106861 0 0.45294395011939559 0.2255407194106861 0 0.46815723348552829 0.21726004421367881 0 0.47647197505969702 0.2436065613626649 0 0.45294395011939559 0.2255407194106861 0 0.45740011967776201 0.2047481246935621 0 0.46815723348552829 0.21726004421367881 0 0.45740011967776201 0.2047481246935621 0 0.46815723348552829 0.21726004421367881 0 0.47308281565031279 0.2038727917624012 0 0.4343345970911015 0.20108035943631811 0 0.43039646777395602 0.22901505408999259 0 0.45294395011939559 0.2255407194106861 0 0.4343345970911015 0.20108035943631811 0 0.45294395011939559 0.2255407194106861 0 0.45740011967776201 0.2047481246935621 0 0.4343345970911015 0.20108035943631811 0 0.45740011967776201 0.2047481246935621 0 0.45094905321609352 0.18906762675600419 0 0.4343345970911015 0.20108035943631811 0 0.45094905321609352 0.18906762675600419 0 0.43827272640824638 0.1731456647826434 0 0.45740011967776201 0.2047481246935621 0 0.45094905321609352 0.18906762675600419 0 0.46493306850413968 0.19166720658228439 0 0.45740011967776201 0.2047481246935621 0 0.46493306850413968 0.19166720658228439 0 0.47308281565031279 0.2038727917624012 0 0.4779936982208805 0.1893357260847377 0 0.48905156392465171 0.19884056269914879 0 0.47308281565031279 0.2038727917624012 0 0.46493306850413968 0.19166720658228439 0 0.4779936982208805 0.1893357260847377 0 0.47308281565031279 0.2038727917624012 0 0.46493306850413968 0.19166720658228439 0 0.4779936982208805 0.1893357260847377 0 0.47011545318329878 0.18343310582079089 0 0.4779936982208805 0.1893357260847377 0 0.48604207499166019 0.1888046259166126 0 0.48905156392465171 0.19884056269914879 0 0.48604207499166019 0.1888046259166126 0 0.48905156392465171 0.19884056269914879 0 0.49337046438884252 0.18393837622522249 0 0.48905156392465171 0.19884056269914879 0 0.5 0.20983418859906369 0 0.5 0.18391508124127379 0 0.48905156392465171 0.19884056269914879 0 0.5 0.18391508124127379 0 0.49337046438884252 0.18393837622522249 0 0.48905156392465171 0.19884056269914879 0 0.5 0.20983418859906369 0 0.48446059802003161 0.21819457409896839 0 0.48905156392465171 0.19884056269914879 0 0.48446059802003161 0.21819457409896839 0 0.47308281565031279 0.2038727917624012 0 0.46815723348552829 0.21726004421367881 0 0.48446059802003161 0.21819457409896839 0 0.47308281565031279 0.2038727917624012 0 0.46815723348552829 0.21726004421367881 0 0.48446059802003161 0.21819457409896839 0 0.47647197505969702 0.2436065613626649 0 0.5 0.20983418859906369 0 0.48446059802003161 0.21819457409896839 0 0.5 0.23575329595685349 0 0.48446059802003161 0.21819457409896839 0 0.5 0.23575329595685349 0 0.47647197505969702 0.2436065613626649 0 0.49999999999999889 0.26167240331464331 0 0.5 0.23575329595685349 0 0.47647197505969702 0.2436065613626649 0 0.45409629882283958 0.1520430851848287 0 0.46679310183632522 0.14981280346883119 0 0.45967577606076798 0.13578464151422601 0 0.46679310183632522 0.14981280346883119 0 0.46318328566065198 0.1586622205761565 0 0.47201563473457941 0.16018214894838531 0 0.45409629882283958 0.1520430851848287 0 0.46679310183632522 0.14981280346883119 0 0.46318328566065198 0.1586622205761565 0 0.46679310183632522 0.14981280346883119 0 0.45967577606076798 0.13578464151422601 0 0.47202352267599568 0.13909158024863411 0 0.45967577606076798 0.13578464151422601 0 0.47110372261474409 0.12601310397760959 0 0.47202352267599568 0.13909158024863411 0 0.45967577606076798 0.13578464151422601 0 0.47110372261474409 0.12601310397760959 0 0.46130924483096142 0.1216814360572691 0 0.45967577606076798 0.13578464151422601 0 0.46130924483096142 0.1216814360572691 0 0.45112314084540428 0.1245484577516892 0 0.44322298374114399 0.1380315494463584 0 0.44653122055070271 0.1145649292125176 0 0.45112314084540428 0.1245484577516892 0 0.45967577606076798 0.13578464151422601 0 0.44322298374114399 0.1380315494463584 0 0.45112314084540428 0.1245484577516892 0 0.44322298374114399 0.1380315494463584 0 0.44653122055070271 0.1145649292125176 0 0.44322298374114399 0.1380315494463584 0 0.45112314084540428 0.1245484577516892 0 0.44322298374114399 0.1380315494463584 0 0.44074785507469311 0.15558860711450059 0 0.4323945988937461 0.15651220797960419 0 0.44322298374114399 0.1380315494463584 0 0.44074785507469311 0.15558860711450059 0 0.4323945988937461 0.15651220797960419 0 0.44322298374114399 0.1380315494463584 0 0.45409629882283958 0.1520430851848287 0 0.44322298374114399 0.1380315494463584 0 0.44074785507469311 0.15558860711450059 0 0.45409629882283958 0.1520430851848287 0 0.45967577606076798 0.13578464151422601 0 0.44322298374114399 0.1380315494463584 0 0.44074785507469311 0.15558860711450059 0 0.44757853598331682 0.16484369217556941 0 0.43827272640824638 0.1731456647826434 0 0.44074785507469311 0.15558860711450059 0 0.43827272640824638 0.1731456647826434 0 0.44757853598331682 0.16484369217556941 0 0.43827272640824638 0.1731456647826434 0 0.4430600678196111 0.17261633914323651 0 0.44757853598331682 0.16484369217556941 0 0.45225765305702348 0.17117393106109369 0 0.4430600678196111 0.17261633914323651 0 0.44757853598331682 0.16484369217556941 0 0.45225765305702348 0.17117393106109369 0 0.45703661471748702 0.16449452576711321 0 0.45409629882283958 0.1520430851848287 0 0.44757853598331682 0.16484369217556941 0 0.45703661471748702 0.16449452576711321 0 0.45409629882283958 0.1520430851848287 0 0.44074785507469311 0.15558860711450059 0 0.44757853598331682 0.16484369217556941 0 0.45094905321609352 0.18906762675600419 0 0.43827272640824638 0.1731456647826434 0 0.44790967480828348 0.17719106158928041 0 0.43827272640824638 0.1731456647826434 0 0.4430600678196111 0.17261633914323651 0 0.44790967480828348 0.17719106158928041 0 0.43827272640824638 0.1731456647826434 0 0.4430600678196111 0.17261633914323651 0 0.45225765305702348 0.17117393106109369 0 0.4430600678196111 0.17261633914323651 0 0.44790967480828348 0.17719106158928041 0 0.45225765305702348 0.17117393106109369 0 0.44790967480828348 0.17719106158928041 0 0.45550462466951919 0.17794496128453111 0 0.45094905321609352 0.18906762675600419 0 0.44790967480828348 0.17719106158928041 0 0.45550462466951919 0.17794496128453111 0 0.45094905321609352 0.18906762675600419 0 0.46493306850413968 0.19166720658228439 0 0.4618933221008712 0.18172140417090499 0 0.45094905321609352 0.18906762675600419 0 0.45550462466951919 0.17794496128453111 0 0.4618933221008712 0.18172140417090499 0 0.46073175796116039 0.17289397883404939 0 0.45550462466951919 0.17794496128453111 0 0.4618933221008712 0.18172140417090499 0 0.45225765305702348 0.17117393106109369 0 0.46073175796116039 0.17289397883404939 0 0.45550462466951919 0.17794496128453111 0 0.46073175796116039 0.17289397883404939 0 0.4618933221008712 0.18172140417090499 0 0.46882873414241272 0.17555136234786139 0 0.46493306850413968 0.19166720658228439 0 0.4618933221008712 0.18172140417090499 0 0.47011545318329878 0.18343310582079089 0 0.4618933221008712 0.18172140417090499 0 0.47011545318329878 0.18343310582079089 0 0.46882873414241272 0.17555136234786139 0 0.45409629882283958 0.1520430851848287 0 0.45703661471748702 0.16449452576711321 0 0.46318328566065198 0.1586622205761565 0 0.45225765305702348 0.17117393106109369 0 0.46073175796116039 0.17289397883404939 0 0.45703661471748702 0.16449452576711321 0 0.46073175796116039 0.17289397883404939 0 0.46597477819202909 0.166778539511624 0 0.46882873414241272 0.17555136234786139 0 0.46073175796116039 0.17289397883404939 0 0.45703661471748702 0.16449452576711321 0 0.46597477819202909 0.166778539511624 0 0.46597477819202909 0.166778539511624 0 0.46318328566065198 0.1586622205761565 0 0.47201563473457941 0.16018214894838531 0 0.45703661471748702 0.16449452576711321 0 0.46597477819202909 0.166778539511624 0 0.46318328566065198 0.1586622205761565 0 0.47201563473457941 0.16018214894838531 0 0.47992268374220021 0.1635465672809375 0 0.47764787096591382 0.15133602512845801 0 0.47201563473457941 0.16018214894838531 0 0.47474976661462848 0.17000095162097351 0 0.47992268374220021 0.1635465672809375 0 0.46597477819202909 0.166778539511624 0 0.47201563473457941 0.16018214894838531 0 0.47474976661462848 0.17000095162097351 0 0.46597477819202909 0.166778539511624 0 0.47474976661462848 0.17000095162097351 0 0.46882873414241272 0.17555136234786139 0 0.47992268374220021 0.1635465672809375 0 0.48350398467161892 0.1732089957985459 0 0.48904747921077818 0.1593081830676828 0 0.47474976661462848 0.17000095162097351 0 0.47992268374220021 0.1635465672809375 0 0.48350398467161892 0.1732089957985459 0 0.47992268374220021 0.1635465672809375 0 0.48904747921077818 0.1593081830676828 0 0.47764787096591382 0.15133602512845801 0 0.4779936982208805 0.1893357260847377 0 0.47011545318329878 0.18343310582079089 0 0.47692844294818998 0.17888982991816599 0 0.47474976661462848 0.17000095162097351 0 0.46882873414241272 0.17555136234786139 0 0.47692844294818998 0.17888982991816599 0 0.47011545318329878 0.18343310582079089 0 0.46882873414241272 0.17555136234786139 0 0.47692844294818998 0.17888982991816599 0 0.48350398467161892 0.1732089957985459 0 0.47692844294818998 0.17888982991816599 0 0.4837525734322663 0.18310383865734159 0 0.47474976661462848 0.17000095162097351 0 0.48350398467161892 0.1732089957985459 0 0.47692844294818998 0.17888982991816599 0 0.4779936982208805 0.1893357260847377 0 0.48604207499166019 0.1888046259166126 0 0.4837525734322663 0.18310383865734159 0 0.4779936982208805 0.1893357260847377 0 0.47692844294818998 0.17888982991816599 0 0.4837525734322663 0.18310383865734159 0 0.48350398467161892 0.1732089957985459 0 0.49337046438884252 0.18393837622522249 0 0.48904747921077818 0.1593081830676828 0 0.5 0.18391508124127379 0 0.49337046438884252 0.18393837622522249 0 0.5 0.15799597388348369 0 0.48604207499166019 0.1888046259166126 0 0.4837525734322663 0.18310383865734159 0 0.49337046438884252 0.18393837622522249 0 0.48350398467161892 0.1732089957985459 0 0.4837525734322663 0.18310383865734159 0 0.49337046438884252 0.18393837622522249 0 0.49337046438884252 0.18393837622522249 0 0.48904747921077818 0.1593081830676828 0 0.5 0.15799597388348369 0 0.49337046438884252 0.18393837622522249 0 0.48904747921077818 0.1593081830676828 0 0.48904747921077818 0.1593081830676828 0 0.49311409869898448 0.1459448646510548 0 0.484724494032714 0.13467798991014299 0 0.5 0.15799597388348369 0 0.49311409869898448 0.1459448646510548 0 0.5 0.1320768665256937 0 0.48904747921077818 0.1593081830676828 0 0.5 0.15799597388348369 0 0.49311409869898448 0.1459448646510548 0 0.48904747921077818 0.1593081830676828 0 0.484724494032714 0.13467798991014299 0 0.47764787096591382 0.15133602512845801 0 0.47202352267599568 0.13909158024863411 0 0.484724494032714 0.13467798991014299 0 0.48904747921077818 0.1593081830676828 0 0.47764787096591382 0.15133602512845801 0 0.484724494032714 0.13467798991014299 0 0.46679310183632522 0.14981280346883119 0 0.47764787096591382 0.15133602512845801 0 0.47202352267599568 0.13909158024863411 0 0.46679310183632522 0.14981280346883119 0 0.47201563473457941 0.16018214894838531 0 0.47764787096591382 0.15133602512845801 0 0.47110372261474409 0.12601310397760959 0 0.47202352267599568 0.13909158024863411 0 0.484724494032714 0.13467798991014299 0 0.484724494032714 0.13467798991014299 0 0.5 0.1320768665256937 0 0.49052349536924239 0.1209416084851387 0 0.49311409869898448 0.1459448646510548 0 0.484724494032714 0.13467798991014299 0 0.5 0.1320768665256937 0 0.5 0.1320768665256937 0 0.49052349536924239 0.1209416084851387 0 0.5 0.1061577591679037 0 0.484724494032714 0.13467798991014299 0 0.49052349536924239 0.1209416084851387 0 0.48040150885464977 0.11004779675260309 0 0.49052349536924239 0.1209416084851387 0 0.5 0.1061577591679037 0 0.48040150885464977 0.11004779675260309 0 0.5 0.1061577591679037 0 0.48780907106892307 0.09605318098296993 0 0.50000000000000155 0.080238651810113817 0 0.5 0.1061577591679037 0 0.48780907106892307 0.09605318098296993 0 0.48040150885464977 0.11004779675260309 0 0.48040150885464977 0.11004779675260309 0 0.47607852367658549 0.085417603595063341 0 0.48040150885464977 0.11004779675260309 0 0.47607852367658549 0.085417603595063341 0 0.46809173283078842 0.10091275265026051 0 0.48780907106892307 0.09605318098296993 0 0.48040150885464977 0.11004779675260309 0 0.47607852367658549 0.085417603595063341 0 0.48040150885464977 0.11004779675260309 0 0.46798590141616081 0.1139440910989519 0 0.46809173283078842 0.10091275265026051 0 0.47110372261474409 0.12601310397760959 0 0.48040150885464977 0.11004779675260309 0 0.46798590141616081 0.1139440910989519 0 0.484724494032714 0.13467798991014299 0 0.48040150885464977 0.11004779675260309 0 0.47110372261474409 0.12601310397760959 0 0.484724494032714 0.13467798991014299 0 0.48040150885464977 0.11004779675260309 0 0.5 0.064169785135472113 0 0.48401372658061348 0.075451770974139132 0 0.47568175235585552 0.064194281140194723 0 0.5 0.064169785135472113 0 0.50000000000000155 0.080238651810113817 0 0.48401372658061348 0.075451770974139132 0 0.48780907106892307 0.09605318098296993 0 0.50000000000000155 0.080238651810113817 0 0.47607852367658549 0.085417603595063341 0 0.50000000000000155 0.080238651810113817 0 0.47607852367658549 0.085417603595063341 0 0.48401372658061348 0.075451770974139132 0 0.50000000000000155 0.080238651810113817 0 0.47607852367658549 0.085417603595063341 0 0.47607852367658549 0.085417603595063341 0 0.48401372658061348 0.075451770974139132 0 0.47307756564102299 0.075571105450676454 0 0.48401372658061348 0.075451770974139132 0 0.47307756564102299 0.075571105450676454 0 0.47568175235585552 0.064194281140194723 0 0.47307756564102299 0.075571105450676454 0 0.47568175235585552 0.064194281140194723 0 0.45136350471172593 0.080287643819569599 0 0.46918942709530859 0.063098927845474925 0 0.47568175235585552 0.064194281140194723 0 0.45378414064296291 0.07744835072381405 0 0.47568175235585552 0.064194281140194723 0 0.45378414064296291 0.07744835072381405 0 0.45136350471172593 0.080287643819569599 0 0.47568175235585552 0.064194281140194723 0 0.45136350471172593 0.080287643819569599 0 0.45658928446000019 0.064347659844422006 0 0.45236217827416603 0.06286331162987957 0 0.4623375556565818 0.061774949623494647 0 0.46918942709530859 0.063098927845474925 0 0.45658928446000019 0.064347659844422006 0 0.45378414064296291 0.07744835072381405 0 0.46918942709530859 0.063098927845474925 0 0.45658928446000019 0.064347659844422006 0 0.4623375556565818 0.061774949623494647 0 0.46918942709530859 0.063098927845474925 0 0.45378414064296291 0.07744835072381405 0 0.45658928446000019 0.064347659844422006 0 0.45378414064296291 0.07744835072381405 0 0.45254077087912792 0.071936833507389414 0 0.47607852367658549 0.085417603595063341 0 0.44983945736026509 0.091098308978677378 0 0.47607852367658549 0.085417603595063341 0 0.44983945736026509 0.091098308978677378 0 0.45136350471172593 0.080287643819569599 0 0.47607852367658549 0.085417603595063341 0 0.44983945736026509 0.091098308978677378 0 0.46809173283078842 0.10091275265026051 0 0.47607852367658549 0.085417603595063341 0 0.47307756564102299 0.075571105450676454 0 0.45136350471172593 0.080287643819569599 0 0.45136350471172593 0.080287643819569599 0 0.4278263299376302 0.095864107042992835 0 0.44983945736026509 0.091098308978677378 0 0.4278263299376302 0.095864107042992835 0 0.44983945736026509 0.091098308978677378 0 0.45136350471172593 0.080287643819569599 0 0.4278263299376302 0.095864107042992835 0 0.44983945736026509 0.091098308978677378 0 0.45136350471172593 0.080287643819569599 0 0.45658928446000019 0.064347659844422006 0 0.43190972945619088 0.080485284089348907 0 0.45658928446000019 0.064347659844422006 0 0.45254077087912792 0.071936833507389414 0 0.43190972945619088 0.080485284089348907 0 0.45236217827416603 0.06286331162987957 0 0.43070582256443463 0.070842469908354716 0 0.45658928446000019 0.064347659844422006 0 0.45236217827416603 0.06286331162987957 0 0.43190972945619088 0.080485284089348907 0 0.45236217827416603 0.06286331162987957 0 0.43190972945619088 0.080485284089348907 0 0.43070582256443463 0.070842469908354716 0 0.45136350471172593 0.080287643819569599 0 0.45254077087912792 0.071936833507389414 0 0.43190972945619088 0.080485284089348907 0 0.45236217827416603 0.06286331162987957 0 0.43070582256443463 0.070842469908354716 0 0.4378576997360204 0.058885345208700077 0 0.45378414064296291 0.07744835072381405 0 0.45136350471172593 0.080287643819569599 0 0.45254077087912792 0.071936833507389414 0 0.45136350471172593 0.080287643819569599 0 0.45254077087912792 0.071936833507389414 0 0.45902329794966001 0.1110653660570172 0 0.46130924483096142 0.1216814360572691 0 0.45112314084540428 0.1245484577516892 0 0.45902329794966001 0.1110653660570172 0 0.45112314084540428 0.1245484577516892 0 0.47110372261474409 0.12601310397760959 0 0.46130924483096142 0.1216814360572691 0 0.46798590141616081 0.1139440910989519 0 0.45902329794966001 0.1110653660570172 0 0.46130924483096142 0.1216814360572691 0 0.46798590141616081 0.1139440910989519 0 0.45902329794966001 0.1110653660570172 0 0.46798590141616081 0.1139440910989519 0 0.46809173283078842 0.10091275265026051 0 0.44983945736026509 0.091098308978677378 0 0.45902329794966001 0.1110653660570172 0 0.46809173283078842 0.10091275265026051 0 0.44983945736026509 0.091098308978677378 0 0.44653122055070271 0.1145649292125176 0 0.4278263299376302 0.095864107042992835 0 0.44983945736026509 0.091098308978677378 0 0.45902329794966001 0.1110653660570172 0 0.44653122055070271 0.1145649292125176 0 0.44983945736026509 0.091098308978677378 0 0.44653122055070271 0.1145649292125176 0 0.44322298374114399 0.1380315494463584 0 0.44653122055070271 0.1145649292125176 0 0.42803237682141598 0.1143629063884561 0 0.45902329794966001 0.1110653660570172 0 0.44653122055070271 0.1145649292125176 0 0.45112314084540428 0.1245484577516892 0 0.41782818697981883 0.1288743616201482 0 0.42803237682141598 0.1143629063884561 0 0.40328025718552513 0.11210824012916359 0 0.40723017445238158 0.09662290833427585 0 0.42041853653324718 0.097467879500657578 0 0.40328025718552513 0.11210824012916359 0 0.4278263299376302 0.095864107042992835 0 0.40328025718552513 0.11210824012916359 0 0.42041853653324718 0.097467879500657578 0 0.4278263299376302 0.095864107042992835 0 0.40328025718552513 0.11210824012916359 0 0.42803237682141598 0.1143629063884561 0 0.4278263299376302 0.095864107042992835 0 0.40328025718552513 0.11210824012916359 0 0.44653122055070271 0.1145649292125176 0 0.42803237682141598 0.1143629063884561 0 0.4278263299376302 0.095864107042992835 0 0.42041853653324718 0.097467879500657578 0 0.4278263299376302 0.095864107042992835 0 0.42041853653324718 0.097467879500657578 0 0.4278263299376302 0.095864107042992835 0 0.43190972945619088 0.080485284089348907 0 0.45136350471172593 0.080287643819569599 0 0.4278263299376302 0.095864107042992835 0 0.43190972945619088 0.080485284089348907 0 0.43190972945619088 0.080485284089348907 0 0.43070582256443463 0.070842469908354716 0 0.40904946685470323 0.078821628186829876 0 0.43070582256443463 0.070842469908354716 0 0.42811311447091172 0.061237180679649797 0 0.4378576997360204 0.058885345208700077 0 0.43070582256443463 0.070842469908354716 0 0.41624535405736812 0.067029016748016923 0 0.42811311447091172 0.061237180679649797 0 0.43070582256443463 0.070842469908354716 0 0.40904946685470323 0.078821628186829876 0 0.41624535405736812 0.067029016748016923 0 0.39831243736394761 0.070198760994465065 0 0.40643595908817121 0.059435002310367462 0 0.41624535405736812 0.067029016748016923 0 0.40904946685470323 0.078821628186829876 0 0.39831243736394761 0.070198760994465065 0 0.43070582256443463 0.070842469908354716 0 0.41624535405736812 0.067029016748016923 0 0.40904946685470323 0.078821628186829876 0 0.40723017445238158 0.09662290833427585 0 0.43190972945619088 0.080485284089348907 0 0.40723017445238158 0.09662290833427585 0 0.42041853653324718 0.097467879500657578 0 0.43190972945619088 0.080485284089348907 0 0.40723017445238158 0.09662290833427585 0 0.43190972945619088 0.080485284089348907 0 0.40904946685470323 0.078821628186829876 0 0.40904946685470323 0.078821628186829876 0 0.38739311114497182 0.086800786465305049 0 0.39379113156793699 0.094965013166093973 0 0.40723017445238158 0.09662290833427585 0 0.40904946685470323 0.078821628186829876 0 0.39379113156793699 0.094965013166093973 0 0.40904946685470323 0.078821628186829876 0 0.39831243736394761 0.070198760994465065 0 0.38739311114497182 0.086800786465305049 0 0.40904946685470323 0.078821628186829876 0 0.38739311114497182 0.086800786465305049 0 0.39831243736394761 0.070198760994465065 0 0.38928143737122572 0.060184214307526393 0 0.40643595908817121 0.059435002310367462 0 0.39831243736394761 0.070198760994465065 0 0.38432178714934812 0.071995474735262202 0 0.38928143737122572 0.060184214307526393 0 0.39831243736394761 0.070198760994465065 0 0.38432178714934812 0.071995474735262202 0 0.38739311114497182 0.086800786465305049 0 0.37449503421231478 0.081860185604329117 0 0.37212691565428019 0.06093342630468538 0 0.38432178714934812 0.071995474735262202 0 0.37212691565428019 0.06093342630468538 0 0.38432178714934812 0.071995474735262202 0 0.38928143737122572 0.060184214307526393 0 0.36573675543524009 0.094779944743779626 0 0.38739311114497182 0.086800786465305049 0 0.36573675543524009 0.094779944743779626 0 0.37449503421231478 0.081860185604329117 0 0.38739311114497182 0.086800786465305049 0 0.37449503421231478 0.081860185604329117 0 0.38432178714934812 0.071995474735262202 0 0.38739311114497182 0.086800786465305049 0 0.36982684613364503 0.099307521254285991 0 0.38739311114497182 0.086800786465305049 0 0.38273228593905573 0.099819210264856476 0 0.38273228593905573 0.099819210264856476 0 0.38255061944857249 0.1127605325792026 0 0.39379113156793699 0.094965013166093973 0 0.38739311114497182 0.086800786465305049 0 0.38273228593905573 0.099819210264856476 0 0.39379113156793699 0.094965013166093973 0 0.37283881518866352 0.1092023578701464 0 0.38273228593905573 0.099819210264856476 0 0.38255061944857249 0.1127605325792026 0 0.37283881518866352 0.1092023578701464 0 0.36982684613364503 0.099307521254285991 0 0.38273228593905573 0.099819210264856476 0 0.37120354339752631 0.11933077434222621 0 0.37283881518866352 0.1092023578701464 0 0.38255061944857249 0.1127605325792026 0 0.37873418443342 0.12835237321533449 0 0.38255061944857249 0.1127605325792026 0 0.40328025718552513 0.11210824012916359 0 0.37120354339752631 0.11933077434222621 0 0.37873418443342 0.12835237321533449 0 0.38255061944857249 0.1127605325792026 0 0.37873418443342 0.12835237321533449 0 0.40328025718552513 0.11210824012916359 0 0.40723017445238158 0.09662290833427585 0 0.38255061944857249 0.1127605325792026 0 0.40723017445238158 0.09662290833427585 0 0.38255061944857249 0.1127605325792026 0 0.39379113156793699 0.094965013166093973 0 0.40723017445238158 0.09662290833427585 0 0.38255061944857249 0.1127605325792026 0 0.40328025718552513 0.11210824012916359 0 0.40096377591578453 0.015023304593365939 0 0.39029558394488079 0.02154056236098581 0 0.40033930159400688 0.033250987408576523 0 0.39029558394488079 0.02154056236098581 0 0.39012396849755659 0.031634780224646837 0 0.40033930159400688 0.033250987408576523 0 0.4004964802826827 0.0023048094262989182 0 0.39114786249113942 0.0076667048625689502 0 0.38651699513386489 -0.0082438941662691945 0 0.40096377591578453 0.015023304593365939 0 0.4004964802826827 0.0023048094262989182 0 0.40960233649665301 0.0071739164917633989 0 0.40096377591578453 0.015023304593365939 0 0.39114786249113942 0.0076667048625689502 0 0.39029558394488079 0.02154056236098581 0 0.40096377591578453 0.015023304593365939 0 0.4004964802826827 0.0023048094262989182 0 0.39114786249113942 0.0076667048625689502 0 0.39114786249113942 0.0076667048625689502 0 0.37956009188044232 0.0054639270967038961 0 0.38651699513386489 -0.0082438941662691945 0 0.36745106585583581 0.0096593148345833872 0 0.39029558394488079 0.02154056236098581 0 0.39114786249113942 0.0076667048625689502 0 0.37956009188044232 0.0054639270967038961 0 0.39029558394488079 0.02154056236098581 0 0.36745106585583581 0.0096593148345833872 0 0.37956009188044232 0.0054639270967038961 0 0.39029558394488079 0.02154056236098581 0 0.37089736354892361 0.022449509562283719 0 0.39029558394488079 0.02154056236098581 0 0.38109424490894372 0.031302638199904267 0 0.36745106585583581 0.0096593148345833872 0 0.37089736354892361 0.022449509562283719 0 0.39029558394488079 0.02154056236098581 0 0.39029558394488079 0.02154056236098581 0 0.38109424490894372 0.031302638199904267 0 0.39012396849755659 0.031634780224646837 0 0.38773503734012782 0.040808497906603312 0 0.380293339954552 0.051151997288722093 0 0.39752455056485231 0.048290828297298541 0 0.36919054831138548 0.034985125535885932 0 0.3795782926287522 0.039562064732778887 0 0.380293339954552 0.051151997288722093 0 0.38109424490894372 0.031302638199904267 0 0.3795782926287522 0.039562064732778887 0 0.38773503734012782 0.040808497906603312 0 0.36919054831138548 0.034985125535885932 0 0.38109424490894372 0.031302638199904267 0 0.3795782926287522 0.039562064732778887 0 0.3795782926287522 0.039562064732778887 0 0.38773503734012782 0.040808497906603312 0 0.380293339954552 0.051151997288722093 0 0.38109424490894372 0.031302638199904267 0 0.38773503734012782 0.040808497906603312 0 0.39012396849755659 0.031634780224646837 0 0.37212691565428019 0.06093342630468538 0 0.380293339954552 0.051151997288722093 0 0.38928143737122572 0.060184214307526393 0 0.380293339954552 0.051151997288722093 0 0.38928143737122572 0.060184214307526393 0 0.39752455056485231 0.048290828297298541 0 0.37212691565428019 0.06093342630468538 0 0.38928143737122572 0.060184214307526393 0 0.38928143737122572 0.060184214307526393 0 0.39752455056485231 0.048290828297298541 0 0.40643595908817121 0.059435002310367462 0 0.38928143737122572 0.060184214307526393 0 0.40643595908817121 0.059435002310367462 0 0.39752455056485231 0.048290828297298541 0 0.41243398219595501 0.045569923949320391 0 0.40643595908817121 0.059435002310367462 0 0.38773503734012782 0.040808497906603312 0 0.39012396849755659 0.031634780224646837 0 0.40033930159400688 0.033250987408576523 0 0.38773503734012782 0.040808497906603312 0 0.39752455056485231 0.048290828297298541 0 0.40033930159400688 0.033250987408576523 0 0.39752455056485231 0.048290828297298541 0 0.40033930159400688 0.033250987408576523 0 0.41243398219595501 0.045569923949320391 0 0.40033930159400688 0.033250987408576523 0 0.41243398219595501 0.045569923949320391 0 0.42142170249605038 0.030607186270075561 0 0.41243398219595501 0.045569923949320391 0 0.42689977886953961 0.04995439629051255 0 0.42142170249605038 0.030607186270075561 0 0.41243398219595501 0.045569923949320391 0 0.40643595908817121 0.059435002310367462 0 0.41969254524198429 0.057235673688544389 0 0.41243398219595501 0.045569923949320391 0 0.41969254524198429 0.057235673688544389 0 0.42689977886953961 0.04995439629051255 0 0.41624535405736812 0.067029016748016923 0 0.41969254524198429 0.057235673688544389 0 0.42811311447091172 0.061237180679649797 0 0.41624535405736812 0.067029016748016923 0 0.40643595908817121 0.059435002310367462 0 0.41969254524198429 0.057235673688544389 0 0.41969254524198429 0.057235673688544389 0 0.42811311447091172 0.061237180679649797 0 0.42689977886953961 0.04995439629051255 0 0.42689977886953961 0.04995439629051255 0 0.4378576997360204 0.058885345208700077 0 0.44187962907631612 0.046191067946785118 0 0.42811311447091172 0.061237180679649797 0 0.42689977886953961 0.04995439629051255 0 0.4378576997360204 0.058885345208700077 0 0.42142170249605038 0.030607186270075561 0 0.44195914715442142 0.02874538645618956 0 0.44187962907631612 0.046191067946785118 0 0.42142170249605038 0.030607186270075561 0 0.44187962907631612 0.046191067946785118 0 0.42689977886953961 0.04995439629051255 0 0.42142170249605038 0.030607186270075561 0 0.44187962907631612 0.046191067946785118 0 0.43532686276371219 0.016106982179983579 0 0.42142170249605038 0.030607186270075561 0 0.4197494073312299 0.014784680888764379 0 0.43532686276371219 0.016106982179983579 0 0.42142170249605038 0.030607186270075561 0 0.44195914715442142 0.02874538645618956 0 0.40096377591578453 0.015023304593365939 0 0.42142170249605038 0.030607186270075561 0 0.4197494073312299 0.014784680888764379 0 0.40096377591578453 0.015023304593365939 0 0.40033930159400688 0.033250987408576523 0 0.42142170249605038 0.030607186270075561 0 0.40096377591578453 0.015023304593365939 0 0.42142170249605038 0.030607186270075561 0 0.40096377591578453 0.015023304593365939 0 0.40960233649665301 0.0071739164917633989 0 0.4197494073312299 0.014784680888764379 0 0.4004964802826827 0.0023048094262989182 0 0.40960233649665301 0.0071739164917633989 0 0.40873772934741692 -0.0082227253047044979 0 0.40960233649665301 0.0071739164917633989 0 0.41871377886572758 0.0033715561943622741 0 0.40873772934741692 -0.0082227253047044979 0 0.40960233649665301 0.0071739164917633989 0 0.4197494073312299 0.014784680888764379 0 0.41871377886572758 0.0033715561943622741 0 0.4197494073312299 0.014784680888764379 0 0.41871377886572758 0.0033715561943622741 0 0.43025695391148888 0.0037636498374452169 0 0.43532686276371219 0.016106982179983579 0 0.4197494073312299 0.014784680888764379 0 0.43025695391148888 0.0037636498374452169 0 0.43532686276371219 0.016106982179983579 0 0.43025695391148888 0.0037636498374452169 0 0.44325010166687429 0.0045091878388511556 0 0.43025695391148888 0.0037636498374452169 0 0.44325010166687429 0.0045091878388511556 0 0.43930167915224277 -0.0081936081740181417 0 0.44325010166687429 0.0045091878388511556 0 0.45351310628194091 0.016034004011596999 0 0.45625924732481082 -0.001191271719883092 0 0.43532686276371219 0.016106982179983579 0 0.44325010166687429 0.0045091878388511556 0 0.45351310628194091 0.016034004011596999 0 0.43532686276371219 0.016106982179983579 0 0.44195914715442142 0.02874538645618956 0 0.45351310628194091 0.016034004011596999 0 0.44195914715442142 0.02874538645618956 0 0.45351310628194091 0.016034004011596999 0 0.45765443515408782 0.034787691872506542 0 0.45351310628194091 0.016034004011596999 0 0.46696672695635111 0.025221841143091769 0 0.45765443515408782 0.034787691872506542 0 0.45351310628194091 0.016034004011596999 0 0.46696672695635111 0.025221841143091769 0 0.47248857146917461 0.011351293046179319 0 0.45351310628194091 0.016034004011596999 0 0.47248857146917461 0.011351293046179319 0 0.45625924732481082 -0.001191271719883092 0 0.45236217827416603 0.06286331162987957 0 0.44187962907631612 0.046191067946785118 0 0.4623375556565818 0.061774949623494647 0 0.45236217827416603 0.06286331162987957 0 0.4378576997360204 0.058885345208700077 0 0.44187962907631612 0.046191067946785118 0 0.44187962907631612 0.046191067946785118 0 0.4623375556565818 0.061774949623494647 0 0.44187962907631612 0.046191067946785118 0 0.45765443515408782 0.034787691872506542 0 0.45954234835797059 0.048231052896724677 0 0.44195914715442142 0.02874538645618956 0 0.44187962907631612 0.046191067946785118 0 0.45765443515408782 0.034787691872506542 0 0.46696672695635111 0.025221841143091769 0 0.45765443515408782 0.034787691872506542 0 0.47476651489280458 0.036884401728636017 0 0.45765443515408782 0.034787691872506542 0 0.46797547711532278 0.044946512120927887 0 0.47476651489280458 0.036884401728636017 0 0.45765443515408782 0.034787691872506542 0 0.46797547711532278 0.044946512120927887 0 0.45954234835797059 0.048231052896724677 0 0.44187962907631612 0.046191067946785118 0 0.45954234835797059 0.048231052896724677 0 0.4623375556565818 0.061774949623494647 0 0.45954234835797059 0.048231052896724677 0 0.46786464478754469 0.053455042919909178 0 0.4623375556565818 0.061774949623494647 0 0.46797547711532278 0.044946512120927887 0 0.45954234835797059 0.048231052896724677 0 0.46786464478754469 0.053455042919909178 0 0.46918942709530859 0.063098927845474925 0 0.46786464478754469 0.053455042919909178 0 0.4623375556565818 0.061774949623494647 0 0.46797547711532278 0.044946512120927887 0 0.46786464478754469 0.053455042919909178 0 0.48459471354765438 0.048749504967135808 0 0.46918942709530859 0.063098927845474925 0 0.46786464478754469 0.053455042919909178 0 0.48459471354765438 0.048749504967135808 0 0.46918942709530859 0.063098927845474925 0 0.48459471354765438 0.048749504967135808 0 0.46918942709530859 0.063098927845474925 0 0.47568175235585552 0.064194281140194723 0 0.48459471354765438 0.048749504967135808 0 0.46797547711532278 0.044946512120927887 0 0.47476651489280458 0.036884401728636017 0 0.48459471354765438 0.048749504967135808 0 0.47476651489280458 0.036884401728636017 0 0.48604867671056973 0.03379741394178231 0 0.48459471354765438 0.048749504967135808 0 0.47476651489280458 0.036884401728636017 0 0.48604867671056973 0.03379741394178231 0 0.4783059592694876 0.02592134602187951 0 0.48604867671056973 0.03379741394178231 0 0.50000000000000022 0.034400082088796607 0 0.48459471354765438 0.048749504967135808 0 0.50000000000000022 0.034400082088796607 0 0.48459471354765438 0.048749504967135808 0 0.49999999999999212 0.048100918460830422 0 0.50000000000000022 0.034400082088796607 0 0.48459471354765438 0.048749504967135808 0 0.5 0.064169785135472113 0 0.47568175235585552 0.064194281140194723 0 0.49999999999999212 0.048100918460830422 0 0.47568175235585552 0.064194281140194723 0 0.48459471354765438 0.048749504967135808 0 0.49999999999999212 0.048100918460830422 0 0.47568175235585552 0.064194281140194723 0 0.49999999999999212 0.048100918460830422 0 0.47248857146917461 0.011351293046179319 0 0.48726189732381109 0.01947723898481718 0 0.48675925227609812 0.00148019496453835 0 0.47248857146917461 0.011351293046179319 0 0.48675925227609812 0.00148019496453835 0 0.47448731730473548 -0.0104311595724764 0 0.46696672695635111 0.025221841143091769 0 0.47248857146917461 0.011351293046179319 0 0.4783059592694876 0.02592134602187951 0 0.46696672695635111 0.025221841143091769 0 0.47476651489280458 0.036884401728636017 0 0.4783059592694876 0.02592134602187951 0 0.48604867671056973 0.03379741394178231 0 0.4783059592694876 0.02592134602187951 0 0.48726189732381109 0.01947723898481718 0 0.47248857146917461 0.011351293046179319 0 0.4783059592694876 0.02592134602187951 0 0.48726189732381109 0.01947723898481718 0 0.50000000000000022 0.034400082088796607 0 0.48726189732381109 0.01947723898481718 0 0.5 0.010656825034539691 0 0.48604867671056973 0.03379741394178231 0 0.50000000000000022 0.034400082088796607 0 0.48726189732381109 0.01947723898481718 0 0.48726189732381109 0.01947723898481718 0 0.48675925227609812 0.00148019496453835 0 0.5 0.010656825034539691 0 0.48675925227609812 0.00148019496453835 0 0.5 0.010656825034539691 0 0.5 -0.013086432019717259 0 0.48675925227609812 0.00148019496453835 0 0.5 -0.013086432019717259 0 0.47448731730473548 -0.0104311595724764 0 0.47448731730473548 -0.0104311595724764 0 0.48724365865236768 -0.035502052850353773 0 0.47448731730473548 -0.0104311595724764 0 0.46949943480710837 -0.028951405217413059 0 0.48724365865236768 -0.035502052850353773 0 0.5 -0.013086432019717259 0 0.47448731730473548 -0.0104311595724764 0 0.48724365865236768 -0.035502052850353773 0 0.5 -0.013086432019717259 0 0.5 -0.036829689073974159 0 0.48724365865236768 -0.035502052850353773 0 0.5 -0.036829689073974159 0 0.48724365865236768 -0.035502052850353773 0 0.5 -0.060572946128231102 0 0.48724365865236768 -0.035502052850353773 0 0.5 -0.060572946128231102 0 0.48299411544260301 -0.05458553388675294 0 0.48724365865236768 -0.035502052850353773 0 0.5 -0.060572946128231102 0 0.47030617579950801 -0.0601315322090403 0 0.48299411544260301 -0.05458553388675294 0 0.47241390072959288 -0.044232403476878041 0 0.46949943480710837 -0.028951405217413059 0 0.48724365865236768 -0.035502052850353773 0 0.47241390072959288 -0.044232403476878041 0 0.48724365865236768 -0.035502052850353773 0 0.48299411544260301 -0.05458553388675294 0 0.47241390072959288 -0.044232403476878041 0 0.46949943480710837 -0.028951405217413059 0 0.47241390072959288 -0.044232403476878041 0 0.45571014775380952 -0.036583002930754567 0 0.47241390072959288 -0.044232403476878041 0 0.45571014775380952 -0.036583002930754567 0 0.45520797945265629 -0.054077931851160492 0 0.47030617579950801 -0.0601315322090403 0 0.47241390072959288 -0.044232403476878041 0 0.45520797945265629 -0.054077931851160492 0 0.47030617579950801 -0.0601315322090403 0 0.45520797945265629 -0.054077931851160492 0 0.45799683001194519 -0.07133391950919668 0 0.45520797945265629 -0.054077931851160492 0 0.43949174548112319 -0.045984950483573817 0 0.43855753186239632 -0.066037234291069349 0 0.45571014775380952 -0.036583002930754567 0 0.43949174548112319 -0.045984950483573817 0 0.44021250451327931 -0.027668159806980331 0 0.45571014775380952 -0.036583002930754567 0 0.45520797945265629 -0.054077931851160492 0 0.43949174548112319 -0.045984950483573817 0 0.45571014775380952 -0.036583002930754567 0 0.44021250451327931 -0.027668159806980331 0 0.45594693025080729 -0.018572860026429851 0 0.44021250451327931 -0.027668159806980331 0 0.43930167915224277 -0.0081936081740181417 0 0.45594693025080729 -0.018572860026429851 0 0.44325010166687429 0.0045091878388511556 0 0.43930167915224277 -0.0081936081740181417 0 0.45625924732481082 -0.001191271719883092 0 0.43930167915224277 -0.0081936081740181417 0 0.45625924732481082 -0.001191271719883092 0 0.45594693025080729 -0.018572860026429851 0 0.47448731730473548 -0.0104311595724764 0 0.45625924732481082 -0.001191271719883092 0 0.45594693025080729 -0.018572860026429851 0 0.47248857146917461 0.011351293046179319 0 0.47448731730473548 -0.0104311595724764 0 0.45625924732481082 -0.001191271719883092 0 0.46949943480710837 -0.028951405217413059 0 0.45571014775380952 -0.036583002930754567 0 0.45594693025080729 -0.018572860026429851 0 0.47448731730473548 -0.0104311595724764 0 0.46949943480710837 -0.028951405217413059 0 0.45594693025080729 -0.018572860026429851 0 0.47450488404307312 -0.10467613638040719 0 0.45514232789862002 -0.1207526523689479 0 0.47701358927628451 -0.13433069596812289 0 0.5 -0.12022035018190751 0 0.47450488404307312 -0.10467613638040719 0 0.47701358927628451 -0.13433069596812289 0 0.5 -0.12022035018190751 0 0.47450488404307312 -0.10467613638040719 0 0.5 -0.090396648155069315 0 0.47450488404307312 -0.10467613638040719 0 0.47816492335148297 -0.075460095838506727 0 0.46196748104177809 -0.088564823900112319 0 0.47450488404307312 -0.10467613638040719 0 0.5 -0.090396648155069315 0 0.47816492335148297 -0.075460095838506727 0 0.5 -0.060572946128231102 0 0.5 -0.090396648155069315 0 0.47816492335148297 -0.075460095838506727 0 0.5 -0.060572946128231102 0 0.48299411544260301 -0.05458553388675294 0 0.47816492335148297 -0.075460095838506727 0 0.47030617579950801 -0.0601315322090403 0 0.47816492335148297 -0.075460095838506727 0 0.45799683001194519 -0.07133391950919668 0 0.47030617579950801 -0.0601315322090403 0 0.48299411544260301 -0.05458553388675294 0 0.47816492335148297 -0.075460095838506727 0 0.45520797945265629 -0.054077931851160492 0 0.45799683001194519 -0.07133391950919668 0 0.43855753186239632 -0.066037234291069349 0 0.45799683001194519 -0.07133391950919668 0 0.43855753186239632 -0.066037234291069349 0 0.44377688856385011 -0.083731898965291013 0 0.44377688856385011 -0.083731898965291013 0 0.46196748104177809 -0.088564823900112319 0 0.45024684020838601 -0.10128924731824709 0 0.45799683001194519 -0.07133391950919668 0 0.44377688856385011 -0.083731898965291013 0 0.46196748104177809 -0.088564823900112319 0 0.47816492335148297 -0.075460095838506727 0 0.45799683001194519 -0.07133391950919668 0 0.46196748104177809 -0.088564823900112319 0 0.47450488404307312 -0.10467613638040719 0 0.46196748104177809 -0.088564823900112319 0 0.45024684020838601 -0.10128924731824709 0 0.47450488404307312 -0.10467613638040719 0 0.45024684020838601 -0.10128924731824709 0 0.45514232789862002 -0.1207526523689479 0 0.45024684020838601 -0.10128924731824709 0 0.43807909088099461 -0.1122885980949993 0 0.42801036882200039 -0.097721374199724736 0 0.44377688856385011 -0.083731898965291013 0 0.45024684020838601 -0.10128924731824709 0 0.42801036882200039 -0.097721374199724736 0 0.45024684020838601 -0.10128924731824709 0 0.43807909088099461 -0.1122885980949993 0 0.45514232789862002 -0.1207526523689479 0 0.43807909088099461 -0.1122885980949993 0 0.45514232789862002 -0.1207526523689479 0 0.43668295629035692 -0.1233815912782954 0 0.41287824964344511 -0.1244098422360839 0 0.41274300999879859 -0.1095891595462479 0 0.3973521325971795 -0.12034337486225551 0 0.41287824964344511 -0.1244098422360839 0 0.41274300999879859 -0.1095891595462479 0 0.42519357614446263 -0.11567564681874511 0 0.41287824964344511 -0.1244098422360839 0 0.42519357614446263 -0.11567564681874511 0 0.42613733149589272 -0.1283522507212364 0 0.43668295629035692 -0.1233815912782954 0 0.42519357614446263 -0.11567564681874511 0 0.42613733149589272 -0.1283522507212364 0 0.43807909088099461 -0.1122885980949993 0 0.43668295629035692 -0.1233815912782954 0 0.42519357614446263 -0.11567564681874511 0 0.43807909088099461 -0.1122885980949993 0 0.42519357614446263 -0.11567564681874511 0 0.42801036882200039 -0.097721374199724736 0 0.41274300999879859 -0.1095891595462479 0 0.42519357614446263 -0.11567564681874511 0 0.42801036882200039 -0.097721374199724736 0 0.41274300999879859 -0.1095891595462479 0 0.42801036882200039 -0.097721374199724736 0 0.412176358610365 -0.096024365589800167 0 0.41274300999879859 -0.1095891595462479 0 0.412176358610365 -0.096024365589800167 0 0.40120629371988281 -0.1036839515079335 0 0.42801036882200039 -0.097721374199724736 0 0.412176358610365 -0.096024365589800167 0 0.41570873669506547 -0.082031398904103853 0 0.412176358610365 -0.096024365589800167 0 0.41570873669506547 -0.082031398904103853 0 0.39868411386577862 -0.090544309620796792 0 0.42801036882200039 -0.097721374199724736 0 0.41570873669506547 -0.082031398904103853 0 0.42980773004146972 -0.079767471687950453 0 0.44377688856385011 -0.083731898965291013 0 0.42801036882200039 -0.097721374199724736 0 0.42980773004146972 -0.079767471687950453 0 0.41570873669506547 -0.082031398904103853 0 0.42980773004146972 -0.079767471687950453 0 0.42298512426403628 -0.069315452079563286 0 0.43855753186239632 -0.066037234291069349 0 0.42298512426403628 -0.069315452079563286 0 0.4227132643772108 -0.054098360244124191 0 0.43855753186239632 -0.066037234291069349 0 0.44377688856385011 -0.083731898965291013 0 0.42980773004146972 -0.079767471687950453 0 0.43855753186239632 -0.066037234291069349 0 0.42980773004146972 -0.079767471687950453 0 0.42298512426403628 -0.069315452079563286 0 0.41570873669506547 -0.082031398904103853 0 0.40943635999271388 -0.063708095288329158 0 0.39845778404902521 -0.07488151356005629 0 0.41570873669506547 -0.082031398904103853 0 0.42298512426403628 -0.069315452079563286 0 0.40943635999271388 -0.063708095288329158 0 0.40943635999271388 -0.063708095288329158 0 0.39845778404902521 -0.07488151356005629 0 0.39394803252720018 -0.058692689927634267 0 0.39845778404902521 -0.07488151356005629 0 0.38335002376579003 -0.070742674972891939 0 0.39394803252720018 -0.058692689927634267 0 0.39845778404902521 -0.07488151356005629 0 0.38335002376579003 -0.070742674972891939 0 0.38348584060938562 -0.089058432768113621 0 0.38335002376579003 -0.070742674972891939 0 0.38348584060938562 -0.089058432768113621 0 0.36842620457529901 -0.083266395079578615 0 0.39845778404902521 -0.07488151356005629 0 0.38348584060938562 -0.089058432768113621 0 0.39868411386577862 -0.090544309620796792 0 0.41570873669506547 -0.082031398904103853 0 0.39845778404902521 -0.07488151356005629 0 0.39868411386577862 -0.090544309620796792 0 0.412176358610365 -0.096024365589800167 0 0.39868411386577862 -0.090544309620796792 0 0.40120629371988281 -0.1036839515079335 0 0.39868411386577862 -0.090544309620796792 0 0.40120629371988281 -0.1036839515079335 0 0.38717751397389299 -0.1050287306560085 0 0.38348584060938562 -0.089058432768113621 0 0.38717751397389299 -0.1050287306560085 0 0.3689775454119959 -0.1033412667606214 0 0.38348584060938562 -0.089058432768113621 0 0.39868411386577862 -0.090544309620796792 0 0.38717751397389299 -0.1050287306560085 0 0.38717751397389299 -0.1050287306560085 0 0.37408105728939067 -0.1220646411318288 0 0.3689775454119959 -0.1033412667606214 0 0.38717751397389299 -0.1050287306560085 0 0.3973521325971795 -0.12034337486225551 0 0.37408105728939067 -0.1220646411318288 0 0.40120629371988281 -0.1036839515079335 0 0.38717751397389299 -0.1050287306560085 0 0.3973521325971795 -0.12034337486225551 0 0.41274300999879859 -0.1095891595462479 0 0.40120629371988281 -0.1036839515079335 0 0.3973521325971795 -0.12034337486225551 0 0.41735214176992469 -0.0213435020400446 0 0.40706882829022623 -0.028935058739178541 0 0.40873772934741692 -0.0082227253047044979 0 0.41735214176992469 -0.0213435020400446 0 0.40706882829022623 -0.028935058739178541 0 0.42244062773844537 -0.035489278555506418 0 0.41871377886572758 0.0033715561943622741 0 0.40873772934741692 -0.0082227253047044979 0 0.41871377886572758 0.0033715561943622741 0 0.40873772934741692 -0.0082227253047044979 0 0.42401970424982988 -0.0082081667393636495 0 0.41735214176992469 -0.0213435020400446 0 0.40873772934741692 -0.0082227253047044979 0 0.42401970424982988 -0.0082081667393636495 0 0.40873772934741692 -0.0082227253047044979 0 0.42401970424982988 -0.0082081667393636495 0 0.41871377886572758 0.0033715561943622741 0 0.43025695391148888 0.0037636498374452169 0 0.42401970424982988 -0.0082081667393636495 0 0.43025695391148888 0.0037636498374452169 0 0.43930167915224277 -0.0081936081740181417 0 0.42401970424982988 -0.0082081667393636495 0 0.43930167915224277 -0.0081936081740181417 0 0.42401970424982988 -0.0082081667393636495 0 0.42866533148474439 -0.020180543063182631 0 0.43930167915224277 -0.0081936081740181417 0 0.42401970424982988 -0.0082081667393636495 0 0.44021250451327931 -0.027668159806980331 0 0.43930167915224277 -0.0081936081740181417 0 0.42866533148474439 -0.020180543063182631 0 0.44021250451327931 -0.027668159806980331 0 0.42866533148474439 -0.020180543063182631 0 0.42244062773844537 -0.035489278555506418 0 0.41735214176992469 -0.0213435020400446 0 0.42401970424982988 -0.0082081667393636495 0 0.42866533148474439 -0.020180543063182631 0 0.41735214176992469 -0.0213435020400446 0 0.42866533148474439 -0.020180543063182631 0 0.42244062773844537 -0.035489278555506418 0 0.43949174548112319 -0.045984950483573817 0 0.42244062773844537 -0.035489278555506418 0 0.4227132643772108 -0.054098360244124191 0 0.43949174548112319 -0.045984950483573817 0 0.44021250451327931 -0.027668159806980331 0 0.42244062773844537 -0.035489278555506418 0 0.43949174548112319 -0.045984950483573817 0 0.43855753186239632 -0.066037234291069349 0 0.4227132643772108 -0.054098360244124191 0 0.40943635999271388 -0.063708095288329158 0 0.4227132643772108 -0.054098360244124191 0 0.40427651932911479 -0.043959891634949927 0 0.42298512426403628 -0.069315452079563286 0 0.40943635999271388 -0.063708095288329158 0 0.4227132643772108 -0.054098360244124191 0 0.42244062773844537 -0.035489278555506418 0 0.4227132643772108 -0.054098360244124191 0 0.40427651932911479 -0.043959891634949927 0 0.40706882829022623 -0.028935058739178541 0 0.42244062773844537 -0.035489278555506418 0 0.40427651932911479 -0.043959891634949927 0 0.40706882829022623 -0.028935058739178541 0 0.40427651932911479 -0.043959891634949927 0 0.39205374254781089 -0.027613050014517901 0 0.40943635999271388 -0.063708095288329158 0 0.40427651932911479 -0.043959891634949927 0 0.39394803252720018 -0.058692689927634267 0 0.40427651932911479 -0.043959891634949927 0 0.39394803252720018 -0.058692689927634267 0 0.37536975574820741 -0.047003374724333122 0 0.38335002376579003 -0.070742674972891939 0 0.37536975574820741 -0.047003374724333122 0 0.37145793825947498 -0.066851536052737998 0 0.38335002376579003 -0.070742674972891939 0 0.39394803252720018 -0.058692689927634267 0 0.37536975574820741 -0.047003374724333122 0 0.40427651932911479 -0.043959891634949927 0 0.37536975574820741 -0.047003374724333122 0 0.39205374254781089 -0.027613050014517901 0 0.37536975574820741 -0.047003374724333122 0 0.39205374254781089 -0.027613050014517901 0 0.37484292434526739 -0.024910412108717708 0 0.37536975574820741 -0.047003374724333122 0 0.39205374254781089 -0.027613050014517901 0 0.39205374254781089 -0.027613050014517901 0 0.38651699513386489 -0.0082438941662691945 0 0.37484292434526739 -0.024910412108717708 0 0.40873772934741692 -0.0082227253047044979 0 0.39205374254781089 -0.027613050014517901 0 0.40706882829022623 -0.028935058739178541 0 0.40873772934741692 -0.0082227253047044979 0 0.39205374254781089 -0.027613050014517901 0 0.40873772934741692 -0.0082227253047044979 0 0.38651699513386489 -0.0082438941662691945 0 0.40873772934741692 -0.0082227253047044979 0 0.39205374254781089 -0.027613050014517901 0 0.38651699513386489 -0.0082438941662691945 0 0.4004964802826827 0.0023048094262989182 0 0.40873772934741692 -0.0082227253047044979 0 0.38651699513386489 -0.0082438941662691945 0 0.38651699513386489 -0.0082438941662691945 0 0.36429626092031292 -0.0082650630278287354 0 0.37484292434526739 -0.024910412108717708 0 0.38651699513386489 -0.0082438941662691945 0 0.36429626092031292 -0.0082650630278287354 0 0.37956009188044232 0.0054639270967038961 0 0.38651699513386489 -0.0082438941662691945 0 0.37335478626556751 -0.0010199995163838169 0 0.38651699513386489 -0.0082438941662691945 0 0.37335478626556751 -0.0010199995163838169 0 0.36429626092031292 -0.0082650630278287354 0 0.36550899953369981 0.0024517522133788799 0 0.37335478626556751 -0.0010199995163838169 0 0.36429626092031292 -0.0082650630278287354 0 0.36429626092031292 -0.0082650630278287354 0 0.36262094061262568 -0.0082666590427639061 0 0.36550899953369981 0.0024517522133788799 0 0.36429626092031292 -0.0082650630278287354 0 0.36262094061262568 -0.0082666590427639061 0 0.36550899953369981 0.0024517522133788799 0 0.36429626092031292 -0.0082650630278287354 0 0.36550899953369981 0.0024517522133788799 0 0.36262094061262568 -0.0082666590427639061 0 0.36429626092031292 -0.0082650630278287354 0 0.37484292434526739 -0.024910412108717708 0 0.35607652498516779 -0.032554854001106852 0 0.36429626092031292 -0.0082650630278287354 0 0.36262094061262568 -0.0082666590427639061 0 0.35607652498516779 -0.032554854001106852 0 0.36262094061262568 -0.0082666590427639061 0 0.35061717391290292 -0.018058051822241919 0 0.35607652498516779 -0.032554854001106852 0 0.36262094061262568 -0.0082666590427639061 0 0.35607652498516779 -0.032554854001106852 0 0.35061717391290292 -0.018058051822241919 0 0.34245763163498222 -0.033233001483108773 0 0.35607652498516779 -0.032554854001106852 0 0.36550899953369981 0.0024517522133788799 0 0.36262094061262568 -0.0082666590427639061 0 0.34048390649112098 -0.004366084792897738 0 0.36262094061262568 -0.0082666590427639061 0 0.33859477323187209 -0.0082895478729083753 0 0.36262094061262568 -0.0082666590427639061 0 0.35061717391290292 -0.018058051822241919 0 0.33859477323187209 -0.0082895478729083753 0 0.36262094061262568 -0.0082666590427639061 0 0.33859477323187209 -0.0082895478729083753 0 0.34048390649112098 -0.004366084792897738 0 0.33231672106315707 0.00076736276325971243 0 0.34063004757963988 0.0011895600491483281 0 0.34048390649112098 -0.004366084792897738 0 0.33231672106315707 0.00076736276325971243 0 0.34048390649112098 -0.004366084792897738 0 0.3237582470597658 -0.0036832242047534821 0 0.33859477323187209 -0.0082895478729083753 0 0.34048390649112098 -0.004366084792897738 0 0.31471363201375219 -0.01776899435288349 0 0.33859477323187209 -0.0082895478729083753 0 0.33513242010202782 -0.024597355989223711 0 0.31471363201375219 -0.01776899435288349 0 0.35061717391290292 -0.018058051822241919 0 0.33859477323187209 -0.0082895478729083753 0 0.33513242010202782 -0.024597355989223711 0 0.35061717391290292 -0.018058051822241919 0 0.33513242010202782 -0.024597355989223711 0 0.34245763163498222 -0.033233001483108773 0 0.33513242010202782 -0.024597355989223711 0 0.31471363201375219 -0.01776899435288349 0 0.32858411812589938 -0.040459366684498177 0 0.31471363201375219 -0.01776899435288349 0 0.3237582470597658 -0.0036832242047534821 0 0.30332321409842661 -0.0035271610948642922 0 0.34048390649112098 -0.004366084792897738 0 0.31471363201375219 -0.01776899435288349 0 0.34048390649112098 -0.004366084792897738 0 0.31471363201375219 -0.01776899435288349 0 0.3237582470597658 -0.0036832242047534821 0 0.31505504448721611 0.0068383069611849916 0 0.3237582470597658 -0.0036832242047534821 0 0.30332321409842661 -0.0035271610948642922 0 0.32858411812589938 -0.040459366684498177 0 0.33183681190163877 -0.057884282846953523 0 0.31109383207343388 -0.045507559092967637 0 0.33183681190163877 -0.057884282846953523 0 0.31405627196664698 -0.063953665332340731 0 0.31109383207343388 -0.045507559092967637 0 0.31471363201375219 -0.01776899435288349 0 0.32858411812589938 -0.040459366684498177 0 0.31109383207343388 -0.045507559092967637 0 0.33513242010202782 -0.024597355989223711 0 0.32858411812589938 -0.040459366684498177 0 0.34245763163498222 -0.033233001483108773 0 0.32858411812589938 -0.040459366684498177 0 0.34245763163498222 -0.033233001483108773 0 0.34009387303327021 -0.047326897682668137 0 0.32858411812589938 -0.040459366684498177 0 0.33183681190163877 -0.057884282846953523 0 0.34009387303327021 -0.047326897682668137 0 0.33183681190163877 -0.057884282846953523 0 0.34009387303327021 -0.047326897682668137 0 0.34953210935771012 -0.056843048959449659 0 0.33183681190163877 -0.057884282846953523 0 0.34953210935771012 -0.056843048959449659 0 0.34201931249546702 -0.068394850456455311 0 0.34009387303327021 -0.047326897682668137 0 0.34953210935771012 -0.056843048959449659 0 0.35607652498516779 -0.032554854001106852 0 0.34245763163498222 -0.033233001483108773 0 0.34009387303327021 -0.047326897682668137 0 0.35607652498516779 -0.032554854001106852 0 0.34953210935771012 -0.056843048959449659 0 0.35607652498516779 -0.032554854001106852 0 0.37536975574820741 -0.047003374724333122 0 0.37484292434526739 -0.024910412108717708 0 0.35607652498516779 -0.032554854001106852 0 0.37536975574820741 -0.047003374724333122 0 0.34953210935771012 -0.056843048959449659 0 0.35607652498516779 -0.032554854001106852 0 0.37536975574820741 -0.047003374724333122 0 0.35868576894860382 -0.066393699434148287 0 0.37536975574820741 -0.047003374724333122 0 0.37145793825947498 -0.066851536052737998 0 0.35868576894860382 -0.066393699434148287 0 0.37536975574820741 -0.047003374724333122 0 0.34953210935771012 -0.056843048959449659 0 0.35868576894860382 -0.066393699434148287 0 0.37145793825947498 -0.066851536052737998 0 0.36842620457529901 -0.083266395079578615 0 0.35868576894860382 -0.066393699434148287 0 0.38335002376579003 -0.070742674972891939 0 0.37145793825947498 -0.066851536052737998 0 0.36842620457529901 -0.083266395079578615 0 0.38348584060938562 -0.089058432768113621 0 0.36842620457529901 -0.083266395079578615 0 0.3689775454119959 -0.1033412667606214 0 0.36842620457529901 -0.083266395079578615 0 0.35868576894860382 -0.066393699434148287 0 0.34200178214900029 -0.085784024143963453 0 0.36842620457529901 -0.083266395079578615 0 0.35066645614280029 -0.10208876188784979 0 0.34200178214900029 -0.085784024143963453 0 0.35868576894860382 -0.066393699434148287 0 0.34201931249546702 -0.068394850456455311 0 0.34200178214900029 -0.085784024143963453 0 0.35868576894860382 -0.066393699434148287 0 0.34200178214900029 -0.085784024143963453 0 0.34953210935771012 -0.056843048959449659 0 0.35868576894860382 -0.066393699434148287 0 0.34201931249546702 -0.068394850456455311 0 0.37408105728939067 -0.1220646411318288 0 0.3689775454119959 -0.1033412667606214 0 0.35031208795440871 -0.12268864718202629 0 0.36842620457529901 -0.083266395079578615 0 0.3689775454119959 -0.1033412667606214 0 0.35066645614280029 -0.10208876188784979 0 0.3689775454119959 -0.1033412667606214 0 0.35066645614280029 -0.10208876188784979 0 0.35031208795440871 -0.12268864718202629 0 0.35031208795440871 -0.12268864718202629 0 0.32531779534939681 -0.1051743488537786 0 0.32842247429023141 -0.1259915980058679 0 0.35066645614280029 -0.10208876188784979 0 0.35031208795440871 -0.12268864718202629 0 0.32531779534939681 -0.1051743488537786 0 0.35066645614280029 -0.10208876188784979 0 0.32531779534939681 -0.1051743488537786 0 0.34200178214900029 -0.085784024143963453 0 0.32531779534939681 -0.1051743488537786 0 0.34200178214900029 -0.085784024143963453 0 0.32531779534939681 -0.1051743488537786 0 0.31036564794861299 -0.086653253946053693 0 0.30332924231473202 -0.10646016156316621 0 0.32531779534939681 -0.1051743488537786 0 0.30863380854979322 -0.1245646735635938 0 0.32842247429023141 -0.1259915980058679 0 0.32531779534939681 -0.1051743488537786 0 0.30863380854979322 -0.1245646735635938 0 0.33183681190163877 -0.057884282846953523 0 0.34201931249546702 -0.068394850456455311 0 0.32804009012038188 -0.075069196897761661 0 0.34201931249546702 -0.068394850456455311 0 0.34200178214900029 -0.085784024143963453 0 0.32804009012038188 -0.075069196897761661 0 0.32531779534939681 -0.1051743488537786 0 0.34200178214900029 -0.085784024143963453 0 0.32804009012038188 -0.075069196897761661 0 0.32531779534939681 -0.1051743488537786 0 0.32804009012038188 -0.075069196897761661 0 0.31036564794861299 -0.086653253946053693 0 0.33183681190163877 -0.057884282846953523 0 0.31405627196664698 -0.063953665332340731 0 0.32804009012038188 -0.075069196897761661 0 0.31405627196664698 -0.063953665332340731 0 0.32804009012038188 -0.075069196897761661 0 0.31036564794861299 -0.086653253946053693 0 0.31405627196664698 -0.063953665332340731 0 0.29897866013033098 -0.072285048052624409 0 0.29519344039269507 -0.055772710245670293 0 0.31405627196664698 -0.063953665332340731 0 0.29897866013033098 -0.072285048052624409 0 0.31036564794861299 -0.086653253946053693 0 0.29897866013033098 -0.072285048052624409 0 0.31036564794861299 -0.086653253946053693 0 0.28789366059673288 -0.094502295475606596 0 0.29897866013033098 -0.072285048052624409 0 0.28789366059673288 -0.094502295475606596 0 0.2806790996580148 -0.071173779097910311 0 0.29897866013033098 -0.072285048052624409 0 0.2806790996580148 -0.071173779097910311 0 0.29519344039269507 -0.055772710245670293 0 0.30863380854979322 -0.1245646735635938 0 0.30332924231473202 -0.10646016156316621 0 0.28443529912912419 -0.12140623597679839 0 0.32531779534939681 -0.1051743488537786 0 0.30863380854979322 -0.1245646735635938 0 0.30332924231473202 -0.10646016156316621 0 0.31036564794861299 -0.086653253946053693 0 0.30332924231473202 -0.10646016156316621 0 0.28789366059673288 -0.094502295475606596 0 0.28789366059673288 -0.094502295475606596 0 0.28443529912912419 -0.12140623597679839 0 0.30332924231473202 -0.10646016156316621 0 0.28789366059673288 -0.094502295475606596 0 0.28443529912912419 -0.12140623597679839 0 0.28443529912912419 -0.12140623597679839 0 0.2566916324133659 -0.11530786144550211 0 0.26093079810087821 -0.13796461764969331 0 0.28443529912912419 -0.12140623597679839 0 0.27040551836453808 -0.1008768708821345 0 0.2566916324133659 -0.11530786144550211 0 0.28789366059673288 -0.094502295475606596 0 0.27040551836453808 -0.1008768708821345 0 0.27066572420972751 -0.086391368953045847 0 0.28789366059673288 -0.094502295475606596 0 0.28443529912912419 -0.12140623597679839 0 0.27040551836453808 -0.1008768708821345 0 0.27040551836453808 -0.1008768708821345 0 0.25415217139124358 -0.09701936163760258 0 0.2566916324133659 -0.11530786144550211 0 0.27040551836453808 -0.1008768708821345 0 0.25415217139124358 -0.09701936163760258 0 0.26380234161027138 -0.091676011368673718 0 0.26777589138131092 -0.063244051990538869 0 0.2806790996580148 -0.071173779097910311 0 0.25921383635605111 -0.07869010523964387 0 0.2806790996580148 -0.071173779097910311 0 0.25921383635605111 -0.07869010523964387 0 0.2806790996580148 -0.071173779097910311 0 0.27066572420972751 -0.086391368953045847 0 0.25921383635605111 -0.07869010523964387 0 0.28789366059673288 -0.094502295475606596 0 0.2806790996580148 -0.071173779097910311 0 0.27066572420972751 -0.086391368953045847 0 0.27040551836453808 -0.1008768708821345 0 0.27066572420972751 -0.086391368953045847 0 0.26380234161027138 -0.091676011368673718 0 0.27066572420972751 -0.086391368953045847 0 0.2599859524755766 -0.082416444001912004 0 0.25921383635605111 -0.07869010523964387 0 0.25415217139124358 -0.09701936163760258 0 0.2599859524755766 -0.082416444001912004 0 0.23734579896956209 -0.086347467684455836 0 0.2599859524755766 -0.082416444001912004 0 0.25921383635605111 -0.07869010523964387 0 0.23734579896956209 -0.086347467684455836 0 0.2599859524755766 -0.082416444001912004 0 0.25921383635605111 -0.07869010523964387 0 0.27066572420972751 -0.086391368953045847 0 0.2599859524755766 -0.082416444001912004 0 0.26380234161027138 -0.091676011368673718 0 0.25415217139124358 -0.09701936163760258 0 0.2599859524755766 -0.082416444001912004 0 0.26380234161027138 -0.091676011368673718 0 0.26777589138131092 -0.063244051990538869 0 0.25921383635605111 -0.07869010523964387 0 0.25380120851981741 -0.052568017639291788 0 0.25921383635605111 -0.07869010523964387 0 0.25380120851981741 -0.052568017639291788 0 0.25921383635605111 -0.07869010523964387 0 0.25380120851981741 -0.052568017639291788 0 0.23724335730116961 -0.065010757385908433 0 0.26777589138131092 -0.063244051990538869 0 0.2806790996580148 -0.071173779097910311 0 0.2774094209913604 -0.050544305985309491 0 0.26777589138131092 -0.063244051990538869 0 0.25380120851981741 -0.052568017639291788 0 0.2774094209913604 -0.050544305985309491 0 0.25380120851981741 -0.052568017639291788 0 0.2774094209913604 -0.050544305985309491 0 0.26761912080446482 -0.034809247585236548 0 0.2774094209913604 -0.050544305985309491 0 0.26761912080446482 -0.034809247585236548 0 0.2889433575363835 -0.031171903912869191 0 0.25380120851981741 -0.052568017639291788 0 0.26761912080446482 -0.034809247585236548 0 0.24838858068358369 -0.026445930038939771 0 0.25380120851981741 -0.052568017639291788 0 0.24838858068358369 -0.026445930038939771 0 0.26761912080446482 -0.034809247585236548 0 0.26955303629117888 -0.01331608034977249 0 0.24838858068358369 -0.026445930038939771 0 0.25772642959595549 -0.002976658867858078 0 0.26955303629117888 -0.01331608034977249 0 0.24838858068358369 -0.026445930038939771 0 0.27385935584050519 0.0059842219239403492 0 0.25772642959595549 -0.002976658867858078 0 0.26955303629117888 -0.01331608034977249 0 0.27385935584050519 0.0059842219239403492 0 0.26955303629117888 -0.01331608034977249 0 0.28513605537496112 -0.0059817668724007544 0 0.26761912080446482 -0.034809247585236548 0 0.26955303629117888 -0.01331608034977249 0 0.2889433575363835 -0.031171903912869191 0 0.26955303629117888 -0.01331608034977249 0 0.2889433575363835 -0.031171903912869191 0 0.28513605537496112 -0.0059817668724007544 0 0.2889433575363835 -0.031171903912869191 0 0.28513605537496112 -0.0059817668724007544 0 0.30332321409842661 -0.0035271610948642922 0 0.31471363201375219 -0.01776899435288349 0 0.2889433575363835 -0.031171903912869191 0 0.30332321409842661 -0.0035271610948642922 0 0.31471363201375219 -0.01776899435288349 0 0.2889433575363835 -0.031171903912869191 0 0.2889433575363835 -0.031171903912869191 0 0.31109383207343388 -0.045507559092967637 0 0.29519344039269507 -0.055772710245670293 0 0.31471363201375219 -0.01776899435288349 0 0.2889433575363835 -0.031171903912869191 0 0.31109383207343388 -0.045507559092967637 0 0.31405627196664698 -0.063953665332340731 0 0.31109383207343388 -0.045507559092967637 0 0.29519344039269507 -0.055772710245670293 0 0.2806790996580148 -0.071173779097910311 0 0.2774094209913604 -0.050544305985309491 0 0.29519344039269507 -0.055772710245670293 0 0.2774094209913604 -0.050544305985309491 0 0.2889433575363835 -0.031171903912869191 0 0.29519344039269507 -0.055772710245670293 0 0.28597705526192641 -0.21313670243596741 0 0.29003262637850979 -0.1936223151711414 0 0.30136416602419541 -0.20795299610265289 0 0.28597705526192641 -0.21313670243596741 0 0.30136416602419541 -0.20795299610265289 0 0.2975156380406902 -0.22168534549582461 0 0.28597705526192641 -0.21313670243596741 0 0.29003262637850979 -0.1936223151711414 0 0.27406021472629821 -0.20211805748037401 0 0.29003262637850979 -0.1936223151711414 0 0.30514063718147327 -0.1919367735154538 0 0.30136416602419541 -0.20795299610265289 0 0.30514063718147327 -0.1919367735154538 0 0.30136416602419541 -0.20795299610265289 0 0.31706041835900789 -0.20260025260636849 0 0.30136416602419541 -0.20795299610265289 0 0.31706041835900789 -0.20260025260636849 0 0.31302026757543511 -0.21953992839433301 0 0.30136416602419541 -0.20795299610265289 0 0.2975156380406902 -0.22168534549582461 0 0.31302026757543511 -0.21953992839433301 0 0.2975156380406902 -0.22168534549582461 0 0.30448465568896421 -0.23803549748965649 0 0.31302026757543511 -0.21953992839433301 0 0.30448465568896421 -0.23803549748965649 0 0.289954177650182 -0.24849940719596311 0 0.31227764954635462 -0.25327102046308481 0 0.30448465568896421 -0.23803549748965649 0 0.289954177650182 -0.24849940719596311 0 0.28273204565292981 -0.22976160305651341 0 0.28597705526192641 -0.21313670243596741 0 0.2975156380406902 -0.22168534549582461 0 0.28273204565292981 -0.22976160305651341 0 0.2975156380406902 -0.22168534549582461 0 0.30448465568896421 -0.23803549748965649 0 0.28273204565292981 -0.22976160305651341 0 0.30448465568896421 -0.23803549748965649 0 0.28273204565292981 -0.22976160305651341 0 0.28597705526192641 -0.21313670243596741 0 0.28273204565292981 -0.22976160305651341 0 0.26097943561689552 -0.22148770862337031 0 0.28273204565292981 -0.22976160305651341 0 0.26503799397225231 -0.24416265096041301 0 0.26097943561689552 -0.22148770862337031 0 0.28273204565292981 -0.22976160305651341 0 0.26097943561689552 -0.22148770862337031 0 0.289954177650182 -0.24849940719596311 0 0.28273204565292981 -0.22976160305651341 0 0.26503799397225231 -0.24416265096041301 0 0.26503799397225231 -0.24416265096041301 0 0.24593773647071951 -0.24899878885736021 0 0.24927345032971729 -0.23402375540267939 0 0.26503799397225231 -0.24416265096041301 0 0.26097943561689552 -0.22148770862337031 0 0.24927345032971729 -0.23402375540267939 0 0.26097943561689552 -0.22148770862337031 0 0.24426364978656051 -0.21530824895215189 0 0.24927345032971729 -0.23402375540267939 0 0.26097943561689552 -0.22148770862337031 0 0.25370703271449452 -0.2021672765488961 0 0.24426364978656051 -0.21530824895215189 0 0.26097943561689552 -0.22148770862337031 0 0.27406021472629821 -0.20211805748037401 0 0.25370703271449452 -0.2021672765488961 0 0.28597705526192641 -0.21313670243596741 0 0.26097943561689552 -0.22148770862337031 0 0.27406021472629821 -0.20211805748037401 0 0.29003262637850979 -0.1936223151711414 0 0.27406021472629821 -0.20211805748037401 0 0.27751857619390691 -0.17521411697918221 0 0.27406021472629821 -0.20211805748037401 0 0.27751857619390691 -0.17521411697918221 0 0.27406021472629821 -0.20211805748037401 0 0.25370703271449452 -0.2021672765488961 0 0.25411262099828558 -0.17831709840515231 0 0.25411262099828558 -0.17831709840515231 0 0.26358689047159489 -0.15995434286485921 0 0.24477317661511899 -0.15438625179615861 0 0.25411262099828558 -0.17831709840515231 0 0.26358689047159489 -0.15995434286485921 0 0.27751857619390691 -0.17521411697918221 0 0.26358689047159489 -0.15995434286485921 0 0.27751857619390691 -0.17521411697918221 0 0.28097693766151549 -0.1483101764779903 0 0.27751857619390691 -0.17521411697918221 0 0.28097693766151549 -0.1483101764779903 0 0.27406021472629821 -0.20211805748037401 0 0.25411262099828558 -0.17831709840515231 0 0.27751857619390691 -0.17521411697918221 0 0.2566916324133659 -0.11530786144550211 0 0.26093079810087821 -0.13796461764969331 0 0.24096505950742009 -0.12955721171544829 0 0.26358689047159489 -0.15995434286485921 0 0.26093079810087821 -0.13796461764969331 0 0.24477317661511899 -0.15438625179615861 0 0.26358689047159489 -0.15995434286485921 0 0.26093079810087821 -0.13796461764969331 0 0.28097693766151549 -0.1483101764779903 0 0.28443529912912419 -0.12140623597679839 0 0.26093079810087821 -0.13796461764969331 0 0.28097693766151549 -0.1483101764779903 0 0.28443529912912419 -0.12140623597679839 0 0.28097693766151549 -0.1483101764779903 0 0.28443529912912419 -0.12140623597679839 0 0.28097693766151549 -0.1483101764779903 0 0.29946922911095791 -0.1396642086980249 0 0.28097693766151549 -0.1483101764779903 0 0.29946922911095791 -0.1396642086980249 0 0.30864495172265599 -0.15706384823901631 0 0.29946922911095791 -0.1396642086980249 0 0.30864495172265599 -0.15706384823901631 0 0.31905771333835631 -0.14151840503778909 0 0.30863380854979322 -0.1245646735635938 0 0.28443529912912419 -0.12140623597679839 0 0.29946922911095791 -0.1396642086980249 0 0.30863380854979322 -0.1245646735635938 0 0.29946922911095791 -0.1396642086980249 0 0.31905771333835631 -0.14151840503778909 0 0.29003262637850979 -0.1936223151711414 0 0.27751857619390691 -0.17521411697918221 0 0.29670214602331008 -0.17290713978873559 0 0.28097693766151549 -0.1483101764779903 0 0.29670214602331008 -0.17290713978873559 0 0.30864495172265599 -0.15706384823901631 0 0.27751857619390691 -0.17521411697918221 0 0.28097693766151549 -0.1483101764779903 0 0.29670214602331008 -0.17290713978873559 0 0.29670214602331008 -0.17290713978873559 0 0.30864495172265599 -0.15706384823901631 0 0.32116528092849439 -0.18011932513661011 0 0.30514063718147327 -0.1919367735154538 0 0.29670214602331008 -0.17290713978873559 0 0.32116528092849439 -0.18011932513661011 0 0.29003262637850979 -0.1936223151711414 0 0.30514063718147327 -0.1919367735154538 0 0.29670214602331008 -0.17290713978873559 0 0.30864495172265599 -0.15706384823901631 0 0.32116528092849439 -0.18011932513661011 0 0.33345635168643573 -0.1606642440873095 0 0.30864495172265599 -0.15706384823901631 0 0.32116528092849439 -0.18011932513661011 0 0.32116528092849439 -0.18011932513661011 0 0.33345635168643573 -0.1606642440873095 0 0.34312611387489478 -0.1852460597611669 0 0.31905771333835631 -0.14151840503778909 0 0.32842247429023141 -0.1259915980058679 0 0.3366366656797839 -0.14002483592564419 0 0.30863380854979322 -0.1245646735635938 0 0.31905771333835631 -0.14151840503778909 0 0.32842247429023141 -0.1259915980058679 0 0.30864495172265599 -0.15706384823901631 0 0.33345635168643573 -0.1606642440873095 0 0.31905771333835631 -0.14151840503778909 0 0.33345635168643573 -0.1606642440873095 0 0.31905771333835631 -0.14151840503778909 0 0.3366366656797839 -0.14002483592564419 0 0.33345635168643573 -0.1606642440873095 0 0.3366366656797839 -0.14002483592564419 0 0.35168914766118659 -0.149632180125916 0 0.35031208795440871 -0.12268864718202629 0 0.32842247429023141 -0.1259915980058679 0 0.3366366656797839 -0.14002483592564419 0 0.35031208795440871 -0.12268864718202629 0 0.35168914766118659 -0.149632180125916 0 0.36673211974437742 -0.14061705272009789 0 0.35031208795440871 -0.12268864718202629 0 0.3366366656797839 -0.14002483592564419 0 0.35168914766118659 -0.149632180125916 0 0.36673211974437742 -0.14061705272009789 0 0.38222836740538602 -0.15710324216133559 0 0.35168914766118659 -0.149632180125916 0 0.36673211974437742 -0.14061705272009789 0 0.36820653573641082 -0.16320660408072371 0 0.36673211974437742 -0.14061705272009789 0 0.36820653573641082 -0.16320660408072371 0 0.38222836740538602 -0.15710324216133559 0 0.37408105728939067 -0.1220646411318288 0 0.35031208795440871 -0.12268864718202629 0 0.36673211974437742 -0.14061705272009789 0 0.33345635168643573 -0.1606642440873095 0 0.34312611387489478 -0.1852460597611669 0 0.35479112516570321 -0.17059169675969479 0 0.34312611387489478 -0.1852460597611669 0 0.35479112516570321 -0.17059169675969479 0 0.35977429802260208 -0.18500338367123709 0 0.35168914766118659 -0.149632180125916 0 0.35479112516570321 -0.17059169675969479 0 0.36820653573641082 -0.16320660408072371 0 0.33345635168643573 -0.1606642440873095 0 0.35168914766118659 -0.149632180125916 0 0.35479112516570321 -0.17059169675969479 0 0.35479112516570321 -0.17059169675969479 0 0.36820653573641082 -0.16320660408072371 0 0.37111337480263679 -0.17822036699064001 0 0.36820653573641082 -0.16320660408072371 0 0.37111337480263679 -0.17822036699064001 0 0.38182575019838322 -0.17232084479927109 0 0.35479112516570321 -0.17059169675969479 0 0.37111337480263679 -0.17822036699064001 0 0.35977429802260208 -0.18500338367123709 0 0.37111337480263679 -0.17822036699064001 0 0.35977429802260208 -0.18500338367123709 0 0.37033051365614561 -0.188591525792383 0 0.37111337480263679 -0.17822036699064001 0 0.37033051365614561 -0.188591525792383 0 0.3807851174800867 -0.18690357988790371 0 0.37033051365614561 -0.188591525792383 0 0.37486326500815281 -0.1958067610581177 0 0.36511651296724962 -0.19702353735401629 0 0.37486326500815281 -0.1958067610581177 0 0.36511651296724962 -0.19702353735401629 0 0.37325493163220042 -0.20595078414486759 0 0.36511651296724962 -0.19702353735401629 0 0.36193911608056117 -0.20507651560990861 0 0.35438031992144592 -0.19512532989776329 0 0.36511651296724962 -0.19702353735401629 0 0.37325493163220042 -0.20595078414486759 0 0.36193911608056117 -0.20507651560990861 0 0.35977429802260208 -0.18500338367123709 0 0.37033051365614561 -0.188591525792383 0 0.36511651296724962 -0.19702353735401629 0 0.35977429802260208 -0.18500338367123709 0 0.36511651296724962 -0.19702353735401629 0 0.35438031992144592 -0.19512532989776329 0 0.37325493163220042 -0.20595078414486759 0 0.36607900142095601 -0.21851362828771509 0 0.38548696065678001 -0.2156868077061084 0 0.37325493163220042 -0.20595078414486759 0 0.36193911608056117 -0.20507651560990861 0 0.36607900142095601 -0.21851362828771509 0 0.36193911608056117 -0.20507651560990861 0 0.36607900142095601 -0.21851362828771509 0 0.35086481446095391 -0.2087692983651806 0 0.36607900142095601 -0.21851362828771509 0 0.35086481446095391 -0.2087692983651806 0 0.34620593934017141 -0.22623027893179809 0 0.34312611387489478 -0.1852460597611669 0 0.35977429802260208 -0.18500338367123709 0 0.35438031992144592 -0.19512532989776329 0 0.36193911608056117 -0.20507651560990861 0 0.35086481446095391 -0.2087692983651806 0 0.35438031992144592 -0.19512532989776329 0 0.35086481446095391 -0.2087692983651806 0 0.35438031992144592 -0.19512532989776329 0 0.34551421459790688 -0.1980788725145787 0 0.34312611387489478 -0.1852460597611669 0 0.35438031992144592 -0.19512532989776329 0 0.34551421459790688 -0.1980788725145787 0 0.34312611387489478 -0.1852460597611669 0 0.34551421459790688 -0.1980788725145787 0 0.33368561013433301 -0.2031748020342041 0 0.32116528092849439 -0.18011932513661011 0 0.34312611387489478 -0.1852460597611669 0 0.33368561013433301 -0.2031748020342041 0 0.35086481446095391 -0.2087692983651806 0 0.33368561013433301 -0.2031748020342041 0 0.34620593934017141 -0.22623027893179809 0 0.33368561013433301 -0.2031748020342041 0 0.34620593934017141 -0.22623027893179809 0 0.35086481446095391 -0.2087692983651806 0 0.34551421459790688 -0.1980788725145787 0 0.33368561013433301 -0.2031748020342041 0 0.33368561013433301 -0.2031748020342041 0 0.32927173333853887 -0.21444366637419521 0 0.34620593934017141 -0.22623027893179809 0 0.32927173333853887 -0.21444366637419521 0 0.31706041835900789 -0.20260025260636849 0 0.31302026757543511 -0.21953992839433301 0 0.33368561013433301 -0.2031748020342041 0 0.32927173333853887 -0.21444366637419521 0 0.31706041835900789 -0.20260025260636849 0 0.32116528092849439 -0.18011932513661011 0 0.33368561013433301 -0.2031748020342041 0 0.31706041835900789 -0.20260025260636849 0 0.30514063718147327 -0.1919367735154538 0 0.32116528092849439 -0.18011932513661011 0 0.31706041835900789 -0.20260025260636849 0 0.32116528092849439 -0.18011932513661011 0 0.33368561013433301 -0.2031748020342041 0 0.32623726572499839 -0.24630939192279999 0 0.32775449953176861 -0.2303765291484976 0 0.30448465568896421 -0.23803549748965649 0 0.32623726572499839 -0.24630939192279999 0 0.30448465568896421 -0.23803549748965649 0 0.32623726572499839 -0.24630939192279999 0 0.32775449953176861 -0.2303765291484976 0 0.30448465568896421 -0.23803549748965649 0 0.32623726572499839 -0.24630939192279999 0 0.31227764954635462 -0.25327102046308481 0 0.30448465568896421 -0.23803549748965649 0 0.32775449953176861 -0.2303765291484976 0 0.31302026757543511 -0.21953992839433301 0 0.32927173333853887 -0.21444366637419521 0 0.32775449953176861 -0.2303765291484976 0 0.31302026757543511 -0.21953992839433301 0 0.32927173333853887 -0.21444366637419521 0 0.32775449953176861 -0.2303765291484976 0 0.32927173333853887 -0.21444366637419521 0 0.32775449953176861 -0.2303765291484976 0 0.34620593934017141 -0.22623027893179809 0 0.32775449953176861 -0.2303765291484976 0 0.33997218849470451 -0.2395758907532908 0 0.34620593934017141 -0.22623027893179809 0 0.32623726572499839 -0.24630939192279999 0 0.32775449953176861 -0.2303765291484976 0 0.33997218849470451 -0.2395758907532908 0 0.32623726572499839 -0.24630939192279999 0 0.34175783262437742 -0.25221284589247339 0 0.32623726572499839 -0.24630939192279999 0 0.33997218849470451 -0.2395758907532908 0 0.34175783262437742 -0.25221284589247339 0 0.33997218849470451 -0.2395758907532908 0 0.3579054052522066 -0.24275040787088481 0 0.34175783262437742 -0.25221284589247339 0 0.33997218849470451 -0.2395758907532908 0 0.3579054052522066 -0.24275040787088481 0 0.34620593934017141 -0.22623027893179809 0 0.36607900142095601 -0.21851362828771509 0 0.3579054052522066 -0.24275040787088481 0 0.34620593934017141 -0.22623027893179809 0 0.36607900142095601 -0.21851362828771509 0 0.3579054052522066 -0.24275040787088481 0 0.38083795508738799 -0.2377594477239334 0 0.3579054052522066 -0.24275040787088481 0 0.38083795508738799 -0.2377594477239334 0 0.38024025843686471 -0.26253164586113498 0 0.38083795508738799 -0.2377594477239334 0 0.39946800876023081 -0.24354696695861669 0 0.38024025843686471 -0.26253164586113498 0 0.38083795508738799 -0.2377594477239334 0 0.39946800876023081 -0.24354696695861669 0 0.40317433623955179 -0.22455491031152719 0 0.38083795508738799 -0.2377594477239334 0 0.40317433623955179 -0.22455491031152719 0 0.38548696065678001 -0.2156868077061084 0 0.36607900142095601 -0.21851362828771509 0 0.38083795508738799 -0.2377594477239334 0 0.38548696065678001 -0.2156868077061084 0 0.37325493163220042 -0.20595078414486759 0 0.38548696065678001 -0.2156868077061084 0 0.3856938434222531 -0.2004176921863273 0 0.37033051365614561 -0.188591525792383 0 0.37486326500815281 -0.1958067610581177 0 0.3807851174800867 -0.18690357988790371 0 0.37486326500815281 -0.1958067610581177 0 0.3856938434222531 -0.2004176921863273 0 0.3807851174800867 -0.18690357988790371 0 0.37486326500815281 -0.1958067610581177 0 0.37325493163220042 -0.20595078414486759 0 0.3856938434222531 -0.2004176921863273 0 0.3856938434222531 -0.2004176921863273 0 0.39470472367819143 -0.18867754926388949 0 0.3807851174800867 -0.18690357988790371 0 0.39470472367819143 -0.18867754926388949 0 0.40319589525128491 -0.2051177206781985 0 0.40972423504566591 -0.186355619426152 0 0.3856938434222531 -0.2004176921863273 0 0.39470472367819143 -0.18867754926388949 0 0.40319589525128491 -0.2051177206781985 0 0.38548696065678001 -0.2156868077061084 0 0.3856938434222531 -0.2004176921863273 0 0.40319589525128491 -0.2051177206781985 0 0.40317433623955179 -0.22455491031152719 0 0.38548696065678001 -0.2156868077061084 0 0.40319589525128491 -0.2051177206781985 0 0.40319589525128491 -0.2051177206781985 0 0.41915421069736808 -0.2174795114285962 0 0.42172385502493709 -0.19912180724973069 0 0.40317433623955179 -0.22455491031152719 0 0.40319589525128491 -0.2051177206781985 0 0.41915421069736808 -0.2174795114285962 0 0.40319589525128491 -0.2051177206781985 0 0.42172385502493709 -0.19912180724973069 0 0.40972423504566591 -0.186355619426152 0 0.42172385502493709 -0.19912180724973069 0 0.40972423504566591 -0.186355619426152 0 0.42842991735348479 -0.17719089142069239 0 0.42172385502493709 -0.19912180724973069 0 0.40972423504566591 -0.186355619426152 0 0.42172385502493709 -0.19912180724973069 0 0.42842991735348479 -0.17719089142069239 0 0.44062133699313227 -0.1939018726119503 0 0.42172385502493709 -0.19912180724973069 0 0.44235076642284499 -0.21654336228842769 0 0.44062133699313227 -0.1939018726119503 0 0.41915421069736808 -0.2174795114285962 0 0.42172385502493709 -0.19912180724973069 0 0.44235076642284499 -0.21654336228842769 0 0.42538188769455099 -0.2358922106524477 0 0.44235076642284499 -0.21654336228842769 0 0.41915421069736808 -0.2174795114285962 0 0.42538188769455099 -0.2358922106524477 0 0.44235076642284499 -0.21654336228842769 0 0.39946800876023081 -0.24354696695861669 0 0.42538188769455099 -0.2358922106524477 0 0.42004259892621981 -0.25728489304541852 0 0.39946800876023081 -0.24354696695861669 0 0.40317433623955179 -0.22455491031152719 0 0.42538188769455099 -0.2358922106524477 0 0.40317433623955179 -0.22455491031152719 0 0.41915421069736808 -0.2174795114285962 0 0.42538188769455099 -0.2358922106524477 0 0.3973521325971795 -0.12034337486225551 0 0.38786031027344309 -0.1384811374914911 0 0.40804118490482522 -0.13736934226301839 0 0.41287824964344511 -0.1244098422360839 0 0.3973521325971795 -0.12034337486225551 0 0.40804118490482522 -0.13736934226301839 0 0.3973521325971795 -0.12034337486225551 0 0.37408105728939067 -0.1220646411318288 0 0.38786031027344309 -0.1384811374914911 0 0.37408105728939067 -0.1220646411318288 0 0.36673211974437742 -0.14061705272009789 0 0.38786031027344309 -0.1384811374914911 0 0.36673211974437742 -0.14061705272009789 0 0.38786031027344309 -0.1384811374914911 0 0.38222836740538602 -0.15710324216133559 0 0.38786031027344309 -0.1384811374914911 0 0.39872699969949998 -0.15338917181041031 0 0.38222836740538602 -0.15710324216133559 0 0.38786031027344309 -0.1384811374914911 0 0.39872699969949998 -0.15338917181041031 0 0.40804118490482522 -0.13736934226301839 0 0.39872699969949998 -0.15338917181041031 0 0.39772461506639578 -0.17358943160257231 0 0.41790735119971367 -0.15501692634582989 0 0.39872699969949998 -0.15338917181041031 0 0.38222836740538602 -0.15710324216133559 0 0.39772461506639578 -0.17358943160257231 0 0.38222836740538602 -0.15710324216133559 0 0.38182575019838322 -0.17232084479927109 0 0.39772461506639578 -0.17358943160257231 0 0.38222836740538602 -0.15710324216133559 0 0.39772461506639578 -0.17358943160257231 0 0.36820653573641082 -0.16320660408072371 0 0.38222836740538602 -0.15710324216133559 0 0.38182575019838322 -0.17232084479927109 0 0.38182575019838322 -0.17232084479927109 0 0.3807851174800867 -0.18690357988790371 0 0.39110463580346222 -0.1796812518021832 0 0.38182575019838322 -0.17232084479927109 0 0.39110463580346222 -0.1796812518021832 0 0.39772461506639578 -0.17358943160257231 0 0.37111337480263679 -0.17822036699064001 0 0.38182575019838322 -0.17232084479927109 0 0.3807851174800867 -0.18690357988790371 0 0.39470472367819143 -0.18867754926388949 0 0.3807851174800867 -0.18690357988790371 0 0.39110463580346222 -0.1796812518021832 0 0.39470472367819143 -0.18867754926388949 0 0.39110463580346222 -0.1796812518021832 0 0.39772461506639578 -0.17358943160257231 0 0.39110463580346222 -0.1796812518021832 0 0.39772461506639578 -0.17358943160257231 0 0.39470472367819143 -0.18867754926388949 0 0.39772461506639578 -0.17358943160257231 0 0.40972423504566591 -0.186355619426152 0 0.39772461506639578 -0.17358943160257231 0 0.40972423504566591 -0.186355619426152 0 0.41344652966631501 -0.17303821719881171 0 0.40972423504566591 -0.186355619426152 0 0.42842991735348479 -0.17719089142069239 0 0.39772461506639578 -0.17358943160257231 0 0.41344652966631501 -0.17303821719881171 0 0.40972423504566591 -0.186355619426152 0 0.42842991735348479 -0.17719089142069239 0 0.41790735119971367 -0.15501692634582989 0 0.43843087239260781 -0.1580216183159491 0 0.39772461506639578 -0.17358943160257231 0 0.41344652966631501 -0.17303821719881171 0 0.41790735119971367 -0.15501692634582989 0 0.39772461506639578 -0.17358943160257231 0 0.41790735119971367 -0.15501692634582989 0 0.41344652966631501 -0.17303821719881171 0 0.42842991735348479 -0.17719089142069239 0 0.41790735119971367 -0.15501692634582989 0 0.39872699969949998 -0.15338917181041031 0 0.41790735119971367 -0.15501692634582989 0 0.40804118490482522 -0.13736934226301839 0 0.41790735119971367 -0.15501692634582989 0 0.43809008733303179 -0.13644442108908761 0 0.41790735119971367 -0.15501692634582989 0 0.43809008733303179 -0.13644442108908761 0 0.43843087239260781 -0.1580216183159491 0 0.41790735119971367 -0.15501692634582989 0 0.42613733149589272 -0.1283522507212364 0 0.43809008733303179 -0.13644442108908761 0 0.42613733149589272 -0.1283522507212364 0 0.43809008733303179 -0.13644442108908761 0 0.43668295629035692 -0.1233815912782954 0 0.42613733149589272 -0.1283522507212364 0 0.43809008733303179 -0.13644442108908761 0 0.41790735119971367 -0.15501692634582989 0 0.42613733149589272 -0.1283522507212364 0 0.40804118490482522 -0.13736934226301839 0 0.41287824964344511 -0.1244098422360839 0 0.42613733149589272 -0.1283522507212364 0 0.40804118490482522 -0.13736934226301839 0 0.45196453217778781 -0.13441055949585631 0 0.45522935300348533 -0.14804792572642611 0 0.47701358927628451 -0.13433069596812289 0 0.45514232789862002 -0.1207526523689479 0 0.45196453217778781 -0.13441055949585631 0 0.47701358927628451 -0.13433069596812289 0 0.45196453217778781 -0.13441055949585631 0 0.43809008733303179 -0.13644442108908761 0 0.45522935300348533 -0.14804792572642611 0 0.45514232789862002 -0.1207526523689479 0 0.43668295629035692 -0.1233815912782954 0 0.43809008733303179 -0.13644442108908761 0 0.45514232789862002 -0.1207526523689479 0 0.45196453217778781 -0.13441055949585631 0 0.43809008733303179 -0.13644442108908761 0 0.45514232789862002 -0.1207526523689479 0 0.43809008733303179 -0.13644442108908761 0 0.43809008733303179 -0.13644442108908761 0 0.45522935300348533 -0.14804792572642611 0 0.43843087239260781 -0.1580216183159491 0 0.43809008733303179 -0.13644442108908761 0 0.45522935300348533 -0.14804792572642611 0 0.45522935300348533 -0.14804792572642611 0 0.47236861867393948 -0.15965143036376339 0 0.45522935300348533 -0.14804792572642611 0 0.47236861867393948 -0.15965143036376339 0 0.47701358927628451 -0.13433069596812289 0 0.45249765307332368 -0.17340792699770941 0 0.47628852387943321 -0.17784566556038769 0 0.47236861867393948 -0.15965143036376339 0 0.45522935300348533 -0.14804792572642611 0 0.45249765307332368 -0.17340792699770941 0 0.47236861867393948 -0.15965143036376339 0 0.45522935300348533 -0.14804792572642611 0 0.43843087239260781 -0.1580216183159491 0 0.45249765307332368 -0.17340792699770941 0 0.42842991735348479 -0.17719089142069239 0 0.43843087239260781 -0.1580216183159491 0 0.45249765307332368 -0.17340792699770941 0 0.42842991735348479 -0.17719089142069239 0 0.45249765307332368 -0.17340792699770941 0 0.44062133699313227 -0.1939018726119503 0 0.45249765307332368 -0.17340792699770941 0 0.47628852387943321 -0.17784566556038769 0 0.45931964515113899 -0.19719451392440779 0 0.47628852387943321 -0.17784566556038769 0 0.48950788434439368 -0.17125493500110081 0 0.48678637488950061 -0.1947796052490029 0 0.5 -0.17986775423558379 0 0.48950788434439368 -0.17125493500110081 0 0.48678637488950061 -0.1947796052490029 0 0.5 -0.17986775423558379 0 0.48950788434439368 -0.17125493500110081 0 0.5 -0.1500440522087457 0 0.48950788434439368 -0.17125493500110081 0 0.48575991362530058 -0.15524792984573771 0 0.5 -0.1500440522087457 0 0.48950788434439368 -0.17125493500110081 0 0.47236861867393948 -0.15965143036376339 0 0.48950788434439368 -0.17125493500110081 0 0.47236861867393948 -0.15965143036376339 0 0.48575991362530058 -0.15524792984573771 0 0.47628852387943321 -0.17784566556038769 0 0.48950788434439368 -0.17125493500110081 0 0.47236861867393948 -0.15965143036376339 0 0.47236861867393948 -0.15965143036376339 0 0.48575991362530058 -0.15524792984573771 0 0.47701358927628451 -0.13433069596812289 0 0.48575991362530058 -0.15524792984573771 0 0.5 -0.1500440522087457 0 0.47701358927628451 -0.13433069596812289 0 0.5 -0.12022035018190751 0 0.5 -0.1500440522087457 0 0.47701358927628451 -0.13433069596812289 0 0.45617038366176571 -0.22715277788122001 0 0.47336760637159542 -0.21131877153730541 0 0.47519146280416907 -0.22659104659366361 0 0.45617038366176571 -0.22715277788122001 0 0.47519146280416907 -0.22659104659366361 0 0.46994923430507202 -0.24460383287070089 0 0.45617038366176571 -0.22715277788122001 0 0.45115228035453392 -0.24611007472868229 0 0.46994923430507202 -0.24460383287070089 0 0.45115228035453392 -0.24611007472868229 0 0.46994923430507202 -0.24460383287070089 0 0.45741350596588148 -0.25903608713894449 0 0.42538188769455099 -0.2358922106524477 0 0.45617038366176571 -0.22715277788122001 0 0.45115228035453392 -0.24611007472868229 0 0.42538188769455099 -0.2358922106524477 0 0.45115228035453392 -0.24611007472868229 0 0.43910993848000418 -0.2602867900026441 0 0.42538188769455099 -0.2358922106524477 0 0.45617038366176571 -0.22715277788122001 0 0.44235076642284499 -0.21654336228842769 0 0.44235076642284499 -0.21654336228842769 0 0.45931964515113899 -0.19719451392440779 0 0.45617038366176571 -0.22715277788122001 0 0.44235076642284499 -0.21654336228842769 0 0.45931964515113899 -0.19719451392440779 0 0.45249765307332368 -0.17340792699770941 0 0.44062133699313227 -0.1939018726119503 0 0.45931964515113899 -0.19719451392440779 0 0.44235076642284499 -0.21654336228842769 0 0.44062133699313227 -0.1939018726119503 0 0.45931964515113899 -0.19719451392440779 0 0.47628852387943321 -0.17784566556038769 0 0.45931964515113899 -0.19719451392440779 0 0.45617038366176571 -0.22715277788122001 0 0.45931964515113899 -0.19719451392440779 0 0.47336760637159542 -0.21131877153730541 0 0.47336760637159542 -0.21131877153730541 0 0.48678637488950061 -0.1947796052490029 0 0.48674276213255352 -0.21951253149624081 0 0.47628852387943321 -0.17784566556038769 0 0.45931964515113899 -0.19719451392440779 0 0.48678637488950061 -0.1947796052490029 0 0.45931964515113899 -0.19719451392440779 0 0.47336760637159542 -0.21131877153730541 0 0.48678637488950061 -0.1947796052490029 0 0.5 -0.17986775423558379 0 0.48678637488950061 -0.1947796052490029 0 0.5 -0.20969145626242169 0 0.48678637488950061 -0.1947796052490029 0 0.5 -0.20969145626242169 0 0.48674276213255352 -0.21951253149624081 0 0.5 -0.20969145626242169 0 0.48674276213255352 -0.21951253149624081 0 0.5 -0.23951515828925959 0 0.48674276213255352 -0.21951253149624081 0 0.48511112873005591 -0.2351791510457916 0 0.5 -0.23951515828925959 0 0.48674276213255352 -0.21951253149624081 0 0.47519146280416907 -0.22659104659366361 0 0.48511112873005591 -0.2351791510457916 0 0.47336760637159542 -0.21131877153730541 0 0.48674276213255352 -0.21951253149624081 0 0.47519146280416907 -0.22659104659366361 0 0.46994923430507202 -0.24460383287070089 0 0.49190780658582001 -0.24883755805200769 0 0.48511112873005591 -0.2351791510457916 0 0.47519146280416907 -0.22659104659366361 0 0.46994923430507202 -0.24460383287070089 0 0.48511112873005591 -0.2351791510457916 0 0.49190780658582001 -0.24883755805200769 0 0.48511112873005591 -0.2351791510457916 0 0.5 -0.23951515828925959 0 0.49190780658582001 -0.24883755805200769 0 0.48693120580519611 -0.26602892611732171 0 0.5 -0.26933886031609761 0 0.49190780658582001 -0.24883755805200769 0 0.5 -0.23951515828925959 0 0.5 -0.26933886031609761 0 0.48693120580519611 -0.26602892611732171 0 0.5 -0.26933886031609761 0 0.4828957222097589 -0.2816001873862809 0 0.47292129442520559 -0.26433909871490069 0 0.45393478226459177 -0.27984063937779452 0 0.4828957222097589 -0.2816001873862809 0 0.48693120580519611 -0.26602892611732171 0 0.47292129442520559 -0.26433909871490069 0 0.4828957222097589 -0.2816001873862809 0 0.49190780658582001 -0.24883755805200769 0 0.47292129442520559 -0.26433909871490069 0 0.49190780658582001 -0.24883755805200769 0 0.48693120580519611 -0.26602892611732171 0 0.47292129442520559 -0.26433909871490069 0 0.46994923430507202 -0.24460383287070089 0 0.49190780658582001 -0.24883755805200769 0 0.47292129442520559 -0.26433909871490069 0 0.46994923430507202 -0.24460383287070089 0 0.47292129442520559 -0.26433909871490069 0 0.45741350596588148 -0.25903608713894449 0 0.47292129442520559 -0.26433909871490069 0 0.45741350596588148 -0.25903608713894449 0 0.45393478226459177 -0.27984063937779452 0 0.45393478226459177 -0.27984063937779452 0 0.4828957222097589 -0.2816001873862809 0 0.47292129442520559 -0.26433909871490069 0 0.45393478226459177 -0.27984063937779452 0 0.45393478226459177 -0.27984063937779452 0 0.42700803830055628 -0.27820468077953719 0 0.45741350596588148 -0.25903608713894449 0 0.45393478226459177 -0.27984063937779452 0 0.43910993848000418 -0.2602867900026441 0 0.45393478226459177 -0.27984063937779452 0 0.43910993848000418 -0.2602867900026441 0 0.42700803830055628 -0.27820468077953719 0 0.45115228035453392 -0.24611007472868229 0 0.45741350596588148 -0.25903608713894449 0 0.43910993848000418 -0.2602867900026441 0 0.451097344134051 -0.30365222677299658 0 0.43957177432853661 -0.29156731933242341 0 0.43447756194689469 -0.3052851956154668 0 0.451097344134051 -0.30365222677299658 0 0.45624114371682961 -0.32054998995130879 0 0.43447756194689469 -0.3052851956154668 0 0.45393478226459177 -0.27984063937779452 0 0.43957177432853661 -0.29156731933242341 0 0.42700803830055628 -0.27820468077953719 0 0.45393478226459177 -0.27984063937779452 0 0.43957177432853661 -0.29156731933242341 0 0.45268043320849688 -0.29339902129613848 0 0.45393478226459177 -0.27984063937779452 0 0.43957177432853661 -0.29156731933242341 0 0.451097344134051 -0.30365222677299658 0 0.43957177432853661 -0.29156731933242341 0 0.45268043320849688 -0.29339902129613848 0 0.45393478226459177 -0.27984063937779452 0 0.45268043320849688 -0.29339902129613848 0 0.46611783210680829 -0.29853589970133948 0 0.45393478226459177 -0.27984063937779452 0 0.46611783210680829 -0.29853589970133948 0 0.4828957222097589 -0.2816001873862809 0 0.46611783210680829 -0.29853589970133948 0 0.48271419277004041 -0.31421917297839391 0 0.45624114371682961 -0.32054998995130879 0 0.451097344134051 -0.30365222677299658 0 0.46611783210680829 -0.29853589970133948 0 0.45624114371682961 -0.32054998995130879 0 0.451097344134051 -0.30365222677299658 0 0.45268043320849688 -0.29339902129613848 0 0.46611783210680829 -0.29853589970133948 0 0.46611783210680829 -0.29853589970133948 0 0.48293193677165192 -0.29837945560223739 0 0.48271419277004041 -0.31421917297839391 0 0.46611783210680829 -0.29853589970133948 0 0.48293193677165192 -0.29837945560223739 0 0.4828957222097589 -0.2816001873862809 0 0.48293193677165192 -0.29837945560223739 0 0.4828957222097589 -0.2816001873862809 0 0.5 -0.29916256234293542 0 0.5 -0.26933886031609761 0 0.4828957222097589 -0.2816001873862809 0 0.5 -0.29916256234293542 0 0.48293193677165192 -0.29837945560223739 0 0.5 -0.29916256234293542 0 0.48271419277004041 -0.31421917297839391 0 0.5 -0.3289862643697733 0 0.47800472548676459 -0.335814784287151 0 0.48271419277004041 -0.31421917297839391 0 0.5 -0.29916256234293542 0 0.5 -0.3289862643697733 0 0.48271419277004041 -0.31421917297839391 0 0.47800472548676459 -0.335814784287151 0 0.5 -0.35107957862299322 0 0.5 -0.3289862643697733 0 0.47800472548676459 -0.335814784287151 0 0.5 -0.35107957862299322 0 0.47800472548676459 -0.335814784287151 0 0.46993680288862649 -0.3461721201788886 0 0.45947073257806598 -0.34315878921454229 0 0.47800472548676459 -0.335814784287151 0 0.48271419277004041 -0.31421917297839391 0 0.45624114371682961 -0.32054998995130879 0 0.48580878695463803 -0.36670077354420871 0 0.5 -0.35880996639661122 0 0.5 -0.38863366842344921 0 0.48580878695463803 -0.36670077354420871 0 0.48911826900967059 -0.35526744420679879 0 0.5 -0.35880996639661122 0 0.47800472548676459 -0.335814784287151 0 0.48911826900967059 -0.35526744420679879 0 0.5 -0.35107957862299322 0 0.48911826900967059 -0.35526744420679879 0 0.5 -0.35880996639661122 0 0.5 -0.35107957862299322 0 0.47800472548676459 -0.335814784287151 0 0.48911826900967059 -0.35526744420679879 0 0.47785241550677238 -0.35325695231115473 0 0.47800472548676459 -0.335814784287151 0 0.46993680288862649 -0.3461721201788886 0 0.47785241550677238 -0.35325695231115473 0 0.46993680288862649 -0.3461721201788886 0 0.47785241550677238 -0.35325695231115473 0 0.46441933798290319 -0.35245795490270648 0 0.48580878695463803 -0.36670077354420871 0 0.48911826900967059 -0.35526744420679879 0 0.47785241550677238 -0.35325695231115473 0 0.48580878695463803 -0.36670077354420871 0 0.47785241550677238 -0.35325695231115473 0 0.4710413617043322 -0.36657569288428588 0 0.4710413617043322 -0.36657569288428588 0 0.46345712900900388 -0.37318347017476139 0 0.47684067550705311 -0.37766091704295218 0 0.48580878695463803 -0.36670077354420871 0 0.4710413617043322 -0.36657569288428588 0 0.47684067550705311 -0.37766091704295218 0 0.47785241550677238 -0.35325695231115473 0 0.45512654156490079 -0.36769314536904041 0 0.47785241550677238 -0.35325695231115473 0 0.4710413617043322 -0.36657569288428588 0 0.45512654156490079 -0.36769314536904041 0 0.47785241550677238 -0.35325695231115473 0 0.45512654156490079 -0.36769314536904041 0 0.45804024035709889 -0.36496151599812088 0 0.4710413617043322 -0.36657569288428588 0 0.45512654156490079 -0.36769314536904041 0 0.46345712900900388 -0.37318347017476139 0 0.45512654156490079 -0.36769314536904041 0 0.46345712900900388 -0.37318347017476139 0 0.45615469407839732 -0.37634822220283798 0 0.47785241550677238 -0.35325695231115473 0 0.45804024035709889 -0.36496151599812088 0 0.46441933798290319 -0.35245795490270648 0 0.45804024035709889 -0.36496151599812088 0 0.4566215695682832 -0.35530744277583132 0 0.46441933798290319 -0.35245795490270648 0 0.45804024035709889 -0.36496151599812088 0 0.4566215695682832 -0.35530744277583132 0 0.44734900172378 -0.35400895242702979 0 0.46993680288862649 -0.3461721201788886 0 0.46441933798290319 -0.35245795490270648 0 0.45947073257806598 -0.34315878921454229 0 0.4566215695682832 -0.35530744277583132 0 0.44734900172378 -0.35400895242702979 0 0.45947073257806598 -0.34315878921454229 0 0.4566215695682832 -0.35530744277583132 0 0.46441933798290319 -0.35245795490270648 0 0.45947073257806598 -0.34315878921454229 0 0.44734900172378 -0.35400895242702979 0 0.44240664560855258 -0.3357548306816891 0 0.43049157243870712 -0.34504141590114817 0 0.45804024035709889 -0.36496151599812088 0 0.44734900172378 -0.35400895242702979 0 0.43293048823527192 -0.35914390141169172 0 0.44734900172378 -0.35400895242702979 0 0.45947073257806598 -0.34315878921454229 0 0.44240664560855258 -0.3357548306816891 0 0.45804024035709889 -0.36496151599812088 0 0.43293048823527192 -0.35914390141169172 0 0.45512654156490079 -0.36769314536904041 0 0.43635179379854538 -0.36985628672678011 0 0.43293048823527192 -0.35914390141169172 0 0.45512654156490079 -0.36769314536904041 0 0.43635179379854538 -0.36985628672678011 0 0.43240066762302942 -0.38212933842692592 0 0.45512654156490079 -0.36769314536904041 0 0.45804024035709889 -0.36496151599812088 0 0.43293048823527192 -0.35914390141169172 0 0.45512654156490079 -0.36769314536904041 0 0.43240066762302942 -0.38212933842692592 0 0.45512654156490079 -0.36769314536904041 0 0.45615469407839732 -0.37634822220283798 0 0.44717123240800549 -0.3802756284666699 0 0.47800472548676459 -0.335814784287151 0 0.45624114371682961 -0.32054998995130879 0 0.45947073257806598 -0.34315878921454229 0 0.47800472548676459 -0.335814784287151 0 0.45624114371682961 -0.32054998995130879 0 0.45624114371682961 -0.32054998995130879 0 0.45947073257806598 -0.34315878921454229 0 0.44240664560855258 -0.3357548306816891 0 0.45624114371682961 -0.32054998995130879 0 0.44240664560855258 -0.3357548306816891 0 0.43662870380860819 -0.32166756459131962 0 0.45624114371682961 -0.32054998995130879 0 0.43662870380860819 -0.32166756459131962 0 0.43447756194689469 -0.3052851956154668 0 0.45624114371682961 -0.32054998995130879 0 0.43447756194689469 -0.3052851956154668 0 0.42590275704472208 -0.3157961594641524 0 0.43662870380860819 -0.32166756459131962 0 0.43447756194689469 -0.3052851956154668 0 0.42590275704472208 -0.3157961594641524 0 0.43662870380860819 -0.32166756459131962 0 0.42411541072604181 -0.3309516472439808 0 0.44240664560855258 -0.3357548306816891 0 0.43662870380860819 -0.32166756459131962 0 0.42411541072604181 -0.3309516472439808 0 0.44240664560855258 -0.3357548306816891 0 0.42411541072604181 -0.3309516472439808 0 0.43049157243870712 -0.34504141590114817 0 0.42411541072604181 -0.3309516472439808 0 0.40782073611344483 -0.35332628682526263 0 0.40511291313480519 -0.33423352998531969 0 0.42411541072604181 -0.3309516472439808 0 0.43049157243870712 -0.34504141590114817 0 0.40782073611344483 -0.35332628682526263 0 0.42411541072604181 -0.3309516472439808 0 0.4135220122621025 -0.32151130750263218 0 0.40511291313480519 -0.33423352998531969 0 0.4135220122621025 -0.32151130750263218 0 0.39906671487789369 -0.31525974254281008 0 0.41341226552704963 -0.31131545827689799 0 0.42590275704472208 -0.3157961594641524 0 0.4135220122621025 -0.32151130750263218 0 0.41341226552704963 -0.31131545827689799 0 0.42590275704472208 -0.3157961594641524 0 0.42411541072604181 -0.3309516472439808 0 0.4135220122621025 -0.32151130750263218 0 0.42494947777097941 -0.37045876169946229 0 0.43293048823527192 -0.35914390141169172 0 0.40782073611344483 -0.35332628682526263 0 0.42494947777097941 -0.37045876169946229 0 0.43635179379854538 -0.36985628672678011 0 0.43240066762302942 -0.38212933842692592 0 0.42494947777097941 -0.37045876169946229 0 0.43635179379854538 -0.36985628672678011 0 0.43293048823527192 -0.35914390141169172 0 0.44734900172378 -0.35400895242702979 0 0.43049157243870712 -0.34504141590114817 0 0.43293048823527192 -0.35914390141169172 0 0.43049157243870712 -0.34504141590114817 0 0.43293048823527192 -0.35914390141169172 0 0.40782073611344483 -0.35332628682526263 0 0.43293048823527192 -0.35914390141169172 0 0.40782073611344483 -0.35332628682526263 0 0.42494947777097941 -0.37045876169946229 0 0.40782073611344483 -0.35332628682526263 0 0.41081176988577689 -0.37598843986931441 0 0.40782073611344483 -0.35332628682526263 0 0.3889089604905685 -0.37250826243982338 0 0.41081176988577689 -0.37598843986931441 0 0.40782073611344483 -0.35332628682526263 0 0.38271098399161779 -0.34750867223883342 0 0.40782073611344483 -0.35332628682526263 0 0.38271098399161779 -0.34750867223883342 0 0.3889089604905685 -0.37250826243982338 0 0.40782073611344483 -0.35332628682526263 0 0.38271098399161779 -0.34750867223883342 0 0.40511291313480519 -0.33423352998531969 0 0.38271098399161779 -0.34750867223883342 0 0.3889089604905685 -0.37250826243982338 0 0.36523940570890773 -0.36542769994236229 0 0.4135220122621025 -0.32151130750263218 0 0.39906671487789369 -0.31525974254281008 0 0.40511291313480519 -0.33423352998531969 0 0.39906671487789369 -0.31525974254281008 0 0.40511291313480519 -0.33423352998531969 0 0.38711862483199588 -0.32934701646384318 0 0.38271098399161779 -0.34750867223883342 0 0.40511291313480519 -0.33423352998531969 0 0.38711862483199588 -0.32934701646384318 0 0.38271098399161779 -0.34750867223883342 0 0.38711862483199588 -0.32934701646384318 0 0.3683352327275366 -0.32664342993636691 0 0.38711862483199588 -0.32934701646384318 0 0.38188029629269038 -0.31396736973096018 0 0.3683352327275366 -0.32664342993636691 0 0.39906671487789369 -0.31525974254281008 0 0.38711862483199588 -0.32934701646384318 0 0.38188029629269038 -0.31396736973096018 0 0.38188029629269038 -0.31396736973096018 0 0.38614001645978407 -0.29336027691126532 0 0.36874089256624171 -0.30522638280051562 0 0.39906671487789369 -0.31525974254281008 0 0.38188029629269038 -0.31396736973096018 0 0.38614001645978407 -0.29336027691126532 0 0.39906671487789369 -0.31525974254281008 0 0.40524172709006168 -0.29782674282133892 0 0.38614001645978407 -0.29336027691126532 0 0.39906671487789369 -0.31525974254281008 0 0.40524172709006168 -0.29782674282133892 0 0.41341226552704963 -0.31131545827689799 0 0.40524172709006168 -0.29782674282133892 0 0.38614001645978407 -0.29336027691126532 0 0.4000812943365209 -0.27656872218127931 0 0.38614001645978407 -0.29336027691126532 0 0.38024025843686471 -0.26253164586113498 0 0.4000812943365209 -0.27656872218127931 0 0.38614001645978407 -0.29336027691126532 0 0.38024025843686471 -0.26253164586113498 0 0.36641870847826657 -0.28115869475223892 0 0.39946800876023081 -0.24354696695861669 0 0.38024025843686471 -0.26253164586113498 0 0.399958040114959 -0.25998305701161228 0 0.38024025843686471 -0.26253164586113498 0 0.399958040114959 -0.25998305701161228 0 0.4000812943365209 -0.27656872218127931 0 0.4000812943365209 -0.27656872218127931 0 0.42700803830055628 -0.27820468077953719 0 0.4000812943365209 -0.27656872218127931 0 0.42004259892621981 -0.25728489304541852 0 0.42700803830055628 -0.27820468077953719 0 0.39946800876023081 -0.24354696695861669 0 0.399958040114959 -0.25998305701161228 0 0.42004259892621981 -0.25728489304541852 0 0.399958040114959 -0.25998305701161228 0 0.4000812943365209 -0.27656872218127931 0 0.42004259892621981 -0.25728489304541852 0 0.42538188769455099 -0.2358922106524477 0 0.43910993848000418 -0.2602867900026441 0 0.42004259892621981 -0.25728489304541852 0 0.43910993848000418 -0.2602867900026441 0 0.42004259892621981 -0.25728489304541852 0 0.42700803830055628 -0.27820468077953719 0 0.43957177432853661 -0.29156731933242341 0 0.42700803830055628 -0.27820468077953719 0 0.42778499936897812 -0.29172325778748692 0 0.42700803830055628 -0.27820468077953719 0 0.42778499936897812 -0.29172325778748692 0 0.41741539993988841 -0.29134889020023452 0 0.42778499936897812 -0.29172325778748692 0 0.42520876639248179 -0.30329399928705308 0 0.41741539993988841 -0.29134889020023452 0 0.43957177432853661 -0.29156731933242341 0 0.42778499936897812 -0.29172325778748692 0 0.42520876639248179 -0.30329399928705308 0 0.43957177432853661 -0.29156731933242341 0 0.43447756194689469 -0.3052851956154668 0 0.42520876639248179 -0.30329399928705308 0 0.43957177432853661 -0.29156731933242341 0 0.42520876639248179 -0.30329399928705308 0 0.42590275704472208 -0.3157961594641524 0 0.43447756194689469 -0.3052851956154668 0 0.42520876639248179 -0.30329399928705308 0 0.42520876639248179 -0.30329399928705308 0 0.41531953973737029 -0.30094627264638107 0 0.41741539993988841 -0.29134889020023452 0 0.42590275704472208 -0.3157961594641524 0 0.42520876639248179 -0.30329399928705308 0 0.41341226552704963 -0.31131545827689799 0 0.42520876639248179 -0.30329399928705308 0 0.41531953973737029 -0.30094627264638107 0 0.41341226552704963 -0.31131545827689799 0 0.40524172709006168 -0.29782674282133892 0 0.41531953973737029 -0.30094627264638107 0 0.41341226552704963 -0.31131545827689799 0 0.40524172709006168 -0.29782674282133892 0 0.41531953973737029 -0.30094627264638107 0 0.41741539993988841 -0.29134889020023452 0 0.40524172709006168 -0.29782674282133892 0 0.4000812943365209 -0.27656872218127931 0 0.41741539993988841 -0.29134889020023452 0 0.4000812943365209 -0.27656872218127931 0 0.42700803830055628 -0.27820468077953719 0 0.41741539993988841 -0.29134889020023452 0 0.4481616080234041 -0.49999999999999739 0 0.44466071191754558 -0.46993686656255612 0 0.4481616080234041 -0.49999999999999739 0 0.44466071191754558 -0.46993686656255612 0 0.42684753271581788 -0.48650761622771332 0 0.4481616080234041 -0.49999999999999739 0 0.44466071191754558 -0.46993686656255612 0 0.47297131918324781 -0.48187546367607892 0 0.5 -0.5 0 0.48160341758426178 -0.46272807795893761 0 0.5 -0.45259391504201679 0 0.4481616080234041 -0.49999999999999739 0 0.5 -0.5 0 0.47297131918324781 -0.48187546367607892 0 0.5 -0.5 0 0.47297131918324781 -0.48187546367607892 0 0.48160341758426178 -0.46272807795893761 0 0.47297131918324781 -0.48187546367607892 0 0.48160341758426178 -0.46272807795893761 0 0.4631071412783605 -0.45277703452513107 0 0.48160341758426178 -0.46272807795893761 0 0.5 -0.45259391504201679 0 0.48155357063917698 -0.43561720248770808 0 0.48160341758426178 -0.46272807795893761 0 0.4631071412783605 -0.45277703452513107 0 0.48155357063917698 -0.43561720248770808 0 0.4631071412783605 -0.45277703452513107 0 0.48155357063917698 -0.43561720248770808 0 0.4631071412783605 -0.45277703452513107 0 0.44152687793105461 -0.44302579395195718 0 0.46104192510812481 -0.42289084401363108 0 0.44466071191754558 -0.46993686656255612 0 0.47297131918324781 -0.48187546367607892 0 0.4631071412783605 -0.45277703452513107 0 0.44466071191754558 -0.46993686656255612 0 0.4631071412783605 -0.45277703452513107 0 0.44466071191754558 -0.46993686656255612 0 0.4631071412783605 -0.45277703452513107 0 0.44152687793105461 -0.44302579395195718 0 0.44466071191754558 -0.46993686656255612 0 0.44152687793105461 -0.44302579395195718 0 0.44152687793105461 -0.44302579395195718 0 0.43839304394455902 -0.41611472134135891 0 0.46104192510812481 -0.42289084401363108 0 0.44152687793105461 -0.44302579395195718 0 0.43839304394455902 -0.41611472134135891 0 0.43839304394455902 -0.41611472134135891 0 0.46104192510812481 -0.42289084401363108 0 0.45132454257904309 -0.39962444874762382 0 0.46104192510812481 -0.42289084401363108 0 0.47152264147421491 -0.39776863450436473 0 0.45132454257904309 -0.39962444874762382 0 0.4631071412783605 -0.45277703452513107 0 0.46104192510812481 -0.42289084401363108 0 0.48155357063917698 -0.43561720248770808 0 0.5 -0.45259391504201679 0 0.48155357063917698 -0.43561720248770808 0 0.49999999999999573 -0.41845737045028708 0 0.46104192510812481 -0.42289084401363108 0 0.48155357063917698 -0.43561720248770808 0 0.481978493291778 -0.41342626642199842 0 0.48155357063917698 -0.43561720248770808 0 0.49999999999999573 -0.41845737045028708 0 0.481978493291778 -0.41342626642199842 0 0.48155357063917698 -0.43561720248770808 0 0.49999999999999573 -0.41845737045028708 0 0.49999999999999573 -0.41845737045028708 0 0.481978493291778 -0.41342626642199842 0 0.5 -0.38863366842344921 0 0.46104192510812481 -0.42289084401363108 0 0.481978493291778 -0.41342626642199842 0 0.47152264147421491 -0.39776863450436473 0 0.481978493291778 -0.41342626642199842 0 0.47152264147421491 -0.39776863450436473 0 0.5 -0.38863366842344921 0 0.48580878695463803 -0.36670077354420871 0 0.5 -0.38863366842344921 0 0.47684067550705311 -0.37766091704295218 0 0.47152264147421491 -0.39776863450436473 0 0.47684067550705311 -0.37766091704295218 0 0.45886387333167911 -0.38424064480088022 0 0.47152264147421491 -0.39776863450436473 0 0.5 -0.38863366842344921 0 0.47684067550705311 -0.37766091704295218 0 0.46345712900900388 -0.37318347017476139 0 0.47684067550705311 -0.37766091704295218 0 0.45886387333167911 -0.38424064480088022 0 0.45615469407839732 -0.37634822220283798 0 0.45886387333167911 -0.38424064480088022 0 0.44717123240800549 -0.3802756284666699 0 0.46345712900900388 -0.37318347017476139 0 0.45615469407839732 -0.37634822220283798 0 0.45886387333167911 -0.38424064480088022 0 0.47152264147421491 -0.39776863450436473 0 0.45886387333167911 -0.38424064480088022 0 0.45132454257904309 -0.39962444874762382 0 0.45886387333167911 -0.38424064480088022 0 0.45132454257904309 -0.39962444874762382 0 0.44659780108844233 -0.3891334165162062 0 0.45132454257904309 -0.39962444874762382 0 0.44659780108844233 -0.3891334165162062 0 0.43525920995806339 -0.38920364873076052 0 0.43839304394455902 -0.41611472134135891 0 0.45132454257904309 -0.39962444874762382 0 0.43525920995806339 -0.38920364873076052 0 0.44035722776938507 -0.38518550803514062 0 0.44659780108844233 -0.3891334165162062 0 0.43525920995806339 -0.38920364873076052 0 0.45512654156490079 -0.36769314536904041 0 0.44717123240800549 -0.3802756284666699 0 0.43240066762302942 -0.38212933842692592 0 0.44035722776938507 -0.38518550803514062 0 0.44717123240800549 -0.3802756284666699 0 0.44659780108844233 -0.3891334165162062 0 0.44035722776938507 -0.38518550803514062 0 0.44717123240800549 -0.3802756284666699 0 0.43240066762302942 -0.38212933842692592 0 0.45886387333167911 -0.38424064480088022 0 0.44717123240800549 -0.3802756284666699 0 0.44659780108844233 -0.3891334165162062 0 0.43240066762302942 -0.38212933842692592 0 0.43525920995806339 -0.38920364873076052 0 0.40967479368115811 -0.39656553148481138 0 0.42494947777097941 -0.37045876169946229 0 0.43240066762302942 -0.38212933842692592 0 0.41081176988577689 -0.37598843986931441 0 0.44035722776938507 -0.38518550803514062 0 0.43240066762302942 -0.38212933842692592 0 0.43525920995806339 -0.38920364873076052 0 0.43839304394455902 -0.41611472134135891 0 0.43525920995806339 -0.38920364873076052 0 0.43525920995806339 -0.38920364873076052 0 0.42530138770190312 -0.40411068913542397 0 0.40967479368115811 -0.39656553148481138 0 0.43839304394455902 -0.41611472134135891 0 0.43525920995806339 -0.38920364873076052 0 0.42530138770190312 -0.40411068913542397 0 0.42530138770190312 -0.40411068913542397 0 0.40967479368115811 -0.39656553148481138 0 0.41419194227720751 -0.41738599593160508 0 0.43240066762302942 -0.38212933842692592 0 0.40967479368115811 -0.39656553148481138 0 0.41081176988577689 -0.37598843986931441 0 0.43240066762302942 -0.38212933842692592 0 0.40967479368115811 -0.39656553148481138 0 0.3889089604905685 -0.37250826243982338 0 0.41081176988577689 -0.37598843986931441 0 0.39315341249333252 -0.38935459565798258 0 0.40967479368115811 -0.39656553148481138 0 0.41081176988577689 -0.37598843986931441 0 0.39315341249333252 -0.38935459565798258 0 0.3889089604905685 -0.37250826243982338 0 0.37345257572878959 -0.39005886110989851 0 0.36523940570890773 -0.36542769994236229 0 0.3889089604905685 -0.37250826243982338 0 0.39315341249333252 -0.38935459565798258 0 0.37345257572878959 -0.39005886110989851 0 0.39315341249333252 -0.38935459565798258 0 0.38894111862313668 -0.40791185399279439 0 0.37345257572878959 -0.39005886110989851 0 0.38894111862313668 -0.40791185399279439 0 0.37106834820806489 -0.41138377357564809 0 0.37345257572878959 -0.39005886110989851 0 0.40967479368115811 -0.39656553148481138 0 0.39315341249333252 -0.38935459565798258 0 0.38894111862313668 -0.40791185399279439 0 0.38894111862313668 -0.40791185399279439 0 0.40164923866304442 -0.43612450647807022 0 0.41419194227720751 -0.41738599593160508 0 0.40967479368115811 -0.39656553148481138 0 0.38894111862313668 -0.40791185399279439 0 0.41419194227720751 -0.41738599593160508 0 0.38894111862313668 -0.40791185399279439 0 0.37854106231005852 -0.42913597104278212 0 0.37106834820806489 -0.41138377357564809 0 0.37854106231005852 -0.42913597104278212 0 0.40164923866304442 -0.43612450647807022 0 0.38894111862313668 -0.40791185399279439 0 0.37854106231005852 -0.42913597104278212 0 0.40164923866304442 -0.43612450647807022 0 0.40164923866304442 -0.43612450647807022 0 0.41419194227720751 -0.41738599593160508 0 0.41615921016988783 -0.44263291846815722 0 0.43839304394455902 -0.41611472134135891 0 0.42530138770190312 -0.40411068913542397 0 0.41419194227720751 -0.41738599593160508 0 0.43839304394455902 -0.41611472134135891 0 0.41419194227720751 -0.41738599593160508 0 0.41615921016988783 -0.44263291846815722 0 0.44152687793105461 -0.44302579395195718 0 0.43839304394455902 -0.41611472134135891 0 0.41615921016988783 -0.44263291846815722 0 0.44152687793105461 -0.44302579395195718 0 0.42400718974388479 -0.46577424125725247 0 0.41615921016988783 -0.44263291846815722 0 0.44466071191754558 -0.46993686656255612 0 0.44152687793105461 -0.44302579395195718 0 0.42400718974388479 -0.46577424125725247 0 0.42400718974388479 -0.46577424125725247 0 0.41615921016988783 -0.44263291846815722 0 0.40059195218878119 -0.46814610476965318 0 0.37854106231005852 -0.42913597104278212 0 0.40164923866304442 -0.43612450647807022 0 0.39319706254672732 -0.4504757536378759 0 0.40164923866304442 -0.43612450647807022 0 0.41615921016988783 -0.44263291846815722 0 0.39319706254672732 -0.4504757536378759 0 0.37854106231005852 -0.42913597104278212 0 0.39319706254672732 -0.4504757536378759 0 0.37533566479653802 -0.45668517182298513 0 0.37533566479653802 -0.45668517182298513 0 0.40059195218878119 -0.46814610476965318 0 0.38431927857806347 -0.48000347861417009 0 0.39319706254672732 -0.4504757536378759 0 0.37533566479653802 -0.45668517182298513 0 0.40059195218878119 -0.46814610476965318 0 0.41615921016988783 -0.44263291846815722 0 0.39319706254672732 -0.4504757536378759 0 0.40059195218878119 -0.46814610476965318 0 0.40059195218878119 -0.46814610476965318 0 0.38431927857806347 -0.48000347861417009 0 0.40942381710843762 -0.48219064169185599 0 0.38431927857806347 -0.48000347861417009 0 0.38196633289325588 -0.49999999999999872 0 0.36429730458560189 -0.48212898523020148 0 0.38431927857806347 -0.48000347861417009 0 0.38196633289325588 -0.49999999999999872 0 0.40403142460330532 -0.5 0 0.38431927857806347 -0.48000347861417009 0 0.40403142460330532 -0.5 0 0.40942381710843762 -0.48219064169185599 0 0.40403142460330532 -0.5 0 0.41659982268522883 -0.49217456447989227 0 0.40942381710843762 -0.48219064169185599 0 0.41659982268522883 -0.49217456447989227 0 0.40942381710843762 -0.48219064169185599 0 0.42684753271581788 -0.48650761622771332 0 0.40403142460330532 -0.5 0 0.41659982268522883 -0.49217456447989227 0 0.42609651631335471 -0.5 0 0.42400718974388479 -0.46577424125725247 0 0.40059195218878119 -0.46814610476965318 0 0.40942381710843762 -0.48219064169185599 0 0.42400718974388479 -0.46577424125725247 0 0.40942381710843762 -0.48219064169185599 0 0.42684753271581788 -0.48650761622771332 0 0.44466071191754558 -0.46993686656255612 0 0.42684753271581788 -0.48650761622771332 0 0.44466071191754558 -0.46993686656255612 0 0.42400718974388479 -0.46577424125725247 0 0.42684753271581788 -0.48650761622771332 0 0.4481616080234041 -0.49999999999999739 0 0.42609651631335471 -0.5 0 0.42684753271581788 -0.48650761622771332 0 0.41659982268522883 -0.49217456447989227 0 0.42609651631335471 -0.5 0 0.42684753271581788 -0.48650761622771332 0 0.31631253372767432 -0.5 0 0.33649641961076748 -0.49999999999999872 0 0.31243546270415212 -0.49513357048298151 0 0.32558110782871952 -0.47502431362884601 0 0.33649641961076748 -0.49999999999999872 0 0.31243546270415212 -0.49513357048298151 0 0.33649641961076748 -0.49999999999999872 0 0.31243546270415212 -0.49513357048298151 0 0.32558110782871952 -0.47502431362884601 0 0.34644689691100949 -0.48428225386389051 0 0.3466282762779474 -0.46425797046040512 0 0.32558110782871952 -0.47502431362884601 0 0.33649641961076748 -0.49999999999999872 0 0.34644689691100949 -0.48428225386389051 0 0.35923137625201168 -0.5 0 0.36429730458560189 -0.48212898523020148 0 0.34644689691100949 -0.48428225386389051 0 0.33649641961076748 -0.49999999999999872 0 0.35923137625201168 -0.5 0 0.34644689691100949 -0.48428225386389051 0 0.38196633289325588 -0.49999999999999872 0 0.35923137625201168 -0.5 0 0.36429730458560189 -0.48212898523020148 0 0.38196633289325588 -0.49999999999999872 0 0.36429730458560189 -0.48212898523020148 0 0.38431927857806347 -0.48000347861417009 0 0.36429730458560189 -0.48212898523020148 0 0.36250200938387611 -0.46623381939665892 0 0.36429730458560189 -0.48212898523020148 0 0.3466282762779474 -0.46425797046040512 0 0.36429730458560189 -0.48212898523020148 0 0.34644689691100949 -0.48428225386389051 0 0.3466282762779474 -0.46425797046040512 0 0.36429730458560189 -0.48212898523020148 0 0.3466282762779474 -0.46425797046040512 0 0.36250200938387611 -0.46623381939665892 0 0.3466282762779474 -0.46425797046040512 0 0.36250200938387611 -0.46623381939665892 0 0.35622716633862123 -0.44470090669096207 0 0.37533566479653802 -0.45668517182298513 0 0.38431927857806347 -0.48000347861417009 0 0.36250200938387611 -0.46623381939665892 0 0.37533566479653802 -0.45668517182298513 0 0.36250200938387611 -0.46623381939665892 0 0.35622716633862123 -0.44470090669096207 0 0.37854106231005852 -0.42913597104278212 0 0.37533566479653802 -0.45668517182298513 0 0.35622716633862123 -0.44470090669096207 0 0.3466282762779474 -0.46425797046040512 0 0.35622716633862123 -0.44470090669096207 0 0.32895924797029291 -0.44638695569060849 0 0.35622716633862123 -0.44470090669096207 0 0.32895924797029291 -0.44638695569060849 0 0.33879454323393537 -0.43162981283747393 0 0.3466282762779474 -0.46425797046040512 0 0.32895924797029291 -0.44638695569060849 0 0.32558110782871952 -0.47502431362884601 0 0.3466282762779474 -0.46425797046040512 0 0.32895924797029291 -0.44638695569060849 0 0.32558110782871952 -0.47502431362884601 0 0.32895924797029291 -0.44638695569060849 0 0.31013517672393359 -0.45824264406072301 0 0.32895924797029291 -0.44638695569060849 0 0.30820235984919558 -0.44403263630352657 0 0.31013517672393359 -0.45824264406072301 0 0.32895924797029291 -0.44638695569060849 0 0.31129021966263831 -0.42851594092081208 0 0.30820235984919558 -0.44403263630352657 0 0.32895924797029291 -0.44638695569060849 0 0.31129021966263831 -0.42851594092081208 0 0.32895924797029291 -0.44638695569060849 0 0.33879454323393537 -0.43162981283747393 0 0.31129021966263831 -0.42851594092081208 0 0.33232470960408678 -0.41515890017220591 0 0.33879454323393537 -0.43162981283747393 0 0.31129021966263831 -0.42851594092081208 0 0.33232470960408678 -0.41515890017220591 0 0.30921653325110088 -0.40817036473691792 0 0.31129021966263831 -0.42851594092081208 0 0.33232470960408678 -0.41515890017220591 0 0.30921653325110088 -0.40817036473691792 0 0.33232470960408678 -0.41515890017220591 0 0.32430874552458289 -0.39996552949528669 0 0.30921653325110088 -0.40817036473691792 0 0.33232470960408678 -0.41515890017220591 0 0.33879454323393537 -0.43162981283747393 0 0.35543288595707262 -0.42214743560749401 0 0.35622716633862123 -0.44470090669096207 0 0.33879454323393537 -0.43162981283747393 0 0.35543288595707262 -0.42214743560749401 0 0.37854106231005852 -0.42913597104278212 0 0.35622716633862123 -0.44470090669096207 0 0.35543288595707262 -0.42214743560749401 0 0.37854106231005852 -0.42913597104278212 0 0.35543288595707262 -0.42214743560749401 0 0.37854106231005852 -0.42913597104278212 0 0.35543288595707262 -0.42214743560749401 0 0.37106834820806489 -0.41138377357564809 0 0.35543288595707262 -0.42214743560749401 0 0.37106834820806489 -0.41138377357564809 0 0.35680168147205232 -0.4021345450958918 0 0.33232470960408678 -0.41515890017220591 0 0.35543288595707262 -0.42214743560749401 0 0.33232470960408678 -0.41515890017220591 0 0.35543288595707262 -0.42214743560749401 0 0.35680168147205232 -0.4021345450958918 0 0.35680168147205232 -0.4021345450958918 0 0.35348859489841328 -0.38269725120100279 0 0.33981127359827318 -0.39246421297616058 0 0.37106834820806489 -0.41138377357564809 0 0.35680168147205232 -0.4021345450958918 0 0.37345257572878959 -0.39005886110989851 0 0.35680168147205232 -0.4021345450958918 0 0.37345257572878959 -0.39005886110989851 0 0.35348859489841328 -0.38269725120100279 0 0.37345257572878959 -0.39005886110989851 0 0.35348859489841328 -0.38269725120100279 0 0.36523940570890773 -0.36542769994236229 0 0.35348859489841328 -0.38269725120100279 0 0.34092812651359911 -0.37900863971731158 0 0.33981127359827318 -0.39246421297616058 0 0.35348859489841328 -0.38269725120100279 0 0.34092812651359911 -0.37900863971731158 0 0.34469850636885763 -0.36708954836439239 0 0.34092812651359911 -0.37900863971731158 0 0.32872967993344548 -0.38674186069518479 0 0.33084765180319819 -0.37442893789394271 0 0.34092812651359911 -0.37900863971731158 0 0.32872967993344548 -0.38674186069518479 0 0.33981127359827318 -0.39246421297616058 0 0.33232470960408678 -0.41515890017220591 0 0.33981127359827318 -0.39246421297616058 0 0.32430874552458289 -0.39996552949528669 0 0.33232470960408678 -0.41515890017220591 0 0.35680168147205232 -0.4021345450958918 0 0.33981127359827318 -0.39246421297616058 0 0.32872967993344548 -0.38674186069518479 0 0.33981127359827318 -0.39246421297616058 0 0.32430874552458289 -0.39996552949528669 0 0.32430874552458289 -0.39996552949528669 0 0.31318921732056032 -0.39641419345299389 0 0.30921653325110088 -0.40817036473691792 0 0.32430874552458289 -0.39996552949528669 0 0.31318921732056032 -0.39641419345299389 0 0.31580688998062711 -0.38503861940110229 0 0.32872967993344548 -0.38674186069518479 0 0.31580688998062711 -0.38503861940110229 0 0.33084765180319819 -0.37442893789394271 0 0.31580688998062711 -0.38503861940110229 0 0.33084765180319819 -0.37442893789394271 0 0.3239734129121552 -0.37050833823473772 0 0.32872967993344548 -0.38674186069518479 0 0.32430874552458289 -0.39996552949528669 0 0.31580688998062711 -0.38503861940110229 0 0.30366203949628617 -0.38966965656229591 0 0.29586024325518351 -0.3780896277203305 0 0.30991970831166571 -0.37081026414458501 0 0.31580688998062711 -0.38503861940110229 0 0.30366203949628617 -0.38966965656229591 0 0.30991970831166571 -0.37081026414458501 0 0.30366203949628617 -0.38966965656229591 0 0.30991970831166571 -0.37081026414458501 0 0.31318921732056032 -0.39641419345299389 0 0.31580688998062711 -0.38503861940110229 0 0.30366203949628617 -0.38966965656229591 0 0.2861083568981152 -0.40118182930162971 0 0.30921653325110088 -0.40817036473691792 0 0.31318921732056032 -0.39641419345299389 0 0.30366203949628617 -0.38966965656229591 0 0.30921653325110088 -0.40817036473691792 0 0.30366203949628617 -0.38966965656229591 0 0.2861083568981152 -0.40118182930162971 0 0.30921653325110088 -0.40817036473691792 0 0.2861083568981152 -0.40118182930162971 0 0.28180483585464872 -0.3859507572978208 0 0.29586024325518351 -0.3780896277203305 0 0.2861083568981152 -0.40118182930162971 0 0.29586024325518351 -0.3780896277203305 0 0.28180483585464872 -0.3859507572978208 0 0.29586024325518351 -0.3780896277203305 0 0.27999137035426569 -0.37109643547666271 0 0.30366203949628617 -0.38966965656229591 0 0.2861083568981152 -0.40118182930162971 0 0.29586024325518351 -0.3780896277203305 0 0.28180483585464872 -0.3859507572978208 0 0.26984637489932439 -0.37982947266185668 0 0.27999137035426569 -0.37109643547666271 0 0.28180483585464872 -0.3859507572978208 0 0.26984637489932439 -0.37982947266185668 0 0.25804373749725018 -0.39269433188232461 0 0.26984637489932439 -0.37982947266185668 0 0.25762254538930029 -0.37704746804297867 0 0.25804373749725018 -0.39269433188232461 0 0.25762254538930029 -0.37704746804297867 0 0.25804373749725018 -0.39269433188232461 0 0.2429041237822688 -0.37851861370108841 0 0.25804373749725018 -0.39269433188232461 0 0.26595457093772101 -0.40947836774030522 0 0.24852229779328019 -0.41657435612796578 0 0.2861083568981152 -0.40118182930162971 0 0.25804373749725018 -0.39269433188232461 0 0.26595457093772101 -0.40947836774030522 0 0.2861083568981152 -0.40118182930162971 0 0.25804373749725018 -0.39269433188232461 0 0.2861083568981152 -0.40118182930162971 0 0.28180483585464872 -0.3859507572978208 0 0.25804373749725018 -0.39269433188232461 0 0.2861083568981152 -0.40118182930162971 0 0.27919865446964082 -0.41754381666517398 0 0.26595457093772101 -0.40947836774030522 0 0.27919865446964082 -0.41754381666517398 0 0.26649111881045262 -0.41937558614054121 0 0.26595457093772101 -0.40947836774030522 0 0.26649111881045262 -0.41937558614054121 0 0.26595457093772101 -0.40947836774030522 0 0.24852229779328019 -0.41657435612796578 0 0.27228895204116832 -0.43390580402871942 0 0.24852229779328019 -0.41657435612796578 0 0.25532234801786119 -0.43168975851388652 0 0.26358533067251072 -0.4372686002881182 0 0.27228895204116832 -0.43390580402871942 0 0.26649111881045262 -0.41937558614054121 0 0.27228895204116832 -0.43390580402871942 0 0.24852229779328019 -0.41657435612796578 0 0.25532234801786119 -0.43168975851388652 0 0.27228895204116832 -0.43390580402871942 0 0.24852229779328019 -0.41657435612796578 0 0.25532234801786119 -0.43168975851388652 0 0.26358533067251072 -0.4372686002881182 0 0.25796262984271462 -0.44211489073159332 0 0.27919865446964082 -0.41754381666517398 0 0.27228895204116832 -0.43390580402871942 0 0.26358533067251072 -0.4372686002881182 0 0.27228895204116832 -0.43390580402871942 0 0.27115751636338808 -0.43658501293158047 0 0.27919865446964082 -0.41754381666517398 0 0.27228895204116832 -0.43390580402871942 0 0.28154566174934742 -0.42777002367119271 0 0.27919865446964082 -0.41754381666517398 0 0.26649111881045262 -0.41937558614054121 0 0.27228895204116832 -0.43390580402871942 0 0.27228895204116832 -0.43390580402871942 0 0.27115751636338808 -0.43658501293158047 0 0.27228895204116832 -0.43390580402871942 0 0.27436379384075948 -0.43541884882572152 0 0.27228895204116832 -0.43390580402871942 0 0.27115751636338808 -0.43658501293158047 0 0.27436379384075948 -0.43541884882572152 0 0.27115751636338808 -0.43658501293158047 0 0.27436379384075948 -0.43541884882572152 0 0.27403715308022852 -0.43901844553686309 0 0.27228895204116832 -0.43390580402871942 0 0.27857918223025308 -0.43322917994625337 0 0.28154566174934742 -0.42777002367119271 0 0.27228895204116832 -0.43390580402871942 0 0.27436379384075948 -0.43541884882572152 0 0.27857918223025308 -0.43322917994625337 0 0.27436379384075948 -0.43541884882572152 0 0.27857918223025308 -0.43322917994625337 0 0.27799068061553328 -0.43845029249562911 0 0.27857918223025308 -0.43322917994625337 0 0.28395422633351869 -0.43715853081178391 0 0.27799068061553328 -0.43845029249562911 0 0.28395422633351869 -0.43715853081178391 0 0.29417812431809809 -0.43739933824611082 0 0.28154566174934742 -0.42777002367119271 0 0.29417812431809809 -0.43739933824611082 0 0.28154566174934742 -0.42777002367119271 0 0.29358959172482352 -0.42009688559030622 0 0.27857918223025308 -0.43322917994625337 0 0.28395422633351869 -0.43715853081178391 0 0.28154566174934742 -0.42777002367119271 0 0.2861083568981152 -0.40118182930162971 0 0.27919865446964082 -0.41754381666517398 0 0.27919865446964082 -0.41754381666517398 0 0.28154566174934742 -0.42777002367119271 0 0.29358959172482352 -0.42009688559030622 0 0.2861083568981152 -0.40118182930162971 0 0.27919865446964082 -0.41754381666517398 0 0.29358959172482352 -0.42009688559030622 0 0.2861083568981152 -0.40118182930162971 0 0.29358959172482352 -0.42009688559030622 0 0.30921653325110088 -0.40817036473691792 0 0.29358959172482352 -0.42009688559030622 0 0.30921653325110088 -0.40817036473691792 0 0.31129021966263831 -0.42851594092081208 0 0.29417812431809809 -0.43739933824611082 0 0.31129021966263831 -0.42851594092081208 0 0.30820235984919558 -0.44403263630352657 0 0.29417812431809809 -0.43739933824611082 0 0.29358959172482352 -0.42009688559030622 0 0.31129021966263831 -0.42851594092081208 0 0.29417812431809809 -0.43739933824611082 0 0.30820235984919558 -0.44403263630352657 0 0.29219216538881182 -0.45184607074389932 0 0.30820235984919558 -0.44403263630352657 0 0.31013517672393359 -0.45824264406072301 0 0.29219216538881182 -0.45184607074389932 0 0.31013517672393359 -0.45824264406072301 0 0.29219216538881182 -0.45184607074389932 0 0.29654927358255351 -0.47402494524065603 0 0.28242499606775912 -0.46257328444392848 0 0.29219216538881182 -0.45184607074389932 0 0.29654927358255351 -0.47402494524065603 0 0.28242499606775912 -0.46257328444392848 0 0.29219216538881182 -0.45184607074389932 0 0.27847152787625667 -0.4513487256690073 0 0.29219216538881182 -0.45184607074389932 0 0.288640399347527 -0.44341757383598313 0 0.28133908198536811 -0.4436934118271787 0 0.29219216538881182 -0.45184607074389932 0 0.28133908198536811 -0.4436934118271787 0 0.27847152787625667 -0.4513487256690073 0 0.29417812431809809 -0.43739933824611082 0 0.29219216538881182 -0.45184607074389932 0 0.288640399347527 -0.44341757383598313 0 0.28395422633351869 -0.43715853081178391 0 0.29417812431809809 -0.43739933824611082 0 0.288640399347527 -0.44341757383598313 0 0.28395422633351869 -0.43715853081178391 0 0.288640399347527 -0.44341757383598313 0 0.28133908198536811 -0.4436934118271787 0 0.28395422633351869 -0.43715853081178391 0 0.28133908198536811 -0.4436934118271787 0 0.27799068061553328 -0.43845029249562911 0 0.28133908198536811 -0.4436934118271787 0 0.27799068061553328 -0.43845029249562911 0 0.2753549814786983 -0.44293535638627018 0 0.27436379384075948 -0.43541884882572152 0 0.27799068061553328 -0.43845029249562911 0 0.27403715308022852 -0.43901844553686309 0 0.27799068061553328 -0.43845029249562911 0 0.2753549814786983 -0.44293535638627018 0 0.27403715308022852 -0.43901844553686309 0 0.2753549814786983 -0.44293535638627018 0 0.27847152787625667 -0.4513487256690073 0 0.27146143093161001 -0.44766084632933478 0 0.28133908198536811 -0.4436934118271787 0 0.2753549814786983 -0.44293535638627018 0 0.27847152787625667 -0.4513487256690073 0 0.27146143093161001 -0.44766084632933478 0 0.26597382363671102 -0.45044571757681878 0 0.26951278223790981 -0.45722290213561328 0 0.27847152787625667 -0.4513487256690073 0 0.27146143093161001 -0.44766084632933478 0 0.26951278223790981 -0.45722290213561328 0 0.27146143093161001 -0.44766084632933478 0 0.26597382363671102 -0.45044571757681878 0 0.26455520637633129 -0.44524742720171712 0 0.26358533067251072 -0.4372686002881182 0 0.27043719202946759 -0.44227367643525922 0 0.26455520637633129 -0.44524742720171712 0 0.27115751636338808 -0.43658501293158047 0 0.27403715308022852 -0.43901844553686309 0 0.27043719202946759 -0.44227367643525922 0 0.2753549814786983 -0.44293535638627018 0 0.27146143093161001 -0.44766084632933478 0 0.27043719202946759 -0.44227367643525922 0 0.2753549814786983 -0.44293535638627018 0 0.27403715308022852 -0.43901844553686309 0 0.27043719202946759 -0.44227367643525922 0 0.27146143093161001 -0.44766084632933478 0 0.27043719202946759 -0.44227367643525922 0 0.26455520637633129 -0.44524742720171712 0 0.26358533067251072 -0.4372686002881182 0 0.27115751636338808 -0.43658501293158047 0 0.27043719202946759 -0.44227367643525922 0 0.25836587500099278 -0.45165169464061011 0 0.2443552964304268 -0.4604541631217185 0 0.24798438914587709 -0.44471697301363439 0 0.26358533067251072 -0.4372686002881182 0 0.25796262984271462 -0.44211489073159332 0 0.26455520637633129 -0.44524742720171712 0 0.26597382363671102 -0.45044571757681878 0 0.25836587500099278 -0.45165169464061011 0 0.26951278223790981 -0.45722290213561328 0 0.25796262984271462 -0.44211489073159332 0 0.26455520637633129 -0.44524742720171712 0 0.25836587500099278 -0.45165169464061011 0 0.26597382363671102 -0.45044571757681878 0 0.26455520637633129 -0.44524742720171712 0 0.25836587500099278 -0.45165169464061011 0 0.25796262984271462 -0.44211489073159332 0 0.25836587500099278 -0.45165169464061011 0 0.24798438914587709 -0.44471697301363439 0 0.25532234801786119 -0.43168975851388652 0 0.25796262984271462 -0.44211489073159332 0 0.24798438914587709 -0.44471697301363439 0 0.25972533196042952 -0.46672666409502311 0 0.2486107905310152 -0.47178281681740752 0 0.2443552964304268 -0.4604541631217185 0 0.25836587500099278 -0.45165169464061011 0 0.25972533196042952 -0.46672666409502311 0 0.2443552964304268 -0.4604541631217185 0 0.25836587500099278 -0.45165169464061011 0 0.25972533196042952 -0.46672666409502311 0 0.26951278223790981 -0.45722290213561328 0 0.25972533196042952 -0.46672666409502311 0 0.26951278223790981 -0.45722290213561328 0 0.27413680599244689 -0.4735496205127695 0 0.28242499606775912 -0.46257328444392848 0 0.26951278223790981 -0.45722290213561328 0 0.27413680599244689 -0.4735496205127695 0 0.28242499606775912 -0.46257328444392848 0 0.27847152787625667 -0.4513487256690073 0 0.26951278223790981 -0.45722290213561328 0 0.27413680599244689 -0.4735496205127695 0 0.26431354889092068 -0.4854007114489497 0 0.28837450579753637 -0.49026714096596558 0 0.25972533196042952 -0.46672666409502311 0 0.27413680599244689 -0.4735496205127695 0 0.26431354889092068 -0.4854007114489497 0 0.26431354889092068 -0.4854007114489497 0 0.2486107905310152 -0.47178281681740752 0 0.2402525919843049 -0.48053428193193393 0 0.25972533196042952 -0.46672666409502311 0 0.26431354889092068 -0.4854007114489497 0 0.2486107905310152 -0.47178281681740752 0 0.26431354889092068 -0.4854007114489497 0 0.2402525919843049 -0.48053428193193393 0 0.25053490694631031 -0.5 0 0.25646778227897887 -0.49015285543631321 0 0.27594476196148798 -0.49999999999999939 0 0.26431354889092068 -0.4854007114489497 0 0.25646778227897887 -0.49015285543631321 0 0.27594476196148798 -0.49999999999999939 0 0.26431354889092068 -0.4854007114489497 0 0.25646778227897887 -0.49015285543631321 0 0.2402525919843049 -0.48053428193193393 0 0.26431354889092068 -0.4854007114489497 0 0.27594476196148798 -0.49999999999999939 0 0.28837450579753637 -0.49026714096596558 0 0.25646778227897887 -0.49015285543631321 0 0.27594476196148798 -0.49999999999999939 0 0.26431354889092068 -0.4854007114489497 0 0.28837450579753637 -0.49026714096596558 0 0.27594476196148798 -0.49999999999999939 0 0.29612864784458109 -0.5 0 0.28837450579753637 -0.49026714096596558 0 0.27413680599244689 -0.4735496205127695 0 0.28837450579753637 -0.49026714096596558 0 0.29654927358255351 -0.47402494524065603 0 0.28242499606775912 -0.46257328444392848 0 0.27413680599244689 -0.4735496205127695 0 0.29654927358255351 -0.47402494524065603 0 0.32558110782871952 -0.47502431362884601 0 0.31013517672393359 -0.45824264406072301 0 0.29654927358255351 -0.47402494524065603 0 0.32558110782871952 -0.47502431362884601 0 0.29654927358255351 -0.47402494524065603 0 0.31243546270415212 -0.49513357048298151 0 0.28837450579753637 -0.49026714096596558 0 0.31243546270415212 -0.49513357048298151 0 0.31631253372767432 -0.5 0 0.29612864784458109 -0.5 0 0.31243546270415212 -0.49513357048298151 0 0.28837450579753637 -0.49026714096596558 0 0.29654927358255351 -0.47402494524065603 0 0.31243546270415212 -0.49513357048298151 0 0.29612864784458109 -0.5 0 0.28837450579753637 -0.49026714096596558 0 0.31243546270415212 -0.49513357048298151 0 0.33024703309228243 -0.29199579029886341 0 0.33847376378877259 -0.2847539142085927 0 0.32263787353633749 -0.28410753585877507 0 0.33847376378877259 -0.2847539142085927 0 0.3424863449763379 -0.30256206636538802 0 0.33251278517155641 -0.30271914027798258 0 0.33024703309228243 -0.29199579029886341 0 0.33847376378877259 -0.2847539142085927 0 0.33251278517155641 -0.30271914027798258 0 0.33847376378877259 -0.2847539142085927 0 0.33251278517155641 -0.30271914027798258 0 0.33251278517155641 -0.30271914027798258 0 0.3379378395038235 -0.31405057938586672 0 0.32655180655434041 -0.32068436634737257 0 0.33251278517155641 -0.30271914027798258 0 0.32655180655434041 -0.32068436634737257 0 0.3424863449763379 -0.30256206636538802 0 0.33251278517155641 -0.30271914027798258 0 0.3379378395038235 -0.31405057938586672 0 0.33024703309228243 -0.29199579029886341 0 0.33251278517155641 -0.30271914027798258 0 0.32060333182329698 -0.30547278212329337 0 0.33251278517155641 -0.30271914027798258 0 0.32655180655434041 -0.32068436634737257 0 0.32360155475540681 -0.31313991070943831 0 0.33251278517155641 -0.30271914027798258 0 0.32060333182329698 -0.30547278212329337 0 0.32403909204093478 -0.30910402632660422 0 0.33251278517155641 -0.30271914027798258 0 0.32403909204093478 -0.30910402632660422 0 0.32360155475540681 -0.31313991070943831 0 0.32060333182329698 -0.30547278212329337 0 0.32141222654517088 -0.31758322646324227 0 0.32360155475540681 -0.31313991070943831 0 0.32403909204093478 -0.30910402632660422 0 0.32360155475540681 -0.31313991070943831 0 0.32060333182329698 -0.30547278212329337 0 0.32403909204093478 -0.30910402632660422 0 0.32360155475540681 -0.31313991070943831 0 0.32060333182329698 -0.30547278212329337 0 0.32360155475540681 -0.31313991070943831 0 0.33024703309228243 -0.29199579029886341 0 0.32060333182329698 -0.30547278212329337 0 0.32263787353633749 -0.28410753585877507 0 0.32060333182329698 -0.30547278212329337 0 0.32263787353633749 -0.28410753585877507 0 0.31273491517594959 -0.28535147574592579 0 0.32060333182329698 -0.30547278212329337 0 0.32263787353633749 -0.28410753585877507 0 0.32060333182329698 -0.30547278212329337 0 0.31273491517594959 -0.28535147574592579 0 0.31538970550446982 -0.27313647176473671 0 0.32467241524937912 -0.26274228959425677 0 0.29995504542999007 -0.26283598693345578 0 0.32263787353633749 -0.28410753585877507 0 0.32467241524937912 -0.26274228959425677 0 0.32263787353633749 -0.28410753585877507 0 0.31538970550446982 -0.27313647176473671 0 0.32467241524937912 -0.26274228959425677 0 0.32263787353633749 -0.28410753585877507 0 0.31273491517594959 -0.28535147574592579 0 0.31538970550446982 -0.27313647176473671 0 0.32623726572499839 -0.24630939192279999 0 0.32467241524937912 -0.26274228959425677 0 0.31227764954635462 -0.25327102046308481 0 0.32623726572499839 -0.24630939192279999 0 0.32467241524937912 -0.26274228959425677 0 0.32467241524937912 -0.26274228959425677 0 0.34175783262437742 -0.25221284589247339 0 0.35245633684312189 -0.26263696772769579 0 0.32623726572499839 -0.24630939192279999 0 0.32467241524937912 -0.26274228959425677 0 0.34175783262437742 -0.25221284589247339 0 0.32467241524937912 -0.26274228959425677 0 0.35245633684312189 -0.26263696772769579 0 0.32263787353633749 -0.28410753585877507 0 0.32467241524937912 -0.26274228959425677 0 0.33783219439211443 -0.27427703898111411 0 0.32467241524937912 -0.26274228959425677 0 0.33783219439211443 -0.27427703898111411 0 0.35245633684312189 -0.26263696772769579 0 0.33847376378877259 -0.2847539142085927 0 0.32263787353633749 -0.28410753585877507 0 0.33783219439211443 -0.27427703898111411 0 0.33847376378877259 -0.2847539142085927 0 0.33783219439211443 -0.27427703898111411 0 0.35023256276424047 -0.2784830750830658 0 0.35023256276424047 -0.2784830750830658 0 0.35245633684312189 -0.26263696772769579 0 0.36641870847826657 -0.28115869475223892 0 0.33783219439211443 -0.27427703898111411 0 0.35023256276424047 -0.2784830750830658 0 0.35245633684312189 -0.26263696772769579 0 0.3579054052522066 -0.24275040787088481 0 0.34175783262437742 -0.25221284589247339 0 0.35245633684312189 -0.26263696772769579 0 0.38024025843686471 -0.26253164586113498 0 0.35245633684312189 -0.26263696772769579 0 0.3579054052522066 -0.24275040787088481 0 0.38024025843686471 -0.26253164586113498 0 0.35245633684312189 -0.26263696772769579 0 0.38024025843686471 -0.26253164586113498 0 0.35245633684312189 -0.26263696772769579 0 0.36641870847826657 -0.28115869475223892 0 0.36641870847826657 -0.28115869475223892 0 0.35267931538106839 -0.29601398006640378 0 0.36874089256624171 -0.30522638280051562 0 0.38614001645978407 -0.29336027691126532 0 0.36641870847826657 -0.28115869475223892 0 0.36874089256624171 -0.30522638280051562 0 0.33847376378877259 -0.2847539142085927 0 0.3424863449763379 -0.30256206636538802 0 0.35267931538106839 -0.29601398006640378 0 0.33847376378877259 -0.2847539142085927 0 0.35023256276424047 -0.2784830750830658 0 0.35267931538106839 -0.29601398006640378 0 0.35023256276424047 -0.2784830750830658 0 0.36641870847826657 -0.28115869475223892 0 0.35267931538106839 -0.29601398006640378 0 0.35267931538106839 -0.29601398006640378 0 0.36874089256624171 -0.30522638280051562 0 0.3508280210364686 -0.3152727178880943 0 0.3424863449763379 -0.30256206636538802 0 0.35267931538106839 -0.29601398006640378 0 0.3508280210364686 -0.3152727178880943 0 0.3424863449763379 -0.30256206636538802 0 0.3508280210364686 -0.3152727178880943 0 0.3379378395038235 -0.31405057938586672 0 0.38188029629269038 -0.31396736973096018 0 0.36874089256624171 -0.30522638280051562 0 0.3683352327275366 -0.32664342993636691 0 0.36874089256624171 -0.30522638280051562 0 0.3683352327275366 -0.32664342993636691 0 0.3508280210364686 -0.3152727178880943 0 0.38271098399161779 -0.34750867223883342 0 0.3683352327275366 -0.32664342993636691 0 0.35760123186979098 -0.34169105765240421 0 0.3683352327275366 -0.32664342993636691 0 0.35760123186979098 -0.34169105765240421 0 0.34915811632932292 -0.32900342743156241 0 0.35760123186979098 -0.34169105765240421 0 0.33249147974796489 -0.33587344306597128 0 0.35760123186979098 -0.34169105765240421 0 0.34915811632932292 -0.32900342743156241 0 0.33249147974796489 -0.33587344306597128 0 0.3683352327275366 -0.32664342993636691 0 0.34915811632932292 -0.32900342743156241 0 0.3508280210364686 -0.3152727178880943 0 0.34915811632932292 -0.32900342743156241 0 0.3508280210364686 -0.3152727178880943 0 0.33653461626484737 -0.3255364886149773 0 0.38271098399161779 -0.34750867223883342 0 0.35760123186979098 -0.34169105765240421 0 0.36523940570890773 -0.36542769994236229 0 0.38271098399161779 -0.34750867223883342 0 0.35760123186979098 -0.34169105765240421 0 0.35760123186979098 -0.34169105765240421 0 0.36523940570890773 -0.36542769994236229 0 0.35153353425149259 -0.35642245041858489 0 0.35760123186979098 -0.34169105765240421 0 0.35153353425149259 -0.35642245041858489 0 0.33859499305841428 -0.35148149571518061 0 0.35153353425149259 -0.35642245041858489 0 0.34469850636885763 -0.36708954836439239 0 0.33859499305841428 -0.35148149571518061 0 0.36523940570890773 -0.36542769994236229 0 0.35153353425149259 -0.35642245041858489 0 0.34469850636885763 -0.36708954836439239 0 0.35348859489841328 -0.38269725120100279 0 0.36523940570890773 -0.36542769994236229 0 0.34469850636885763 -0.36708954836439239 0 0.33084765180319819 -0.37442893789394271 0 0.33085817070246648 -0.36127044392918711 0 0.3239734129121552 -0.37050833823473772 0 0.34469850636885763 -0.36708954836439239 0 0.33084765180319819 -0.37442893789394271 0 0.33085817070246648 -0.36127044392918711 0 0.34092812651359911 -0.37900863971731158 0 0.34469850636885763 -0.36708954836439239 0 0.33084765180319819 -0.37442893789394271 0 0.34469850636885763 -0.36708954836439239 0 0.33085817070246648 -0.36127044392918711 0 0.33859499305841428 -0.35148149571518061 0 0.33085817070246648 -0.36127044392918711 0 0.33859499305841428 -0.35148149571518061 0 0.32673364684909711 -0.35056300778016453 0 0.34469850636885763 -0.36708954836439239 0 0.33859499305841428 -0.35148149571518061 0 0.33859499305841428 -0.35148149571518061 0 0.32673364684909711 -0.35056300778016453 0 0.3282141758957931 -0.34179625118923601 0 0.32673364684909711 -0.35056300778016453 0 0.31838093916232912 -0.36129535171471838 0 0.32095498834403191 -0.33755208402833448 0 0.31617737712704458 -0.35195087172687389 0 0.31838093916232912 -0.36129535171471838 0 0.32095498834403191 -0.33755208402833448 0 0.31617737712704458 -0.35195087172687389 0 0.31598458851518929 -0.35397539456799498 0 0.30991970831166571 -0.37081026414458501 0 0.31838093916232912 -0.36129535171471838 0 0.32095498834403191 -0.33755208402833448 0 0.31617737712704458 -0.35195087172687389 0 0.32095498834403191 -0.33755208402833448 0 0.31617737712704458 -0.35195087172687389 0 0.31598458851518929 -0.35397539456799498 0 0.31838093916232912 -0.36129535171471838 0 0.31617737712704458 -0.35195087172687389 0 0.31598458851518929 -0.35397539456799498 0 0.33085817070246648 -0.36127044392918711 0 0.32673364684909711 -0.35056300778016453 0 0.31838093916232912 -0.36129535171471838 0 0.31580688998062711 -0.38503861940110229 0 0.31838093916232912 -0.36129535171471838 0 0.3239734129121552 -0.37050833823473772 0 0.31580688998062711 -0.38503861940110229 0 0.31838093916232912 -0.36129535171471838 0 0.30991970831166571 -0.37081026414458501 0 0.31598458851518929 -0.35397539456799498 0 0.31838093916232912 -0.36129535171471838 0 0.30991970831166571 -0.37081026414458501 0 0.31580688998062711 -0.38503861940110229 0 0.31838093916232912 -0.36129535171471838 0 0.31617737712704458 -0.35195087172687389 0 0.30991970831166571 -0.37081026414458501 0 0.33085817070246648 -0.36127044392918711 0 0.31838093916232912 -0.36129535171471838 0 0.3239734129121552 -0.37050833823473772 0 0.33653461626484737 -0.3255364886149773 0 0.33249147974796489 -0.33587344306597128 0 0.32655180655434041 -0.32068436634737257 0 0.3379378395038235 -0.31405057938586672 0 0.33653461626484737 -0.3255364886149773 0 0.32655180655434041 -0.32068436634737257 0 0.3508280210364686 -0.3152727178880943 0 0.3379378395038235 -0.31405057938586672 0 0.33653461626484737 -0.3255364886149773 0 0.34915811632932292 -0.32900342743156241 0 0.33653461626484737 -0.3255364886149773 0 0.33249147974796489 -0.33587344306597128 0 0.35760123186979098 -0.34169105765240421 0 0.33859499305841428 -0.35148149571518061 0 0.33249147974796489 -0.33587344306597128 0 0.33859499305841428 -0.35148149571518061 0 0.33249147974796489 -0.33587344306597128 0 0.33859499305841428 -0.35148149571518061 0 0.3282141758957931 -0.34179625118923601 0 0.33249147974796489 -0.33587344306597128 0 0.33249147974796489 -0.33587344306597128 0 0.32655180655434041 -0.32068436634737257 0 0.33249147974796489 -0.33587344306597128 0 0.32229577147945082 -0.33351122535653122 0 0.32655180655434041 -0.32068436634737257 0 0.31617737712704458 -0.35195087172687389 0 0.32095498834403191 -0.33755208402833448 0 0.31802749392329382 -0.3325223189886346 0 0.33249147974796489 -0.33587344306597128 0 0.32229577147945082 -0.33351122535653122 0 0.31617737712704458 -0.35195087172687389 0 0.31802749392329382 -0.3325223189886346 0 0.31536401596932251 -0.33190522455773341 0 0.31617737712704458 -0.35195087172687389 0 0.31802749392329382 -0.3325223189886346 0 0.32229577147945082 -0.33351122535653122 0 0.32095498834403191 -0.33755208402833448 0 0.31802749392329382 -0.3325223189886346 0 0.32229577147945082 -0.33351122535653122 0 0.32095498834403191 -0.33755208402833448 0 0.3282141758957931 -0.34179625118923601 0 0.32229577147945082 -0.33351122535653122 0 0.32095498834403191 -0.33755208402833448 0 0.3282141758957931 -0.34179625118923601 0 0.33249147974796489 -0.33587344306597128 0 0.32229577147945082 -0.33351122535653122 0 0.32673364684909711 -0.35056300778016453 0 0.3282141758957931 -0.34179625118923601 0 0.32095498834403191 -0.33755208402833448 0 0.32229577147945082 -0.33351122535653122 0 0.31802749392329382 -0.3325223189886346 0 0.31887882743479679 -0.32358224663232538 0 0.31802749392329382 -0.3325223189886346 0 0.31536401596932251 -0.33190522455773341 0 0.31887882743479679 -0.32358224663232538 0 0.32229577147945082 -0.33351122535653122 0 0.31802749392329382 -0.3325223189886346 0 0.31802749392329382 -0.3325223189886346 0 0.31536401596932251 -0.33190522455773341 0 0.31536401596932251 -0.33190522455773341 0 0.31887882743479679 -0.32358224663232538 0 0.30583399933886612 -0.31620600039178531 0 0.32229577147945082 -0.33351122535653122 0 0.32655180655434041 -0.32068436634737257 0 0.32360155475540681 -0.31313991070943831 0 0.32229577147945082 -0.33351122535653122 0 0.32360155475540681 -0.31313991070943831 0 0.32229577147945082 -0.33351122535653122 0 0.32141222654517088 -0.31758322646324227 0 0.32360155475540681 -0.31313991070943831 0 0.31536401596932251 -0.33190522455773341 0 0.31887882743479679 -0.32358224663232538 0 0.31802749392329382 -0.3325223189886346 0 0.31887882743479679 -0.32358224663232538 0 0.32229577147945082 -0.33351122535653122 0 0.31887882743479679 -0.32358224663232538 0 0.32141222654517088 -0.31758322646324227 0 0.32060333182329698 -0.30547278212329337 0 0.31887882743479679 -0.32358224663232538 0 0.32060333182329698 -0.30547278212329337 0 0.31887882743479679 -0.32358224663232538 0 0.32141222654517088 -0.31758322646324227 0 0.32060333182329698 -0.30547278212329337 0 0.31887882743479679 -0.32358224663232538 0 0.30583399933886612 -0.31620600039178531 0 0.31887882743479679 -0.32358224663232538 0 0.32141222654517088 -0.31758322646324227 0 0.32229577147945082 -0.33351122535653122 0 0.32655180655434041 -0.32068436634737257 0 0.32655180655434041 -0.32068436634737257 0 0.32360155475540681 -0.31313991070943831 0 0.31536401596932251 -0.33190522455773341 0 0.30583399933886612 -0.31620600039178531 0 0.29157003979573831 -0.32639245875323808 0 0.31536401596932251 -0.33190522455773341 0 0.29157003979573831 -0.32639245875323808 0 0.31536401596932251 -0.33190522455773341 0 0.30083383231846461 -0.33980607961132592 0 0.30561212961225293 -0.3549974261390319 0 0.31536401596932251 -0.33190522455773341 0 0.30083383231846461 -0.33980607961132592 0 0.29157003979573831 -0.32639245875323808 0 0.31536401596932251 -0.33190522455773341 0 0.30561212961225293 -0.3549974261390319 0 0.29157003979573831 -0.32639245875323808 0 0.29078914389654531 -0.34592920899529911 0 0.27272696826161641 -0.3375989964823195 0 0.30083383231846461 -0.33980607961132592 0 0.29157003979573831 -0.32639245875323808 0 0.29078914389654531 -0.34592920899529911 0 0.30583399933886612 -0.31620600039178531 0 0.29157003979573831 -0.32639245875323808 0 0.28596238614344771 -0.31015327119359282 0 0.29157003979573831 -0.32639245875323808 0 0.26777606362215428 -0.32087969294874158 0 0.28596238614344771 -0.31015327119359282 0 0.29586024325518351 -0.3780896277203305 0 0.30561212961225293 -0.3549974261390319 0 0.29029346156071401 -0.36111430088493518 0 0.29586024325518351 -0.3780896277203305 0 0.30561212961225293 -0.3549974261390319 0 0.29586024325518351 -0.3780896277203305 0 0.30991970831166571 -0.37081026414458501 0 0.30561212961225293 -0.3549974261390319 0 0.31617737712704458 -0.35195087172687389 0 0.31536401596932251 -0.33190522455773341 0 0.30561212961225293 -0.3549974261390319 0 0.31617737712704458 -0.35195087172687389 0 0.30991970831166571 -0.37081026414458501 0 0.30561212961225293 -0.3549974261390319 0 0.30083383231846461 -0.33980607961132592 0 0.30561212961225293 -0.3549974261390319 0 0.29078914389654531 -0.34592920899529911 0 0.29078914389654531 -0.34592920899529911 0 0.29029346156071401 -0.36111430088493518 0 0.27657155518813409 -0.35490816071985681 0 0.30561212961225293 -0.3549974261390319 0 0.29078914389654531 -0.34592920899529911 0 0.29029346156071401 -0.36111430088493518 0 0.29586024325518351 -0.3780896277203305 0 0.29029346156071401 -0.36111430088493518 0 0.27999137035426569 -0.37109643547666271 0 0.29029346156071401 -0.36111430088493518 0 0.27999137035426569 -0.37109643547666271 0 0.27657155518813409 -0.35490816071985681 0 0.27999137035426569 -0.37109643547666271 0 0.27657155518813409 -0.35490816071985681 0 0.26557175136759009 -0.36668629357517618 0 0.26984637489932439 -0.37982947266185668 0 0.27999137035426569 -0.37109643547666271 0 0.26557175136759009 -0.36668629357517618 0 0.27657155518813409 -0.35490816071985681 0 0.25327327554220291 -0.34805689210700852 0 0.27272696826161641 -0.3375989964823195 0 0.29078914389654531 -0.34592920899529911 0 0.27657155518813409 -0.35490816071985681 0 0.27272696826161641 -0.3375989964823195 0 0.27657155518813409 -0.35490816071985681 0 0.25327327554220291 -0.34805689210700852 0 0.26557175136759009 -0.36668629357517618 0 0.25327327554220291 -0.34805689210700852 0 0.26557175136759009 -0.36668629357517618 0 0.25174673940006792 -0.36750862839444798 0 0.25762254538930029 -0.37704746804297867 0 0.25174673940006792 -0.36750862839444798 0 0.2429041237822688 -0.37851861370108841 0 0.25762254538930029 -0.37704746804297867 0 0.26557175136759009 -0.36668629357517618 0 0.25174673940006792 -0.36750862839444798 0 0.26984637489932439 -0.37982947266185668 0 0.25762254538930029 -0.37704746804297867 0 0.26557175136759009 -0.36668629357517618 0 0.29157003979573831 -0.32639245875323808 0 0.26777606362215428 -0.32087969294874158 0 0.29157003979573831 -0.32639245875323808 0 0.26777606362215428 -0.32087969294874158 0 0.27272696826161641 -0.3375989964823195 0 0.25327327554220291 -0.34805689210700852 0 0.27272696826161641 -0.3375989964823195 0 0.25097045844197102 -0.3309697863632427 0 0.26777606362215428 -0.32087969294874158 0 0.27272696826161641 -0.3375989964823195 0 0.25097045844197102 -0.3309697863632427 0 0.26777606362215428 -0.32087969294874158 0 0.26753725296933029 -0.30303095497352928 0 0.24398208744857039 -0.31536692714424519 0 0.26777606362215428 -0.32087969294874158 0 0.25097045844197102 -0.3309697863632427 0 0.24398208744857039 -0.31536692714424519 0 0.26777606362215428 -0.32087969294874158 0 0.24398208744857039 -0.31536692714424519 0 0.25425683663126081 -0.29004928035117289 0 0.26753725296933029 -0.30303095497352928 0 0.24398208744857039 -0.31536692714424519 0 0.25425683663126081 -0.29004928035117289 0 0.26753725296933029 -0.30303095497352928 0 0.27015559958180269 -0.28021469338577648 0 0.26753725296933029 -0.30303095497352928 0 0.28569069059679952 -0.29396484704810832 0 0.27015559958180269 -0.28021469338577648 0 0.26777606362215428 -0.32087969294874158 0 0.26753725296933029 -0.30303095497352928 0 0.28596238614344771 -0.31015327119359282 0 0.26753725296933029 -0.30303095497352928 0 0.28596238614344771 -0.31015327119359282 0 0.28569069059679952 -0.29396484704810832 0 0.28596238614344771 -0.31015327119359282 0 0.28569069059679952 -0.29396484704810832 0 0.3026253948665979 -0.29973001909052932 0 0.28569069059679952 -0.29396484704810832 0 0.28979774267923952 -0.27776071526890761 0 0.27015559958180269 -0.28021469338577648 0 0.28569069059679952 -0.29396484704810832 0 0.29896421216139729 -0.28692296980983101 0 0.3026253948665979 -0.29973001909052932 0 0.28569069059679952 -0.29396484704810832 0 0.29896421216139729 -0.28692296980983101 0 0.28979774267923952 -0.27776071526890761 0 0.32060333182329698 -0.30547278212329337 0 0.31273491517594959 -0.28535147574592579 0 0.3026253948665979 -0.29973001909052932 0 0.31273491517594959 -0.28535147574592579 0 0.29896421216139729 -0.28692296980983101 0 0.30397231748840031 -0.27780779189568378 0 0.31273491517594959 -0.28535147574592579 0 0.29896421216139729 -0.28692296980983101 0 0.3026253948665979 -0.29973001909052932 0 0.30583399933886612 -0.31620600039178531 0 0.28596238614344771 -0.31015327119359282 0 0.3026253948665979 -0.29973001909052932 0 0.32060333182329698 -0.30547278212329337 0 0.30583399933886612 -0.31620600039178531 0 0.3026253948665979 -0.29973001909052932 0 0.32467241524937912 -0.26274228959425677 0 0.31227764954635462 -0.25327102046308481 0 0.29995504542999007 -0.26283598693345578 0 0.289954177650182 -0.24849940719596311 0 0.31227764954635462 -0.25327102046308481 0 0.29995504542999007 -0.26283598693345578 0 0.32467241524937912 -0.26274228959425677 0 0.29995504542999007 -0.26283598693345578 0 0.31538970550446982 -0.27313647176473671 0 0.29995504542999007 -0.26283598693345578 0 0.30397231748840031 -0.27780779189568378 0 0.31273491517594959 -0.28535147574592579 0 0.31538970550446982 -0.27313647176473671 0 0.30397231748840031 -0.27780779189568378 0 0.29896421216139729 -0.28692296980983101 0 0.30397231748840031 -0.27780779189568378 0 0.28979774267923952 -0.27776071526890761 0 0.29995504542999007 -0.26283598693345578 0 0.30397231748840031 -0.27780779189568378 0 0.28979774267923952 -0.27776071526890761 0 0.29995504542999007 -0.26283598693345578 0 0.28979774267923952 -0.27776071526890761 0 0.27523767561060108 -0.26292968427265512 0 0.29995504542999007 -0.26283598693345578 0 0.27523767561060108 -0.26292968427265512 0 0.289954177650182 -0.24849940719596311 0 0.29995504542999007 -0.26283598693345578 0 0.27523767561060108 -0.26292968427265512 0 0.289954177650182 -0.24849940719596311 0 0.26503799397225231 -0.24416265096041301 0 0.27523767561060108 -0.26292968427265512 0 0.28979774267923952 -0.27776071526890761 0 0.27523767561060108 -0.26292968427265512 0 0.27015559958180269 -0.28021469338577648 0 0.25425683663126081 -0.29004928035117289 0 0.27015559958180269 -0.28021469338577648 0 0.25052030579121198 -0.26302338161185418 0 0.27523767561060108 -0.26292968427265512 0 0.27015559958180269 -0.28021469338577648 0 0.25052030579121198 -0.26302338161185418 0 0.26503799397225231 -0.24416265096041301 0 0.27523767561060108 -0.26292968427265512 0 0.25052030579121198 -0.26302338161185418 0 0.26503799397225231 -0.24416265096041301 0 0.25052030579121198 -0.26302338161185418 0 0.24593773647071951 -0.24899878885736021 0 0.27523767561060108 -0.26292968427265512 0 0.25052030579121198 -0.26302338161185418 0 0.25052030579121198 -0.26302338161185418 0 0.22580293597182299 -0.26311707895105479 0 0.22580293597182299 -0.26311707895105479 0 0.237311055005646 -0.24290651797302651 0 0.24593773647071951 -0.24899878885736021 0 0.25052030579121198 -0.26302338161185418 0 0.22580293597182299 -0.26311707895105479 0 0.24593773647071951 -0.24899878885736021 0 0.25425683663126081 -0.29004928035117289 0 0.25052030579121198 -0.26302338161185418 0 0.23831521696513741 -0.28006464606720038 0 0.25052030579121198 -0.26302338161185418 0 0.23831521696513741 -0.28006464606720038 0 0.22580293597182299 -0.26311707895105479 0 0.22580293597182299 -0.26311707895105479 0 0.20757047269696871 -0.27776493171254552 0 0.22299552362340511 -0.2864856201454008 0 0.23831521696513741 -0.28006464606720038 0 0.22580293597182299 -0.26311707895105479 0 0.22299552362340511 -0.2864856201454008 0 0.22580293597182299 -0.26311707895105479 0 0.22299552362340511 -0.2864856201454008 0 0.22580293597182299 -0.26311707895105479 0 0.22893859532102681 -0.23701625171967541 0 0.22580293597182299 -0.26311707895105479 0 0.20381785053999779 -0.26320041888657569 0 0.22580293597182299 -0.26311707895105479 0 0.20381785053999779 -0.26320041888657569 0 0.21006609087306391 -0.24615974969517859 0 0.22580293597182299 -0.26311707895105479 0 0.20381785053999779 -0.26320041888657569 0 0.20757047269696871 -0.27776493171254552 0 0.20757047269696871 -0.27776493171254552 0 0.19278074819447991 -0.27136936691753472 0 0.19186015530472789 -0.2915511944982449 0 0.19278074819447991 -0.27136936691753472 0 0.19186015530472789 -0.2915511944982449 0 0.17973335965299969 -0.27221333951941112 0 0.20381785053999779 -0.26320041888657569 0 0.19278074819447991 -0.27136936691753472 0 0.18183276510817281 -0.26328375882209798 0 0.20381785053999779 -0.26320041888657569 0 0.20757047269696871 -0.27776493171254552 0 0.19278074819447991 -0.27136936691753472 0 0.20381785053999779 -0.26320041888657569 0 0.19379555089723269 -0.25427210553970042 0 0.21006609087306391 -0.24615974969517859 0 0.20381785053999779 -0.26320041888657569 0 0.19379555089723269 -0.25427210553970042 0 0.18183276510817281 -0.26328375882209798 0 0.20381785053999779 -0.26320041888657569 0 0.18183276510817281 -0.26328375882209798 0 0.19600010040047189 -0.30719640412230881 0 0.19186015530472789 -0.2915511944982449 0 0.2121758561484379 -0.30770301596467209 0 0.19600010040047189 -0.30719640412230881 0 0.19186015530472789 -0.2915511944982449 0 0.183158821503003 -0.30235372606865052 0 0.19186015530472789 -0.2915511944982449 0 0.2121758561484379 -0.30770301596467209 0 0.20757047269696871 -0.27776493171254552 0 0.19186015530472789 -0.2915511944982449 0 0.20816562254737861 -0.29086591087646202 0 0.19186015530472789 -0.2915511944982449 0 0.20816562254737861 -0.29086591087646202 0 0.2121758561484379 -0.30770301596467209 0 0.20816562254737861 -0.29086591087646202 0 0.2121758561484379 -0.30770301596467209 0 0.22299552362340511 -0.2864856201454008 0 0.20757047269696871 -0.27776493171254552 0 0.20816562254737861 -0.29086591087646202 0 0.22299552362340511 -0.2864856201454008 0 0.19600010040047189 -0.30719640412230881 0 0.2121758561484379 -0.30770301596467209 0 0.20652021595667411 -0.31480495221303972 0 0.2121758561484379 -0.30770301596467209 0 0.2201881112749868 -0.30985416133974653 0 0.22299552362340511 -0.2864856201454008 0 0.2121758561484379 -0.30770301596467209 0 0.20652021595667411 -0.31480495221303972 0 0.2134960451183078 -0.31419525031584 0 0.2121758561484379 -0.30770301596467209 0 0.2201881112749868 -0.30985416133974653 0 0.2134960451183078 -0.31419525031584 0 0.2201881112749868 -0.30985416133974653 0 0.22299552362340511 -0.2864856201454008 0 0.23653410593704741 -0.2967309105144007 0 0.2201881112749868 -0.30985416133974653 0 0.22299552362340511 -0.2864856201454008 0 0.2201881112749868 -0.30985416133974653 0 0.23653410593704741 -0.2967309105144007 0 0.24398208744857039 -0.31536692714424519 0 0.23831521696513741 -0.28006464606720038 0 0.22299552362340511 -0.2864856201454008 0 0.23653410593704741 -0.2967309105144007 0 0.25425683663126081 -0.29004928035117289 0 0.23831521696513741 -0.28006464606720038 0 0.23653410593704741 -0.2967309105144007 0 0.25425683663126081 -0.29004928035117289 0 0.23653410593704741 -0.2967309105144007 0 0.24398208744857039 -0.31536692714424519 0 0.25097045844197102 -0.3309697863632427 0 0.24398208744857039 -0.31536692714424519 0 0.233144863620874 -0.33204060577965688 0 0.25327327554220291 -0.34805689210700852 0 0.25097045844197102 -0.3309697863632427 0 0.233144863620874 -0.33204060577965688 0 0.233144863620874 -0.33204060577965688 0 0.22080857963223341 -0.34538044680432811 0 0.23342663447785719 -0.35192470959936012 0 0.233144863620874 -0.33204060577965688 0 0.21930219457820149 -0.33157036988584399 0 0.22080857963223341 -0.34538044680432811 0 0.24398208744857039 -0.31536692714424519 0 0.233144863620874 -0.33204060577965688 0 0.21922939610042921 -0.31783438379011919 0 0.2201881112749868 -0.30985416133974653 0 0.24398208744857039 -0.31536692714424519 0 0.21922939610042921 -0.31783438379011919 0 0.2201881112749868 -0.30985416133974653 0 0.24398208744857039 -0.31536692714424519 0 0.233144863620874 -0.33204060577965688 0 0.21930219457820149 -0.33157036988584399 0 0.21922939610042921 -0.31783438379011919 0 0.2201881112749868 -0.30985416133974653 0 0.21922939610042921 -0.31783438379011919 0 0.23592721769545119 -0.37376605786317713 0 0.2383816674433917 -0.36583048080439778 0 0.2290911390116234 -0.37558380891328641 0 0.23592721769545119 -0.37376605786317713 0 0.2383816674433917 -0.36583048080439778 0 0.2429041237822688 -0.37851861370108841 0 0.25174673940006792 -0.36750862839444798 0 0.2383816674433917 -0.36583048080439778 0 0.2429041237822688 -0.37851861370108841 0 0.25174673940006792 -0.36750862839444798 0 0.2383816674433917 -0.36583048080439778 0 0.24420707921587989 -0.3583301777263036 0 0.25327327554220291 -0.34805689210700852 0 0.24420707921587989 -0.3583301777263036 0 0.23342663447785719 -0.35192470959936012 0 0.25327327554220291 -0.34805689210700852 0 0.25174673940006792 -0.36750862839444798 0 0.24420707921587989 -0.3583301777263036 0 0.25327327554220291 -0.34805689210700852 0 0.233144863620874 -0.33204060577965688 0 0.23342663447785719 -0.35192470959936012 0 0.2383816674433917 -0.36583048080439778 0 0.24420707921587989 -0.3583301777263036 0 0.23342663447785719 -0.35192470959936012 0 0.22080857963223341 -0.34538044680432811 0 0.23342663447785719 -0.35192470959936012 0 0.22155032003018221 -0.36219556078724918 0 0.2383816674433917 -0.36583048080439778 0 0.23342663447785719 -0.35192470959936012 0 0.2290911390116234 -0.37558380891328641 0 0.23342663447785719 -0.35192470959936012 0 0.2290911390116234 -0.37558380891328641 0 0.23342663447785719 -0.35192470959936012 0 0.22155032003018221 -0.36219556078724918 0 0.2290911390116234 -0.37558380891328641 0 0.2209203454311523 -0.3725238494343317 0 0.2276258221479745 -0.37620781452930968 0 0.2290911390116234 -0.37558380891328641 0 0.22155032003018221 -0.36219556078724918 0 0.2209203454311523 -0.3725238494343317 0 0.2290911390116234 -0.37558380891328641 0 0.2090621208775543 -0.37140049679849002 0 0.2078112580782831 -0.35551234967826062 0 0.19854680035505459 -0.36387570147481108 0 0.22155032003018221 -0.36219556078724918 0 0.2090621208775543 -0.37140049679849002 0 0.2078112580782831 -0.35551234967826062 0 0.2209203454311523 -0.3725238494343317 0 0.2090621208775543 -0.37140049679849002 0 0.21727232508842709 -0.37723156614332309 0 0.22155032003018221 -0.36219556078724918 0 0.2209203454311523 -0.3725238494343317 0 0.2090621208775543 -0.37140049679849002 0 0.22080857963223341 -0.34538044680432811 0 0.2078112580782831 -0.35551234967826062 0 0.20961620700800229 -0.33903908509559832 0 0.22080857963223341 -0.34538044680432811 0 0.22155032003018221 -0.36219556078724918 0 0.2078112580782831 -0.35551234967826062 0 0.2078112580782831 -0.35551234967826062 0 0.18821047870952129 -0.35330055833895829 0 0.20961620700800229 -0.33903908509559832 0 0.2078112580782831 -0.35551234967826062 0 0.18821047870952129 -0.35330055833895829 0 0.19854680035505459 -0.36387570147481108 0 0.18821047870952129 -0.35330055833895829 0 0.20961620700800229 -0.33903908509559832 0 0.2090621208775543 -0.37140049679849002 0 0.19005466159289369 -0.37393777884123047 0 0.19854680035505459 -0.36387570147481108 0 0.18821047870952129 -0.35330055833895829 0 0.19005466159289369 -0.37393777884123047 0 0.19854680035505459 -0.36387570147481108 0 0.20652021595667411 -0.31480495221303972 0 0.2134960451183078 -0.31419525031584 0 0.21154854471087911 -0.32314906424137058 0 0.20652021595667411 -0.31480495221303972 0 0.21154854471087911 -0.32314906424137058 0 0.19962862614162069 -0.32280710817167962 0 0.21922939610042921 -0.31783438379011919 0 0.2134960451183078 -0.31419525031584 0 0.21154854471087911 -0.32314906424137058 0 0.2201881112749868 -0.30985416133974653 0 0.21922939610042921 -0.31783438379011919 0 0.2134960451183078 -0.31419525031584 0 0.21930219457820149 -0.33157036988584399 0 0.21922939610042921 -0.31783438379011919 0 0.21154854471087911 -0.32314906424137058 0 0.21154854471087911 -0.32314906424137058 0 0.20961620700800229 -0.33903908509559832 0 0.19962862614162069 -0.32280710817167962 0 0.21930219457820149 -0.33157036988584399 0 0.21154854471087911 -0.32314906424137058 0 0.20961620700800229 -0.33903908509559832 0 0.21930219457820149 -0.33157036988584399 0 0.22080857963223341 -0.34538044680432811 0 0.20961620700800229 -0.33903908509559832 0 0.20961620700800229 -0.33903908509559832 0 0.19142014570814531 -0.33513141105045469 0 0.19962862614162069 -0.32280710817167962 0 0.18821047870952129 -0.35330055833895829 0 0.20961620700800229 -0.33903908509559832 0 0.19142014570814531 -0.33513141105045469 0 0.19142014570814531 -0.33513141105045469 0 0.19962862614162069 -0.32280710817167962 0 0.18261787701062621 -0.31858031049336188 0 0.19600010040047189 -0.30719640412230881 0 0.19962862614162069 -0.32280710817167962 0 0.18261787701062621 -0.31858031049336188 0 0.19600010040047189 -0.30719640412230881 0 0.20652021595667411 -0.31480495221303972 0 0.19962862614162069 -0.32280710817167962 0 0.18261787701062621 -0.31858031049336188 0 0.1741974940309311 -0.33968639921098609 0 0.161944671038001 -0.31950677963823348 0 0.18821047870952129 -0.35330055833895829 0 0.19142014570814531 -0.33513141105045469 0 0.1741974940309311 -0.33968639921098609 0 0.19142014570814531 -0.33513141105045469 0 0.18261787701062621 -0.31858031049336188 0 0.1741974940309311 -0.33968639921098609 0 0.1741974940309311 -0.33968639921098609 0 0.161944671038001 -0.31950677963823348 0 0.1527720184882424 -0.3429155071917479 0 0.18261787701062621 -0.31858031049336188 0 0.161944671038001 -0.31950677963823348 0 0.16948541942624371 -0.30218383015687139 0 0.18821047870952129 -0.35330055833895829 0 0.19005466159289369 -0.37393777884123047 0 0.1668047504110384 -0.36756203158231582 0 0.18821047870952129 -0.35330055833895829 0 0.1668047504110384 -0.36756203158231582 0 0.18821047870952129 -0.35330055833895829 0 0.1741974940309311 -0.33968639921098609 0 0.1668047504110384 -0.36756203158231582 0 0.1741974940309311 -0.33968639921098609 0 0.1668047504110384 -0.36756203158231582 0 0.1527720184882424 -0.3429155071917479 0 0.1668047504110384 -0.36756203158231582 0 0.1527720184882424 -0.3429155071917479 0 0.1668047504110384 -0.36756203158231582 0 0.15016040097888431 -0.37865125689480977 0 0.1668047504110384 -0.36756203158231582 0 0.14798511620210689 -0.3605289789624983 0 0.15016040097888431 -0.37865125689480977 0 0.14798511620210689 -0.3605289789624983 0 0.13240322570731711 -0.37003442529207242 0 0.15016040097888431 -0.37865125689480977 0 0.1668047504110384 -0.36756203158231582 0 0.14798511620210689 -0.3605289789624983 0 0.1527720184882424 -0.3429155071917479 0 0.14798511620210689 -0.3605289789624983 0 0.1527720184882424 -0.3429155071917479 0 0.13427159898292429 -0.34207260640439968 0 0.13240322570731711 -0.37003442529207242 0 0.13427159898292429 -0.34207260640439968 0 0.11976416236354551 -0.3551758041798404 0 0.14798511620210689 -0.3605289789624983 0 0.13240322570731711 -0.37003442529207242 0 0.13427159898292429 -0.34207260640439968 0 0.161944671038001 -0.31950677963823348 0 0.13873928656544651 -0.31826898280117982 0 0.15386887602065641 -0.30245138022476248 0 0.161944671038001 -0.31950677963823348 0 0.1527720184882424 -0.3429155071917479 0 0.13873928656544651 -0.31826898280117982 0 0.1527720184882424 -0.3429155071917479 0 0.13873928656544651 -0.31826898280117982 0 0.1527720184882424 -0.3429155071917479 0 0.13427159898292429 -0.34207260640439968 0 0.13873928656544651 -0.31826898280117982 0 0.13427159898292429 -0.34207260640439968 0 0.13873928656544651 -0.31826898280117982 0 0.11802514066771549 -0.33168998595812188 0 0.13873928656544651 -0.31826898280117982 0 0.1239183229528943 -0.31063788990941937 0 0.11802514066771549 -0.33168998595812188 0 0.13873928656544651 -0.31826898280117982 0 0.12470655464265119 -0.29362245841061141 0 0.13873928656544651 -0.31826898280117982 0 0.12470655464265119 -0.29362245841061141 0 0.1239183229528943 -0.31063788990941937 0 0.13873928656544651 -0.31826898280117982 0 0.14094110319267331 -0.30069726110581918 0 0.12470655464265119 -0.29362245841061141 0 0.13873928656544651 -0.31826898280117982 0 0.14094110319267331 -0.30069726110581918 0 0.15386887602065641 -0.30245138022476248 0 0.14094110319267331 -0.30069726110581918 0 0.15386887602065641 -0.30245138022476248 0 0.1481255045518346 -0.28451091572121689 0 0.15386887602065641 -0.30245138022476248 0 0.1481255045518346 -0.28451091572121689 0 0.16397727134973911 -0.28954051192525437 0 0.1481255045518346 -0.28451091572121689 0 0.1316679908100386 -0.27940250192532728 0 0.12470655464265119 -0.29362245841061141 0 0.1481255045518346 -0.28451091572121689 0 0.12470655464265119 -0.29362245841061141 0 0.14094110319267331 -0.30069726110581918 0 0.1481255045518346 -0.28451091572121689 0 0.12470655464265119 -0.29362245841061141 0 0.1316679908100386 -0.27940250192532728 0 0.1233724359099948 -0.29127926607534749 0 0.1316679908100386 -0.27940250192532728 0 0.12470655464265119 -0.29362245841061141 0 0.1233724359099948 -0.29127926607534749 0 0.1481255045518346 -0.28451091572121689 0 0.1316679908100386 -0.27940250192532728 0 0.1395180260887354 -0.27431461648392458 0 0.1293844639767889 -0.26841340011125497 0 0.13910130574654661 -0.26633338687929597 0 0.1395180260887354 -0.27431461648392458 0 0.1316679908100386 -0.27940250192532728 0 0.1293844639767889 -0.26841340011125497 0 0.1395180260887354 -0.27431461648392458 0 0.1293844639767889 -0.26841340011125497 0 0.13910130574654661 -0.26633338687929597 0 0.12781738792472361 -0.25630073961036098 0 0.13910130574654661 -0.26633338687929597 0 0.12781738792472361 -0.25630073961036098 0 0.14201429185693151 -0.26007451340817322 0 0.12781738792472361 -0.25630073961036098 0 0.13962150948789279 -0.25001931295635449 0 0.14201429185693151 -0.26007451340817322 0 0.13962150948789279 -0.25001931295635449 0 0.15558298197445539 -0.2627093429940861 0 0.15148798434260941 -0.25187825785796969 0 0.13962150948789279 -0.25001931295635449 0 0.15558298197445539 -0.2627093429940861 0 0.13962150948789279 -0.25001931295635449 0 0.14201429185693151 -0.26007451340817322 0 0.15558298197445539 -0.2627093429940861 0 0.13910130574654661 -0.26633338687929597 0 0.14201429185693151 -0.26007451340817322 0 0.1479482741510392 -0.26500978460076807 0 0.14201429185693151 -0.26007451340817322 0 0.1479482741510392 -0.26500978460076807 0 0.15558298197445539 -0.2627093429940861 0 0.1479482741510392 -0.26500978460076807 0 0.15558298197445539 -0.2627093429940861 0 0.15314106428909419 -0.2683131335093103 0 0.15558298197445539 -0.2627093429940861 0 0.15148798434260941 -0.25187825785796969 0 0.15870206335437531 -0.25664053318994112 0 0.1481255045518346 -0.28451091572121689 0 0.1395180260887354 -0.27431461648392458 0 0.14954830925738211 -0.27282135824460979 0 0.13910130574654661 -0.26633338687929597 0 0.1479482741510392 -0.26500978460076807 0 0.14954830925738211 -0.27282135824460979 0 0.13910130574654661 -0.26633338687929597 0 0.1395180260887354 -0.27431461648392458 0 0.14954830925738211 -0.27282135824460979 0 0.14954830925738211 -0.27282135824460979 0 0.15314106428909419 -0.2683131335093103 0 0.15948469177350039 -0.27271204819777728 0 0.15558298197445539 -0.2627093429940861 0 0.15314106428909419 -0.2683131335093103 0 0.15948469177350039 -0.27271204819777728 0 0.1479482741510392 -0.26500978460076807 0 0.14954830925738211 -0.27282135824460979 0 0.15314106428909419 -0.2683131335093103 0 0.1481255045518346 -0.28451091572121689 0 0.14954830925738211 -0.27282135824460979 0 0.15948469177350039 -0.27271204819777728 0 0.1481255045518346 -0.28451091572121689 0 0.17154445446101679 -0.27539937303181922 0 0.17154445446101679 -0.27539937303181922 0 0.15984767967634761 -0.26336709875762032 0 0.18183276510817281 -0.26328375882209798 0 0.1481255045518346 -0.28451091572121689 0 0.15948469177350039 -0.27271204819777728 0 0.17154445446101679 -0.27539937303181922 0 0.15558298197445539 -0.2627093429940861 0 0.15948469177350039 -0.27271204819777728 0 0.17154445446101679 -0.27539937303181922 0 0.15558298197445539 -0.2627093429940861 0 0.17154445446101679 -0.27539937303181922 0 0.15558298197445539 -0.2627093429940861 0 0.17154445446101679 -0.27539937303181922 0 0.15984767967634761 -0.26336709875762032 0 0.15984767967634761 -0.26336709875762032 0 0.18183276510817281 -0.26328375882209798 0 0.15984767967634761 -0.26336709875762032 0 0.1664653244862713 -0.25744310427664019 0 0.18183276510817281 -0.26328375882209798 0 0.15148798434260941 -0.25187825785796969 0 0.16018855828932971 -0.2508071549327926 0 0.15870206335437531 -0.25664053318994112 0 0.16018855828932971 -0.2508071549327926 0 0.15870206335437531 -0.25664053318994112 0 0.1664653244862713 -0.25744310427664019 0 0.15870206335437531 -0.25664053318994112 0 0.15984767967634761 -0.26336709875762032 0 0.1664653244862713 -0.25744310427664019 0 0.15558298197445539 -0.2627093429940861 0 0.15870206335437531 -0.25664053318994112 0 0.15984767967634761 -0.26336709875762032 0 0.16018855828932971 -0.2508071549327926 0 0.17175555600313111 -0.25311697568074948 0 0.1664653244862713 -0.25744310427664019 0 0.17175555600313111 -0.25311697568074948 0 0.18183276510817281 -0.26328375882209798 0 0.18176942957851211 -0.2510096841395052 0 0.17175555600313111 -0.25311697568074948 0 0.1664653244862713 -0.25744310427664019 0 0.18183276510817281 -0.26328375882209798 0 0.19379555089723269 -0.25427210553970042 0 0.18183276510817281 -0.26328375882209798 0 0.18176942957851211 -0.2510096841395052 0 0.19186015530472789 -0.2915511944982449 0 0.17154445446101679 -0.27539937303181922 0 0.17973335965299969 -0.27221333951941112 0 0.17154445446101679 -0.27539937303181922 0 0.17973335965299969 -0.27221333951941112 0 0.17154445446101679 -0.27539937303181922 0 0.18183276510817281 -0.26328375882209798 0 0.17973335965299969 -0.27221333951941112 0 0.19278074819447991 -0.27136936691753472 0 0.18183276510817281 -0.26328375882209798 0 0.17973335965299969 -0.27221333951941112 0 0.19186015530472789 -0.2915511944982449 0 0.17583055537294559 -0.2922568910724655 0 0.183158821503003 -0.30235372606865052 0 0.19186015530472789 -0.2915511944982449 0 0.17154445446101679 -0.27539937303181922 0 0.17583055537294559 -0.2922568910724655 0 0.19186015530472789 -0.2915511944982449 0 0.17154445446101679 -0.27539937303181922 0 0.18261787701062621 -0.31858031049336188 0 0.183158821503003 -0.30235372606865052 0 0.16948541942624371 -0.30218383015687139 0 0.19600010040047189 -0.30719640412230881 0 0.18261787701062621 -0.31858031049336188 0 0.183158821503003 -0.30235372606865052 0 0.17583055537294559 -0.2922568910724655 0 0.183158821503003 -0.30235372606865052 0 0.16948541942624371 -0.30218383015687139 0 0.161944671038001 -0.31950677963823348 0 0.15386887602065641 -0.30245138022476248 0 0.16948541942624371 -0.30218383015687139 0 0.15386887602065641 -0.30245138022476248 0 0.16948541942624371 -0.30218383015687139 0 0.16397727134973911 -0.28954051192525437 0 0.17154445446101679 -0.27539937303181922 0 0.17583055537294559 -0.2922568910724655 0 0.16397727134973911 -0.28954051192525437 0 0.1481255045518346 -0.28451091572121689 0 0.17154445446101679 -0.27539937303181922 0 0.16397727134973911 -0.28954051192525437 0 0.17583055537294559 -0.2922568910724655 0 0.16948541942624371 -0.30218383015687139 0 0.16397727134973911 -0.28954051192525437 0 0.20449678435147711 -0.4965642165048344 0 0.18386851677182131 -0.49312843300966969 0 0.19813644393868721 -0.5 0 0.20449678435147711 -0.4965642165048344 0 0.18386851677182131 -0.49312843300966969 0 0.20003007592475541 -0.48439814271229409 0 0.20449678435147711 -0.4965642165048344 0 0.18386851677182131 -0.49312843300966969 0 0.20003007592475541 -0.48439814271229409 0 0.18386851677182131 -0.49312843300966969 0 0.20003007592475541 -0.48439814271229409 0 0.18809035345949471 -0.48196363930091812 0 0.18386851677182131 -0.49312843300966969 0 0.20003007592475541 -0.48439814271229409 0 0.192543617841337 -0.4708849416793004 0 0.21619163507768921 -0.47566785241491788 0 0.20003007592475541 -0.48439814271229409 0 0.18809035345949471 -0.48196363930091812 0 0.192543617841337 -0.4708849416793004 0 0.192543617841337 -0.4708849416793004 0 0.21619163507768921 -0.47566785241491788 0 0.192543617841337 -0.4708849416793004 0 0.21619163507768921 -0.47566785241491788 0 0.20483957727562499 -0.4642566340461094 0 0.20003007592475541 -0.48439814271229409 0 0.21619163507768921 -0.47566785241491788 0 0.2138189996444177 -0.48829804648972119 0 0.20003007592475541 -0.48439814271229409 0 0.21619163507768921 -0.47566785241491788 0 0.21619163507768921 -0.47566785241491788 0 0.2138189996444177 -0.48829804648972119 0 0.22373955003900939 -0.48788423597159752 0 0.20449678435147711 -0.4965642165048344 0 0.22512505193113261 -0.50000000000000011 0 0.2138189996444177 -0.48829804648972119 0 0.20449678435147711 -0.4965642165048344 0 0.22512505193113261 -0.50000000000000011 0 0.19813644393868721 -0.5 0 0.20449678435147711 -0.4965642165048344 0 0.22512505193113261 -0.50000000000000011 0 0.20003007592475541 -0.48439814271229409 0 0.2138189996444177 -0.48829804648972119 0 0.20449678435147711 -0.4965642165048344 0 0.2138189996444177 -0.48829804648972119 0 0.22512505193113261 -0.50000000000000011 0 0.22373955003900939 -0.48788423597159752 0 0.22373955003900939 -0.48788423597159752 0 0.2329091832564483 -0.491268231669718 0 0.2292256936817669 -0.48428292744066592 0 0.2329091832564483 -0.491268231669718 0 0.23544141850954239 -0.48636498770840919 0 0.2292256936817669 -0.48428292744066592 0 0.22512505193113261 -0.50000000000000011 0 0.22373955003900939 -0.48788423597159752 0 0.2329091832564483 -0.491268231669718 0 0.25053490694631031 -0.5 0 0.22512505193113261 -0.50000000000000011 0 0.2329091832564483 -0.491268231669718 0 0.25646778227897887 -0.49015285543631321 0 0.242639994503485 -0.48960308085062543 0 0.23707457549866301 -0.47989151475973402 0 0.25053490694631031 -0.5 0 0.2329091832564483 -0.491268231669718 0 0.242639994503485 -0.48960308085062543 0 0.25646778227897887 -0.49015285543631321 0 0.23707457549866301 -0.47989151475973402 0 0.23544141850954239 -0.48636498770840919 0 0.242639994503485 -0.48960308085062543 0 0.23707457549866301 -0.47989151475973402 0 0.2329091832564483 -0.491268231669718 0 0.23544141850954239 -0.48636498770840919 0 0.242639994503485 -0.48960308085062543 0 0.25053490694631031 -0.5 0 0.25646778227897887 -0.49015285543631321 0 0.242639994503485 -0.48960308085062543 0 0.25646778227897887 -0.49015285543631321 0 0.2402525919843049 -0.48053428193193393 0 0.23707457549866301 -0.47989151475973402 0 0.2486107905310152 -0.47178281681740752 0 0.2402525919843049 -0.48053428193193393 0 0.23027346575405791 -0.46806100776831822 0 0.2402525919843049 -0.48053428193193393 0 0.23707457549866301 -0.47989151475973402 0 0.2402525919843049 -0.48053428193193393 0 0.23707457549866301 -0.47989151475973402 0 0.23027346575405791 -0.46806100776831822 0 0.21619163507768921 -0.47566785241491788 0 0.23707457549866301 -0.47989151475973402 0 0.21619163507768921 -0.47566785241491788 0 0.23707457549866301 -0.47989151475973402 0 0.2292256936817669 -0.48428292744066592 0 0.21619163507768921 -0.47566785241491788 0 0.23707457549866301 -0.47989151475973402 0 0.23027346575405791 -0.46806100776831822 0 0.23544141850954239 -0.48636498770840919 0 0.23707457549866301 -0.47989151475973402 0 0.2292256936817669 -0.48428292744066592 0 0.21619163507768921 -0.47566785241491788 0 0.22373955003900939 -0.48788423597159752 0 0.2292256936817669 -0.48428292744066592 0 0.21619163507768921 -0.47566785241491788 0 0.23027346575405791 -0.46806100776831822 0 0.23027346575405791 -0.46806100776831822 0 0.232815183544791 -0.4476740532133715 0 0.21437356296128959 -0.4558986417039177 0 0.21619163507768921 -0.47566785241491788 0 0.23027346575405791 -0.46806100776831822 0 0.21437356296128959 -0.4558986417039177 0 0.2486107905310152 -0.47178281681740752 0 0.23027346575405791 -0.46806100776831822 0 0.2443552964304268 -0.4604541631217185 0 0.23027346575405791 -0.46806100776831822 0 0.2443552964304268 -0.4604541631217185 0 0.232815183544791 -0.4476740532133715 0 0.23027346575405791 -0.46806100776831822 0 0.2443552964304268 -0.4604541631217185 0 0.24798438914587709 -0.44471697301363439 0 0.232815183544791 -0.4476740532133715 0 0.23994896094300369 -0.42978424020975747 0 0.2443552964304268 -0.4604541631217185 0 0.24798438914587709 -0.44471697301363439 0 0.232815183544791 -0.4476740532133715 0 0.232815183544791 -0.4476740532133715 0 0.21437356296128959 -0.4558986417039177 0 0.2195646032533396 -0.42757077496556511 0 0.20655063140021851 -0.44044683949281488 0 0.21437356296128959 -0.4558986417039177 0 0.19624949322218441 -0.45457510038630139 0 0.21437356296128959 -0.4558986417039177 0 0.2195646032533396 -0.42757077496556511 0 0.20655063140021851 -0.44044683949281488 0 0.21437356296128959 -0.4558986417039177 0 0.2195646032533396 -0.42757077496556511 0 0.21619163507768921 -0.47566785241491788 0 0.21437356296128959 -0.4558986417039177 0 0.20483957727562499 -0.4642566340461094 0 0.21437356296128959 -0.4558986417039177 0 0.20483957727562499 -0.4642566340461094 0 0.19624949322218441 -0.45457510038630139 0 0.192543617841337 -0.4708849416793004 0 0.20483957727562499 -0.4642566340461094 0 0.19624949322218441 -0.45457510038630139 0 0.192543617841337 -0.4708849416793004 0 0.19624949322218441 -0.45457510038630139 0 0.18245623984740211 -0.46549843307486372 0 0.19624949322218441 -0.45457510038630139 0 0.19333347743758891 -0.43227679542891079 0 0.18117015172762169 -0.45033249680461868 0 0.20655063140021851 -0.44044683949281488 0 0.19624949322218441 -0.45457510038630139 0 0.19333347743758891 -0.43227679542891079 0 0.19333347743758891 -0.43227679542891079 0 0.1921326471908387 -0.40911886655889829 0 0.20905925737184081 -0.40894646733094892 0 0.20905925737184081 -0.40894646733094892 0 0.2195646032533396 -0.42757077496556511 0 0.2247556435453914 -0.39924290822721298 0 0.20655063140021851 -0.44044683949281488 0 0.19333347743758891 -0.43227679542891079 0 0.2195646032533396 -0.42757077496556511 0 0.19333347743758891 -0.43227679542891079 0 0.20905925737184081 -0.40894646733094892 0 0.2195646032533396 -0.42757077496556511 0 0.232815183544791 -0.4476740532133715 0 0.2195646032533396 -0.42757077496556511 0 0.23994896094300369 -0.42978424020975747 0 0.2195646032533396 -0.42757077496556511 0 0.23994896094300369 -0.42978424020975747 0 0.23139537432509491 -0.41509918786818839 0 0.25532234801786119 -0.43168975851388652 0 0.23994896094300369 -0.42978424020975747 0 0.24852229779328019 -0.41657435612796578 0 0.25532234801786119 -0.43168975851388652 0 0.24798438914587709 -0.44471697301363439 0 0.23994896094300369 -0.42978424020975747 0 0.23994896094300369 -0.42978424020975747 0 0.24852229779328019 -0.41657435612796578 0 0.23139537432509491 -0.41509918786818839 0 0.24852229779328019 -0.41657435612796578 0 0.2247556435453914 -0.39924290822721298 0 0.24852229779328019 -0.41657435612796578 0 0.23139537432509491 -0.41509918786818839 0 0.2247556435453914 -0.39924290822721298 0 0.2195646032533396 -0.42757077496556511 0 0.23139537432509491 -0.41509918786818839 0 0.2247556435453914 -0.39924290822721298 0 0.2195646032533396 -0.42757077496556511 0 0.2247556435453914 -0.39924290822721298 0 0.2247556435453914 -0.39924290822721298 0 0.24091674274322669 -0.39742841877507118 0 0.22997911809638519 -0.38420683446301929 0 0.25804373749725018 -0.39269433188232461 0 0.24852229779328019 -0.41657435612796578 0 0.24091674274322669 -0.39742841877507118 0 0.24852229779328019 -0.41657435612796578 0 0.2247556435453914 -0.39924290822721298 0 0.24091674274322669 -0.39742841877507118 0 0.25804373749725018 -0.39269433188232461 0 0.24091674274322669 -0.39742841877507118 0 0.22997911809638519 -0.38420683446301929 0 0.25804373749725018 -0.39269433188232461 0 0.22997911809638519 -0.38420683446301929 0 0.25804373749725018 -0.39269433188232461 0 0.2429041237822688 -0.37851861370108841 0 0.22997911809638519 -0.38420683446301929 0 0.2429041237822688 -0.37851861370108841 0 0.23432087814617381 -0.37762862593768243 0 0.22997911809638519 -0.38420683446301929 0 0.23592721769545119 -0.37376605786317713 0 0.2429041237822688 -0.37851861370108841 0 0.23432087814617381 -0.37762862593768243 0 0.2247556435453914 -0.39924290822721298 0 0.2276258221479745 -0.37620781452930968 0 0.21245626696483261 -0.39027378694516762 0 0.2247556435453914 -0.39924290822721298 0 0.2290911390116234 -0.37558380891328641 0 0.23432087814617381 -0.37762862593768243 0 0.2290911390116234 -0.37558380891328641 0 0.22997911809638519 -0.38420683446301929 0 0.2247556435453914 -0.39924290822721298 0 0.2276258221479745 -0.37620781452930968 0 0.2290911390116234 -0.37558380891328641 0 0.2247556435453914 -0.39924290822721298 0 0.2290911390116234 -0.37558380891328641 0 0.22997911809638519 -0.38420683446301929 0 0.23592721769545119 -0.37376605786317713 0 0.23432087814617381 -0.37762862593768243 0 0.2290911390116234 -0.37558380891328641 0 0.2276258221479745 -0.37620781452930968 0 0.21245626696483261 -0.39027378694516762 0 0.2209203454311523 -0.3725238494343317 0 0.2276258221479745 -0.37620781452930968 0 0.21727232508842709 -0.37723156614332309 0 0.2276258221479745 -0.37620781452930968 0 0.21727232508842709 -0.37723156614332309 0 0.21245626696483261 -0.39027378694516762 0 0.2090621208775543 -0.37140049679849002 0 0.19005466159289369 -0.37393777884123047 0 0.21245626696483261 -0.39027378694516762 0 0.2090621208775543 -0.37140049679849002 0 0.21727232508842709 -0.37723156614332309 0 0.21245626696483261 -0.39027378694516762 0 0.20905925737184081 -0.40894646733094892 0 0.2247556435453914 -0.39924290822721298 0 0.21245626696483261 -0.39027378694516762 0 0.2247556435453914 -0.39924290822721298 0 0.21245626696483261 -0.39027378694516762 0 0.1921326471908387 -0.40911886655889829 0 0.20905925737184081 -0.40894646733094892 0 0.21245626696483261 -0.39027378694516762 0 0.1921326471908387 -0.40911886655889829 0 0.21245626696483261 -0.39027378694516762 0 0.19353928934255149 -0.39129887019529869 0 0.1921326471908387 -0.40911886655889829 0 0.21245626696483261 -0.39027378694516762 0 0.19005466159289369 -0.37393777884123047 0 0.21245626696483261 -0.39027378694516762 0 0.19005466159289369 -0.37393777884123047 0 0.21245626696483261 -0.39027378694516762 0 0.19353928934255149 -0.39129887019529869 0 0.19005466159289369 -0.37393777884123047 0 0.19353928934255149 -0.39129887019529869 0 0.1779472081530859 -0.3871321949703968 0 0.1668047504110384 -0.36756203158231582 0 0.1779472081530859 -0.3871321949703968 0 0.19005466159289369 -0.37393777884123047 0 0.1668047504110384 -0.36756203158231582 0 0.1779472081530859 -0.3871321949703968 0 0.1921326471908387 -0.40911886655889829 0 0.19353928934255149 -0.39129887019529869 0 0.17436667993911709 -0.404281191460444 0 0.19353928934255149 -0.39129887019529869 0 0.1779472081530859 -0.3871321949703968 0 0.17436667993911709 -0.404281191460444 0 0.17436667993911709 -0.404281191460444 0 0.16300735765972901 -0.38925379214450412 0 0.1550003226864041 -0.40394022798492391 0 0.1779472081530859 -0.3871321949703968 0 0.17436667993911709 -0.404281191460444 0 0.16300735765972901 -0.38925379214450412 0 0.1668047504110384 -0.36756203158231582 0 0.1779472081530859 -0.3871321949703968 0 0.16300735765972901 -0.38925379214450412 0 0.1668047504110384 -0.36756203158231582 0 0.16300735765972901 -0.38925379214450412 0 0.15016040097888431 -0.37865125689480977 0 0.15016040097888431 -0.37865125689480977 0 0.13351605154672841 -0.38974048220730112 0 0.16300735765972901 -0.38925379214450412 0 0.15016040097888431 -0.37865125689480977 0 0.1550003226864041 -0.40394022798492391 0 0.13240322570731711 -0.37003442529207242 0 0.15016040097888431 -0.37865125689480977 0 0.13351605154672841 -0.38974048220730112 0 0.13240322570731711 -0.37003442529207242 0 0.13351605154672841 -0.38974048220730112 0 0.1172634489325893 -0.37778659213166921 0 0.13351605154672841 -0.38974048220730112 0 0.14157975638347459 -0.41009104758758141 0 0.12823450593758751 -0.41018219710297199 0 0.15016040097888431 -0.37865125689480977 0 0.13351605154672841 -0.38974048220730112 0 0.1550003226864041 -0.40394022798492391 0 0.13351605154672841 -0.38974048220730112 0 0.1550003226864041 -0.40394022798492391 0 0.14157975638347459 -0.41009104758758141 0 0.1550003226864041 -0.40394022798492391 0 0.14157975638347459 -0.41009104758758141 0 0.15027117547388011 -0.42243681889000989 0 0.14157975638347459 -0.41009104758758141 0 0.1372383746347477 -0.42280959331386558 0 0.15027117547388011 -0.42243681889000989 0 0.14157975638347459 -0.41009104758758141 0 0.12823450593758751 -0.41018219710297199 0 0.1372383746347477 -0.42280959331386558 0 0.12823450593758751 -0.41018219710297199 0 0.1372383746347477 -0.42280959331386558 0 0.1248192462828009 -0.420450350018582 0 0.13063056484969629 -0.43422413144691729 0 0.1372383746347477 -0.42280959331386558 0 0.1248192462828009 -0.420450350018582 0 0.13063056484969629 -0.43422413144691729 0 0.1372383746347477 -0.42280959331386558 0 0.1443847448834481 -0.43246099093735202 0 0.1372383746347477 -0.42280959331386558 0 0.1443847448834481 -0.43246099093735202 0 0.15027117547388011 -0.42243681889000989 0 0.1443847448834481 -0.43246099093735202 0 0.15027117547388011 -0.42243681889000989 0 0.15448758885425781 -0.4324176954465897 0 0.1443847448834481 -0.43246099093735202 0 0.15448758885425781 -0.4324176954465897 0 0.15148540764285551 -0.44680902578636489 0 0.17180902741684739 -0.427963946172632 0 0.15148540764285551 -0.44680902578636489 0 0.15448758885425781 -0.4324176954465897 0 0.17180902741684739 -0.427963946172632 0 0.15148540764285551 -0.44680902578636489 0 0.15027117547388011 -0.42243681889000989 0 0.15448758885425781 -0.4324176954465897 0 0.17180902741684739 -0.427963946172632 0 0.17436667993911709 -0.404281191460444 0 0.1550003226864041 -0.40394022798492391 0 0.17180902741684739 -0.427963946172632 0 0.1550003226864041 -0.40394022798492391 0 0.15027117547388011 -0.42243681889000989 0 0.17180902741684739 -0.427963946172632 0 0.1921326471908387 -0.40911886655889829 0 0.17436667993911709 -0.404281191460444 0 0.17180902741684739 -0.427963946172632 0 0.1921326471908387 -0.40911886655889829 0 0.17180902741684739 -0.427963946172632 0 0.19333347743758891 -0.43227679542891079 0 0.1921326471908387 -0.40911886655889829 0 0.17180902741684739 -0.427963946172632 0 0.19333347743758891 -0.43227679542891079 0 0.17180902741684739 -0.427963946172632 0 0.17193768270699461 -0.44252232150077991 0 0.19333347743758891 -0.43227679542891079 0 0.17193768270699461 -0.44252232150077991 0 0.18117015172762169 -0.45033249680461868 0 0.17193768270699461 -0.44252232150077991 0 0.18117015172762169 -0.45033249680461868 0 0.16697082374512889 -0.45615372943061427 0 0.192543617841337 -0.4708849416793004 0 0.16889560060498501 -0.46610203094368291 0 0.19624949322218441 -0.45457510038630139 0 0.18117015172762169 -0.45033249680461868 0 0.18245623984740211 -0.46549843307486372 0 0.192543617841337 -0.4708849416793004 0 0.18245623984740211 -0.46549843307486372 0 0.16889560060498501 -0.46610203094368291 0 0.18245623984740211 -0.46549843307486372 0 0.16697082374512889 -0.45615372943061427 0 0.16889560060498501 -0.46610203094368291 0 0.18245623984740211 -0.46549843307486372 0 0.16697082374512889 -0.45615372943061427 0 0.18117015172762169 -0.45033249680461868 0 0.18245623984740211 -0.46549843307486372 0 0.16697082374512889 -0.45615372943061427 0 0.16697082374512889 -0.45615372943061427 0 0.1675023579049941 -0.4685005141806966 0 0.1433950038547219 -0.45431085396412518 0 0.16697082374512889 -0.45615372943061427 0 0.16889560060498501 -0.46610203094368291 0 0.1675023579049941 -0.4685005141806966 0 0.16889560060498501 -0.46610203094368291 0 0.1675023579049941 -0.4685005141806966 0 0.1702202829852151 -0.4696098219046404 0 0.1675023579049941 -0.4685005141806966 0 0.152246653299135 -0.46439837742726808 0 0.1575875106723417 -0.47143889082692247 0 0.16697082374512889 -0.45615372943061427 0 0.15148540764285551 -0.44680902578636489 0 0.17180902741684739 -0.427963946172632 0 0.17193768270699461 -0.44252232150077991 0 0.15148540764285551 -0.44680902578636489 0 0.17193768270699461 -0.44252232150077991 0 0.16697082374512889 -0.45615372943061427 0 0.15148540764285551 -0.44680902578636489 0 0.16697082374512889 -0.45615372943061427 0 0.15148540764285551 -0.44680902578636489 0 0.1433950038547219 -0.45431085396412518 0 0.13063056484969629 -0.43422413144691729 0 0.15148540764285551 -0.44680902578636489 0 0.13063056484969629 -0.43422413144691729 0 0.1443847448834481 -0.43246099093735202 0 0.15148540764285551 -0.44680902578636489 0 0.13063056484969629 -0.43422413144691729 0 0.15148540764285551 -0.44680902578636489 0 0.1433950038547219 -0.45431085396412518 0 0.15148540764285551 -0.44680902578636489 0 0.1433950038547219 -0.45431085396412518 0 0.13063056484969629 -0.43422413144691729 0 0.1433950038547219 -0.45431085396412518 0 0.1198189797197739 -0.44043393611427439 0 0.1261170216087435 -0.45426370044287118 0 0.1433950038547219 -0.45431085396412518 0 0.1198189797197739 -0.44043393611427439 0 0.1433950038547219 -0.45431085396412518 0 0.1198189797197739 -0.44043393611427439 0 0.1261170216087435 -0.45426370044287118 0 0.1433950038547219 -0.45431085396412518 0 0.1269704012375886 -0.46954056930941829 0 0.1433950038547219 -0.45431085396412518 0 0.1269704012375886 -0.46954056930941829 0 0.1675023579049941 -0.4685005141806966 0 0.1433950038547219 -0.45431085396412518 0 0.152246653299135 -0.46439837742726808 0 0.1675023579049941 -0.4685005141806966 0 0.1433950038547219 -0.45431085396412518 0 0.1433950038547219 -0.45431085396412518 0 0.152246653299135 -0.46439837742726808 0 0.1269704012375886 -0.46954056930941829 0 0.14743929381364609 -0.47692830648866069 0 0.15703694704924431 -0.47757506475615408 0 0.1575875106723417 -0.47143889082692247 0 0.14743929381364609 -0.47692830648866069 0 0.13402225646187349 -0.4862805691096509 0 0.15289926532941461 -0.48599530711639721 0 0.152246653299135 -0.46439837742726808 0 0.14743929381364609 -0.47692830648866069 0 0.1269704012375886 -0.46954056930941829 0 0.152246653299135 -0.46439837742726808 0 0.14743929381364609 -0.47692830648866069 0 0.1575875106723417 -0.47143889082692247 0 0.14743929381364609 -0.47692830648866069 0 0.15289926532941461 -0.48599530711639721 0 0.15703694704924431 -0.47757506475615408 0 0.14743929381364609 -0.47692830648866069 0 0.1269704012375886 -0.46954056930941829 0 0.13402225646187349 -0.4862805691096509 0 0.13402225646187349 -0.4862805691096509 0 0.14547228929860101 -0.5 0 0.1197967426509602 -0.5 0 0.13402225646187349 -0.4862805691096509 0 0.14547228929860101 -0.5 0 0.15289926532941461 -0.48599530711639721 0 0.14547228929860101 -0.5 0 0.15289926532941461 -0.48599530711639721 0 0.1648647165515828 -0.48996321601362219 0 0.14547228929860101 -0.5 0 0.17114783594624189 -0.50000000000000067 0 0.1648647165515828 -0.48996321601362219 0 0.15289926532941461 -0.48599530711639721 0 0.1648647165515828 -0.48996321601362219 0 0.16214441771660579 -0.48208432124362938 0 0.15289926532941461 -0.48599530711639721 0 0.15703694704924431 -0.47757506475615408 0 0.16214441771660579 -0.48208432124362938 0 0.15703694704924431 -0.47757506475615408 0 0.16214441771660579 -0.48208432124362938 0 0.16387774260353891 -0.4744137908318512 0 0.1675023579049941 -0.4685005141806966 0 0.1575875106723417 -0.47143889082692247 0 0.16387774260353891 -0.4744137908318512 0 0.15703694704924431 -0.47757506475615408 0 0.1575875106723417 -0.47143889082692247 0 0.16387774260353891 -0.4744137908318512 0 0.1675023579049941 -0.4685005141806966 0 0.16387774260353891 -0.4744137908318512 0 0.17000882537454839 -0.47285424746054849 0 0.16387774260353891 -0.4744137908318512 0 0.17000882537454839 -0.47285424746054849 0 0.16916570358485089 -0.47981296419302938 0 0.17000882537454839 -0.47285424746054849 0 0.16916570358485089 -0.47981296419302938 0 0.17454162982018709 -0.47670020879131259 0 0.17000882537454839 -0.47285424746054849 0 0.1702202829852151 -0.4696098219046404 0 0.17447434805633291 -0.47098249503363337 0 0.16889560060498501 -0.46610203094368291 0 0.1702202829852151 -0.4696098219046404 0 0.17447434805633291 -0.47098249503363337 0 0.1675023579049941 -0.4685005141806966 0 0.17000882537454839 -0.47285424746054849 0 0.1702202829852151 -0.4696098219046404 0 0.1648647165515828 -0.48996321601362219 0 0.16214441771660579 -0.48208432124362938 0 0.16916570358485089 -0.47981296419302938 0 0.1648647165515828 -0.48996321601362219 0 0.16916570358485089 -0.47981296419302938 0 0.17748496592212709 -0.48316873427571971 0 0.16214441771660579 -0.48208432124362938 0 0.16387774260353891 -0.4744137908318512 0 0.16916570358485089 -0.47981296419302938 0 0.16916570358485089 -0.47981296419302938 0 0.17454162982018709 -0.47670020879131259 0 0.17748496592212709 -0.48316873427571971 0 0.192543617841337 -0.4708849416793004 0 0.17447434805633291 -0.47098249503363337 0 0.18157430616307579 -0.47668260299363208 0 0.192543617841337 -0.4708849416793004 0 0.16889560060498501 -0.46610203094368291 0 0.17447434805633291 -0.47098249503363337 0 0.17454162982018709 -0.47670020879131259 0 0.17748496592212709 -0.48316873427571971 0 0.18157430616307579 -0.47668260299363208 0 0.17000882537454839 -0.47285424746054849 0 0.17454162982018709 -0.47670020879131259 0 0.17447434805633291 -0.47098249503363337 0 0.17454162982018709 -0.47670020879131259 0 0.17447434805633291 -0.47098249503363337 0 0.18157430616307579 -0.47668260299363208 0 0.18809035345949471 -0.48196363930091812 0 0.192543617841337 -0.4708849416793004 0 0.18157430616307579 -0.47668260299363208 0 0.18809035345949471 -0.48196363930091812 0 0.17748496592212709 -0.48316873427571971 0 0.18157430616307579 -0.47668260299363208 0 0.17114783594624189 -0.50000000000000067 0 0.1648647165515828 -0.48996321601362219 0 0.18386851677182131 -0.49312843300966969 0 0.19813644393868721 -0.5 0 0.17114783594624189 -0.50000000000000067 0 0.18386851677182131 -0.49312843300966969 0 0.18809035345949471 -0.48196363930091812 0 0.17748496592212709 -0.48316873427571971 0 0.18386851677182131 -0.49312843300966969 0 0.1648647165515828 -0.48996321601362219 0 0.18386851677182131 -0.49312843300966969 0 0.1648647165515828 -0.48996321601362219 0 0.17748496592212709 -0.48316873427571971 0 0.18386851677182131 -0.49312843300966969 0 0.17114783594624189 -0.50000000000000067 0 0.18386851677182131 -0.49312843300966969 0 0.06562373335203342 -0.5 0 0.075412614020220758 -0.48073706413289802 0 0.049601314217692587 -0.47242773916750658 0 0.075412614020220758 -0.48073706413289802 0 0.07415220114332674 -0.45901307197498248 0 0.049601314217692587 -0.47242773916750658 0 0.075412614020220758 -0.48073706413289802 0 0.093564625384731814 -0.47224450952200109 0 0.07415220114332674 -0.45901307197498248 0 0.075412614020220758 -0.48073706413289802 0 0.093564625384731814 -0.47224450952200109 0 0.09412119600331928 -0.50000000000000144 0 0.06562373335203342 -0.5 0 0.075412614020220758 -0.48073706413289802 0 0.09412119600331928 -0.50000000000000144 0 0.09412119600331928 -0.50000000000000144 0 0.1105457986204543 -0.48477028465471028 0 0.093564625384731814 -0.47224450952200109 0 0.09412119600331928 -0.50000000000000144 0 0.1105457986204543 -0.48477028465471028 0 0.09412119600331928 -0.50000000000000144 0 0.1105457986204543 -0.48477028465471028 0 0.1197967426509602 -0.5 0 0.13402225646187349 -0.4862805691096509 0 0.1105457986204543 -0.48477028465471028 0 0.1197967426509602 -0.5 0 0.1269704012375886 -0.46954056930941829 0 0.1105457986204543 -0.48477028465471028 0 0.1269704012375886 -0.46954056930941829 0 0.13402225646187349 -0.4862805691096509 0 0.1105457986204543 -0.48477028465471028 0 0.1269704012375886 -0.46954056930941829 0 0.1105457986204543 -0.48477028465471028 0 0.1111982058138095 -0.46956055212753028 0 0.093564625384731814 -0.47224450952200109 0 0.1105457986204543 -0.48477028465471028 0 0.1111982058138095 -0.46956055212753028 0 0.10287704561572 -0.4600283828894286 0 0.11509714273548589 -0.4564179383118564 0 0.1021561991933078 -0.44368026483131678 0 0.093564625384731814 -0.47224450952200109 0 0.10287704561572 -0.4600283828894286 0 0.091166090595716592 -0.454982062468821 0 0.093564625384731814 -0.47224450952200109 0 0.1111982058138095 -0.46956055212753028 0 0.10287704561572 -0.4600283828894286 0 0.1111982058138095 -0.46956055212753028 0 0.10287704561572 -0.4600283828894286 0 0.11509714273548589 -0.4564179383118564 0 0.1269704012375886 -0.46954056930941829 0 0.1111982058138095 -0.46956055212753028 0 0.11509714273548589 -0.4564179383118564 0 0.1261170216087435 -0.45426370044287118 0 0.1269704012375886 -0.46954056930941829 0 0.11509714273548589 -0.4564179383118564 0 0.11509714273548589 -0.4564179383118564 0 0.1198189797197739 -0.44043393611427439 0 0.1021561991933078 -0.44368026483131678 0 0.1261170216087435 -0.45426370044287118 0 0.11509714273548589 -0.4564179383118564 0 0.1198189797197739 -0.44043393611427439 0 0.10287704561572 -0.4600283828894286 0 0.1021561991933078 -0.44368026483131678 0 0.091166090595716592 -0.454982062468821 0 0.1021561991933078 -0.44368026483131678 0 0.083080381641496448 -0.43994408312637601 0 0.091166090595716592 -0.454982062468821 0 0.083080381641496448 -0.43994408312637601 0 0.091166090595716592 -0.454982062468821 0 0.07415220114332674 -0.45901307197498248 0 0.093564625384731814 -0.47224450952200109 0 0.091166090595716592 -0.454982062468821 0 0.07415220114332674 -0.45901307197498248 0 0.083080381641496448 -0.43994408312637601 0 0.07415220114332674 -0.45901307197498248 0 0.06778060897944449 -0.44356928839419019 0 0.07415220114332674 -0.45901307197498248 0 0.06778060897944449 -0.44356928839419019 0 0.053295744534282867 -0.45128519290186742 0 0.06778060897944449 -0.44356928839419019 0 0.068242746632435763 -0.42749505468587612 0 0.052852563705867113 -0.43049655743221321 0 0.083080381641496448 -0.43994408312637601 0 0.068242746632435763 -0.42749505468587612 0 0.081650215584045643 -0.42431175415742622 0 0.083080381641496448 -0.43994408312637601 0 0.06778060897944449 -0.44356928839419019 0 0.068242746632435763 -0.42749505468587612 0 0.068242746632435763 -0.42749505468587612 0 0.070464210341427705 -0.41225999907787531 0 0.057419114312616829 -0.4146520556196962 0 0.068242746632435763 -0.42749505468587612 0 0.070464210341427705 -0.41225999907787531 0 0.081650215584045643 -0.42431175415742622 0 0.070464210341427705 -0.41225999907787531 0 0.088920879263377467 -0.40905434276802238 0 0.081650215584045643 -0.42431175415742622 0 0.088920879263377467 -0.40905434276802238 0 0.081650215584045643 -0.42431175415742622 0 0.096242955584823237 -0.42655701826442832 0 0.083080381641496448 -0.43994408312637601 0 0.081650215584045643 -0.42431175415742622 0 0.096242955584823237 -0.42655701826442832 0 0.1198189797197739 -0.44043393611427439 0 0.096242955584823237 -0.42655701826442832 0 0.1021561991933078 -0.44368026483131678 0 0.083080381641496448 -0.43994408312637601 0 0.096242955584823237 -0.42655701826442832 0 0.1198189797197739 -0.44043393611427439 0 0.096242955584823237 -0.42655701826442832 0 0.10977572205653691 -0.42163923710746992 0 0.1198189797197739 -0.44043393611427439 0 0.1021561991933078 -0.44368026483131678 0 0.096242955584823237 -0.42655701826442832 0 0.13063056484969629 -0.43422413144691729 0 0.10977572205653691 -0.42163923710746992 0 0.13063056484969629 -0.43422413144691729 0 0.1248192462828009 -0.420450350018582 0 0.10977572205653691 -0.42163923710746992 0 0.13063056484969629 -0.43422413144691729 0 0.1198189797197739 -0.44043393611427439 0 0.10977572205653691 -0.42163923710746992 0 0.12823450593758751 -0.41018219710297199 0 0.1184203273677118 -0.41338366929941439 0 0.11226980089747771 -0.40117275033647498 0 0.1184203273677118 -0.41338366929941439 0 0.10977572205653691 -0.42163923710746992 0 0.11226980089747771 -0.40117275033647498 0 0.1184203273677118 -0.41338366929941439 0 0.1248192462828009 -0.420450350018582 0 0.10977572205653691 -0.42163923710746992 0 0.12823450593758751 -0.41018219710297199 0 0.1184203273677118 -0.41338366929941439 0 0.1248192462828009 -0.420450350018582 0 0.088920879263377467 -0.40905434276802238 0 0.096242955584823237 -0.42655701826442832 0 0.10977572205653691 -0.42163923710746992 0 0.088920879263377467 -0.40905434276802238 0 0.10977572205653691 -0.42163923710746992 0 0.088920879263377467 -0.40905434276802238 0 0.10977572205653691 -0.42163923710746992 0 0.11226980089747771 -0.40117275033647498 0 0.088920879263377467 -0.40905434276802238 0 0.11226980089747771 -0.40117275033647498 0 0.100355355613908 -0.3843458818340777 0 0.13351605154672841 -0.38974048220730112 0 0.12823450593758751 -0.41018219710297199 0 0.11226980089747771 -0.40117275033647498 0 0.13351605154672841 -0.38974048220730112 0 0.11226980089747771 -0.40117275033647498 0 0.1172634489325893 -0.37778659213166921 0 0.11226980089747771 -0.40117275033647498 0 0.1172634489325893 -0.37778659213166921 0 0.100355355613908 -0.3843458818340777 0 0.1172634489325893 -0.37778659213166921 0 0.100355355613908 -0.3843458818340777 0 0.10527209746655899 -0.36625020894024862 0 0.100355355613908 -0.3843458818340777 0 0.076746428995785806 -0.38086328082468868 0 0.086962952467056959 -0.3620491137270791 0 0.100355355613908 -0.3843458818340777 0 0.083272788144635485 -0.3935951927042437 0 0.076746428995785806 -0.38086328082468868 0 0.088920879263377467 -0.40905434276802238 0 0.068066036470217944 -0.3964694484285749 0 0.088920879263377467 -0.40905434276802238 0 0.100355355613908 -0.3843458818340777 0 0.083272788144635485 -0.3935951927042437 0 0.088920879263377467 -0.40905434276802238 0 0.083272788144635485 -0.3935951927042437 0 0.068066036470217944 -0.3964694484285749 0 0.070464210341427705 -0.41225999907787531 0 0.068066036470217944 -0.3964694484285749 0 0.058980137179419807 -0.40202157129761168 0 0.070464210341427705 -0.41225999907787531 0 0.088920879263377467 -0.40905434276802238 0 0.068066036470217944 -0.3964694484285749 0 0.068066036470217944 -0.3964694484285749 0 0.062839468607054957 -0.38728733957740202 0 0.058582518048036963 -0.39363598672849548 0 0.068066036470217944 -0.3964694484285749 0 0.062839468607054957 -0.38728733957740202 0 0.076746428995785806 -0.38086328082468868 0 0.062839468607054957 -0.38728733957740202 0 0.063466827646366741 -0.37607830675611192 0 0.076746428995785806 -0.38086328082468868 0 0.083272788144635485 -0.3935951927042437 0 0.068066036470217944 -0.3964694484285749 0 0.076746428995785806 -0.38086328082468868 0 0.050999120259630028 -0.38955068956382027 0 0.043118674791166878 -0.36426944168543057 0 0.050999120259630028 -0.38955068956382027 0 0.053990086585599478 -0.37369286474469221 0 0.043118674791166878 -0.36426944168543057 0 0.063466827646366741 -0.37607830675611192 0 0.050999120259630028 -0.38955068956382027 0 0.053990086585599478 -0.37369286474469221 0 0.062839468607054957 -0.38728733957740202 0 0.063466827646366741 -0.37607830675611192 0 0.050999120259630028 -0.38955068956382027 0 0.062839468607054957 -0.38728733957740202 0 0.050999120259630028 -0.38955068956382027 0 0.058582518048036963 -0.39363598672849548 0 0.063466827646366741 -0.37607830675611192 0 0.050999120259630028 -0.38955068956382027 0 0.058582518048036963 -0.39363598672849548 0 0.058980137179419807 -0.40202157129761168 0 0.052027827723862052 -0.39285088477506869 0 0.068066036470217944 -0.3964694484285749 0 0.058582518048036963 -0.39363598672849548 0 0.058980137179419807 -0.40202157129761168 0 0.058980137179419807 -0.40202157129761168 0 0.047712493864621688 -0.40279783118762058 0 0.052027827723862052 -0.39285088477506869 0 0.050999120259630028 -0.38955068956382027 0 0.047712493864621688 -0.40279783118762058 0 0.052027827723862052 -0.39285088477506869 0 0.050999120259630028 -0.38955068956382027 0 0.058582518048036963 -0.39363598672849548 0 0.052027827723862052 -0.39285088477506869 0 0.050999120259630028 -0.38955068956382027 0 0.052027827723862052 -0.39285088477506869 0 0.050999120259630028 -0.38955068956382027 0 0.037028643743992472 -0.4046469379586895 0 0.037697858612149943 -0.39176297650120601 0 0.050999120259630028 -0.38955068956382027 0 0.037028643743992472 -0.4046469379586895 0 0.050999120259630028 -0.38955068956382027 0 0.047712493864621688 -0.40279783118762058 0 0.037028643743992472 -0.4046469379586895 0 0.037028643743992472 -0.4046469379586895 0 0.037697858612149943 -0.39176297650120601 0 0.022105117860399089 -0.39738185295469092 0 0.050999120259630028 -0.38955068956382027 0 0.041378038689220811 -0.37830796348130058 0 0.043118674791166878 -0.36426944168543057 0 0.037697858612149943 -0.39176297650120601 0 0.040972548763584679 -0.38587244453846681 0 0.029239252686648249 -0.38343800635237002 0 0.050999120259630028 -0.38955068956382027 0 0.040972548763584679 -0.38587244453846681 0 0.041378038689220811 -0.37830796348130058 0 0.050999120259630028 -0.38955068956382027 0 0.037697858612149943 -0.39176297650120601 0 0.040972548763584679 -0.38587244453846681 0 0.041378038689220811 -0.37830796348130058 0 0.029239252686648249 -0.38343800635237002 0 0.029121168347510641 -0.36818654530316658 0 0.040972548763584679 -0.38587244453846681 0 0.041378038689220811 -0.37830796348130058 0 0.029239252686648249 -0.38343800635237002 0 0.029239252686648249 -0.38343800635237002 0 0.0081625739511966347 -0.37959504827830032 0 0.029121168347510641 -0.36818654530316658 0 0.029239252686648249 -0.38343800635237002 0 0.0081625739511966347 -0.37959504827830032 0 0.022105117860399089 -0.39738185295469092 0 -0.0029277384365188671 -0.4052699318625318 0 0.0081625739511966347 -0.37959504827830032 0 0.022105117860399089 -0.39738185295469092 0 0.037697858612149943 -0.39176297650120601 0 0.029239252686648249 -0.38343800635237002 0 0.022105117860399089 -0.39738185295469092 0 -0.0029277384365188671 -0.4052699318625318 0 0.023058167228355578 -0.41974318635355928 0 0.007271525743211698 -0.43680195030579488 0 0.037028643743992472 -0.4046469379586895 0 0.023058167228355578 -0.41974318635355928 0 0.037028643743992472 -0.4046469379586895 0 0.022105117860399089 -0.39738185295469092 0 0.023058167228355578 -0.41974318635355928 0 -0.0029277384365188671 -0.4052699318625318 0 0.022105117860399089 -0.39738185295469092 0 0.023058167228355578 -0.41974318635355928 0 -0.0029277384365188671 -0.4052699318625318 0 0.023058167228355578 -0.41974318635355928 0 0.023058167228355578 -0.41974318635355928 0 0.007271525743211698 -0.43680195030579488 0 0.023058167228355578 -0.41974318635355928 0 0.007271525743211698 -0.43680195030579488 0 0.025497084315326581 -0.43473571320350052 0 0.023058167228355578 -0.41974318635355928 0 0.038585266749116137 -0.42839124602750728 0 0.023058167228355578 -0.41974318635355928 0 0.025497084315326581 -0.43473571320350052 0 0.038585266749116137 -0.42839124602750728 0 0.025497084315326581 -0.43473571320350052 0 0.038585266749116137 -0.42839124602750728 0 0.039511537738758387 -0.44261832082777308 0 0.038585266749116137 -0.42839124602750728 0 0.052852563705867113 -0.43049655743221321 0 0.039511537738758387 -0.44261832082777308 0 0.038585266749116137 -0.42839124602750728 0 0.042776041600761629 -0.41678796909654769 0 0.052852563705867113 -0.43049655743221321 0 0.023058167228355578 -0.41974318635355928 0 0.038585266749116137 -0.42839124602750728 0 0.042776041600761629 -0.41678796909654769 0 0.037028643743992472 -0.4046469379586895 0 0.023058167228355578 -0.41974318635355928 0 0.042776041600761629 -0.41678796909654769 0 0.047712493864621688 -0.40279783118762058 0 0.037028643743992472 -0.4046469379586895 0 0.042776041600761629 -0.41678796909654769 0 0.042776041600761629 -0.41678796909654769 0 0.057419114312616829 -0.4146520556196962 0 0.052852563705867113 -0.43049655743221321 0 0.047712493864621688 -0.40279783118762058 0 0.042776041600761629 -0.41678796909654769 0 0.057419114312616829 -0.4146520556196962 0 0.070464210341427705 -0.41225999907787531 0 0.058980137179419807 -0.40202157129761168 0 0.057419114312616829 -0.4146520556196962 0 0.058980137179419807 -0.40202157129761168 0 0.047712493864621688 -0.40279783118762058 0 0.057419114312616829 -0.4146520556196962 0 0.068242746632435763 -0.42749505468587612 0 0.057419114312616829 -0.4146520556196962 0 0.052852563705867113 -0.43049655743221321 0 0.06778060897944449 -0.44356928839419019 0 0.052852563705867113 -0.43049655743221321 0 0.053295744534282867 -0.45128519290186742 0 0.052852563705867113 -0.43049655743221321 0 0.053295744534282867 -0.45128519290186742 0 0.039511537738758387 -0.44261832082777308 0 0.07415220114332674 -0.45901307197498248 0 0.053295744534282867 -0.45128519290186742 0 0.049601314217692587 -0.47242773916750658 0 0.07415220114332674 -0.45901307197498248 0 0.049601314217692587 -0.47242773916750658 0 0.053295744534282867 -0.45128519290186742 0 0.035393731345124073 -0.46381399002959589 0 0.049601314217692587 -0.47242773916750658 0 0.035393731345124073 -0.46381399002959589 0 0.039511537738758387 -0.44261832082777308 0 0.0258779511446822 -0.44917099430277002 0 0.053295744534282867 -0.45128519290186742 0 0.035393731345124073 -0.46381399002959589 0 0.039511537738758387 -0.44261832082777308 0 0.025497084315326581 -0.43473571320350052 0 0.039511537738758387 -0.44261832082777308 0 0.0258779511446822 -0.44917099430277002 0 0.007271525743211698 -0.43680195030579488 0 0.025497084315326581 -0.43473571320350052 0 0.0258779511446822 -0.44917099430277002 0 -0.008515115741932441 -0.45386071425803037 0 0.007271525743211698 -0.43680195030579488 0 0.01009617260750212 -0.45664112822671599 0 0.007271525743211698 -0.43680195030579488 0 0.0258779511446822 -0.44917099430277002 0 0.01009617260750212 -0.45664112822671599 0 -0.0016783646119623609 -0.47146816853448209 0 0.01009617260750212 -0.45664112822671599 0 0.02094502800315276 -0.47201685885869998 0 0.0258779511446822 -0.44917099430277002 0 0.01009617260750212 -0.45664112822671599 0 0.021738053810855539 -0.45994206354080269 0 0.01009617260750212 -0.45664112822671599 0 0.021738053810855539 -0.45994206354080269 0 0.02094502800315276 -0.47201685885869998 0 0.035393731345124073 -0.46381399002959589 0 0.0258779511446822 -0.44917099430277002 0 0.021738053810855539 -0.45994206354080269 0 0.035393731345124073 -0.46381399002959589 0 0.021738053810855539 -0.45994206354080269 0 0.02094502800315276 -0.47201685885869998 0 0.035393731345124073 -0.46381399002959589 0 0.02094502800315276 -0.47201685885869998 0 0.025050427292058641 -0.48584240636003062 0 0.02094502800315276 -0.47201685885869998 0 0.0081573999142501418 -0.4831801874344101 0 0.025050427292058641 -0.48584240636003062 0 -0.0016783646119623609 -0.47146816853448209 0 0.02094502800315276 -0.47201685885869998 0 0.0081573999142501418 -0.4831801874344101 0 -0.0016783646119623609 -0.47146816853448209 0 0.02094502800315276 -0.47201685885869998 0 -0.005511665807985431 -0.48742496297742588 0 -0.0016783646119623609 -0.47146816853448209 0 0.0081573999142501418 -0.4831801874344101 0 0.00049954036642466809 -0.5 0 0.0086288080494619779 -0.5 0 0.025050427292058641 -0.48584240636003062 0 0.0081573999142501418 -0.4831801874344101 0 0.00049954036642466809 -0.5 0 0.025050427292058641 -0.48584240636003062 0 -0.005511665807985431 -0.48742496297742588 0 0.0081573999142501418 -0.4831801874344101 0 0.00049954036642466809 -0.5 0 0.00049954036642466809 -0.5 0 0.025050427292058641 -0.48584240636003062 0 0.0086288080494619779 -0.5 0 0.025050427292058641 -0.48584240636003062 0 0.037126270700747699 -0.5 0 0.025050427292058641 -0.48584240636003062 0 0.037126270700747699 -0.5 0 0.049601314217692587 -0.47242773916750658 0 0.035393731345124073 -0.46381399002959589 0 0.025050427292058641 -0.48584240636003062 0 0.049601314217692587 -0.47242773916750658 0 0.025050427292058641 -0.48584240636003062 0 0.049601314217692587 -0.47242773916750658 0 0.06562373335203342 -0.5 0 0.037126270700747699 -0.5 0 0.049601314217692587 -0.47242773916750658 0 0.090698024717557113 -0.29308945222043442 0 0.068887727892631326 -0.29028079677972207 0 0.084869010909391973 -0.28231088073482219 0 0.090698024717557113 -0.29308945222043442 0 0.068887727892631326 -0.29028079677972207 0 0.090698024717557113 -0.29308945222043442 0 0.078429992169200838 -0.3069919925573828 0 0.068887727892631326 -0.29028079677972207 0 0.084869010909391973 -0.28231088073482219 0 0.090698024717557113 -0.29308945222043442 0 0.097616938994345565 -0.28140785851861549 0 0.078429992169200838 -0.3069919925573828 0 0.096908737219551441 -0.30443767434064939 0 0.092073225109135542 -0.31627836322782749 0 0.090698024717557113 -0.29308945222043442 0 0.078429992169200838 -0.3069919925573828 0 0.096908737219551441 -0.30443767434064939 0 0.078429992169200838 -0.3069919925573828 0 0.060178146173354791 -0.3174555775130819 0 0.060271808065879111 -0.29947186351905603 0 0.078429992169200838 -0.3069919925573828 0 0.068887727892631326 -0.29028079677972207 0 0.060271808065879111 -0.29947186351905603 0 0.084869010909391973 -0.28231088073482219 0 0.068887727892631326 -0.29028079677972207 0 0.07644407929999536 -0.27449858107412922 0 0.068887727892631326 -0.29028079677972207 0 0.062804284913018135 -0.27502441074476702 0 0.07644407929999536 -0.27449858107412922 0 0.062804284913018135 -0.27502441074476702 0 0.069259492706366235 -0.26793697185261811 0 0.07644407929999536 -0.27449858107412922 0 0.062804284913018135 -0.27502441074476702 0 0.069259492706366235 -0.26793697185261811 0 0.062381111266618439 -0.26046915535353149 0 0.069259492706366235 -0.26793697185261811 0 0.07644407929999536 -0.27449858107412922 0 0.075408495345833021 -0.26175574023804471 0 0.072880416832233008 -0.25096375523048992 0 0.062381111266618439 -0.26046915535353149 0 0.063372039046269812 -0.24359189162298511 0 0.075408495345833021 -0.26175574023804471 0 0.072880416832233008 -0.25096375523048992 0 0.062381111266618439 -0.26046915535353149 0 0.069259492706366235 -0.26793697185261811 0 0.075408495345833021 -0.26175574023804471 0 0.062381111266618439 -0.26046915535353149 0 0.075408495345833021 -0.26175574023804471 0 0.072880416832233008 -0.25096375523048992 0 0.081939808532238603 -0.25636564581082538 0 0.081939808532238603 -0.25636564581082538 0 0.091460813072920422 -0.25727321876019149 0 0.083870927088600528 -0.2476168044414524 0 0.072880416832233008 -0.25096375523048992 0 0.081939808532238603 -0.25636564581082538 0 0.083870927088600528 -0.2476168044414524 0 0.075408495345833021 -0.26175574023804471 0 0.081939808532238603 -0.25636564581082538 0 0.084062922685187197 -0.26448298906295331 0 0.081939808532238603 -0.25636564581082538 0 0.084062922685187197 -0.26448298906295331 0 0.091460813072920422 -0.25727321876019149 0 0.084062922685187197 -0.26448298906295331 0 0.091460813072920422 -0.25727321876019149 0 0.090698283642430516 -0.27227771508120979 0 0.084869010909391973 -0.28231088073482219 0 0.07644407929999536 -0.27449858107412922 0 0.090698283642430516 -0.27227771508120979 0 0.07644407929999536 -0.27449858107412922 0 0.075408495345833021 -0.26175574023804471 0 0.084062922685187197 -0.26448298906295331 0 0.07644407929999536 -0.27449858107412922 0 0.084062922685187197 -0.26448298906295331 0 0.090698283642430516 -0.27227771508120979 0 0.084869010909391973 -0.28231088073482219 0 0.090698283642430516 -0.27227771508120979 0 0.097616938994345565 -0.28140785851861549 0 0.1088176093139004 -0.26571575565736621 0 0.11278512566252499 -0.28609870279503358 0 0.106271684419183 -0.28314748976145387 0 0.1088176093139004 -0.26571575565736621 0 0.106271684419183 -0.28314748976145387 0 0.097616938994345565 -0.28140785851861549 0 0.090698283642430516 -0.27227771508120979 0 0.1088176093139004 -0.26571575565736621 0 0.097616938994345565 -0.28140785851861549 0 0.091460813072920422 -0.25727321876019149 0 0.1088176093139004 -0.26571575565736621 0 0.094262782717805998 -0.24015224523938489 0 0.1088176093139004 -0.26571575565736621 0 0.094262782717805998 -0.24015224523938489 0 0.091460813072920422 -0.25727321876019149 0 0.090698283642430516 -0.27227771508120979 0 0.1088176093139004 -0.26571575565736621 0 0.1088176093139004 -0.26571575565736621 0 0.1110954753030154 -0.24696600708057559 0 0.094262782717805998 -0.24015224523938489 0 0.12781738792472361 -0.25630073961036098 0 0.1088176093139004 -0.26571575565736621 0 0.1110954753030154 -0.24696600708057559 0 0.1293844639767889 -0.26841340011125497 0 0.12781738792472361 -0.25630073961036098 0 0.1088176093139004 -0.26571575565736621 0 0.1316679908100386 -0.27940250192532728 0 0.1088176093139004 -0.26571575565736621 0 0.1233724359099948 -0.29127926607534749 0 0.1088176093139004 -0.26571575565736621 0 0.1233724359099948 -0.29127926607534749 0 0.1316679908100386 -0.27940250192532728 0 0.1293844639767889 -0.26841340011125497 0 0.1088176093139004 -0.26571575565736621 0 0.1088176093139004 -0.26571575565736621 0 0.1233724359099948 -0.29127926607534749 0 0.11278512566252499 -0.28609870279503358 0 0.1206272242658369 -0.29520959160900989 0 0.11278512566252499 -0.28609870279503358 0 0.103954986884028 -0.29089418336842582 0 0.1233724359099948 -0.29127926607534749 0 0.1206272242658369 -0.29520959160900989 0 0.11278512566252499 -0.28609870279503358 0 0.12470655464265119 -0.29362245841061141 0 0.1233724359099948 -0.29127926607534749 0 0.1206272242658369 -0.29520959160900989 0 0.12470655464265119 -0.29362245841061141 0 0.1206272242658369 -0.29520959160900989 0 0.1233724359099948 -0.29127926607534749 0 0.1206272242658369 -0.29520959160900989 0 0.12470655464265119 -0.29362245841061141 0 0.1233724359099948 -0.29127926607534749 0 0.1206272242658369 -0.29520959160900989 0 0.103954986884028 -0.29089418336842582 0 0.096908737219551441 -0.30443767434064939 0 0.106271684419183 -0.28314748976145387 0 0.103954986884028 -0.29089418336842582 0 0.097616938994345565 -0.28140785851861549 0 0.11278512566252499 -0.28609870279503358 0 0.106271684419183 -0.28314748976145387 0 0.103954986884028 -0.29089418336842582 0 0.090698024717557113 -0.29308945222043442 0 0.103954986884028 -0.29089418336842582 0 0.096908737219551441 -0.30443767434064939 0 0.090698024717557113 -0.29308945222043442 0 0.103954986884028 -0.29089418336842582 0 0.097616938994345565 -0.28140785851861549 0 0.1206272242658369 -0.29520959160900989 0 0.096908737219551441 -0.30443767434064939 0 0.10858275405760701 -0.31245368603051049 0 0.096908737219551441 -0.30443767434064939 0 0.092073225109135542 -0.31627836322782749 0 0.1206272242658369 -0.29520959160900989 0 0.10858275405760701 -0.31245368603051049 0 0.096908737219551441 -0.30443767434064939 0 0.1206272242658369 -0.29520959160900989 0 0.10858275405760701 -0.31245368603051049 0 0.12470655464265119 -0.29362245841061141 0 0.1206272242658369 -0.29520959160900989 0 0.1239183229528943 -0.31063788990941937 0 0.1206272242658369 -0.29520959160900989 0 0.10858275405760701 -0.31245368603051049 0 0.1239183229528943 -0.31063788990941937 0 0.10858275405760701 -0.31245368603051049 0 0.1239183229528943 -0.31063788990941937 0 0.11802514066771549 -0.33168998595812188 0 0.13427159898292429 -0.34207260640439968 0 0.11802514066771549 -0.33168998595812188 0 0.11976416236354551 -0.3551758041798404 0 0.096538283849376572 -0.32969778045201081 0 0.1013159952132795 -0.34894585690271679 0 0.084493813641146234 -0.34694187487351091 0 0.11802514066771549 -0.33168998595812188 0 0.096538283849376572 -0.32969778045201081 0 0.1013159952132795 -0.34894585690271679 0 0.10858275405760701 -0.31245368603051049 0 0.11802514066771549 -0.33168998595812188 0 0.096538283849376572 -0.32969778045201081 0 0.10858275405760701 -0.31245368603051049 0 0.096538283849376572 -0.32969778045201081 0 0.10858275405760701 -0.31245368603051049 0 0.096538283849376572 -0.32969778045201081 0 0.092073225109135542 -0.31627836322782749 0 0.1172634489325893 -0.37778659213166921 0 0.11976416236354551 -0.3551758041798404 0 0.10527209746655899 -0.36625020894024862 0 0.13240322570731711 -0.37003442529207242 0 0.1172634489325893 -0.37778659213166921 0 0.11976416236354551 -0.3551758041798404 0 0.11802514066771549 -0.33168998595812188 0 0.11976416236354551 -0.3551758041798404 0 0.1013159952132795 -0.34894585690271679 0 0.11976416236354551 -0.3551758041798404 0 0.1013159952132795 -0.34894585690271679 0 0.10527209746655899 -0.36625020894024862 0 0.1013159952132795 -0.34894585690271679 0 0.10527209746655899 -0.36625020894024862 0 0.086962952467056959 -0.3620491137270791 0 0.100355355613908 -0.3843458818340777 0 0.10527209746655899 -0.36625020894024862 0 0.086962952467056959 -0.3620491137270791 0 0.076746428995785806 -0.38086328082468868 0 0.086962952467056959 -0.3620491137270791 0 0.073813685633605158 -0.36408162930243221 0 0.100355355613908 -0.3843458818340777 0 0.086962952467056959 -0.3620491137270791 0 0.1013159952132795 -0.34894585690271679 0 0.086962952467056959 -0.3620491137270791 0 0.084493813641146234 -0.34694187487351091 0 0.086962952467056959 -0.3620491137270791 0 0.084493813641146234 -0.34694187487351091 0 0.073570549320205916 -0.33975234562008061 0 0.086962952467056959 -0.3620491137270791 0 0.073570549320205916 -0.33975234562008061 0 0.086962952467056959 -0.3620491137270791 0 0.06796488474572332 -0.351974222942186 0 0.073570549320205916 -0.33975234562008061 0 0.073813685633605158 -0.36408162930243221 0 0.054525957478152483 -0.35153491155473748 0 0.086962952467056959 -0.3620491137270791 0 0.06796488474572332 -0.351974222942186 0 0.073813685633605158 -0.36408162930243221 0 0.06796488474572332 -0.351974222942186 0 0.073813685633605158 -0.36408162930243221 0 0.054525957478152483 -0.35153491155473748 0 0.063466827646366741 -0.37607830675611192 0 0.076746428995785806 -0.38086328082468868 0 0.073813685633605158 -0.36408162930243221 0 0.063466827646366741 -0.37607830675611192 0 0.073813685633605158 -0.36408162930243221 0 0.058375723645234259 -0.36487302097340618 0 0.096538283849376572 -0.32969778045201081 0 0.092073225109135542 -0.31627836322782749 0 0.08082340728165055 -0.32436253896592587 0 0.078429992169200838 -0.3069919925573828 0 0.092073225109135542 -0.31627836322782749 0 0.08082340728165055 -0.32436253896592587 0 0.096538283849376572 -0.32969778045201081 0 0.084493813641146234 -0.34694187487351091 0 0.096538283849376572 -0.32969778045201081 0 0.08082340728165055 -0.32436253896592587 0 0.083856513523094811 -0.33518863497788198 0 0.096538283849376572 -0.32969778045201081 0 0.084493813641146234 -0.34694187487351091 0 0.083856513523094811 -0.33518863497788198 0 0.084493813641146234 -0.34694187487351091 0 0.083856513523094811 -0.33518863497788198 0 0.073570549320205916 -0.33975234562008061 0 0.08082340728165055 -0.32436253896592587 0 0.083856513523094811 -0.33518863497788198 0 0.073570549320205916 -0.33975234562008061 0 0.073570549320205916 -0.33975234562008061 0 0.060178146173354791 -0.3174555775130819 0 0.073570549320205916 -0.33975234562008061 0 0.060178146173354791 -0.3174555775130819 0 0.056511909289634843 -0.3357208023688466 0 0.06796488474572332 -0.351974222942186 0 0.073570549320205916 -0.33975234562008061 0 0.056511909289634843 -0.3357208023688466 0 0.078429992169200838 -0.3069919925573828 0 0.08082340728165055 -0.32436253896592587 0 0.060178146173354791 -0.3174555775130819 0 0.08082340728165055 -0.32436253896592587 0 0.073570549320205916 -0.33975234562008061 0 0.060178146173354791 -0.3174555775130819 0 0.060178146173354791 -0.3174555775130819 0 0.044045345668940812 -0.32189287298562502 0 0.041047815016546203 -0.3071756284262116 0 0.060178146173354791 -0.3174555775130819 0 0.056511909289634843 -0.3357208023688466 0 0.044045345668940812 -0.32189287298562502 0 0.056511909289634843 -0.3357208023688466 0 0.035238229322700293 -0.33898819380704193 0 0.054525957478152483 -0.35153491155473748 0 0.056511909289634843 -0.3357208023688466 0 0.035238229322700293 -0.33898819380704193 0 0.044045345668940812 -0.32189287298562502 0 0.044045345668940812 -0.32189287298562502 0 0.026634596766646479 -0.31138689027990041 0 0.041047815016546203 -0.3071756284262116 0 0.035238229322700293 -0.33898819380704193 0 0.044045345668940812 -0.32189287298562502 0 0.026634596766646479 -0.31138689027990041 0 0.073813685633605158 -0.36408162930243221 0 0.058375723645234259 -0.36487302097340618 0 0.054525957478152483 -0.35153491155473748 0 0.053990086585599478 -0.37369286474469221 0 0.058375723645234259 -0.36487302097340618 0 0.043118674791166878 -0.36426944168543057 0 0.063466827646366741 -0.37607830675611192 0 0.053990086585599478 -0.37369286474469221 0 0.058375723645234259 -0.36487302097340618 0 0.058375723645234259 -0.36487302097340618 0 0.054525957478152483 -0.35153491155473748 0 0.043118674791166878 -0.36426944168543057 0 0.06796488474572332 -0.351974222942186 0 0.056511909289634843 -0.3357208023688466 0 0.054525957478152483 -0.35153491155473748 0 0.035238229322700293 -0.33898819380704193 0 0.054525957478152483 -0.35153491155473748 0 0.043118674791166878 -0.36426944168543057 0 0.035238229322700293 -0.33898819380704193 0 0.043118674791166878 -0.36426944168543057 0 0.029301780152147221 -0.35463906208129847 0 0.035238229322700293 -0.33898819380704193 0 0.054525957478152483 -0.35153491155473748 0 0.035238229322700293 -0.33898819380704193 0 0.043118674791166878 -0.36426944168543057 0 0.043118674791166878 -0.36426944168543057 0 0.029121168347510641 -0.36818654530316658 0 0.029301780152147221 -0.35463906208129847 0 0.041378038689220811 -0.37830796348130058 0 0.043118674791166878 -0.36426944168543057 0 0.029121168347510641 -0.36818654530316658 0 0.0081625739511966347 -0.37959504827830032 0 0.029121168347510641 -0.36818654530316658 0 0.016748305998863261 -0.35785406172692902 0 0.029121168347510641 -0.36818654530316658 0 0.016748305998863261 -0.35785406172692902 0 0.029301780152147221 -0.35463906208129847 0 0.035238229322700293 -0.33898819380704193 0 0.029301780152147221 -0.35463906208129847 0 0.0226462391312841 -0.34503232884643559 0 0.016748305998863261 -0.35785406172692902 0 0.029301780152147221 -0.35463906208129847 0 0.0226462391312841 -0.34503232884643559 0 0.016748305998863261 -0.35785406172692902 0 0.0226462391312841 -0.34503232884643559 0 0.01042414134484887 -0.34361669734997707 0 0.016748305998863261 -0.35785406172692902 0 0.00064886371917051487 -0.36216327411849342 0 0.01042414134484887 -0.34361669734997707 0 -0.0064528311403182041 -0.34658308637676433 0 0.00064886371917051487 -0.36216327411849342 0 0.01042414134484887 -0.34361669734997707 0 0.0081625739511966347 -0.37959504827830032 0 0.016748305998863261 -0.35785406172692902 0 0.00064886371917051487 -0.36216327411849342 0 0.018775482653987971 -0.31927318025934509 0 0.02151873883786086 -0.33006362926693139 0 0.026634596766646479 -0.31138689027990041 0 0.035238229322700293 -0.33898819380704193 0 0.02151873883786086 -0.33006362926693139 0 0.026634596766646479 -0.31138689027990041 0 0.035238229322700293 -0.33898819380704193 0 0.026634596766646479 -0.31138689027990041 0 0.018775482653987971 -0.31927318025934509 0 0.02151873883786086 -0.33006362926693139 0 0.0077992483530218036 -0.3211390647268203 0 0.035238229322700293 -0.33898819380704193 0 0.02151873883786086 -0.33006362926693139 0 0.035238229322700293 -0.33898819380704193 0 0.0226462391312841 -0.34503232884643559 0 0.02151873883786086 -0.33006362926693139 0 0.0226462391312841 -0.34503232884643559 0 0.02151873883786086 -0.33006362926693139 0 0.01042414134484887 -0.34361669734997707 0 -0.0064528311403182041 -0.34658308637676433 0 0.0077992483530218036 -0.3211390647268203 0 -0.0064528311403182041 -0.34658308637676433 0 0.01042414134484887 -0.34361669734997707 0 0.0077992483530218036 -0.3211390647268203 0 0.02151873883786086 -0.33006362926693139 0 0.01042414134484887 -0.34361669734997707 0 0.0077992483530218036 -0.3211390647268203 0 -0.00090219304442910116 -0.32233256723130188 0 -0.0058317805359695014 -0.33092424562459982 0 0.0077992483530218036 -0.3211390647268203 0 0.018775482653987971 -0.31927318025934509 0 0.0077992483530218036 -0.3211390647268203 0 0.017915181090379831 -0.30307924323206181 0 0.02151873883786086 -0.33006362926693139 0 0.0077992483530218036 -0.3211390647268203 0 -0.00090219304442910116 -0.32233256723130188 0 0.0077992483530218036 -0.3211390647268203 0 0.001804894369510784 -0.31723972174019571 0 0.0077992483530218036 -0.3211390647268203 0 0.001804894369510784 -0.31723972174019571 0 0.0068020784681082167 -0.30906778812607683 0 0.0077992483530218036 -0.3211390647268203 0 0.001804894369510784 -0.31723972174019571 0 -0.001218064301224819 -0.30894404495570632 0 0.0068020784681082167 -0.30906778812607683 0 0.00096569162923609538 -0.29956240717707422 0 0.0077992483530218036 -0.3211390647268203 0 0.0068020784681082167 -0.30906778812607683 0 0.017915181090379831 -0.30307924323206181 0 0.0068020784681082167 -0.30906778812607683 0 0.00096569162923609538 -0.29956240717707422 0 0.017915181090379831 -0.30307924323206181 0 0.0077992483530218036 -0.3211390647268203 0 0.017915181090379831 -0.30307924323206181 0 -0.001218064301224819 -0.30894404495570632 0 0.001804894369510784 -0.31723972174019571 0 0.0068020784681082167 -0.30906778812607683 0 0.00096569162923609538 -0.29956240717707422 0 0.0009930660910825867 -0.28153755441145178 0 0.017915181090379831 -0.30307924323206181 0 0.0009930660910825867 -0.28153755441145178 0 0.028031113827737021 -0.28501942173730282 0 0.028031113827737021 -0.28501942173730282 0 0.017915181090379831 -0.30307924323206181 0 0.028031113827737021 -0.28501942173730282 0 0.02611645240398015 -0.3032010961394544 0 0.033389677150844482 -0.29898715379016599 0 0.0009930660910825867 -0.28153755441145178 0 0.028031113827737021 -0.28501942173730282 0 0.017915181090379831 -0.30307924323206181 0 0.028031113827737021 -0.28501942173730282 0 0.017915181090379831 -0.30307924323206181 0 0.02611645240398015 -0.3032010961394544 0 0.018775482653987971 -0.31927318025934509 0 0.017915181090379831 -0.30307924323206181 0 0.026634596766646479 -0.31138689027990041 0 0.02611645240398015 -0.3032010961394544 0 0.026634596766646479 -0.31138689027990041 0 0.033389677150844482 -0.29898715379016599 0 0.017915181090379831 -0.30307924323206181 0 0.02611645240398015 -0.3032010961394544 0 0.026634596766646479 -0.31138689027990041 0 0.026634596766646479 -0.31138689027990041 0 0.041047815016546203 -0.3071756284262116 0 0.033389677150844482 -0.29898715379016599 0 0.041047815016546203 -0.3071756284262116 0 0.041922594825666112 -0.29581799407060583 0 0.046785743026502923 -0.29515880940608358 0 0.041047815016546203 -0.3071756284262116 0 0.033389677150844482 -0.29898715379016599 0 0.041922594825666112 -0.29581799407060583 0 0.028031113827737021 -0.28501942173730282 0 0.037808543440663679 -0.2914911706555775 0 0.047077431067705663 -0.28747214133900961 0 0.028031113827737021 -0.28501942173730282 0 0.047077431067705663 -0.28747214133900961 0 0.028031113827737021 -0.28501942173730282 0 0.033389677150844482 -0.29898715379016599 0 0.037808543440663679 -0.2914911706555775 0 0.028031113827737021 -0.28501942173730282 0 0.047077431067705663 -0.28747214133900961 0 0.038591128871878863 -0.28000799642568303 0 0.033389677150844482 -0.29898715379016599 0 0.037808543440663679 -0.2914911706555775 0 0.041922594825666112 -0.29581799407060583 0 0.037808543440663679 -0.2914911706555775 0 0.044685677602964297 -0.29166244872721642 0 0.047077431067705663 -0.28747214133900961 0 0.037808543440663679 -0.2914911706555775 0 0.041922594825666112 -0.29581799407060583 0 0.044685677602964297 -0.29166244872721642 0 0.044685677602964297 -0.29166244872721642 0 0.046785743026502923 -0.29515880940608358 0 0.047077431067705663 -0.28747214133900961 0 0.041922594825666112 -0.29581799407060583 0 0.044855816753234322 -0.29457327643457232 0 0.046785743026502923 -0.29515880940608358 0 0.044685677602964297 -0.29166244872721642 0 0.046785743026502923 -0.29515880940608358 0 0.041922594825666112 -0.29581799407060583 0 0.044685677602964297 -0.29166244872721642 0 0.044855816753234322 -0.29457327643457232 0 0.044685677602964297 -0.29166244872721642 0 0.044855816753234322 -0.29457327643457232 0 0.046785743026502923 -0.29515880940608358 0 0.068887727892631326 -0.29028079677972207 0 0.047077431067705663 -0.28747214133900961 0 0.060271808065879111 -0.29947186351905603 0 0.046785743026502923 -0.29515880940608358 0 0.047077431067705663 -0.28747214133900961 0 0.060271808065879111 -0.29947186351905603 0 0.068887727892631326 -0.29028079677972207 0 0.047077431067705663 -0.28747214133900961 0 0.068887727892631326 -0.29028079677972207 0 0.062804284913018135 -0.27502441074476702 0 0.047077431067705663 -0.28747214133900961 0 0.046785743026502923 -0.29515880940608358 0 0.047077431067705663 -0.28747214133900961 0 0.060178146173354791 -0.3174555775130819 0 0.046785743026502923 -0.29515880940608358 0 0.060271808065879111 -0.29947186351905603 0 0.060178146173354791 -0.3174555775130819 0 0.041047815016546203 -0.3071756284262116 0 0.046785743026502923 -0.29515880940608358 0 0.060178146173354791 -0.3174555775130819 0 0.046785743026502923 -0.29515880940608358 0 0.055536617082742101 -0.25142090382798621 0 0.062381111266618439 -0.26046915535353149 0 0.063372039046269812 -0.24359189162298511 0 0.04811418637971758 -0.26015119284474891 0 0.055260069715091412 -0.26016925976907829 0 0.055008364131287527 -0.26863578705004681 0 0.04811418637971758 -0.26015119284474891 0 0.055536617082742101 -0.25142090382798621 0 0.055260069715091412 -0.26016925976907829 0 0.055536617082742101 -0.25142090382798621 0 0.062381111266618439 -0.26046915535353149 0 0.055260069715091412 -0.26016925976907829 0 0.062381111266618439 -0.26046915535353149 0 0.055260069715091412 -0.26016925976907829 0 0.055008364131287527 -0.26863578705004681 0 0.062804284913018135 -0.27502441074476702 0 0.047077431067705663 -0.28747214133900961 0 0.055008364131287527 -0.26863578705004681 0 0.047077431067705663 -0.28747214133900961 0 0.04811418637971758 -0.26015119284474891 0 0.062804284913018135 -0.27502441074476702 0 0.062381111266618439 -0.26046915535353149 0 0.055008364131287527 -0.26863578705004681 0 0.047077431067705663 -0.28747214133900961 0 0.04811418637971758 -0.26015119284474891 0 0.055008364131287527 -0.26863578705004681 0 0.047077431067705663 -0.28747214133900961 0 0.04811418637971758 -0.26015119284474891 0 0.038591128871878863 -0.28000799642568303 0 0.04811418637971758 -0.26015119284474891 0 0.038591128871878863 -0.28000799642568303 0 0.035914226014140627 -0.27094582095269698 0 0.028031113827737021 -0.28501942173730282 0 0.038591128871878863 -0.28000799642568303 0 0.035914226014140627 -0.27094582095269698 0 0.028031113827737021 -0.28501942173730282 0 0.035914226014140627 -0.27094582095269698 0 0.035914226014140627 -0.27094582095269698 0 0.033684975717333143 -0.26077258889199828 0 0.043797338200541387 -0.25687222016808969 0 0.04811418637971758 -0.26015119284474891 0 0.035914226014140627 -0.27094582095269698 0 0.043797338200541387 -0.25687222016808969 0 0.035914226014140627 -0.27094582095269698 0 0.043797338200541387 -0.25687222016808969 0 0.033684975717333143 -0.26077258889199828 0 0.043797338200541387 -0.25687222016808969 0 0.032179126181802568 -0.25206969633033882 0 0.043797338200541387 -0.25687222016808969 0 0.032179126181802568 -0.25206969633033882 0 0.035419798959639953 -0.24238968088984081 0 0.032179126181802568 -0.25206969633033882 0 0.02552898869480167 -0.25588408639671012 0 0.022464529336696699 -0.2444299053050549 0 0.033684975717333143 -0.26077258889199828 0 0.032179126181802568 -0.25206969633033882 0 0.02552898869480167 -0.25588408639671012 0 0.033684975717333143 -0.26077258889199828 0 0.02552898869480167 -0.25588408639671012 0 0.020718671013950991 -0.26767078549695889 0 0.02552898869480167 -0.25588408639671012 0 0.020718671013950991 -0.26767078549695889 0 0.01460910680774407 -0.25666082887372338 0 0.02552898869480167 -0.25588408639671012 0 0.01460910680774407 -0.25666082887372338 0 0.022464529336696699 -0.2444299053050549 0 0.028031113827737021 -0.28501942173730282 0 0.035914226014140627 -0.27094582095269698 0 0.020718671013950991 -0.26767078549695889 0 0.0009930660910825867 -0.28153755441145178 0 0.028031113827737021 -0.28501942173730282 0 0.020718671013950991 -0.26767078549695889 0 0.035914226014140627 -0.27094582095269698 0 0.033684975717333143 -0.26077258889199828 0 0.020718671013950991 -0.26767078549695889 0 0.0009930660910825867 -0.28153755441145178 0 0.020718671013950991 -0.26767078549695889 0 0.0055715618356646087 -0.26366604158818169 0 0.01460910680774407 -0.25666082887372338 0 0.001132853500818054 -0.25333800061779432 0 0.009567360668603914 -0.24694342463332281 0 0.020718671013950991 -0.26767078549695889 0 0.01460910680774407 -0.25666082887372338 0 0.0055715618356646087 -0.26366604158818169 0 0.01460910680774407 -0.25666082887372338 0 0.0055715618356646087 -0.26366604158818169 0 0.001132853500818054 -0.25333800061779432 0 -0.0066164347875948808 -0.24271512594326239 0 0.001132853500818054 -0.25333800061779432 0 0.009567360668603914 -0.24694342463332281 0 -0.0066164347875948808 -0.24271512594326239 0 0.009567360668603914 -0.24694342463332281 0 0.011013661382486779 -0.23488891133629899 0 0.01460910680774407 -0.25666082887372338 0 0.009567360668603914 -0.24694342463332281 0 0.022464529336696699 -0.2444299053050549 0 0.009567360668603914 -0.24694342463332281 0 0.011013661382486779 -0.23488891133629899 0 0.022464529336696699 -0.2444299053050549 0 -0.0066164347875948808 -0.24271512594326239 0 -5.7255641541217699e-05 -0.22481575049984709 0 0.011013661382486779 -0.23488891133629899 0 -5.7255641541217699e-05 -0.22481575049984709 0 0.011013661382486779 -0.23488891133629899 0 0.023837384993539351 -0.22439980216759711 0 0.011013661382486779 -0.23488891133629899 0 0.023837384993539351 -0.22439980216759711 0 0.022464529336696699 -0.2444299053050549 0 0.023837384993539351 -0.22439980216759711 0 0.022464529336696699 -0.2444299053050549 0 0.035419798959639953 -0.24238968088984081 0 0.032179126181802568 -0.25206969633033882 0 0.022464529336696699 -0.2444299053050549 0 0.035419798959639953 -0.24238968088984081 0 -0.001832913880063871 -0.18948146249523201 0 0.0062936657237188491 -0.204298398676966 0 0.0177300727851002 -0.18356383807142759 0 -5.7255641541217699e-05 -0.22481575049984709 0 0.023837384993539351 -0.22439980216759711 0 0.0062936657237188491 -0.204298398676966 0 0.023837384993539351 -0.22439980216759711 0 0.0062936657237188491 -0.204298398676966 0 0.033364142888083939 -0.21074862651753931 0 0.0062936657237188491 -0.204298398676966 0 0.032952284619127033 -0.1931183536641399 0 0.033364142888083939 -0.21074862651753931 0 0.0062936657237188491 -0.204298398676966 0 0.032952284619127033 -0.1931183536641399 0 0.0062936657237188491 -0.204298398676966 0 0.032952284619127033 -0.1931183536641399 0 0.0177300727851002 -0.18356383807142759 0 0.032952284619127033 -0.1931183536641399 0 0.059610903514535282 -0.18193830865131369 0 0.033364142888083939 -0.21074862651753931 0 0.050187697003736188 -0.20550929585622729 0 0.049150941691726881 -0.2328302443504881 0 0.032952284619127033 -0.1931183536641399 0 0.033364142888083939 -0.21074862651753931 0 0.050187697003736188 -0.20550929585622729 0 0.050187697003736188 -0.20550929585622729 0 0.064363832717192135 -0.22736239360142091 0 0.06979038329953495 -0.21322976116705639 0 0.032952284619127033 -0.1931183536641399 0 0.050187697003736188 -0.20550929585622729 0 0.059610903514535282 -0.18193830865131369 0 0.050187697003736188 -0.20550929585622729 0 0.071023032245795675 -0.19548068956319839 0 0.059610903514535282 -0.18193830865131369 0 0.043797338200541387 -0.25687222016808969 0 0.035419798959639953 -0.24238968088984081 0 0.049150941691726881 -0.2328302443504881 0 0.023837384993539351 -0.22439980216759711 0 0.035419798959639953 -0.24238968088984081 0 0.049150941691726881 -0.2328302443504881 0 0.023837384993539351 -0.22439980216759711 0 0.033364142888083939 -0.21074862651753931 0 0.049150941691726881 -0.2328302443504881 0 0.050187697003736188 -0.20550929585622729 0 0.049150941691726881 -0.2328302443504881 0 0.064363832717192135 -0.22736239360142091 0 0.050187697003736188 -0.20550929585622729 0 0.049150941691726881 -0.2328302443504881 0 0.04811418637971758 -0.26015119284474891 0 0.043797338200541387 -0.25687222016808969 0 0.049150941691726881 -0.2328302443504881 0 0.049150941691726881 -0.2328302443504881 0 0.063372039046269812 -0.24359189162298511 0 0.064363832717192135 -0.22736239360142091 0 0.04811418637971758 -0.26015119284474891 0 0.049150941691726881 -0.2328302443504881 0 0.055536617082742101 -0.25142090382798621 0 0.049150941691726881 -0.2328302443504881 0 0.063372039046269812 -0.24359189162298511 0 0.04811418637971758 -0.26015119284474891 0 0.055536617082742101 -0.25142090382798621 0 0.049150941691726881 -0.2328302443504881 0 0.063372039046269812 -0.24359189162298511 0 0.078179082113300435 -0.23333474103566859 0 0.064363832717192135 -0.22736239360142091 0 0.072880416832233008 -0.25096375523048992 0 0.063372039046269812 -0.24359189162298511 0 0.078179082113300435 -0.23333474103566859 0 0.091460813072920422 -0.25727321876019149 0 0.083870927088600528 -0.2476168044414524 0 0.094262782717805998 -0.24015224523938489 0 0.083870927088600528 -0.2476168044414524 0 0.078179082113300435 -0.23333474103566859 0 0.094262782717805998 -0.24015224523938489 0 0.072880416832233008 -0.25096375523048992 0 0.083870927088600528 -0.2476168044414524 0 0.078179082113300435 -0.23333474103566859 0 0.078179082113300435 -0.23333474103566859 0 0.094262782717805998 -0.24015224523938489 0 0.1009195595573158 -0.23533201197714421 0 0.078179082113300435 -0.23333474103566859 0 0.1009195595573158 -0.23533201197714421 0 0.090598735940324235 -0.22447899111596209 0 0.078179082113300435 -0.23333474103566859 0 0.1009195595573158 -0.23533201197714421 0 0.090598735940324235 -0.22447899111596209 0 0.078179082113300435 -0.23333474103566859 0 0.079211968783879219 -0.22091823008517661 0 0.079211968783879219 -0.22091823008517661 0 0.064363832717192135 -0.22736239360142091 0 0.06979038329953495 -0.21322976116705639 0 0.078179082113300435 -0.23333474103566859 0 0.079211968783879219 -0.22091823008517661 0 0.064363832717192135 -0.22736239360142091 0 0.050187697003736188 -0.20550929585622729 0 0.06979038329953495 -0.21322976116705639 0 0.071023032245795675 -0.19548068956319839 0 0.06979038329953495 -0.21322976116705639 0 0.071023032245795675 -0.19548068956319839 0 0.088568700497640443 -0.20943022068167311 0 0.071023032245795675 -0.19548068956319839 0 0.088568700497640443 -0.20943022068167311 0 0.071023032245795675 -0.19548068956319839 0 0.088568700497640443 -0.20943022068167311 0 0.096556255667569549 -0.1886782786753767 0 0.079211968783879219 -0.22091823008517661 0 0.06979038329953495 -0.21322976116705639 0 0.088568700497640443 -0.20943022068167311 0 0.090598735940324235 -0.22447899111596209 0 0.079211968783879219 -0.22091823008517661 0 0.088568700497640443 -0.20943022068167311 0 0.088568700497640443 -0.20943022068167311 0 0.1061143687494852 -0.22337975180014799 0 0.088568700497640443 -0.20943022068167311 0 0.1087380312032941 -0.20743127830680241 0 0.1061143687494852 -0.22337975180014799 0 0.088568700497640443 -0.20943022068167311 0 0.1087380312032941 -0.20743127830680241 0 0.096556255667569549 -0.1886782786753767 0 0.1087380312032941 -0.20743127830680241 0 0.096556255667569549 -0.1886782786753767 0 0.11931245204809771 -0.1870584185114415 0 0.1087380312032941 -0.20743127830680241 0 0.11931245204809771 -0.1870584185114415 0 0.12874846310804949 -0.2107776762610549 0 0.1087380312032941 -0.20743127830680241 0 0.1205804478484914 -0.22195912213603489 0 0.1061143687494852 -0.22337975180014799 0 0.1087380312032941 -0.20743127830680241 0 0.1205804478484914 -0.22195912213603489 0 0.12874846310804949 -0.2107776762610549 0 0.1205804478484914 -0.22195912213603489 0 0.12366003700133101 -0.2373292829186216 0 0.1061143687494852 -0.22337975180014799 0 0.12366003700133101 -0.2373292829186216 0 0.1009195595573158 -0.23533201197714421 0 0.1061143687494852 -0.22337975180014799 0 0.12366003700133101 -0.2373292829186216 0 0.1061143687494852 -0.22337975180014799 0 0.12366003700133101 -0.2373292829186216 0 0.1009195595573158 -0.23533201197714421 0 0.1110954753030154 -0.24696600708057559 0 0.12366003700133101 -0.2373292829186216 0 0.1009195595573158 -0.23533201197714421 0 0.12781738792472361 -0.25630073961036098 0 0.1110954753030154 -0.24696600708057559 0 0.12366003700133101 -0.2373292829186216 0 0.1110954753030154 -0.24696600708057559 0 0.094262782717805998 -0.24015224523938489 0 0.1009195595573158 -0.23533201197714421 0 0.090598735940324235 -0.22447899111596209 0 0.1009195595573158 -0.23533201197714421 0 0.1061143687494852 -0.22337975180014799 0 0.090598735940324235 -0.22447899111596209 0 0.088568700497640443 -0.20943022068167311 0 0.1061143687494852 -0.22337975180014799 0 0.1148461764638975 -0.14404608003039901 0 0.1061705096329378 -0.16643727976594261 0 0.093732505834455693 -0.14516456847118189 0 0.1013339836899915 -0.12642382478405781 0 0.1148461764638975 -0.14404608003039901 0 0.093732505834455693 -0.14516456847118189 0 0.1013339836899915 -0.12642382478405781 0 0.1238389007101184 -0.12538748776530201 0 0.1148461764638975 -0.14404608003039901 0 0.11931245204809771 -0.1870584185114415 0 0.1061705096329378 -0.16643727976594261 0 0.12647954811933559 -0.1605037134453817 0 0.1148461764638975 -0.14404608003039901 0 0.1061705096329378 -0.16643727976594261 0 0.12647954811933559 -0.1605037134453817 0 0.096556255667569549 -0.1886782786753767 0 0.11931245204809771 -0.1870584185114415 0 0.1061705096329378 -0.16643727976594261 0 0.096556255667569549 -0.1886782786753767 0 0.1061705096329378 -0.16643727976594261 0 0.086269522409943511 -0.17075826363848759 0 0.1061705096329378 -0.16643727976594261 0 0.086269522409943511 -0.17075826363848759 0 0.093732505834455693 -0.14516456847118189 0 0.071023032245795675 -0.19548068956319839 0 0.096556255667569549 -0.1886782786753767 0 0.086269522409943511 -0.17075826363848759 0 0.086269522409943511 -0.17075826363848759 0 0.059610903514535282 -0.18193830865131369 0 0.071023032245795675 -0.19548068956319839 0 0.086269522409943511 -0.17075826363848759 0 0.059610903514535282 -0.18193830865131369 0 0.086269522409943511 -0.17075826363848759 0 0.065756760188130162 -0.1633713506721626 0 0.059610903514535282 -0.18193830865131369 0 0.086269522409943511 -0.17075826363848759 0 0.065756760188130162 -0.1633713506721626 0 0.074987911939004212 -0.1498379484015275 0 0.065756760188130162 -0.1633713506721626 0 0.074987911939004212 -0.1498379484015275 0 0.056346882446819048 -0.14319360389746211 0 0.086269522409943511 -0.17075826363848759 0 0.074987911939004212 -0.1498379484015275 0 0.093732505834455693 -0.14516456847118189 0 0.1013339836899915 -0.12642382478405781 0 0.093732505834455693 -0.14516456847118189 0 0.072527652454640296 -0.12602419547075139 0 0.074987911939004212 -0.1498379484015275 0 0.093732505834455693 -0.14516456847118189 0 0.072527652454640296 -0.12602419547075139 0 0.074987911939004212 -0.1498379484015275 0 0.072527652454640296 -0.12602419547075139 0 0.056346882446819048 -0.14319360389746211 0 0.072527652454640296 -0.12602419547075139 0 0.056346882446819048 -0.14319360389746211 0 0.044383157529222991 -0.12551210744171701 0 0.065756760188130162 -0.1633713506721626 0 0.056346882446819048 -0.14319360389746211 0 0.047217574412801541 -0.1614990167153553 0 0.056346882446819048 -0.14319360389746211 0 0.0393155074808164 -0.145986638980766 0 0.047217574412801541 -0.1614990167153553 0 0.0393155074808164 -0.145986638980766 0 0.047217574412801541 -0.1614990167153553 0 0.02452319270087502 -0.159174330488809 0 0.0393155074808164 -0.145986638980766 0 0.044383157529222991 -0.12551210744171701 0 0.024672505775480521 -0.13584365341497881 0 0.056346882446819048 -0.14319360389746211 0 0.0393155074808164 -0.145986638980766 0 0.044383157529222991 -0.12551210744171701 0 0.059610903514535282 -0.18193830865131369 0 0.047217574412801541 -0.1614990167153553 0 0.036406805606487812 -0.17585876951820911 0 0.065756760188130162 -0.1633713506721626 0 0.059610903514535282 -0.18193830865131369 0 0.047217574412801541 -0.1614990167153553 0 0.047217574412801541 -0.1614990167153553 0 0.036406805606487812 -0.17585876951820911 0 0.02452319270087502 -0.159174330488809 0 0.032952284619127033 -0.1931183536641399 0 0.059610903514535282 -0.18193830865131369 0 0.036406805606487812 -0.17585876951820911 0 0.036406805606487812 -0.17585876951820911 0 0.0177300727851002 -0.18356383807142759 0 0.02452319270087502 -0.159174330488809 0 0.032952284619127033 -0.1931183536641399 0 0.036406805606487812 -0.17585876951820911 0 0.0177300727851002 -0.18356383807142759 0 0.02452319270087502 -0.159174330488809 0 0.002497602333390581 -0.17513408624846249 0 0.0027139176769928391 -0.15513218753068189 0 -0.001832913880063871 -0.18948146249523201 0 0.0177300727851002 -0.18356383807142759 0 0.002497602333390581 -0.17513408624846249 0 0.0177300727851002 -0.18356383807142759 0 0.02452319270087502 -0.159174330488809 0 0.002497602333390581 -0.17513408624846249 0 0.02452319270087502 -0.159174330488809 0 0.024672505775480521 -0.13584365341497881 0 0.0027139176769928391 -0.15513218753068189 0 0.0393155074808164 -0.145986638980766 0 0.02452319270087502 -0.159174330488809 0 0.024672505775480521 -0.13584365341497881 0 0.024672505775480521 -0.13584365341497881 0 0.0027139176769928391 -0.15513218753068189 0 0.0031716933938910549 -0.1279946343258361 0 0.0031716933938910549 -0.1279946343258361 0 0.023522603621839399 -0.107751300817022 0 -0.0040072478643717636 -0.10183159143133461 0 0.0031716933938910549 -0.1279946343258361 0 0.023522603621839399 -0.107751300817022 0 0.024672505775480521 -0.13584365341497881 0 0.0031716933938910549 -0.1279946343258361 0 0.023522603621839399 -0.107751300817022 0 0.044383157529222991 -0.12551210744171701 0 0.024672505775480521 -0.13584365341497881 0 0.023522603621839399 -0.107751300817022 0 0.023522603621839399 -0.107751300817022 0 0.01890081529004221 -0.089935957067165631 0 0.04387351384978775 -0.08750796730820791 0 -0.0040072478643717636 -0.10183159143133461 0 0.023522603621839399 -0.107751300817022 0 0.01890081529004221 -0.089935957067165631 0 -0.0040072478643717636 -0.10183159143133461 0 0.0048234998987816248 -0.077730636789505952 0 -0.0040072478643717636 -0.10183159143133461 0 0.0048234998987816248 -0.077730636789505952 0 0.01890081529004221 -0.089935957067165631 0 0.0048234998987816248 -0.077730636789505952 0 0.026291706944174049 -0.074858288989757674 0 0.01365424766193501 -0.053629682147677271 0 0.0048234998987816248 -0.077730636789505952 0 0.01365424766193501 -0.053629682147677271 0 -0.011885421224751801 -0.064064825071286663 0 0.0048234998987816248 -0.077730636789505952 0 0.01365424766193501 -0.053629682147677271 0 0.026291706944174049 -0.074858288989757674 0 0.01365424766193501 -0.053629682147677271 0 0.032404074388307301 -0.061118388562579888 0 0.0048234998987816248 -0.077730636789505952 0 0.026291706944174049 -0.074858288989757674 0 0.01890081529004221 -0.089935957067165631 0 0.026291706944174049 -0.074858288989757674 0 0.01890081529004221 -0.089935957067165631 0 0.04387351384978775 -0.08750796730820791 0 0.026291706944174049 -0.074858288989757674 0 0.04387351384978775 -0.08750796730820791 0 0.047900455249400432 -0.073376299682127097 0 0.047900455249400432 -0.073376299682127097 0 0.032404074388307301 -0.061118388562579888 0 0.042709716979834743 -0.055435792295508948 0 0.026291706944174049 -0.074858288989757674 0 0.047900455249400432 -0.073376299682127097 0 0.032404074388307301 -0.061118388562579888 0 0.04387351384978775 -0.08750796730820791 0 0.064224424077736125 -0.067264633799393792 0 0.06420806520237142 -0.078021708552390656 0 0.04387351384978775 -0.08750796730820791 0 0.064224424077736125 -0.067264633799393792 0 0.047900455249400432 -0.073376299682127097 0 0.063293272274149603 -0.059791786424778531 0 0.064224424077736125 -0.067264633799393792 0 0.04387351384978775 -0.08750796730820791 0 0.047900455249400432 -0.073376299682127097 0 0.064224424077736125 -0.067264633799393792 0 0.047900455249400432 -0.073376299682127097 0 0.063293272274149603 -0.059791786424778531 0 0.04387351384978775 -0.08750796730820791 0 0.054784633052771058 -0.099223507435420008 0 0.064096312648292256 -0.08957401037831822 0 0.04387351384978775 -0.08750796730820791 0 0.064096312648292256 -0.08957401037831822 0 0.06420806520237142 -0.078021708552390656 0 0.054784633052771058 -0.099223507435420008 0 0.056159935339701067 -0.11173371516430659 0 0.071954418266344244 -0.1055443816971123 0 0.04387351384978775 -0.08750796730820791 0 0.054784633052771058 -0.099223507435420008 0 0.044481627894775083 -0.1063573240344164 0 0.054784633052771058 -0.099223507435420008 0 0.056159935339701067 -0.11173371516430659 0 0.044481627894775083 -0.1063573240344164 0 0.072527652454640296 -0.12602419547075139 0 0.044383157529222991 -0.12551210744171701 0 0.056159935339701067 -0.11173371516430659 0 0.044383157529222991 -0.12551210744171701 0 0.056159935339701067 -0.11173371516430659 0 0.044481627894775083 -0.1063573240344164 0 0.044383157529222991 -0.12551210744171701 0 0.023522603621839399 -0.107751300817022 0 0.044481627894775083 -0.1063573240344164 0 0.023522603621839399 -0.107751300817022 0 0.04387351384978775 -0.08750796730820791 0 0.023522603621839399 -0.107751300817022 0 0.04387351384978775 -0.08750796730820791 0 0.044481627894775083 -0.1063573240344164 0 0.018135682798734901 -0.011552118573024871 0 0.022484995425088399 -0.029528727505848611 0 0.03131574318824179 -0.0054277728640199432 0 0.014054210519925151 0.0035720571881815949 0 0.042122726037603628 -0.0021610766017879451 0 0.03131574318824179 -0.0054277728640199432 0 0.014054210519925151 0.0035720571881815949 0 0.018135682798734901 -0.011552118573024871 0 0.03131574318824179 -0.0054277728640199432 0 0.014054210519925151 0.0035720571881815949 0 0.018135682798734901 -0.011552118573024871 0 0.0046877820616839788 -0.014824031110414009 0 -0.0066317386901698708 0.00012469464361213051 0 0.014054210519925151 0.0035720571881815949 0 0.0046877820616839788 -0.014824031110414009 0 0.0046877820616839788 -0.014824031110414009 0 0.022484995425088399 -0.029528727505848611 0 0.0053656951540007759 -0.033063162948168578 0 0.018135682798734901 -0.011552118573024871 0 0.0046877820616839788 -0.014824031110414009 0 0.022484995425088399 -0.029528727505848611 0 0.022484995425088399 -0.029528727505848611 0 0.037602265575652882 -0.017244374912025299 0 0.03131574318824179 -0.0054277728640199432 0 0.022484995425088399 -0.029528727505848611 0 0.03131574318824179 -0.0054277728640199432 0 0.022484995425088399 -0.029528727505848611 0 0.01365424766193501 -0.053629682147677271 0 0.031464245106192237 -0.04829187969782843 0 0.022484995425088399 -0.029528727505848611 0 0.01365424766193501 -0.053629682147677271 0 0.022484995425088399 -0.029528727505848611 0 0.0053656951540007759 -0.033063162948168578 0 0.01365424766193501 -0.053629682147677271 0 -0.0047045664312333523 -0.044839655199411681 0 0.0053656951540007759 -0.033063162948168578 0 0.01365424766193501 -0.053629682147677271 0 0.01365424766193501 -0.053629682147677271 0 0.032404074388307301 -0.061118388562579888 0 0.031464245106192237 -0.04829187969782843 0 0.031464245106192237 -0.04829187969782843 0 0.042709716979834743 -0.055435792295508948 0 0.045357370514599309 -0.038716041489384109 0 0.032404074388307301 -0.061118388562579888 0 0.031464245106192237 -0.04829187969782843 0 0.042709716979834743 -0.055435792295508948 0 0.047900455249400432 -0.073376299682127097 0 0.05365198601076495 -0.053577267156964252 0 0.063293272274149603 -0.059791786424778531 0 0.05365198601076495 -0.053577267156964252 0 0.060111134253740442 -0.043639793430968667 0 0.063293272274149603 -0.059791786424778531 0 0.047900455249400432 -0.073376299682127097 0 0.042709716979834743 -0.055435792295508948 0 0.05365198601076495 -0.053577267156964252 0 0.042709716979834743 -0.055435792295508948 0 0.05365198601076495 -0.053577267156964252 0 0.045357370514599309 -0.038716041489384109 0 0.05365198601076495 -0.053577267156964252 0 0.060111134253740442 -0.043639793430968667 0 0.045357370514599309 -0.038716041489384109 0 0.060111134253740442 -0.043639793430968667 0 0.045357370514599309 -0.038716041489384109 0 0.060833885161478633 -0.031180230603781271 0 0.022484995425088399 -0.029528727505848611 0 0.045357370514599309 -0.038716041489384109 0 0.039743862999587022 -0.026899417937974141 0 0.022484995425088399 -0.029528727505848611 0 0.031464245106192237 -0.04829187969782843 0 0.045357370514599309 -0.038716041489384109 0 0.045357370514599309 -0.038716041489384109 0 0.039743862999587022 -0.026899417937974141 0 0.050365966468970257 -0.022365465993591401 0 0.022484995425088399 -0.029528727505848611 0 0.037602265575652882 -0.017244374912025299 0 0.039743862999587022 -0.026899417937974141 0 0.037602265575652882 -0.017244374912025299 0 0.039743862999587022 -0.026899417937974141 0 0.050365966468970257 -0.022365465993591401 0 0.045357370514599309 -0.038716041489384109 0 0.060833885161478633 -0.031180230603781271 0 0.050365966468970257 -0.022365465993591401 0 0.060833885161478633 -0.031180230603781271 0 0.050365966468970257 -0.022365465993591401 0 0.062504668312050454 -0.019076272241482669 0 0.042122726037603628 -0.0021610766017879451 0 0.07019124155528178 -0.0078942103917589643 0 0.062504668312050454 -0.019076272241482669 0 0.042122726037603628 -0.0021610766017879451 0 0.07019124155528178 -0.0078942103917589643 0 0.050365966468970257 -0.022365465993591401 0 0.042122726037603628 -0.0021610766017879451 0 0.062504668312050454 -0.019076272241482669 0 0.037602265575652882 -0.017244374912025299 0 0.050365966468970257 -0.022365465993591401 0 0.042122726037603628 -0.0021610766017879451 0 0.037602265575652882 -0.017244374912025299 0 0.042122726037603628 -0.0021610766017879451 0 0.03131574318824179 -0.0054277728640199432 0 0.07019124155528178 -0.0078942103917589643 0 0.098259757072959877 -0.013627344181729969 0 0.07019124155528178 -0.0078942103917589643 0 0.085134787187620298 -0.02026556437330276 0 0.098259757072959877 -0.013627344181729969 0 0.081556316898992162 0.006260620949295425 0 0.1004896233285711 0.0052863644354491758 0 0.098259757072959877 -0.013627344181729969 0 0.081556316898992162 0.006260620949295425 0 0.07019124155528178 -0.0078942103917589643 0 0.098259757072959877 -0.013627344181729969 0 0.07019124155528178 -0.0078942103917589643 0 0.062504668312050454 -0.019076272241482669 0 0.07423565963688962 -0.026187714952114791 0 0.07019124155528178 -0.0078942103917589643 0 0.07423565963688962 -0.026187714952114791 0 0.085134787187620298 -0.02026556437330276 0 0.060833885161478633 -0.031180230603781271 0 0.062504668312050454 -0.019076272241482669 0 0.07423565963688962 -0.026187714952114791 0 0.07423565963688962 -0.026187714952114791 0 0.086055287527306179 -0.028827509244415381 0 0.080443504292230114 -0.034736659449489789 0 0.07423565963688962 -0.026187714952114791 0 0.085134787187620298 -0.02026556437330276 0 0.086055287527306179 -0.028827509244415381 0 0.085134787187620298 -0.02026556437330276 0 0.093784490079364888 -0.02372131584704441 0 0.098259757072959877 -0.013627344181729969 0 0.085134787187620298 -0.02026556437330276 0 0.086055287527306179 -0.028827509244415381 0 0.093784490079364888 -0.02372131584704441 0 0.086055287527306179 -0.028827509244415381 0 0.092624469669280229 -0.033906333539356993 0 0.093784490079364888 -0.02372131584704441 0 0.086055287527306179 -0.028827509244415381 0 0.092624469669280229 -0.033906333539356993 0 0.080443504292230114 -0.034736659449489789 0 0.092719589955650383 -0.038920095899392868 0 0.084575334305684438 -0.047021300290579632 0 0.092624469669280229 -0.033906333539356993 0 0.092719589955650383 -0.038920095899392868 0 0.078686089298900169 -0.046207273167431513 0 0.092624469669280229 -0.033906333539356993 0 0.078686089298900169 -0.046207273167431513 0 0.092719589955650383 -0.038920095899392868 0 0.078686089298900169 -0.046207273167431513 0 0.084575334305684438 -0.047021300290579632 0 0.078686089298900169 -0.046207273167431513 0 0.084575334305684438 -0.047021300290579632 0 0.092624469669280229 -0.033906333539356993 0 0.078686089298900169 -0.046207273167431513 0 0.080443504292230114 -0.034736659449489789 0 0.060111134253740442 -0.043639793430968667 0 0.078686089298900169 -0.046207273167431513 0 0.060111134253740442 -0.043639793430968667 0 0.078686089298900169 -0.046207273167431513 0 0.070734261472985407 -0.036454735117854777 0 0.07423565963688962 -0.026187714952114791 0 0.080443504292230114 -0.034736659449489789 0 0.070734261472985407 -0.036454735117854777 0 0.060111134253740442 -0.043639793430968667 0 0.060833885161478633 -0.031180230603781271 0 0.070734261472985407 -0.036454735117854777 0 0.060833885161478633 -0.031180230603781271 0 0.07423565963688962 -0.026187714952114791 0 0.070734261472985407 -0.036454735117854777 0 0.078686089298900169 -0.046207273167431513 0 0.080443504292230114 -0.034736659449489789 0 0.070734261472985407 -0.036454735117854777 0 0.084575334305684438 -0.047021300290579632 0 0.064224424077736125 -0.067264633799393792 0 0.078686089298900169 -0.046207273167431513 0 0.084575334305684438 -0.047021300290579632 0 0.064224424077736125 -0.067264633799393792 0 0.084575334305684438 -0.047021300290579632 0 0.064224424077736125 -0.067264633799393792 0 0.074344661770167145 -0.066999598159722534 0 0.078686089298900169 -0.046207273167431513 0 0.063293272274149603 -0.059791786424778531 0 0.078686089298900169 -0.046207273167431513 0 0.063293272274149603 -0.059791786424778531 0 0.064224424077736125 -0.067264633799393792 0 0.060111134253740442 -0.043639793430968667 0 0.078686089298900169 -0.046207273167431513 0 0.063293272274149603 -0.059791786424778531 0 0.084575334305684438 -0.047021300290579632 0 0.089589265354845016 -0.056915885984451638 0 0.082879384552222601 -0.064514009337165196 0 0.084575334305684438 -0.047021300290579632 0 0.074344661770167145 -0.066999598159722534 0 0.082879384552222601 -0.064514009337165196 0 0.089589265354845016 -0.056915885984451638 0 0.097742718395314759 -0.061308395942108872 0 0.089709209298404771 -0.065588581543436483 0 0.089589265354845016 -0.056915885984451638 0 0.082879384552222601 -0.064514009337165196 0 0.089709209298404771 -0.065588581543436483 0 0.097742718395314759 -0.061308395942108872 0 0.1085960343575549 -0.050341505399497138 0 0.1162137464904253 -0.068516057782421647 0 0.084575334305684438 -0.047021300290579632 0 0.1085960343575549 -0.050341505399497138 0 0.089589265354845016 -0.056915885984451638 0 0.097742718395314759 -0.061308395942108872 0 0.1085960343575549 -0.050341505399497138 0 0.084575334305684438 -0.047021300290579632 0 0.089589265354845016 -0.056915885984451638 0 0.1085960343575549 -0.050341505399497138 0 0.097742718395314759 -0.061308395942108872 0 0.1085960343575549 -0.050341505399497138 0 0.1085960343575549 -0.050341505399497138 0 0.1162137464904253 -0.068516057782421647 0 0.12943233767569559 -0.053221554714399627 0 0.1085960343575549 -0.050341505399497138 0 0.12943233767569559 -0.053221554714399627 0 0.1085960343575549 -0.050341505399497138 0 0.1067617894028302 -0.036145906085482633 0 0.11591789507805871 -0.02874901771437683 0 0.1085960343575549 -0.050341505399497138 0 0.1273995677643156 -0.031341202321270162 0 0.12943233767569559 -0.053221554714399627 0 0.1085960343575549 -0.050341505399497138 0 0.11591789507805871 -0.02874901771437683 0 0.1273995677643156 -0.031341202321270162 0 0.1085960343575549 -0.050341505399497138 0 0.1273995677643156 -0.031341202321270162 0 0.1067617894028302 -0.036145906085482633 0 0.10020783491912801 -0.036247368505075359 0 0.10656285003966159 -0.021605393911284031 0 0.092719589955650383 -0.038920095899392868 0 0.1085960343575549 -0.050341505399497138 0 0.10020783491912801 -0.036247368505075359 0 0.092719589955650383 -0.038920095899392868 0 0.084575334305684438 -0.047021300290579632 0 0.1085960343575549 -0.050341505399497138 0 0.1085960343575549 -0.050341505399497138 0 0.1067617894028302 -0.036145906085482633 0 0.10020783491912801 -0.036247368505075359 0 0.092624469669280229 -0.033906333539356993 0 0.092719589955650383 -0.038920095899392868 0 0.10020783491912801 -0.036247368505075359 0 0.092624469669280229 -0.033906333539356993 0 0.10656285003966159 -0.021605393911284031 0 0.092624469669280229 -0.033906333539356993 0 0.10020783491912801 -0.036247368505075359 0 0.10656285003966159 -0.021605393911284031 0 0.092624469669280229 -0.033906333539356993 0 0.093784490079364888 -0.02372131584704441 0 0.10656285003966159 -0.021605393911284031 0 0.093784490079364888 -0.02372131584704441 0 0.10656285003966159 -0.021605393911284031 0 0.098259757072959877 -0.013627344181729969 0 0.1067617894028302 -0.036145906085482633 0 0.10656285003966159 -0.021605393911284031 0 0.11591789507805871 -0.02874901771437683 0 0.11591789507805871 -0.02874901771437683 0 0.1227469176571091 -0.014795530248792431 0 0.1273995677643156 -0.031341202321270162 0 0.10656285003966159 -0.021605393911284031 0 0.11591789507805871 -0.02874901771437683 0 0.1227469176571091 -0.014795530248792431 0 0.11940402113221719 0.0021974637424521382 0 0.1004896233285711 0.0052863644354491758 0 0.1094926338461038 -0.0085088880327810253 0 0.10656285003966159 -0.021605393911284031 0 0.1227469176571091 -0.014795530248792431 0 0.1094926338461038 -0.0085088880327810253 0 0.11940402113221719 0.0021974637424521382 0 0.1227469176571091 -0.014795530248792431 0 0.1094926338461038 -0.0085088880327810253 0 0.1004896233285711 0.0052863644354491758 0 0.1094926338461038 -0.0085088880327810253 0 0.098259757072959877 -0.013627344181729969 0 0.10656285003966159 -0.021605393911284031 0 0.1094926338461038 -0.0085088880327810253 0 0.098259757072959877 -0.013627344181729969 0 0.084773740452861512 -0.09871309641801515 0 0.090306804826062459 -0.11108737016611329 0 0.071954418266344244 -0.1055443816971123 0 0.084773740452861512 -0.09871309641801515 0 0.087066153267661248 -0.086588345218870252 0 0.099363506982237684 -0.097385216278874934 0 0.084773740452861512 -0.09871309641801515 0 0.090306804826062459 -0.11108737016611329 0 0.099363506982237684 -0.097385216278874934 0 0.1013339836899915 -0.12642382478405781 0 0.072527652454640296 -0.12602419547075139 0 0.090306804826062459 -0.11108737016611329 0 0.072527652454640296 -0.12602419547075139 0 0.090306804826062459 -0.11108737016611329 0 0.071954418266344244 -0.1055443816971123 0 0.072527652454640296 -0.12602419547075139 0 0.056159935339701067 -0.11173371516430659 0 0.071954418266344244 -0.1055443816971123 0 0.071954418266344244 -0.1055443816971123 0 0.064096312648292256 -0.08957401037831822 0 0.07629748045599774 -0.092073787141372737 0 0.054784633052771058 -0.099223507435420008 0 0.071954418266344244 -0.1055443816971123 0 0.064096312648292256 -0.08957401037831822 0 0.084773740452861512 -0.09871309641801515 0 0.071954418266344244 -0.1055443816971123 0 0.07629748045599774 -0.092073787141372737 0 0.064096312648292256 -0.08957401037831822 0 0.075836100712821125 -0.078176338819083355 0 0.06420806520237142 -0.078021708552390656 0 0.064096312648292256 -0.08957401037831822 0 0.075836100712821125 -0.078176338819083355 0 0.07629748045599774 -0.092073787141372737 0 0.064224424077736125 -0.067264633799393792 0 0.06420806520237142 -0.078021708552390656 0 0.074344661770167145 -0.066999598159722534 0 0.075836100712821125 -0.078176338819083355 0 0.06420806520237142 -0.078021708552390656 0 0.074344661770167145 -0.066999598159722534 0 0.075836100712821125 -0.078176338819083355 0 0.074344661770167145 -0.066999598159722534 0 0.082879384552222601 -0.064514009337165196 0 0.075836100712821125 -0.078176338819083355 0 0.082879384552222601 -0.064514009337165196 0 0.087025925202231388 -0.074539298009284841 0 0.087025925202231388 -0.074539298009284841 0 0.089709209298404771 -0.065588581543436483 0 0.099638778180047127 -0.077829215127868889 0 0.082879384552222601 -0.064514009337165196 0 0.087025925202231388 -0.074539298009284841 0 0.089709209298404771 -0.065588581543436483 0 0.084773740452861512 -0.09871309641801515 0 0.07629748045599774 -0.092073787141372737 0 0.087066153267661248 -0.086588345218870252 0 0.075836100712821125 -0.078176338819083355 0 0.07629748045599774 -0.092073787141372737 0 0.087066153267661248 -0.086588345218870252 0 0.075836100712821125 -0.078176338819083355 0 0.087025925202231388 -0.074539298009284841 0 0.087066153267661248 -0.086588345218870252 0 0.087025925202231388 -0.074539298009284841 0 0.087066153267661248 -0.086588345218870252 0 0.099638778180047127 -0.077829215127868889 0 0.087066153267661248 -0.086588345218870252 0 0.099638778180047127 -0.077829215127868889 0 0.099363506982237684 -0.097385216278874934 0 0.099638778180047127 -0.077829215127868889 0 0.12076550000324229 -0.091326510274528871 0 0.099363506982237684 -0.097385216278874934 0 0.097742718395314759 -0.061308395942108872 0 0.099638778180047127 -0.077829215127868889 0 0.1162137464904253 -0.068516057782421647 0 0.097742718395314759 -0.061308395942108872 0 0.089709209298404771 -0.065588581543436483 0 0.099638778180047127 -0.077829215127868889 0 0.099638778180047127 -0.077829215127868889 0 0.1162137464904253 -0.068516057782421647 0 0.12076550000324229 -0.091326510274528871 0 0.12076550000324229 -0.091326510274528871 0 0.11132470840982529 -0.1108365059584708 0 0.12835000717578579 -0.1086684536094711 0 0.12076550000324229 -0.091326510274528871 0 0.099363506982237684 -0.097385216278874934 0 0.11132470840982529 -0.1108365059584708 0 0.090306804826062459 -0.11108737016611329 0 0.099363506982237684 -0.097385216278874934 0 0.11132470840982529 -0.1108365059584708 0 0.1013339836899915 -0.12642382478405781 0 0.090306804826062459 -0.11108737016611329 0 0.11132470840982529 -0.1108365059584708 0 0.1013339836899915 -0.12642382478405781 0 0.1238389007101184 -0.12538748776530201 0 0.11132470840982529 -0.1108365059584708 0 0.1238389007101184 -0.12538748776530201 0 0.11132470840982529 -0.1108365059584708 0 0.12835000717578579 -0.1086684536094711 0 0.1238389007101184 -0.12538748776530201 0 0.14552427977500371 -0.1174908708710279 0 0.12835000717578579 -0.1086684536094711 0 0.1396355304013899 -0.096738439831270451 0 0.1528106427701979 -0.086179336938580181 0 0.15646422545811481 -0.099818490891201275 0 0.14552427977500371 -0.1174908708710279 0 0.1396355304013899 -0.096738439831270451 0 0.15646422545811481 -0.099818490891201275 0 0.14552427977500371 -0.1174908708710279 0 0.1396355304013899 -0.096738439831270451 0 0.12835000717578579 -0.1086684536094711 0 0.12076550000324229 -0.091326510274528871 0 0.1396355304013899 -0.096738439831270451 0 0.12835000717578579 -0.1086684536094711 0 0.1162137464904253 -0.068516057782421647 0 0.12076550000324229 -0.091326510274528871 0 0.13862102902904691 -0.074642622529233815 0 0.12076550000324229 -0.091326510274528871 0 0.1396355304013899 -0.096738439831270451 0 0.13862102902904691 -0.074642622529233815 0 0.1162137464904253 -0.068516057782421647 0 0.13862102902904691 -0.074642622529233815 0 0.12943233767569559 -0.053221554714399627 0 0.13862102902904691 -0.074642622529233815 0 0.16195965168730261 -0.070934648246182661 0 0.15026864099383649 -0.056101604029301658 0 0.13862102902904691 -0.074642622529233815 0 0.1528106427701979 -0.086179336938580181 0 0.16195965168730261 -0.070934648246182661 0 0.1396355304013899 -0.096738439831270451 0 0.13862102902904691 -0.074642622529233815 0 0.1528106427701979 -0.086179336938580181 0 0.1528106427701979 -0.086179336938580181 0 0.16195965168730261 -0.070934648246182661 0 0.17260898753388629 -0.089364251796235264 0 0.1528106427701979 -0.086179336938580181 0 0.17260898753388629 -0.089364251796235264 0 0.15646422545811481 -0.099818490891201275 0 0.16195965168730261 -0.070934648246182661 0 0.18177584084679899 -0.0706602581821167 0 0.17130365079966409 -0.056378293378158723 0 0.16195965168730261 -0.070934648246182661 0 0.18177584084679899 -0.0706602581821167 0 0.17260898753388629 -0.089364251796235264 0 0.18177584084679899 -0.0706602581821167 0 0.17260898753388629 -0.089364251796235264 0 0.19331490353307371 -0.085409208728489242 0 0.17260898753388629 -0.089364251796235264 0 0.19360972419658479 -0.1016621925740803 0 0.19331490353307371 -0.085409208728489242 0 0.17174168681009611 -0.10931955501889259 0 0.19360972419658479 -0.1016621925740803 0 0.17260898753388629 -0.089364251796235264 0 0.17174168681009611 -0.10931955501889259 0 0.19360972419658479 -0.1016621925740803 0 0.18150231088433089 -0.123655007210659 0 0.17174168681009611 -0.10931955501889259 0 0.19360972419658479 -0.1016621925740803 0 0.18150231088433089 -0.123655007210659 0 0.17174168681009611 -0.10931955501889259 0 0.16201261428958999 -0.13316355356437429 0 0.14552427977500371 -0.1174908708710279 0 0.17174168681009611 -0.10931955501889259 0 0.16201261428958999 -0.13316355356437429 0 0.14552427977500371 -0.1174908708710279 0 0.15646422545811481 -0.099818490891201275 0 0.17174168681009611 -0.10931955501889259 0 0.17260898753388629 -0.089364251796235264 0 0.15646422545811481 -0.099818490891201275 0 0.17174168681009611 -0.10931955501889259 0 0.16500663457783829 0.0066594038351828963 0 0.14865092338076161 0.0029196368863995291 0 0.1462031011710769 -0.012340899243043629 0 0.16500663457783829 0.0066594038351828963 0 0.1462031011710769 -0.012340899243043629 0 0.14865092338076161 0.0029196368863995291 0 0.1462031011710769 -0.012340899243043629 0 0.13534696994241319 -0.0012545724301827831 0 0.1227469176571091 -0.014795530248792431 0 0.1462031011710769 -0.012340899243043629 0 0.13534696994241319 -0.0012545724301827831 0 0.11940402113221719 0.0021974637424521382 0 0.1227469176571091 -0.014795530248792431 0 0.13534696994241319 -0.0012545724301827831 0 0.1227469176571091 -0.014795530248792431 0 0.1462031011710769 -0.012340899243043629 0 0.1273995677643156 -0.031341202321270162 0 0.1462031011710769 -0.012340899243043629 0 0.1273995677643156 -0.031341202321270162 0 0.1462031011710769 -0.012340899243043629 0 0.1517067619256951 -0.031961638223091539 0 0.16394258331322331 -0.010299091428861359 0 0.1462031011710769 -0.012340899243043629 0 0.1517067619256951 -0.031961638223091539 0 0.1273995677643156 -0.031341202321270162 0 0.1517067619256951 -0.031961638223091539 0 0.1273995677643156 -0.031341202321270162 0 0.12943233767569559 -0.053221554714399627 0 0.13862102902904691 -0.074642622529233815 0 0.12943233767569559 -0.053221554714399627 0 0.15026864099383649 -0.056101604029301658 0 0.12943233767569559 -0.053221554714399627 0 0.15026864099383649 -0.056101604029301658 0 0.1517067619256951 -0.031961638223091539 0 0.12943233767569559 -0.053221554714399627 0 0.15026864099383649 -0.056101604029301658 0 0.15026864099383649 -0.056101604029301658 0 0.17130365079966409 -0.056378293378158723 0 0.1693919318004895 -0.038563380211604492 0 0.16195965168730261 -0.070934648246182661 0 0.15026864099383649 -0.056101604029301658 0 0.17130365079966409 -0.056378293378158723 0 0.18177584084679899 -0.0706602581821167 0 0.17130365079966409 -0.056378293378158723 0 0.192540347958812 -0.048388478406835508 0 0.17130365079966409 -0.056378293378158723 0 0.1693919318004895 -0.038563380211604492 0 0.192540347958812 -0.048388478406835508 0 0.1693919318004895 -0.038563380211604492 0 0.19051878047760679 -0.025439415616379479 0 0.1693919318004895 -0.038563380211604492 0 0.19051878047760679 -0.025439415616379479 0 0.192540347958812 -0.048388478406835508 0 0.1517067619256951 -0.031961638223091539 0 0.15026864099383649 -0.056101604029301658 0 0.1693919318004895 -0.038563380211604492 0 0.1517067619256951 -0.031961638223091539 0 0.1693919318004895 -0.038563380211604492 0 0.17448593871406939 -0.021112080515709161 0 0.1517067619256951 -0.031961638223091539 0 0.17448593871406939 -0.021112080515709161 0 0.16394258331322331 -0.010299091428861359 0 0.1693919318004895 -0.038563380211604492 0 0.17448593871406939 -0.021112080515709161 0 0.19051878047760679 -0.025439415616379479 0 0.17448593871406939 -0.021112080515709161 0 0.18595703651160539 -0.0085299275062495038 0 0.19051878047760679 -0.025439415616379479 0 0.17448593871406939 -0.021112080515709161 0 0.18595703651160539 -0.0085299275062495038 0 0.17678423811432731 -0.0040137111683443459 0 0.18476487371872691 0.0023264512215359291 0 0.18595703651160539 -0.0085299275062495038 0 0.17678423811432731 -0.0040137111683443459 0 0.17194389469659341 0.0046427798174643251 0 0.17678423811432731 -0.0040137111683443459 0 0.16394258331322331 -0.010299091428861359 0 0.17448593871406939 -0.021112080515709161 0 0.17678423811432731 -0.0040137111683443459 0 0.16394258331322331 -0.010299091428861359 0 0.16500663457783829 0.0066594038351828963 0 0.1462031011710769 -0.012340899243043629 0 0.16394258331322331 -0.010299091428861359 0 0.2216901033440723 0.0019520988824035101 0 0.2128063672562063 -0.0010087193959307549 0 0.21164562915472401 -0.012315451021154489 0 0.2128063672562063 -0.0010087193959307549 0 0.21164562915472401 -0.012315451021154489 0 0.20483123724834651 -0.00017065645069986779 0 0.21164562915472401 -0.012315451021154489 0 0.20483123724834651 -0.00017065645069986779 0 0.19725200521955449 -0.0089141221622132307 0 0.21164562915472401 -0.012315451021154489 0 0.19725200521955449 -0.0089141221622132307 0 0.19051878047760679 -0.025439415616379479 0 0.1933073427054901 0.001884839783417182 0 0.20483123724834651 -0.00017065645069986779 0 0.19725200521955449 -0.0089141221622132307 0 0.18595703651160539 -0.0085299275062495038 0 0.19725200521955449 -0.0089141221622132307 0 0.19051878047760679 -0.025439415616379479 0 0.1933073427054901 0.001884839783417182 0 0.18476487371872691 0.0023264512215359291 0 0.18595703651160539 -0.0085299275062495038 0 0.1933073427054901 0.001884839783417182 0 0.18595703651160539 -0.0085299275062495038 0 0.19725200521955449 -0.0089141221622132307 0 0.21164562915472401 -0.012315451021154489 0 0.19051878047760679 -0.025439415616379479 0 0.21164562915472401 -0.012315451021154489 0 0.19051878047760679 -0.025439415616379479 0 0.21144940249407451 -0.033512535545341227 0 0.21164562915472401 -0.012315451021154489 0 0.21144940249407451 -0.033512535545341227 0 0.2256295674547544 -0.01873150834171641 0 0.21144940249407451 -0.033512535545341227 0 0.192540347958812 -0.048388478406835508 0 0.21717423915993619 -0.056437923269661468 0 0.19051878047760679 -0.025439415616379479 0 0.21144940249407451 -0.033512535545341227 0 0.192540347958812 -0.048388478406835508 0 0.192540347958812 -0.048388478406835508 0 0.21717423915993619 -0.056437923269661468 0 0.20310220350502509 -0.071354510960745798 0 0.21717423915993619 -0.056437923269661468 0 0.23329422128383029 -0.042676169090076002 0 0.23724335730116961 -0.065010757385908433 0 0.25380120851981741 -0.052568017639291788 0 0.23329422128383029 -0.042676169090076002 0 0.23724335730116961 -0.065010757385908433 0 0.25380120851981741 -0.052568017639291788 0 0.23329422128383029 -0.042676169090076002 0 0.24838858068358369 -0.026445930038939771 0 0.21144940249407451 -0.033512535545341227 0 0.23329422128383029 -0.042676169090076002 0 0.2256295674547544 -0.01873150834171641 0 0.21144940249407451 -0.033512535545341227 0 0.21717423915993619 -0.056437923269661468 0 0.23329422128383029 -0.042676169090076002 0 0.2256295674547544 -0.01873150834171641 0 0.24838858068358369 -0.026445930038939771 0 0.23655448100153939 -0.01164957492237139 0 0.23329422128383029 -0.042676169090076002 0 0.2256295674547544 -0.01873150834171641 0 0.24838858068358369 -0.026445930038939771 0 0.24838858068358369 -0.026445930038939771 0 0.24297595284734999 -0.00032384243858780282 0 0.25772642959595549 -0.002976658867858078 0 0.24838858068358369 -0.026445930038939771 0 0.24297595284734999 -0.00032384243858780282 0 0.24838858068358369 -0.026445930038939771 0 0.23655448100153939 -0.01164957492237139 0 0.24297595284734999 -0.00032384243858780282 0 0.2327724778318416 0.00080851357406988567 0 0.23655448100153939 -0.01164957492237139 0 0.24297595284734999 -0.00032384243858780282 0 0.2327724778318416 0.00080851357406988567 0 0.2256295674547544 -0.01873150834171641 0 0.23655448100153939 -0.01164957492237139 0 0.2327724778318416 0.00080851357406988567 0 0.2256295674547544 -0.01873150834171641 0 0.2327724778318416 0.00080851357406988567 0 0.21164562915472401 -0.012315451021154489 0 0.2216901033440723 0.0019520988824035101 0 0.2327724778318416 0.00080851357406988567 0 0.21164562915472401 -0.012315451021154489 0 0.2327724778318416 0.00080851357406988567 0 0.21164562915472401 -0.012315451021154489 0 0.2256295674547544 -0.01873150834171641 0 0.21547776158307341 -0.094004830129268108 0 0.19360972419658479 -0.1016621925740803 0 0.21547776158307341 -0.094004830129268108 0 0.21321353889884531 -0.1123504460630748 0 0.19360972419658479 -0.1016621925740803 0 0.21321353889884531 -0.1123504460630748 0 0.22154329537864789 -0.12936285137161521 0 0.1991139726725033 -0.12532014643277059 0 0.18150231088433089 -0.123655007210659 0 0.19360972419658479 -0.1016621925740803 0 0.1991139726725033 -0.12532014643277059 0 0.21321353889884531 -0.1123504460630748 0 0.19360972419658479 -0.1016621925740803 0 0.1991139726725033 -0.12532014643277059 0 0.21547776158307341 -0.094004830129268108 0 0.19360972419658479 -0.1016621925740803 0 0.19331490353307371 -0.085409208728489242 0 0.18177584084679899 -0.0706602581821167 0 0.19331490353307371 -0.085409208728489242 0 0.20310220350502509 -0.071354510960745798 0 0.18177584084679899 -0.0706602581821167 0 0.192540347958812 -0.048388478406835508 0 0.20310220350502509 -0.071354510960745798 0 0.21717423915993619 -0.056437923269661468 0 0.20310220350502509 -0.071354510960745798 0 0.22263083951782059 -0.073344861392321659 0 0.21547776158307341 -0.094004830129268108 0 0.19331490353307371 -0.085409208728489242 0 0.20310220350502509 -0.071354510960745798 0 0.21547776158307341 -0.094004830129268108 0 0.20310220350502509 -0.071354510960745798 0 0.22263083951782059 -0.073344861392321659 0 0.21547776158307341 -0.094004830129268108 0 0.22263083951782059 -0.073344861392321659 0 0.23734579896956209 -0.086347467684455836 0 0.21547776158307341 -0.094004830129268108 0 0.23734579896956209 -0.086347467684455836 0 0.21717423915993619 -0.056437923269661468 0 0.22263083951782059 -0.073344861392321659 0 0.23724335730116961 -0.065010757385908433 0 0.22263083951782059 -0.073344861392321659 0 0.23724335730116961 -0.065010757385908433 0 0.23734579896956209 -0.086347467684455836 0 0.25921383635605111 -0.07869010523964387 0 0.23724335730116961 -0.065010757385908433 0 0.23734579896956209 -0.086347467684455836 0 0.25921383635605111 -0.07869010523964387 0 0.23734579896956209 -0.086347467684455836 0 0.25415217139124358 -0.09701936163760258 0 0.23734579896956209 -0.086347467684455836 0 0.23436568626996401 -0.1082985952540855 0 0.25415217139124358 -0.09701936163760258 0 0.2566916324133659 -0.11530786144550211 0 0.23436568626996401 -0.1082985952540855 0 0.21547776158307341 -0.094004830129268108 0 0.21321353889884531 -0.1123504460630748 0 0.23436568626996401 -0.1082985952540855 0 0.21547776158307341 -0.094004830129268108 0 0.23734579896956209 -0.086347467684455836 0 0.23436568626996401 -0.1082985952540855 0 0.23436568626996401 -0.1082985952540855 0 0.24096505950742009 -0.12955721171544829 0 0.22154329537864789 -0.12936285137161521 0 0.21321353889884531 -0.1123504460630748 0 0.23436568626996401 -0.1082985952540855 0 0.22154329537864789 -0.12936285137161521 0 0.2566916324133659 -0.11530786144550211 0 0.23436568626996401 -0.1082985952540855 0 0.24096505950742009 -0.12955721171544829 0 0.26093079810087821 -0.13796461764969331 0 0.24096505950742009 -0.12955721171544829 0 0.24477317661511899 -0.15438625179615861 0 0.24096505950742009 -0.12955721171544829 0 0.24477317661511899 -0.15438625179615861 0 0.22430201446302339 -0.1487810919338502 0 0.24096505950742009 -0.12955721171544829 0 0.22430201446302339 -0.1487810919338502 0 0.22154329537864789 -0.12936285137161521 0 0.22154329537864789 -0.12936285137161521 0 0.20420102584452551 -0.14472879793413659 0 0.1991139726725033 -0.12532014643277059 0 0.22430201446302339 -0.1487810919338502 0 0.22154329537864789 -0.12936285137161521 0 0.20420102584452551 -0.14472879793413659 0 0.22430201446302339 -0.1487810919338502 0 0.20420102584452551 -0.14472879793413659 0 0.20823132262661001 -0.161663710547054 0 0.20420102584452551 -0.14472879793413659 0 0.1891244548070658 -0.163361137320304 0 0.179911303776395 -0.14405700592880341 0 0.20420102584452551 -0.14472879793413659 0 0.1991139726725033 -0.12532014643277059 0 0.179911303776395 -0.14405700592880341 0 0.19915802257389559 -0.17943180692643321 0 0.1891244548070658 -0.163361137320304 0 0.18029548472598281 -0.18404284479789279 0 0.20420102584452551 -0.14472879793413659 0 0.1891244548070658 -0.163361137320304 0 0.20823132262661001 -0.161663710547054 0 0.19915802257389559 -0.17943180692643321 0 0.1891244548070658 -0.163361137320304 0 0.20823132262661001 -0.161663710547054 0 0.19915802257389559 -0.17943180692643321 0 0.20823132262661001 -0.161663710547054 0 0.2252651116836773 -0.173420927130602 0 0.19915802257389559 -0.17943180692643321 0 0.2252651116836773 -0.173420927130602 0 0.2119141569871773 -0.1971213976439728 0 0.22430201446302339 -0.1487810919338502 0 0.20823132262661001 -0.161663710547054 0 0.2252651116836773 -0.173420927130602 0 0.24477317661511899 -0.15438625179615861 0 0.22430201446302339 -0.1487810919338502 0 0.2252651116836773 -0.173420927130602 0 0.25411262099828558 -0.17831709840515231 0 0.24477317661511899 -0.15438625179615861 0 0.2252651116836773 -0.173420927130602 0 0.25411262099828558 -0.17831709840515231 0 0.2252651116836773 -0.173420927130602 0 0.23511924244443319 -0.19360526928343191 0 0.25370703271449452 -0.2021672765488961 0 0.25411262099828558 -0.17831709840515231 0 0.23511924244443319 -0.19360526928343191 0 0.25370703271449452 -0.2021672765488961 0 0.23511924244443319 -0.19360526928343191 0 0.24426364978656051 -0.21530824895215189 0 0.23511924244443319 -0.19360526928343191 0 0.24426364978656051 -0.21530824895215189 0 0.2266702399950207 -0.21219685485981449 0 0.23511924244443319 -0.19360526928343191 0 0.2266702399950207 -0.21219685485981449 0 0.2119141569871773 -0.1971213976439728 0 0.2252651116836773 -0.173420927130602 0 0.23511924244443319 -0.19360526928343191 0 0.2119141569871773 -0.1971213976439728 0 0.237311055005646 -0.24290651797302651 0 0.24593773647071951 -0.24899878885736021 0 0.24927345032971729 -0.23402375540267939 0 0.237311055005646 -0.24290651797302651 0 0.23660255693494331 -0.23137671493436299 0 0.24927345032971729 -0.23402375540267939 0 0.24426364978656051 -0.21530824895215189 0 0.2266702399950207 -0.21219685485981449 0 0.23660255693494331 -0.23137671493436299 0 0.24426364978656051 -0.21530824895215189 0 0.23660255693494331 -0.23137671493436299 0 0.24927345032971729 -0.23402375540267939 0 0.2266702399950207 -0.21219685485981449 0 0.23660255693494331 -0.23137671493436299 0 0.2088181227183625 -0.2252465994925795 0 0.23660255693494331 -0.23137671493436299 0 0.21899797613249011 -0.23481835956155581 0 0.2088181227183625 -0.2252465994925795 0 0.23660255693494331 -0.23137671493436299 0 0.2088181227183625 -0.2252465994925795 0 0.23660255693494331 -0.23137671493436299 0 0.21899797613249011 -0.23481835956155581 0 0.22893859532102681 -0.23701625171967541 0 0.21899797613249011 -0.23481835956155581 0 0.22893859532102681 -0.23701625171967541 0 0.21006609087306391 -0.24615974969517859 0 0.22580293597182299 -0.26311707895105479 0 0.237311055005646 -0.24290651797302651 0 0.22893859532102681 -0.23701625171967541 0 0.22580293597182299 -0.26311707895105479 0 0.22893859532102681 -0.23701625171967541 0 0.21006609087306391 -0.24615974969517859 0 0.237311055005646 -0.24290651797302651 0 0.23660255693494331 -0.23137671493436299 0 0.22893859532102681 -0.23701625171967541 0 0.21899797613249011 -0.23481835956155581 0 0.21006609087306391 -0.24615974969517859 0 0.2088181227183625 -0.2252465994925795 0 0.21006609087306391 -0.24615974969517859 0 0.2088181227183625 -0.2252465994925795 0 0.1934840184441084 -0.24346184585610081 0 0.2088181227183625 -0.2252465994925795 0 0.1934840184441084 -0.24346184585610081 0 0.18103368850178181 -0.21911648405079609 0 0.2088181227183625 -0.2252465994925795 0 0.18103368850178181 -0.21911648405079609 0 0.19379555089723269 -0.25427210553970042 0 0.21006609087306391 -0.24615974969517859 0 0.1934840184441084 -0.24346184585610081 0 0.19379555089723269 -0.25427210553970042 0 0.18176942957851211 -0.2510096841395052 0 0.1934840184441084 -0.24346184585610081 0 0.2266702399950207 -0.21219685485981449 0 0.2088181227183625 -0.2252465994925795 0 0.2119141569871773 -0.1971213976439728 0 0.2088181227183625 -0.2252465994925795 0 0.2119141569871773 -0.1971213976439728 0 0.19191761273436439 -0.20112620564181111 0 0.2088181227183625 -0.2252465994925795 0 0.19191761273436439 -0.20112620564181111 0 0.18103368850178181 -0.21911648405079609 0 0.19915802257389559 -0.17943180692643321 0 0.19191761273436439 -0.20112620564181111 0 0.18029548472598281 -0.18404284479789279 0 0.19915802257389559 -0.17943180692643321 0 0.2119141569871773 -0.1971213976439728 0 0.19191761273436439 -0.20112620564181111 0 0.19191761273436439 -0.20112620564181111 0 0.1702862008989863 -0.2017981009391922 0 0.18029548472598281 -0.18404284479789279 0 0.19191761273436439 -0.20112620564181111 0 0.1702862008989863 -0.2017981009391922 0 0.18103368850178181 -0.21911648405079609 0 0.1702862008989863 -0.2017981009391922 0 0.18103368850178181 -0.21911648405079609 0 0.15324925428520089 -0.2129863686090126 0 0.18103368850178181 -0.21911648405079609 0 0.15324925428520089 -0.2129863686090126 0 0.1702862008989863 -0.2017981009391922 0 0.18029548472598281 -0.18404284479789279 0 0.15719898932585211 -0.18578949016383561 0 0.1702862008989863 -0.2017981009391922 0 0.15324925428520089 -0.2129863686090126 0 0.15719898932585211 -0.18578949016383561 0 0.1934840184441084 -0.24346184585610081 0 0.17020935796318271 -0.24141765821027381 0 0.18176942957851211 -0.2510096841395052 0 0.1934840184441084 -0.24346184585610081 0 0.17020935796318271 -0.24141765821027381 0 0.1934840184441084 -0.24346184585610081 0 0.18103368850178181 -0.21911648405079609 0 0.17020935796318271 -0.24141765821027381 0 0.17175555600313111 -0.25311697568074948 0 0.18176942957851211 -0.2510096841395052 0 0.17020935796318271 -0.24141765821027381 0 0.18103368850178181 -0.21911648405079609 0 0.15962030688891191 -0.22846009372146789 0 0.17020935796318271 -0.24141765821027381 0 0.18103368850178181 -0.21911648405079609 0 0.15962030688891191 -0.22846009372146789 0 0.15324925428520089 -0.2129863686090126 0 0.17020935796318271 -0.24141765821027381 0 0.14693469748225699 -0.2393734705644468 0 0.16018855828932971 -0.2508071549327926 0 0.17020935796318271 -0.24141765821027381 0 0.14693469748225699 -0.2393734705644468 0 0.15962030688891191 -0.22846009372146789 0 0.17020935796318271 -0.24141765821027381 0 0.14693469748225699 -0.2393734705644468 0 0.16018855828932971 -0.2508071549327926 0 0.17175555600313111 -0.25311697568074948 0 0.17020935796318271 -0.24141765821027381 0 0.13962150948789279 -0.25001931295635449 0 0.15148798434260941 -0.25187825785796969 0 0.14693469748225699 -0.2393734705644468 0 0.15148798434260941 -0.25187825785796969 0 0.16018855828932971 -0.2508071549327926 0 0.14693469748225699 -0.2393734705644468 0 0.15962030688891191 -0.22846009372146789 0 0.14693469748225699 -0.2393734705644468 0 0.13689964863930831 -0.2268260186165405 0 0.15962030688891191 -0.22846009372146789 0 0.13689964863930831 -0.2268260186165405 0 0.15324925428520089 -0.2129863686090126 0 0.1205804478484914 -0.22195912213603489 0 0.12366003700133101 -0.2373292829186216 0 0.13689964863930831 -0.2268260186165405 0 0.1205804478484914 -0.22195912213603489 0 0.13689964863930831 -0.2268260186165405 0 0.12874846310804949 -0.2107776762610549 0 0.12781738792472361 -0.25630073961036098 0 0.13962150948789279 -0.25001931295635449 0 0.12366003700133101 -0.2373292829186216 0 0.13962150948789279 -0.25001931295635449 0 0.12366003700133101 -0.2373292829186216 0 0.14693469748225699 -0.2393734705644468 0 0.13962150948789279 -0.25001931295635449 0 0.12366003700133101 -0.2373292829186216 0 0.12366003700133101 -0.2373292829186216 0 0.14693469748225699 -0.2393734705644468 0 0.12366003700133101 -0.2373292829186216 0 0.14693469748225699 -0.2393734705644468 0 0.13689964863930831 -0.2268260186165405 0 0.15324925428520089 -0.2129863686090126 0 0.1391091774258304 -0.19466549752048579 0 0.15719898932585211 -0.18578949016383561 0 0.15324925428520089 -0.2129863686090126 0 0.12874846310804949 -0.2107776762610549 0 0.1391091774258304 -0.19466549752048579 0 0.13689964863930831 -0.2268260186165405 0 0.15324925428520089 -0.2129863686090126 0 0.12874846310804949 -0.2107776762610549 0 0.11931245204809771 -0.1870584185114415 0 0.12874846310804949 -0.2107776762610549 0 0.1391091774258304 -0.19466549752048579 0 0.11931245204809771 -0.1870584185114415 0 0.1391091774258304 -0.19466549752048579 0 0.13839645311571749 -0.1772285374226589 0 0.11931245204809771 -0.1870584185114415 0 0.13839645311571749 -0.1772285374226589 0 0.12647954811933559 -0.1605037134453817 0 0.13839645311571749 -0.1772285374226589 0 0.15260154816700369 -0.15915157420329831 0 0.15719898932585211 -0.18578949016383561 0 0.1391091774258304 -0.19466549752048579 0 0.13839645311571749 -0.1772285374226589 0 0.15719898932585211 -0.18578949016383561 0 0.13839645311571749 -0.1772285374226589 0 0.15260154816700369 -0.15915157420329831 0 0.12647954811933559 -0.1605037134453817 0 0.1148461764638975 -0.14404608003039901 0 0.12647954811933559 -0.1605037134453817 0 0.1375216107965461 -0.1403596059505284 0 0.15260154816700369 -0.15915157420329831 0 0.12647954811933559 -0.1605037134453817 0 0.1375216107965461 -0.1403596059505284 0 0.1238389007101184 -0.12538748776530201 0 0.14552427977500371 -0.1174908708710279 0 0.1375216107965461 -0.1403596059505284 0 0.1238389007101184 -0.12538748776530201 0 0.1148461764638975 -0.14404608003039901 0 0.1375216107965461 -0.1403596059505284 0 0.14552427977500371 -0.1174908708710279 0 0.1375216107965461 -0.1403596059505284 0 0.16201261428958999 -0.13316355356437429 0 0.15260154816700369 -0.15915157420329831 0 0.1375216107965461 -0.1403596059505284 0 0.16201261428958999 -0.13316355356437429 0 0.15260154816700369 -0.15915157420329831 0 0.16201261428958999 -0.13316355356437429 0 0.179911303776395 -0.14405700592880341 0 0.18150231088433089 -0.123655007210659 0 0.16201261428958999 -0.13316355356437429 0 0.179911303776395 -0.14405700592880341 0 0.18150231088433089 -0.123655007210659 0 0.1991139726725033 -0.12532014643277059 0 0.179911303776395 -0.14405700592880341 0 0.1891244548070658 -0.163361137320304 0 0.18029548472598281 -0.18404284479789279 0 0.17182635616045991 -0.1672804104828268 0 0.1891244548070658 -0.163361137320304 0 0.179911303776395 -0.14405700592880341 0 0.17182635616045991 -0.1672804104828268 0 0.18029548472598281 -0.18404284479789279 0 0.15719898932585211 -0.18578949016383561 0 0.17182635616045991 -0.1672804104828268 0 0.15260154816700369 -0.15915157420329831 0 0.179911303776395 -0.14405700592880341 0 0.17182635616045991 -0.1672804104828268 0 0.15260154816700369 -0.15915157420329831 0 0.15719898932585211 -0.18578949016383561 0 0.17182635616045991 -0.1672804104828268 0 
</DataArray>
</Points>
<Cells>
<DataArray type="UInt32" Name="connectivity" format="ascii">
0 1 2 3 4 5 6 7 8 9 10 11 12 13 14 15 16 17 18 19 20 21 22 23 24 25 26 27 28 29 30 31 32 33 34 35 36 37 38 39 40 41 42 43 44 45 46 47 48 49 50 51 52 53 54 55 56 57 58 59 60 61 62 63 64 65 66 67 68 69 70 71 72 73 74 75 76 77 78 79 80 81 82 83 84 85 86 87 88 89 90 91 92 93 94 95 96 97 98 99 100 101 102 103 104 105 106 107 108 109 110 111 112 113 114 115 116 117 118 119 120 121 122 123 124 125 126 127 128 129 130 131 132 133 134 135 136 137 138 139 140 141 142 143 144 145 146 147 148 149 150 151 152 153 154 155 156 157 158 159 160 161 162 163 164 165 166 167 168 169 170 171 172 173 174 175 176 177 178 179 180 181 182 183 184 185 186 187 188 189 190 191 192 193 194 195 196 197 198 199 200 201 202 203 204 205 206 207 208 209 210 211 212 213 214 215 216 217 218 219 220 221 222 223 224 225 226 227 228 229 230 231 232 233 234 235 236 237 238 239 240 241 242 243 244 245 246 247 248 249 250 251 252 253 254 255 256 257 258 259 260 261 262 263 264 265 266 267 268 269 270 271 272 273 274 275 276 277 278 279 280 281 282 283 284 285 286 287 288 289 290 291 292 293 294 295 296 297 298 299 300 301 302 303 304 305 306 307 308 309 310 311 312 313 314 315 316 317 318 319 320 321 322 323 324 325 326 327 328 329 330 331 332 333 334 335 336 337 338 339 340 341 342 343 344 345 346 347 348 349 350 351 352 353 354 355 356 357 358 359 360 361 362 363 364 365 366 367 368 369 370 371 372 373 374 375 376 377 378 379 380 381 382 383 384 385 386 387 388 389 390 391 392 393 394 395 396 397 398 399 400 401 402 403 404 405 406 407 408 409 410 411 412 413 414 415 416 417 418 419 420 421 422 423 424 425 426 427 428 429 430 431 432 433 434 435 436 437 438 439 440 441 442 443 444 445 446 447 448 449 450 451 452 453 454 455 456 457 458 459 460 461 462 463 464 465 466 467 468 469 470 471 472 473 474 475 476 477 478 479 480 481 482 483 484 485 486 487 488 489 490 491 492 493 494 495 496 497 498 499 500 501 502 503 504 505 506 507 508 509 510 511 512 513 514 515 516 517 518 519 520 521 522 523 524 525 526 527 528 529 530 531 532 533 534 535 536 537 538 539 540 541 542 543 544 545 546 547 548 549 550 551 552 553 554 555 556 557 558 559 560 561 562 563 564 565 566 567 568 569 570 571 572 573 574 575 576 577 578 579 580 581 582 583 584 585 586 587 588 589 590 591 592 593 594 595 596 597 598 599 600 601 602 603 604 605 606 607 608 609 610 611 612 613 614 615 616 617 618 619 620 621 622 623 624 625 626 627 628 629 630 631 632 633 634 635 636 637 638 639 640 641 642 643 644 645 646 647 648 649 650 651 652 653 654 655 656 657 658 659 660 661 662 663 664 665 666 667 668 669 670 671 672 673 674 675 676 677 678 679 680 681 682 683 684 685 686 687 688 689 690 691 692 693 694 695 696 697 698 699 700 701 702 703 704 705 706 707 708 709 710 711 712 713 714 715 716 717 718 719 720 721 722 723 724 725 726 727 728 729 730 731 732 733 734 735 736 737 738 739 740 741 742 743 744 745 746 747 748 749 750 751 752 753 754 755 756 757 758 759 760 761 762 763 764 765 766 767 768 769 770 771 772 773 774 775 776 777 778 779 780 781 782 783 784 785 786 787 788 789 790 791 792 793 794 795 796 797 798 799 800 801 802 803 804 805 806 807 808 809 810 811 812 813 814 815 816 817 818 819 820 821 822 823 824 825 826 827 828 829 830 831 832 833 834 835 836 837 838 839 840 841 842 843 844 845 846 847 848 849 850 851 852 853 854 855 856 857 858 859 860 861 862 863 864 865 866 867 868 869 870 871 872 873 874 875 876 877 878 879 880 881 882 883 884 885 886 887 888 889 890 891 892 893 894 895 896 897 898 899 900 901 902 903 904 905 906 907 908 909 910 911 912 913 914 915 916 917 918 919 920 921 922 923 924 925 926 927 928 929 930 931 932 933 934 935 936 937 938 939 940 941 942 943 944 945 946 947 948 949 950 951 952 953 954 955 956 957 958 959 960 961 962 963 964 965 966 967 968 969 970 971 972 973 974 975 976 977 978 979 980 981 982 983 984 985 986 987 988 989 990 991 992 993 994 995 996 997 998 999 1000 1001 1002 1003 1004 1005 1006 1007 1008 1009 1010 1011 1012 1013 1014 1015 1016 1017 1018 1019 1020 1021 1022 1023 1024 1025 1026 1027 1028 1029 1030 1031 1032 1033 1034 1035 1036 1037 1038 1039 1040 1041 1042 1043 1044 1045 1046 1047 1048 1049 1050 1051 1052 1053 1054 1055 1056 1057 1058 1059 1060 1061 1062 1063 1064 1065 1066 1067 1068 1069 1070 1071 1072 1073 1074 1075 1076 1077 1078 1079 1080 1081 1082 1083 1084 1085 1086 1087 1088 1089 1090 1091 1092 1093 1094 1095 1096 1097 1098 1099 1100 1101 1102 1103 1104 1105 1106 1107 1108 1109 1110 1111 1112 1113 1114 1115 1116 1117 1118 1119 1120 1121 1122 1123 1124 1125 1126 1127 1128 1129 1130 1131 1132 1133 1134 1135 1136 1137 1138 1139 1140 1141 1142 1143 1144 1145 1146 1147 1148 1149 1150 1151 1152 1153 1154 1155 1156 1157 1158 1159 1160 1161 1162 1163 1164 1165 1166 1167 1168 1169 1170 1171 1172 1173 1174 1175 1176 1177 1178 1179 1180 1181 1182 1183 1184 1185 1186 1187 1188 1189 1190 1191 1192 1193 1194 1195 1196 1197 1198 1199 1200 1201 1202 1203 1204 1205 1206 1207 1208 1209 1210 1211 1212 1213 1214 1215 1216 1217 1218 1219 1220 1221 1222 1223 1224 1225 1226 1227 1228 1229 1230 1231 1232 1233 1234 1235 1236 1237 1238 1239 1240 1241 1242 1243 1244 1245 1246 1247 1248 1249 1250 1251 1252 1253 1254 1255 1256 1257 1258 1259 1260 1261 1262 1263 1264 1265 1266 1267 1268 1269 1270 1271 1272 1273 1274 1275 1276 1277 1278 1279 1280 1281 1282 1283 1284 1285 1286 1287 1288 1289 1290 1291 1292 1293 1294 1295 1296 1297 1298 1299 1300 1301 1302 1303 1304 1305 1306 1307 1308 1309 1310 1311 1312 1313 1314 1315 1316 1317 1318 1319 1320 1321 1322 1323 1324 1325 1326 1327 1328 1329 1330 1331 1332 1333 1334 1335 1336 1337 1338 1339 1340 1341 1342 1343 1344 1345 1346 1347 1348 1349 1350 1351 1352 1353 1354 1355 1356 1357 1358 1359 1360 1361 1362 1363 1364 1365 1366 1367 1368 1369 1370 1371 1372 1373 1374 1375 1376 1377 1378 1379 1380 1381 1382 1383 1384 1385 1386 1387 1388 1389 1390 1391 1392 1393 1394 1395 1396 1397 1398 1399 1400 1401 1402 1403 1404 1405 1406 1407 1408 1409 1410 1411 1412 1413 1414 1415 1416 1417 1418 1419 1420 1421 1422 1423 1424 1425 1426 1427 1428 1429 1430 1431 1432 1433 1434 1435 1436 1437 1438 1439 1440 1441 1442 1443 1444 1445 1446 1447 1448 1449 1450 1451 1452 1453 1454 1455 1456 1457 1458 1459 1460 1461 1462 1463 1464 1465 1466 1467 1468 1469 1470 1471 1472 1473 1474 1475 1476 1477 1478 1479 1480 1481 1482 1483 1484 1485 1486 1487 1488 1489 1490 1491 1492 1493 1494 1495 1496 1497 1498 1499 1500 1501 1502 1503 1504 1505 1506 1507 1508 1509 1510 1511 1512 1513 1514 1515 1516 1517 1518 1519 1520 1521 1522 1523 1524 1525 1526 1527 1528 1529 1530 1531 1532 1533 1534 1535 1536 1537 1538 1539 1540 1541 1542 1543 1544 1545 1546 1547 1548 1549 1550 1551 1552 1553 1554 1555 1556 1557 1558 1559 1560 1561 1562 1563 1564 1565 1566 1567 1568 1569 1570 1571 1572 1573 1574 1575 1576 1577 1578 1579 1580 1581 1582 1583 1584 1585 1586 1587 1588 1589 1590 1591 1592 1593 1594 1595 1596 1597 1598 1599 1600 1601 1602 1603 1604 1605 1606 1607 1608 1609 1610 1611 1612 1613 1614 1615 1616 1617 1618 1619 1620 1621 1622 1623 1624 1625 1626 1627 1628 1629 1630 1631 1632 1633 1634 1635 1636 1637 1638 1639 1640 1641 1642 1643 1644 1645 1646 1647 1648 1649 1650 1651 1652 1653 1654 1655 1656 1657 1658 1659 1660 1661 1662 1663 1664 1665 1666 1667 1668 1669 1670 1671 1672 1673 1674 1675 1676 1677 1678 1679 1680 1681 1682 1683 1684 1685 1686 1687 1688 1689 1690 1691 1692 1693 1694 1695 1696 1697 1698 1699 1700 1701 1702 1703 1704 1705 1706 1707 1708 1709 1710 1711 1712 1713 1714 1715 1716 1717 1718 1719 1720 1721 1722 1723 1724 1725 1726 1727 1728 1729 1730 1731 1732 1733 1734 1735 1736 1737 1738 1739 1740 1741 1742 1743 1744 1745 1746 1747 1748 1749 1750 1751 1752 1753 1754 1755 1756 1757 1758 1759 1760 1761 1762 1763 1764 1765 1766 1767 1768 1769 1770 1771 1772 1773 1774 1775 1776 1777 1778 1779 1780 1781 1782 1783 1784 1785 1786 1787 1788 1789 1790 1791 1792 1793 1794 1795 1796 1797 1798 1799 1800 1801 1802 1803 1804 1805 1806 1807 1808 1809 1810 1811 1812 1813 1814 1815 1816 1817 1818 1819 1820 1821 1822 1823 1824 1825 1826 1827 1828 1829 1830 1831 1832 1833 1834 1835 1836 1837 1838 1839 1840 1841 1842 1843 1844 1845 1846 1847 1848 1849 1850 1851 1852 1853 1854 1855 1856 1857 1858 1859 1860 1861 1862 1863 1864 1865 1866 1867 1868 1869 1870 1871 1872 1873 1874 1875 1876 1877 1878 1879 1880 1881 1882 1883 1884 1885 1886 1887 1888 1889 1890 1891 1892 1893 1894 1895 1896 1897 1898 1899 1900 1901 1902 1903 1904 1905 1906 1907 1908 1909 1910 1911 1912 1913 1914 1915 1916 1917 1918 1919 1920 1921 1922 1923 1924 1925 1926 1927 1928 1929 1930 1931 1932 1933 1934 1935 1936 1937 1938 1939 1940 1941 1942 1943 1944 1945 1946 1947 1948 1949 1950 1951 1952 1953 1954 1955 1956 1957 1958 1959 1960 1961 1962 1963 1964 1965 1966 1967 1968 1969 1970 1971 1972 1973 1974 1975 1976 1977 1978 1979 1980 1981 1982 1983 1984 1985 1986 1987 1988 1989 1990 1991 1992 1993 1994 1995 1996 1997 1998 1999 2000 2001 2002 2003 2004 2005 2006 2007 2008 2009 2010 2011 2012 2013 2014 2015 2016 2017 2018 2019 2020 2021 2022 2023 2024 2025 2026 2027 2028 2029 2030 2031 2032 2033 2034 2035 2036 2037 2038 2039 2040 2041 2042 2043 2044 2045 2046 2047 2048 2049 2050 2051 2052 2053 2054 2055 2056 2057 2058 2059 2060 2061 2062 2063 2064 2065 2066 2067 2068 2069 2070 2071 2072 2073 2074 2075 2076 2077 2078 2079 2080 2081 2082 2083 2084 2085 2086 2087 2088 2089 2090 2091 2092 2093 2094 2095 2096 2097 2098 2099 2100 2101 2102 2103 2104 2105 2106 2107 2108 2109 2110 2111 2112 2113 2114 2115 2116 2117 2118 2119 2120 2121 2122 2123 2124 2125 2126 2127 2128 2129 2130 2131 2132 2133 2134 2135 2136 2137 2138 2139 2140 2141 2142 2143 2144 2145 2146 2147 2148 2149 2150 2151 2152 2153 2154 2155 2156 2157 2158 2159 2160 2161 2162 2163 2164 2165 2166 2167 2168 2169 2170 2171 2172 2173 2174 2175 2176 2177 2178 2179 2180 2181 2182 2183 2184 2185 2186 2187 2188 2189 2190 2191 2192 2193 2194 2195 2196 2197 2198 2199 2200 2201 2202 2203 2204 2205 2206 2207 2208 2209 2210 2211 2212 2213 2214 2215 2216 2217 2218 2219 2220 2221 2222 2223 2224 2225 2226 2227 2228 2229 2230 2231 2232 2233 2234 2235 2236 2237 2238 2239 2240 2241 2242 2243 2244 2245 2246 2247 2248 2249 2250 2251 2252 2253 2254 2255 2256 2257 2258 2259 2260 2261 2262 2263 2264 2265 2266 2267 2268 2269 2270 2271 2272 2273 2274 2275 2276 2277 2278 2279 2280 2281 2282 2283 2284 2285 2286 2287 2288 2289 2290 2291 2292 2293 2294 2295 2296 2297 2298 2299 2300 2301 2302 2303 2304 2305 2306 2307 2308 2309 2310 2311 2312 2313 2314 2315 2316 2317 2318 2319 2320 2321 2322 2323 2324 2325 2326 2327 2328 2329 2330 2331 2332 2333 2334 2335 2336 2337 2338 2339 2340 2341 2342 2343 2344 2345 2346 2347 2348 2349 2350 2351 2352 2353 2354 2355 2356 2357 2358 2359 2360 2361 2362 2363 2364 2365 2366 2367 2368 2369 2370 2371 2372 2373 2374 2375 2376 2377 2378 2379 2380 2381 2382 2383 2384 2385 2386 2387 2388 2389 2390 2391 2392 2393 2394 2395 2396 2397 2398 2399 2400 2401 2402 2403 2404 2405 2406 2407 2408 2409 2410 2411 2412 2413 2414 2415 2416 2417 2418 2419 2420 2421 2422 2423 2424 2425 2426 2427 2428 2429 2430 2431 2432 2433 2434 2435 2436 2437 2438 2439 2440 2441 2442 2443 2444 2445 2446 2447 2448 2449 2450 2451 2452 2453 2454 2455 2456 2457 2458 2459 2460 2461 2462 2463 2464 2465 2466 2467 2468 2469 2470 2471 2472 2473 2474 2475 2476 2477 2478 2479 2480 2481 2482 2483 2484 2485 2486 2487 2488 2489 2490 2491 2492 2493 2494 2495 2496 2497 2498 2499 2500 2501 2502 2503 2504 2505 2506 2507 2508 2509 2510 2511 2512 2513 2514 2515 2516 2517 2518 2519 2520 2521 2522 2523 2524 2525 2526 2527 2528 2529 2530 2531 2532 2533 2534 2535 2536 2537 2538 2539 2540 2541 2542 2543 2544 2545 2546 2547 2548 2549 2550 2551 2552 2553 2554 2555 2556 2557 2558 2559 2560 2561 2562 2563 2564 2565 2566 2567 2568 2569 2570 2571 2572 2573 2574 2575 2576 2577 2578 2579 2580 2581 2582 2583 2584 2585 2586 2587 2588 2589 2590 2591 2592 2593 2594 2595 2596 2597 2598 2599 2600 2601 2602 2603 2604 2605 2606 2607 2608 2609 2610 2611 2612 2613 2614 2615 2616 2617 2618 2619 2620 2621 2622 2623 2624 2625 2626 2627 2628 2629 2630 2631 2632 2633 2634 2635 2636 2637 2638 2639 2640 2641 2642 2643 2644 2645 2646 2647 2648 2649 2650 2651 2652 2653 2654 2655 2656 2657 2658 2659 2660 2661 2662 2663 2664 2665 2666 2667 2668 2669 2670 2671 2672 2673 2674 2675 2676 2677 2678 2679 2680 2681 2682 2683 2684 2685 2686 2687 2688 2689 2690 2691 2692 2693 2694 2695 2696 2697 2698 2699 2700 2701 2702 2703 2704 2705 2706 2707 2708 2709 2710 2711 2712 2713 2714 2715 2716 2717 2718 2719 2720 2721 2722 2723 2724 2725 2726 2727 2728 2729 2730 2731 2732 2733 2734 2735 2736 2737 2738 2739 2740 2741 2742 2743 2744 2745 2746 2747 2748 2749 2750 2751 2752 2753 2754 2755 2756 2757 2758 2759 2760 2761 2762 2763 2764 2765 2766 2767 2768 2769 2770 2771 2772 2773 2774 2775 2776 2777 2778 2779 2780 2781 2782 2783 2784 2785 2786 2787 2788 2789 2790 2791 2792 2793 2794 2795 2796 2797 2798 2799 2800 2801 2802 2803 2804 2805 2806 2807 2808 2809 2810 2811 2812 2813 2814 2815 2816 2817 2818 2819 2820 2821 2822 2823 2824 2825 2826 2827 2828 2829 2830 2831 2832 2833 2834 2835 2836 2837 2838 2839 2840 2841 2842 2843 2844 2845 2846 2847 2848 2849 2850 2851 2852 2853 2854 2855 2856 2857 2858 2859 2860 2861 2862 2863 2864 2865 2866 2867 2868 2869 2870 2871 2872 2873 2874 2875 2876 2877 2878 2879 2880 2881 2882 2883 2884 2885 2886 2887 2888 2889 2890 2891 2892 2893 2894 2895 2896 2897 2898 2899 2900 2901 2902 2903 2904 2905 2906 2907 2908 2909 2910 2911 2912 2913 2914 2915 2916 2917 2918 2919 2920 2921 2922 2923 2924 2925 2926 2927 2928 2929 2930 2931 2932 2933 2934 2935 2936 2937 2938 2939 2940 2941 2942 2943 2944 2945 2946 2947 2948 2949 2950 2951 2952 2953 2954 2955 2956 2957 2958 2959 2960 2961 2962 2963 2964 2965 2966 2967 2968 2969 2970 2971 2972 2973 2974 2975 2976 2977 2978 2979 2980 2981 2982 2983 2984 2985 2986 2987 2988 2989 2990 2991 2992 2993 2994 2995 2996 2997 2998 2999 3000 3001 3002 3003 3004 3005 3006 3007 3008 3009 3010 3011 3012 3013 3014 3015 3016 3017 3018 3019 3020 3021 3022 3023 3024 3025 3026 3027 3028 3029 3030 3031 3032 3033 3034 3035 3036 3037 3038 3039 3040 3041 3042 3043 3044 3045 3046 3047 3048 3049 3050 3051 3052 3053 3054 3055 3056 3057 3058 3059 3060 3061 3062 3063 3064 3065 3066 3067 3068 3069 3070 3071 3072 3073 3074 3075 3076 3077 3078 3079 3080 3081 3082 3083 3084 3085 3086 3087 3088 3089 3090 3091 3092 3093 3094 3095 3096 3097 3098 3099 3100 3101 3102 3103 3104 3105 3106 3107 3108 3109 3110 3111 3112 3113 3114 3115 3116 3117 3118 3119 3120 3121 3122 3123 3124 3125 3126 3127 3128 3129 3130 3131 3132 3133 3134 3135 3136 3137 3138 3139 3140 3141 3142 3143 3144 3145 3146 3147 3148 3149 3150 3151 3152 3153 3154 3155 3156 3157 3158 3159 3160 3161 3162 3163 3164 3165 3166 3167 3168 3169 3170 3171 3172 3173 3174 3175 3176 3177 3178 3179 3180 3181 3182 3183 3184 3185 3186 3187 3188 3189 3190 3191 3192 3193 3194 3195 3196 3197 3198 3199 3200 3201 3202 3203 3204 3205 3206 3207 3208 3209 3210 3211 3212 3213 3214 3215 3216 3217 3218 3219 3220 3221 3222 3223 3224 3225 3226 3227 3228 3229 3230 3231 3232 3233 3234 3235 3236 3237 3238 3239 3240 3241 3242 3243 3244 3245 3246 3247 3248 3249 3250 3251 3252 3253 3254 3255 3256 3257 3258 3259 3260 3261 3262 3263 3264 3265 3266 3267 3268 3269 3270 3271 3272 3273 3274 3275 3276 3277 3278 3279 3280 3281 3282 3283 3284 3285 3286 3287 3288 3289 3290 3291 3292 3293 3294 3295 3296 3297 3298 3299 3300 3301 3302 3303 3304 3305 3306 3307 3308 3309 3310 3311 3312 3313 3314 3315 3316 3317 3318 3319 3320 3321 3322 3323 3324 3325 3326 3327 3328 3329 3330 3331 3332 3333 3334 3335 3336 3337 3338 3339 3340 3341 3342 3343 3344 3345 3346 3347 3348 3349 3350 3351 3352 3353 3354 3355 3356 3357 3358 3359 3360 3361 3362 3363 3364 3365 3366 3367 3368 3369 3370 3371 3372 3373 3374 3375 3376 3377 3378 3379 3380 3381 3382 3383 3384 3385 3386 3387 3388 3389 3390 3391 3392 3393 3394 3395 3396 3397 3398 3399 3400 3401 3402 3403 3404 3405 3406 3407 3408 3409 3410 3411 3412 3413 3414 3415 3416 3417 3418 3419 3420 3421 3422 3423 3424 3425 3426 3427 3428 3429 3430 3431 3432 3433 3434 3435 3436 3437 3438 3439 3440 3441 3442 3443 3444 3445 3446 3447 3448 3449 3450 3451 3452 3453 3454 3455 3456 3457 3458 3459 3460 3461 3462 3463 3464 3465 3466 3467 3468 3469 3470 3471 3472 3473 3474 3475 3476 3477 3478 3479 3480 3481 3482 3483 3484 3485 3486 3487 3488 3489 3490 3491 3492 3493 3494 3495 3496 3497 3498 3499 3500 3501 3502 3503 3504 3505 3506 3507 3508 3509 3510 3511 3512 3513 3514 3515 3516 3517 3518 3519 3520 3521 3522 3523 3524 3525 3526 3527 3528 3529 3530 3531 3532 3533 3534 3535 3536 3537 3538 3539 3540 3541 3542 3543 3544 3545 3546 3547 3548 3549 3550 3551 3552 3553 3554 3555 3556 3557 3558 3559 3560 3561 3562 3563 3564 3565 3566 3567 3568 3569 3570 3571 3572 3573 3574 3575 3576 3577 3578 3579 3580 3581 3582 3583 3584 3585 3586 3587 3588 3589 3590 3591 3592 3593 3594 3595 3596 3597 3598 3599 3600 3601 3602 3603 3604 3605 3606 3607 3608 3609 3610 3611 3612 3613 3614 3615 3616 3617 3618 3619 3620 3621 3622 3623 3624 3625 3626 3627 3628 3629 3630 3631 3632 3633 3634 3635 3636 3637 3638 3639 3640 3641 3642 3643 3644 3645 3646 3647 3648 3649 3650 3651 3652 3653 3654 3655 3656 3657 3658 3659 3660 3661 3662 3663 3664 3665 3666 3667 3668 3669 3670 3671 3672 3673 3674 3675 3676 3677 3678 3679 3680 3681 3682 3683 3684 3685 3686 3687 3688 3689 3690 3691 3692 3693 3694 3695 3696 3697 3698 3699 3700 3701 3702 3703 3704 3705 3706 3707 3708 3709 3710 3711 3712 3713 3714 3715 3716 3717 3718 3719 3720 3721 3722 3723 3724 3725 3726 3727 3728 3729 3730 3731 3732 3733 3734 3735 3736 3737 3738 3739 3740 3741 3742 3743 3744 3745 3746 3747 3748 3749 3750 3751 3752 3753 3754 3755 3756 3757 3758 3759 3760 3761 3762 3763 3764 3765 3766 3767 3768 3769 3770 3771 3772 3773 3774 3775 3776 3777 3778 3779 3780 3781 3782 3783 3784 3785 3786 3787 3788 3789 3790 3791 3792 3793 3794 3795 3796 3797 3798 3799 3800 3801 3802 3803 3804 3805 3806 3807 3808 3809 3810 3811 3812 3813 3814 3815 3816 3817 3818 3819 3820 3821 3822 3823 3824 3825 3826 3827 3828 3829 3830 3831 3832 3833 3834 3835 3836 3837 3838 3839 3840 3841 3842 3843 3844 3845 3846 3847 3848 3849 3850 3851 3852 3853 3854 3855 3856 3857 3858 3859 3860 3861 3862 3863 3864 3865 3866 3867 3868 3869 3870 3871 3872 3873 3874 3875 3876 3877 3878 3879 3880 3881 3882 3883 3884 3885 3886 3887 3888 3889 3890 3891 3892 3893 3894 3895 3896 3897 3898 3899 3900 3901 3902 3903 3904 3905 3906 3907 3908 3909 3910 3911 3912 3913 3914 3915 3916 3917 3918 3919 3920 3921 3922 3923 3924 3925 3926 3927 3928 3929 3930 3931 3932 3933 3934 3935 3936 3937 3938 3939 3940 3941 3942 3943 3944 3945 3946 3947 3948 3949 3950 3951 3952 3953 3954 3955 3956 3957 3958 3959 3960 3961 3962 3963 3964 3965 3966 3967 3968 3969 3970 3971 3972 3973 3974 3975 3976 3977 3978 3979 3980 3981 3982 3983 3984 3985 3986 3987 3988 3989 3990 3991 3992 3993 3994 3995 3996 3997 3998 3999 4000 4001 4002 4003 4004 4005 4006 4007 4008 4009 4010 4011 4012 4013 4014 4015 4016 4017 4018 4019 4020 4021 4022 4023 4024 4025 4026 4027 4028 4029 4030 4031 4032 4033 4034 4035 4036 4037 4038 4039 4040 4041 4042 4043 4044 4045 4046 4047 4048 4049 4050 4051 4052 4053 4054 4055 4056 4057 4058 4059 4060 4061 4062 4063 4064 4065 4066 4067 4068 4069 4070 4071 4072 4073 4074 4075 4076 4077 4078 4079 4080 4081 4082 4083 4084 4085 4086 4087 4088 4089 4090 4091 4092 4093 4094 4095 4096 4097 4098 4099 4100 4101 4102 4103 4104 4105 4106 4107 4108 4109 4110 4111 4112 4113 4114 4115 4116 4117 4118 4119 4120 4121 4122 4123 4124 4125 4126 4127 4128 4129 4130 4131 4132 4133 4134 4135 4136 4137 4138 4139 4140 4141 4142 4143 4144 4145 4146 4147 4148 4149 4150 4151 4152 4153 4154 4155 4156 4157 4158 4159 4160 4161 4162 4163 4164 4165 4166 4167 4168 4169 4170 4171 4172 4173 4174 4175 4176 4177 4178 4179 4180 4181 4182 4183 4184 4185 4186 4187 4188 4189 4190 4191 4192 4193 4194 4195 4196 4197 4198 4199 4200 4201 4202 4203 4204 4205 4206 4207 4208 4209 4210 4211 4212 4213 4214 4215 4216 4217 4218 4219 4220 4221 4222 4223 4224 4225 4226 4227 4228 4229 4230 4231 4232 4233 4234 4235 4236 4237 4238 4239 4240 4241 4242 4243 4244 4245 4246 4247 4248 4249 4250 4251 4252 4253 4254 4255 4256 4257 4258 4259 4260 4261 4262 4263 4264 4265 4266 4267 4268 4269 4270 4271 4272 4273 4274 4275 4276 4277 4278 4279 4280 4281 4282 4283 4284 4285 4286 4287 4288 4289 4290 4291 4292 4293 4294 4295 4296 4297 4298 4299 4300 4301 4302 4303 4304 4305 4306 4307 4308 4309 4310 4311 4312 4313 4314 4315 4316 4317 4318 4319 4320 4321 4322 4323 4324 4325 4326 4327 4328 4329 4330 4331 4332 4333 4334 4335 4336 4337 4338 4339 4340 4341 4342 4343 4344 4345 4346 4347 4348 4349 4350 4351 4352 4353 4354 4355 4356 4357 4358 4359 4360 4361 4362 4363 4364 4365 4366 4367 4368 4369 4370 4371 4372 4373 4374 4375 4376 4377 4378 4379 4380 4381 4382 4383 4384 4385 4386 4387 4388 4389 4390 4391 4392 4393 4394 4395 4396 4397 4398 4399 4400 4401 4402 4403 4404 4405 4406 4407 4408 4409 4410 4411 4412 4413 4414 4415 4416 4417 4418 4419 4420 4421 4422 4423 4424 4425 4426 4427 4428 4429 4430 4431 4432 4433 4434 4435 4436 4437 4438 4439 4440 4441 4442 4443 4444 4445 4446 4447 4448 4449 4450 4451 4452 4453 4454 4455 4456 4457 4458 4459 4460 4461 4462 4463 4464 4465 4466 4467 4468 4469 4470 4471 4472 4473 4474 4475 4476 4477 4478 4479 4480 4481 4482 4483 4484 4485 4486 4487 4488 4489 4490 4491 4492 4493 4494 4495 4496 4497 4498 4499 4500 4501 4502 4503 4504 4505 4506 4507 4508 4509 4510 4511 4512 4513 4514 4515 4516 4517 4518 4519 4520 4521 4522 4523 4524 4525 4526 4527 4528 4529 4530 4531 4532 4533 4534 4535 4536 4537 4538 4539 4540 4541 4542 4543 4544 4545 4546 4547 4548 4549 4550 4551 4552 4553 4554 4555 4556 4557 4558 4559 4560 4561 4562 4563 4564 4565 4566 4567 4568 4569 4570 4571 4572 4573 4574 4575 4576 4577 4578 4579 4580 4581 4582 4583 4584 4585 4586 4587 4588 4589 4590 4591 4592 4593 4594 4595 4596 4597 4598 4599 4600 4601 4602 4603 4604 4605 4606 4607 4608 4609 4610 4611 4612 4613 4614 4615 4616 4617 4618 4619 4620 4621 4622 4623 4624 4625 4626 4627 4628 4629 4630 4631 4632 4633 4634 4635 4636 4637 4638 4639 4640 4641 4642 4643 4644 4645 4646 4647 4648 4649 4650 4651 4652 4653 4654 4655 4656 4657 4658 4659 4660 4661 4662 4663 4664 4665 4666 4667 4668 4669 4670 4671 4672 4673 4674 4675 4676 4677 4678 4679 4680 4681 4682 4683 4684 4685 4686 4687 4688 4689 4690 4691 4692 4693 4694 4695 4696 4697 4698 4699 4700 4701 4702 4703 4704 4705 4706 4707 4708 4709 4710 4711 4712 4713 4714 4715 4716 4717 4718 4719 4720 4721 4722 4723 4724 4725 4726 4727 4728 4729 4730 4731 4732 4733 4734 4735 4736 4737 4738 4739 4740 4741 4742 4743 4744 4745 4746 4747 4748 4749 4750 4751 4752 4753 4754 4755 4756 4757 4758 4759 4760 4761 4762 4763 4764 4765 4766 4767 4768 4769 4770 4771 4772 4773 4774 4775 4776 4777 4778 4779 4780 4781 4782 4783 4784 4785 4786 4787 4788 4789 4790 4791 4792 4793 4794 4795 4796 4797 4798 4799 4800 4801 4802 4803 4804 4805 4806 4807 4808 4809 4810 4811 4812 4813 4814 4815 4816 4817 4818 4819 4820 4821 4822 4823 4824 4825 4826 4827 4828 4829 4830 4831 4832 4833 4834 4835 4836 4837 4838 4839 4840 4841 4842 4843 4844 4845 4846 4847 4848 4849 4850 4851 4852 4853 4854 4855 4856 4857 4858 4859 4860 4861 4862 4863 4864 4865 4866 4867 4868 4869 4870 4871 4872 4873 4874 4875 4876 4877 4878 4879 4880 4881 4882 4883 4884 4885 4886 4887 4888 4889 4890 4891 4892 4893 4894 4895 4896 4897 4898 4899 4900 4901 4902 4903 4904 4905 4906 4907 4908 4909 4910 4911 4912 4913 4914 4915 4916 4917 4918 4919 4920 4921 4922 4923 4924 4925 4926 4927 4928 4929 4930 4931 4932 4933 4934 4935 4936 4937 4938 4939 4940 4941 4942 4943 4944 4945 4946 4947 4948 4949 4950 4951 4952 4953 4954 4955 4956 4957 4958 4959 4960 4961 4962 4963 4964 4965 4966 4967 4968 4969 4970 4971 4972 4973 4974 4975 4976 4977 4978 4979 4980 4981 4982 4983 4984 4985 4986 4987 4988 4989 4990 4991 4992 4993 4994 4995 4996 4997 4998 4999 5000 5001 5002 5003 5004 5005 5006 5007 5008 5009 5010 5011 5012 5013 5014 5015 5016 5017 5018 5019 5020 5021 5022 5023 5024 5025 5026 5027 5028 5029 5030 5031 5032 5033 5034 5035 5036 5037 5038 5039 5040 5041 5042 5043 5044 5045 5046 5047 5048 5049 5050 5051 5052 5053 5054 5055 5056 5057 5058 5059 5060 5061 5062 5063 5064 5065 5066 5067 5068 5069 5070 5071 5072 5073 5074 5075 5076 5077 5078 5079 5080 5081 5082 5083 5084 5085 5086 5087 5088 5089 5090 5091 5092 5093 5094 5095 5096 5097 5098 5099 5100 5101 5102 5103 5104 5105 5106 5107 5108 5109 5110 5111 5112 5113 5114 5115 5116 5117 5118 5119 5120 5121 5122 5123 5124 5125 5126 5127 5128 5129 5130 5131 5132 5133 5134 5135 5136 5137 5138 5139 5140 5141 5142 5143 5144 5145 5146 5147 5148 5149 5150 5151 5152 5153 5154 5155 5156 5157 5158 5159 5160 5161 5162 5163 5164 5165 5166 5167 5168 5169 5170 5171 5172 5173 5174 5175 5176 5177 5178 5179 5180 5181 5182 5183 5184 5185 5186 5187 5188 5189 5190 5191 5192 5193 5194 5195 5196 5197 5198 5199 5200 5201 5202 5203 5204 5205 5206 5207 5208 5209 5210 5211 5212 5213 5214 5215 5216 5217 5218 5219 5220 5221 5222 5223 5224 5225 5226 5227 5228 5229 5230 5231 5232 5233 5234 5235 5236 5237 5238 5239 5240 5241 5242 5243 5244 5245 5246 5247 5248 5249 5250 5251 5252 5253 5254 5255 5256 5257 5258 5259 5260 5261 5262 5263 5264 5265 5266 5267 5268 5269 5270 5271 5272 5273 5274 5275 5276 5277 5278 5279 5280 5281 5282 5283 5284 5285 5286 5287 5288 5289 5290 5291 5292 5293 5294 5295 5296 5297 5298 5299 5300 5301 5302 5303 5304 5305 5306 5307 5308 5309 5310 5311 5312 5313 5314 5315 5316 5317 5318 5319 5320 5321 5322 5323 5324 5325 5326 5327 5328 5329 5330 5331 5332 5333 5334 5335 5336 5337 5338 5339 5340 5341 5342 5343 5344 5345 5346 5347 5348 5349 5350 5351 5352 5353 5354 5355 5356 5357 5358 5359 5360 5361 5362 5363 5364 5365 5366 5367 5368 5369 5370 5371 5372 5373 5374 5375 5376 5377 5378 5379 5380 5381 5382 5383 5384 5385 5386 5387 5388 5389 5390 5391 5392 5393 5394 5395 5396 5397 5398 5399 5400 5401 5402 5403 5404 5405 5406 5407 5408 5409 5410 5411 5412 5413 5414 5415 5416 5417 5418 5419 5420 5421 5422 5423 5424 5425 5426 5427 5428 5429 5430 5431 5432 5433 5434 5435 5436 5437 5438 5439 5440 5441 5442 5443 5444 5445 5446 5447 5448 5449 5450 5451 5452 5453 5454 5455 5456 5457 5458 5459 5460 5461 5462 5463 5464 5465 5466 5467 5468 5469 5470 5471 5472 5473 5474 5475 5476 5477 5478 5479 5480 5481 5482 5483 5484 5485 5486 5487 5488 5489 5490 5491 5492 5493 5494 5495 5496 5497 5498 5499 5500 5501 5502 5503 5504 5505 5506 5507 5508 5509 5510 5511 5512 5513 5514 5515 5516 5517 5518 5519 5520 5521 5522 5523 5524 5525 5526 5527 5528 5529 5530 5531 5532 5533 5534 5535 5536 5537 5538 5539 5540 5541 5542 5543 5544 5545 5546 5547 5548 5549 5550 5551 5552 5553 5554 5555 5556 5557 5558 5559 5560 5561 5562 5563 5564 5565 5566 5567 5568 5569 5570 5571 5572 5573 5574 5575 5576 5577 5578 5579 5580 5581 5582 5583 5584 5585 5586 5587 5588 5589 5590 5591 5592 5593 5594 5595 5596 5597 5598 5599 5600 5601 5602 5603 5604 5605 5606 5607 5608 5609 5610 5611 5612 5613 5614 5615 5616 5617 5618 5619 5620 5621 5622 5623 5624 5625 5626 5627 5628 5629 5630 5631 5632 5633 5634 5635 5636 5637 5638 5639 5640 5641 5642 5643 5644 5645 5646 5647 5648 5649 5650 5651 5652 5653 5654 5655 5656 5657 5658 5659 5660 5661 5662 5663 5664 5665 5666 5667 5668 5669 5670 5671 5672 5673 5674 5675 5676 5677 5678 5679 5680 5681 5682 5683 5684 5685 5686 5687 5688 5689 5690 5691 5692 5693 5694 5695 5696 5697 5698 5699 5700 5701 5702 5703 5704 5705 5706 5707 5708 5709 5710 5711 5712 5713 5714 5715 5716 5717 5718 5719 5720 5721 5722 5723 5724 5725 5726 5727 5728 5729 5730 5731 5732 5733 5734 5735 5736 5737 5738 5739 5740 5741 5742 5743 5744 5745 5746 5747 5748 5749 5750 5751 5752 5753 5754 5755 5756 5757 5758 5759 5760 5761 5762 5763 5764 5765 5766 5767 5768 5769 5770 5771 5772 5773 5774 5775 5776 5777 5778 5779 5780 5781 5782 5783 5784 5785 5786 5787 5788 5789 5790 5791 5792 5793 5794 5795 5796 5797 5798 5799 5800 5801 5802 5803 5804 5805 5806 5807 5808 5809 5810 5811 5812 5813 5814 5815 5816 5817 5818 5819 5820 5821 5822 5823 5824 5825 5826 5827 5828 5829 5830 5831 5832 5833 5834 5835 5836 5837 5838 5839 5840 5841 5842 5843 5844 5845 5846 5847 5848 5849 5850 5851 5852 5853 5854 5855 5856 5857 5858 5859 5860 5861 5862 5863 5864 5865 5866 5867 5868 5869 5870 5871 5872 5873 5874 5875 5876 5877 5878 5879 5880 5881 5882 5883 5884 5885 5886 5887 5888 5889 5890 5891 5892 5893 5894 5895 5896 5897 5898 5899 5900 5901 5902 5903 5904 5905 5906 5907 5908 5909 5910 5911 5912 5913 5914 5915 5916 5917 5918 5919 5920 5921 5922 5923 5924 5925 5926 5927 5928 5929 5930 5931 5932 5933 5934 5935 5936 5937 5938 5939 5940 5941 5942 5943 5944 5945 5946 5947 5948 5949 5950 5951 5952 5953 5954 5955 5956 5957 5958 5959 5960 5961 5962 5963 5964 5965 5966 5967 5968 5969 5970 5971 5972 5973 5974 5975 5976 5977 5978 5979 5980 5981 5982 5983 5984 5985 5986 5987 5988 5989 5990 5991 5992 5993 5994 5995 5996 5997 5998 5999 6000 6001 6002 6003 6004 6005 6006 6007 6008 6009 6010 6011 6012 6013 6014 6015 6016 6017 6018 6019 6020 6021 6022 6023 6024 6025 6026 6027 6028 6029 6030 6031 6032 6033 6034 6035 6036 6037 6038 6039 6040 6041 6042 6043 6044 6045 6046 6047 6048 6049 6050 6051 6052 6053 6054 6055 6056 6057 6058 6059 6060 6061 6062 6063 6064 6065 6066 6067 6068 6069 6070 6071 6072 6073 6074 6075 6076 6077 6078 6079 6080 6081 6082 6083 6084 6085 6086 6087 6088 6089 6090 6091 6092 6093 6094 6095 6096 6097 6098 6099 6100 6101 6102 6103 6104 6105 6106 6107 6108 6109 6110 6111 6112 6113 6114 6115 6116 6117 6118 6119 6120 6121 6122 6123 6124 6125 6126 6127 6128 6129 6130 6131 6132 6133 6134 6135 6136 6137 6138 6139 6140 6141 6142 6143 6144 6145 6146 6147 6148 6149 6150 6151 6152 6153 6154 6155 6156 6157 6158 6159 6160 6161 6162 6163 6164 6165 6166 6167 6168 6169 6170 6171 6172 6173 6174 6175 6176 6177 6178 6179 6180 6181 6182 6183 6184 6185 6186 6187 6188 6189 6190 6191 6192 6193 6194 6195 6196 6197 6198 6199 6200 6201 6202 6203 6204 6205 6206 6207 6208 6209 6210 6211 6212 6213 6214 6215 6216 6217 6218 6219 6220 6221 6222 6223 6224 6225 6226 6227 6228 6229 6230 6231 6232 6233 6234 6235 6236 6237 6238 6239 6240 6241 6242 6243 6244 6245 6246 6247 6248 6249 6250 6251 6252 6253 6254 6255 6256 6257 6258 6259 6260 6261 6262 6263 6264 6265 6266 6267 6268 6269 6270 6271 6272 6273 6274 6275 6276 6277 6278 6279 6280 6281 6282 6283 6284 6285 6286 6287 6288 6289 6290 6291 6292 6293 6294 6295 6296 6297 6298 6299 6300 6301 6302 6303 6304 6305 6306 6307 6308 6309 6310 6311 6312 6313 6314 6315 6316 6317 6318 6319 6320 6321 6322 6323 6324 6325 6326 6327 6328 6329 6330 6331 6332 6333 6334 6335 6336 6337 6338 6339 6340 6341 6342 6343 6344 6345 6346 6347 6348 6349 6350 6351 6352 6353 6354 6355 6356 6357 6358 6359 6360 6361 6362 6363 6364 6365 6366 6367 6368 6369 6370 6371 6372 6373 6374 6375 6376 6377 6378 6379 6380 6381 6382 6383 6384 6385 6386 6387 6388 6389 6390 6391 6392 6393 6394 6395 6396 6397 6398 6399 6400 6401 6402 6403 6404 6405 6406 6407 6408 6409 6410 6411 6412 6413 6414 6415 6416 6417 6418 6419 6420 6421 6422 6423 6424 6425 6426 6427 6428 6429 6430 6431 6432 6433 6434 6435 6436 6437 6438 6439 6440 6441 6442 6443 6444 6445 6446 6447 6448 6449 6450 6451 6452 6453 6454 6455 6456 6457 6458 6459 6460 6461 6462 6463 6464 6465 6466 6467 6468 6469 6470 6471 6472 6473 6474 6475 6476 6477 6478 6479 6480 6481 6482 6483 6484 6485 6486 6487 6488 6489 6490 6491 6492 6493 6494 6495 6496 6497 6498 6499 6500 6501 6502 6503 6504 6505 6506 6507 6508 6509 6510 6511 6512 6513 6514 6515 6516 6517 6518 6519 6520 6521 6522 6523 6524 6525 6526 6527 6528 6529 6530 6531 6532 6533 6534 6535 6536 6537 6538 6539 6540 6541 6542 6543 6544 6545 6546 6547 6548 6549 6550 6551 6552 6553 6554 6555 6556 6557 6558 6559 6560 6561 6562 6563 6564 6565 6566 6567 6568 6569 6570 6571 6572 6573 6574 6575 6576 6577 6578 6579 6580 6581 6582 6583 6584 6585 6586 6587 6588 6589 6590 6591 6592 6593 6594 6595 6596 6597 6598 6599 6600 6601 6602 6603 6604 6605 6606 6607 6608 6609 6610 6611 6612 6613 6614 6615 6616 6617 6618 6619 6620 6621 6622 6623 6624 6625 6626 6627 6628 6629 6630 6631 6632 6633 6634 6635 6636 6637 6638 6639 6640 6641 6642 6643 6644 6645 6646 6647 6648 6649 6650 6651 6652 6653 6654 6655 6656 6657 6658 6659 6660 6661 6662 6663 6664 6665 6666 6667 6668 6669 6670 6671 6672 6673 6674 6675 6676 6677 6678 6679 6680 6681 6682 6683 6684 6685 6686 6687 6688 6689 6690 6691 6692 6693 6694 6695 6696 6697 6698 6699 6700 6701 6702 6703 6704 6705 6706 6707 6708 6709 6710 6711 6712 6713 6714 6715 6716 6717 6718 6719 6720 6721 6722 6723 6724 6725 6726 6727 6728 6729 6730 6731 6732 6733 6734 6735 6736 6737 6738 6739 6740 6741 6742 6743 6744 6745 6746 6747 6748 6749 6750 6751 6752 6753 6754 6755 6756 6757 6758 6759 6760 6761 6762 6763 6764 6765 6766 6767 6768 6769 6770 6771 6772 6773 6774 6775 6776 6777 6778 6779 6780 6781 6782 6783 6784 6785 6786 6787 6788 6789 6790 6791 6792 6793 6794 6795 6796 6797 6798 6799 6800 6801 6802 6803 6804 6805 6806 6807 6808 6809 6810 6811 6812 6813 6814 6815 6816 6817 6818 6819 6820 6821 6822 6823 6824 6825 6826 6827 6828 6829 6830 6831 6832 6833 6834 6835 6836 6837 6838 6839 6840 6841 6842 6843 6844 6845 6846 6847 6848 6849 6850 6851 6852 6853 6854 6855 6856 6857 6858 6859 6860 6861 6862 6863 6864 6865 6866 6867 6868 6869 6870 6871 6872 6873 6874 6875 6876 6877 6878 6879 6880 6881 6882 6883 6884 6885 6886 6887 6888 6889 6890 6891 6892 6893 6894 6895 6896 6897 6898 6899 6900 6901 6902 6903 6904 6905 6906 6907 6908 6909 6910 6911 6912 6913 6914 6915 6916 6917 6918 6919 6920 6921 6922 6923 6924 6925 6926 6927 6928 6929 6930 6931 6932 6933 6934 6935 6936 6937 6938 6939 6940 6941 6942 6943 6944 6945 6946 6947 6948 6949 6950 6951 6952 6953 6954 6955 6956 6957 6958 6959 6960 6961 6962 6963 6964 6965 6966 6967 6968 6969 6970 6971 6972 6973 6974 6975 6976 6977 6978 6979 6980 6981 6982 6983 6984 6985 6986 6987 6988 6989 6990 6991 6992 6993 6994 6995 6996 6997 6998 6999 7000 7001 7002 7003 7004 7005 7006 7007 7008 7009 7010 7011 7012 7013 7014 7015 7016 7017 7018 7019 7020 7021 7022 7023 7024 7025 7026 7027 7028 7029 7030 7031 7032 7033 7034 7035 7036 7037 7038 7039 7040 7041 7042 7043 7044 7045 7046 7047 7048 7049 7050 7051 7052 7053 7054 7055 7056 7057 7058 7059 7060 7061 7062 7063 7064 7065 7066 7067 7068 7069 7070 7071 7072 7073 7074 7075 7076 7077 7078 7079 7080 7081 7082 7083 7084 7085 7086 7087 7088 7089 7090 7091 7092 7093 7094 7095 7096 7097 7098 7099 7100 7101 7102 7103 7104 7105 7106 7107 7108 7109 7110 7111 7112 7113 7114 7115 7116 7117 7118 7119 7120 7121 7122 7123 7124 7125 7126 7127 7128 7129 7130 7131 7132 7133 7134 7135 7136 7137 7138 7139 7140 7141 7142 7143 7144 7145 7146 7147 7148 7149 7150 7151 7152 7153 7154 7155 7156 7157 7158 7159 7160 7161 7162 7163 7164 7165 7166 7167 7168 7169 7170 7171 7172 7173 7174 7175 7176 7177 7178 7179 7180 7181 7182 7183 7184 7185 7186 7187 7188 7189 7190 7191 7192 7193 7194 7195 7196 7197 7198 7199 7200 7201 7202 7203 7204 7205 7206 7207 7208 7209 7210 7211 7212 7213 7214 7215 7216 7217 7218 7219 7220 7221 7222 7223 7224 7225 7226 7227 7228 7229 7230 7231 7232 7233 7234 7235 7236 7237 7238 7239 7240 7241 7242 7243 7244 7245 7246 7247 7248 7249 7250 7251 7252 7253 7254 7255 7256 7257 7258 7259 7260 7261 7262 7263 7264 7265 7266 7267 7268 7269 7270 7271 7272 7273 7274 7275 7276 7277 7278 7279 7280 7281 7282 7283 7284 7285 7286 7287 7288 7289 7290 7291 7292 7293 7294 7295 7296 7297 7298 7299 7300 7301 7302 7303 7304 7305 7306 7307 7308 7309 7310 7311 7312 7313 7314 7315 7316 7317 7318 7319 7320 7321 7322 7323 7324 7325 7326 7327 7328 7329 7330 7331 7332 7333 7334 7335 7336 7337 7338 7339 7340 7341 7342 7343 7344 7345 7346 7347 7348 7349 7350 7351 7352 7353 7354 7355 7356 7357 7358 7359 7360 7361 7362 7363 7364 7365 7366 7367 7368 7369 7370 7371 7372 7373 7374 7375 7376 7377 7378 7379 7380 7381 7382 7383 7384 7385 7386 7387 7388 7389 7390 7391 7392 7393 7394 7395 7396 7397 7398 7399 7400 7401 7402 7403 7404 7405 7406 7407 7408 7409 7410 7411 7412 7413 7414 7415 7416 7417 7418 7419 7420 7421 7422 7423 7424 7425 7426 7427 7428 7429 7430 7431 7432 7433 7434 7435 7436 7437 7438 7439 7440 7441 7442 7443 7444 7445 7446 7447 7448 7449 7450 7451 7452 7453 7454 7455 7456 7457 7458 7459 7460 7461 7462 7463 7464 7465 7466 7467 7468 7469 7470 7471 7472 7473 7474 7475 7476 7477 7478 7479 7480 7481 7482 7483 7484 7485 7486 7487 7488 7489 7490 7491 7492 7493 7494 7495 7496 7497 7498 7499 7500 7501 7502 7503 7504 7505 7506 7507 7508 7509 7510 7511 7512 7513 7514 7515 7516 7517 7518 7519 7520 7521 7522 7523 7524 7525 7526 7527 7528 7529 7530 7531 7532 7533 7534 7535 7536 7537 7538 7539 7540 7541 7542 7543 7544 7545 7546 7547 7548 7549 7550 7551 7552 7553 7554 7555 7556 7557 7558 7559 7560 7561 7562 7563 7564 7565 7566 7567 7568 7569 7570 7571 7572 7573 7574 7575 7576 7577 7578 7579 7580 7581 7582 7583 7584 7585 7586 7587 7588 7589 7590 7591 7592 7593 7594 7595 7596 7597 7598 7599 7600 7601 7602 7603 7604 7605 7606 7607 7608 7609 7610 7611 7612 7613 7614 7615 7616 7617 7618 7619 7620 7621 7622 7623 7624 7625 7626 7627 7628 7629 7630 7631 7632 7633 7634 7635 7636 7637 7638 7639 7640 7641 7642 7643 7644 7645 7646 7647 7648 7649 7650 7651 7652 7653 7654 7655 7656 7657 7658 7659 7660 7661 7662 7663 7664 7665 7666 7667 7668 7669 7670 7671 7672 7673 7674 7675 7676 7677 7678 7679 7680 7681 7682 7683 7684 7685 7686 7687 7688 7689 7690 7691 7692 7693 7694 7695 7696 7697 7698 7699 7700 7701 7702 7703 7704 7705 7706 7707 7708 7709 7710 7711 7712 7713 7714 7715 7716 7717 7718 7719 7720 7721 7722 7723 7724 7725 7726 7727 7728 7729 7730 7731 7732 7733 7734 7735 7736 7737 7738 7739 7740 7741 7742 7743 7744 7745 7746 7747 7748 7749 7750 7751 7752 7753 7754 7755 7756 7757 7758 7759 7760 7761 7762 7763 7764 7765 7766 7767 7768 7769 7770 7771 7772 7773 7774 7775 7776 7777 7778 7779 7780 7781 7782 7783 7784 7785 7786 7787 7788 7789 7790 7791 7792 7793 7794 7795 7796 7797 7798 7799 7800 7801 7802 7803 7804 7805 7806 7807 7808 7809 7810 7811 7812 7813 7814 7815 7816 7817 7818 7819 7820 7821 7822 7823 7824 7825 7826 7827 7828 7829 7830 7831 7832 7833 7834 7835 7836 7837 7838 7839 7840 7841 7842 7843 7844 7845 7846 7847 7848 7849 7850 7851 7852 7853 7854 7855 7856 7857 7858 7859 7860 7861 7862 7863 7864 7865 7866 7867 7868 7869 7870 7871 7872 7873 7874 7875 7876 7877 7878 7879 7880 7881 7882 7883 7884 7885 7886 7887 7888 7889 7890 7891 7892 7893 7894 7895 7896 7897 7898 7899 7900 7901 7902 7903 7904 7905 7906 7907 7908 7909 7910 7911 7912 7913 7914 7915 7916 7917 7918 7919 7920 7921 7922 7923 7924 7925 7926 7927 7928 7929 7930 7931 7932 7933 7934 7935 7936 7937 7938 7939 7940 7941 7942 7943 7944 7945 7946 7947 7948 7949 7950 7951 7952 7953 7954 7955 7956 7957 7958 7959 7960 7961 7962 7963 7964 7965 7966 7967 7968 7969 7970 7971 7972 7973 7974 7975 7976 7977 7978 7979 7980 7981 7982 7983 7984 7985 7986 7987 7988 7989 7990 7991 7992 7993 7994 7995 7996 7997 7998 7999 8000 8001 8002 8003 8004 8005 8006 8007 8008 8009 8010 8011 8012 8013 8014 8015 8016 8017 8018 8019 8020 8021 8022 8023 8024 8025 8026 8027 8028 8029 8030 8031 8032 8033 8034 8035 8036 8037 8038 8039 8040 8041 8042 8043 8044 8045 8046 8047 8048 8049 8050 8051 8052 8053 8054 8055 8056 8057 8058 8059 8060 8061 8062 8063 8064 8065 8066 8067 8068 8069 8070 8071 8072 8073 8074 8075 8076 8077 8078 8079 8080 8081 8082 8083 8084 8085 8086 8087 8088 8089 8090 8091 8092 8093 8094 8095 8096 8097 8098 8099 8100 8101 8102 8103 8104 8105 8106 8107 8108 8109 8110 8111 8112 8113 8114 8115 8116 8117 8118 8119 8120 8121 8122 8123 8124 8125 8126 8127 8128 8129 8130 8131 8132 8133 8134 8135 8136 8137 8138 8139 8140 8141 8142 8143 8144 8145 8146 8147 8148 8149 8150 8151 8152 8153 8154 8155 8156 8157 8158 8159 8160 8161 8162 8163 8164 8165 8166 8167 8168 8169 8170 8171 8172 8173 8174 8175 8176 8177 8178 8179 8180 8181 8182 8183 8184 8185 8186 8187 8188 8189 8190 8191 8192 8193 8194 8195 8196 8197 8198 8199 8200 8201 8202 8203 8204 8205 8206 8207 8208 8209 8210 8211 8212 8213 8214 8215 8216 8217 8218 8219 8220 8221 8222 8223 8224 8225 8226 8227 8228 8229 8230 8231 8232 8233 8234 8235 8236 8237 8238 8239 8240 8241 8242 8243 8244 8245 8246 8247 8248 8249 8250 8251 8252 8253 8254 8255 8256 8257 8258 8259 8260 8261 8262 8263 8264 8265 8266 8267 8268 8269 8270 8271 8272 8273 8274 8275 8276 8277 8278 8279 8280 8281 8282 8283 8284 8285 8286 8287 8288 8289 8290 8291 8292 8293 8294 8295 8296 8297 8298 8299 8300 8301 8302 8303 8304 8305 8306 8307 8308 8309 8310 8311 8312 8313 8314 8315 8316 8317 8318 8319 8320 8321 8322 8323 8324 8325 8326 8327 8328 8329 8330 8331 8332 8333 8334 8335 8336 8337 8338 8339 8340 8341 8342 8343 8344 8345 8346 8347 8348 8349 8350 8351 8352 8353 8354 8355 8356 8357 8358 8359 8360 8361 8362 8363 8364 8365 8366 8367 8368 8369 8370 8371 8372 8373 8374 8375 8376 8377 8378 8379 8380 8381 8382 8383 8384 8385 8386 8387 8388 8389 8390 8391 8392 8393 8394 8395 8396 8397 8398 8399 8400 8401 8402 8403 8404 8405 8406 8407 8408 8409 8410 8411 8412 8413 8414 8415 8416 8417 8418 8419 8420 8421 8422 8423 8424 8425 8426 8427 8428 8429 8430 8431 8432 8433 8434 8435 8436 8437 8438 8439 8440 8441 8442 8443 8444 8445 8446 8447 8448 8449 8450 8451 8452 8453 8454 8455 8456 8457 8458 8459 8460 8461 8462 8463 8464 8465 8466 8467 8468 8469 8470 8471 8472 8473 8474 8475 8476 8477 8478 8479 8480 8481 8482 8483 8484 8485 8486 8487 8488 8489 8490 8491 8492 8493 8494 8495 8496 8497 8498 8499 8500 8501 8502 8503 8504 8505 8506 8507 8508 8509 8510 8511 8512 8513 8514 8515 8516 8517 8518 8519 8520 8521 8522 8523 8524 8525 8526 8527 8528 8529 8530 8531 8532 8533 8534 8535 8536 8537 8538 8539 8540 8541 8542 8543 8544 8545 8546 8547 8548 8549 8550 8551 8552 8553 8554 8555 8556 8557 8558 8559 8560 8561 8562 8563 8564 8565 8566 8567 8568 8569 8570 8571 8572 8573 8574 8575 8576 8577 8578 8579 8580 8581 8582 8583 8584 8585 8586 8587 8588 8589 8590 8591 8592 8593 8594 8595 8596 8597 8598 8599 8600 8601 8602 8603 8604 8605 8606 8607 8608 8609 8610 8611 8612 8613 8614 8615 8616 8617 8618 8619 8620 8621 8622 8623 8624 8625 8626 8627 8628 8629 8630 8631 8632 8633 8634 8635 8636 8637 8638 8639 8640 8641 8642 8643 8644 8645 8646 8647 8648 8649 8650 8651 8652 8653 8654 8655 8656 8657 8658 8659 8660 8661 8662 8663 8664 8665 8666 8667 8668 8669 8670 8671 8672 8673 8674 8675 8676 8677 8678 8679 8680 8681 8682 8683 8684 8685 8686 8687 8688 8689 8690 8691 8692 8693 8694 8695 8696 8697 8698 8699 8700 8701 8702 8703 8704 8705 8706 8707 8708 8709 8710 8711 8712 8713 8714 8715 8716 8717 8718 8719 8720 8721 8722 8723 8724 8725 8726 8727 8728 8729 8730 8731 8732 8733 8734 8735 8736 8737 8738 8739 8740 8741 8742 8743 8744 8745 8746 8747 8748 8749 8750 8751 8752 8753 8754 8755 8756 8757 8758 8759 8760 8761 8762 8763 8764 8765 8766 8767 8768 8769 8770 8771 8772 8773 8774 8775 8776 8777 8778 8779 8780 8781 8782 8783 8784 8785 8786 8787 8788 8789 8790 8791 8792 8793 8794 8795 8796 8797 8798 8799 8800 8801 8802 8803 8804 8805 8806 8807 8808 8809 8810 8811 8812 8813 8814 8815 8816 8817 8818 8819 8820 8821 8822 8823 8824 8825 8826 8827 8828 8829 8830 8831 8832 8833 8834 8835 8836 8837 8838 8839 8840 8841 8842 8843 8844 8845 8846 8847 8848 8849 8850 8851 8852 8853 8854 8855 8856 8857 8858 8859 8860 8861 8862 8863 8864 8865 8866 8867 8868 8869 8870 8871 8872 8873 8874 8875 8876 8877 8878 8879 8880 8881 8882 8883 8884 8885 8886 8887 8888 8889 8890 8891 8892 8893 8894 8895 8896 8897 8898 8899 8900 8901 8902 8903 8904 8905 8906 8907 8908 8909 8910 8911 8912 8913 8914 8915 8916 8917 8918 8919 8920 8921 8922 8923 8924 8925 8926 8927 8928 8929 8930 8931 8932 8933 8934 8935 8936 8937 8938 8939 8940 8941 8942 8943 8944 8945 8946 8947 8948 8949 8950 8951 8952 8953 8954 8955 8956 8957 8958 8959 8960 8961 8962 8963 8964 8965 8966 8967 8968 8969 8970 8971 8972 8973 8974 8975 8976 8977 8978 8979 8980 8981 8982 8983 8984 8985 8986 8987 8988 8989 8990 8991 8992 8993 8994 8995 8996 8997 8998 8999 9000 9001 9002 9003 9004 9005 9006 9007 9008 9009 9010 9011 9012 9013 9014 9015 9016 9017 9018 9019 9020 9021 9022 9023 9024 9025 9026 9027 9028 9029 9030 9031 9032 9033 9034 9035 9036 9037 9038 9039 9040 9041 9042 9043 9044 9045 9046 9047 9048 9049 9050 9051 9052 9053 9054 9055 9056 9057 9058 9059 9060 9061 9062 9063 9064 9065 9066 9067 9068 9069 9070 9071 9072 9073 9074 9075 9076 9077 9078 9079 9080 9081 9082 9083 9084 9085 9086 9087 9088 9089 9090 9091 9092 9093 9094 9095 9096 9097 9098 9099 9100 9101 9102 9103 9104 9105 9106 9107 9108 9109 9110 9111 9112 9113 9114 9115 9116 9117 9118 9119 9120 9121 9122 9123 9124 9125 9126 9127 9128 9129 9130 9131 9132 9133 9134 9135 9136 9137 9138 9139 9140 9141 9142 9143 9144 9145 9146 9147 9148 9149 9150 9151 9152 9153 9154 9155 9156 9157 9158 9159 9160 9161 9162 9163 9164 9165 9166 9167 9168 9169 9170 9171 9172 9173 9174 9175 9176 9177 9178 9179 9180 9181 9182 9183 9184 9185 9186 9187 9188 9189 9190 9191 9192 9193 9194 9195 9196 9197 9198 9199 9200 9201 9202 9203 9204 9205 9206 9207 9208 9209 9210 9211 9212 9213 9214 9215 9216 9217 9218 9219 9220 9221 9222 9223 9224 9225 9226 9227 9228 9229 9230 9231 9232 9233 9234 9235 9236 9237 9238 9239 9240 9241 9242 9243 9244 9245 9246 9247 9248 9249 9250 9251 9252 9253 9254 9255 9256 9257 9258 9259 9260 9261 9262 9263 9264 9265 9266 9267 9268 9269 9270 9271 9272 9273 9274 9275 9276 9277 9278 9279 9280 9281 9282 9283 9284 9285 9286 9287 9288 9289 9290 9291 9292 9293 9294 9295 9296 9297 9298 9299 9300 9301 9302 9303 9304 9305 9306 9307 9308 9309 9310 9311 9312 9313 9314 9315 9316 9317 9318 9319 9320 9321 9322 9323 9324 9325 9326 9327 9328 9329 9330 9331 9332 9333 9334 9335 9336 9337 9338 9339 9340 9341 9342 9343 9344 9345 9346 9347 9348 9349 9350 9351 9352 9353 9354 9355 9356 9357 9358 9359 9360 9361 9362 9363 9364 9365 9366 9367 9368 9369 9370 9371 9372 9373 9374 9375 9376 9377 9378 9379 9380 9381 9382 9383 9384 9385 9386 9387 9388 9389 9390 9391 9392 9393 9394 9395 9396 9397 9398 9399 9400 9401 9402 9403 9404 9405 9406 9407 9408 9409 9410 9411 9412 9413 9414 9415 9416 9417 9418 9419 9420 9421 9422 9423 9424 9425 9426 9427 9428 9429 9430 9431 9432 9433 9434 9435 9436 9437 9438 9439 9440 9441 9442 9443 9444 9445 9446 9447 9448 9449 9450 9451 9452 9453 9454 9455 9456 9457 9458 9459 9460 9461 9462 9463 9464 9465 9466 9467 9468 9469 9470 9471 9472 9473 9474 9475 9476 9477 9478 9479 9480 9481 9482 9483 9484 9485 9486 9487 9488 9489 9490 9491 9492 9493 9494 9495 9496 9497 9498 9499 9500 9501 9502 9503 9504 9505 9506 9507 9508 9509 9510 9511 9512 9513 9514 9515 9516 9517 9518 9519 9520 9521 9522 9523 9524 9525 9526 9527 9528 9529 9530 9531 9532 9533 9534 9535 9536 9537 9538 9539 9540 9541 9542 9543 9544 9545 9546 9547 9548 9549 9550 9551 9552 9553 9554 9555 9556 9557 9558 9559 9560 9561 9562 9563 9564 9565 9566 9567 9568 9569 9570 9571 9572 9573 9574 9575 9576 9577 9578 9579 9580 9581 9582 9583 9584 9585 9586 9587 9588 9589 9590 9591 9592 9593 9594 9595 9596 9597 9598 9599 9600 9601 9602 9603 9604 9605 9606 9607 9608 9609 9610 9611 9612 9613 9614 9615 9616 9617 9618 9619 9620 9621 9622 9623 9624 9625 9626 9627 9628 9629 9630 9631 9632 9633 9634 9635 9636 9637 9638 9639 9640 9641 9642 9643 9644 9645 9646 9647 9648 9649 9650 9651 9652 9653 9654 9655 9656 9657 9658 9659 9660 9661 9662 9663 9664 9665 9666 9667 9668 9669 9670 9671 9672 9673 9674 9675 9676 9677 9678 9679 9680 9681 9682 9683 9684 9685 9686 9687 9688 9689 9690 9691 9692 9693 9694 9695 9696 9697 9698 9699 9700 9701 9702 9703 9704 9705 9706 9707 9708 9709 9710 9711 9712 9713 9714 9715 9716 9717 9718 9719 9720 9721 9722 9723 9724 9725 9726 9727 9728 9729 9730 9731 9732 9733 9734 9735 9736 9737 9738 9739 9740 9741 9742 9743 9744 9745 9746 9747 9748 9749 9750 9751 9752 9753 9754 9755 9756 9757 9758 9759 9760 9761 9762 9763 9764 9765 9766 9767 9768 9769 9770 9771 9772 9773 9774 9775 9776 9777 9778 9779 9780 9781 9782 9783 9784 9785 9786 9787 9788 9789 9790 9791 9792 9793 9794 9795 9796 9797 9798 9799 9800 9801 9802 9803 9804 9805 9806 9807 9808 9809 9810 9811 9812 9813 9814 9815 9816 9817 9818 9819 9820 9821 9822 9823 9824 9825 9826 9827 9828 9829 9830 9831 9832 9833 9834 9835 9836 9837 9838 9839 9840 9841 9842 9843 9844 9845 9846 9847 9848 9849 9850 9851 9852 9853 9854 9855 9856 9857 9858 9859 9860 9861 9862 9863 9864 9865 9866 9867 9868 9869 9870 9871 9872 9873 9874 9875 9876 9877 9878 9879 9880 9881 9882 9883 9884 9885 9886 9887 9888 9889 9890 9891 9892 9893 9894 9895 9896 9897 9898 9899 9900 9901 9902 9903 9904 9905 9906 9907 9908 9909 9910 9911 9912 9913 9914 9915 9916 9917 9918 9919 9920 9921 9922 9923 9924 9925 9926 9927 9928 9929 9930 9931 9932 9933 9934 9935 9936 9937 9938 9939 9940 9941 9942 9943 9944 9945 9946 9947 9948 9949 9950 9951 9952 9953 9954 9955 9956 9957 9958 9959 9960 9961 9962 9963 9964 9965 9966 9967 9968 9969 9970 9971 9972 9973 9974 9975 9976 9977 9978 9979 9980 9981 9982 9983 9984 9985 9986 9987 9988 9989 9990 9991 9992 9993 9994 9995 9996 9997 9998 9999 10000 10001 10002 10003 10004 10005 10006 10007 10008 10009 10010 10011 10012 10013 10014 10015 10016 10017 10018 10019 10020 10021 10022 10023 10024 10025 10026 10027 10028 10029 10030 10031 10032 10033 10034 10035 10036 10037 10038 10039 10040 10041 10042 10043 10044 10045 10046 10047 10048 10049 10050 10051 10052 10053 10054 10055 10056 10057 10058 10059 10060 10061 10062 10063 10064 10065 10066 10067 10068 10069 10070 10071 10072 10073 10074 10075 10076 10077 10078 10079 10080 10081 10082 10083 10084 10085 10086 10087 10088 10089 10090 10091 10092 10093 10094 10095 10096 10097 10098 10099 10100 10101 10102 10103 10104 10105 10106 10107 10108 10109 10110 10111 10112 10113 10114 10115 10116 10117 10118 10119 10120 10121 10122 10123 10124 10125 10126 10127 10128 10129 10130 10131 10132 10133 10134 10135 10136 10137 10138 10139 10140 10141 10142 10143 10144 10145 10146 10147 10148 10149 10150 10151 10152 10153 10154 10155 10156 10157 10158 10159 10160 10161 10162 10163 10164 10165 10166 10167 10168 10169 10170 10171 10172 10173 10174 10175 10176 10177 10178 10179 10180 10181 10182 10183 10184 10185 10186 10187 10188 10189 10190 10191 10192 10193 10194 10195 10196 10197 10198 10199 10200 10201 10202 10203 10204 10205 10206 10207 10208 10209 10210 10211 10212 10213 10214 10215 10216 10217 10218 10219 10220 10221 10222 10223 10224 10225 10226 10227 10228 10229 10230 10231 10232 10233 10234 10235 10236 10237 10238 10239 10240 10241 10242 10243 10244 10245 10246 10247 10248 10249 10250 10251 10252 10253 10254 10255 10256 10257 10258 10259 10260 10261 10262 10263 10264 10265 10266 10267 10268 10269 10270 10271 10272 10273 10274 10275 10276 10277 10278 10279 10280 10281 10282 10283 10284 10285 10286 10287 10288 10289 10290 10291 10292 10293 10294 10295 10296 10297 10298 10299 10300 10301 10302 10303 10304 10305 10306 10307 10308 10309 10310 10311 10312 10313 10314 10315 10316 10317 10318 10319 10320 10321 10322 10323 10324 10325 10326 10327 10328 10329 10330 10331 10332 10333 10334 10335 10336 10337 10338 10339 10340 10341 10342 10343 10344 10345 10346 10347 10348 10349 10350 10351 10352 10353 10354 10355 10356 10357 10358 10359 10360 10361 10362 10363 10364 10365 10366 10367 10368 10369 10370 10371 10372 10373 10374 10375 10376 10377 10378 10379 10380 10381 10382 10383 10384 10385 10386 10387 10388 10389 10390 10391 10392 10393 10394 10395 10396 10397 10398 10399 10400 10401 10402 10403 10404 10405 10406 10407 10408 10409 10410 10411 10412 10413 10414 10415 10416 10417 10418 10419 10420 10421 10422 10423 10424 10425 10426 10427 10428 10429 10430 10431 10432 10433 10434 10435 10436 10437 10438 10439 10440 10441 10442 10443 10444 10445 10446 10447 10448 10449 10450 10451 10452 10453 10454 10455 10456 10457 10458 10459 10460 10461 10462 10463 10464 10465 10466 10467 10468 10469 10470 10471 10472 10473 10474 10475 10476 10477 10478 10479 10480 10481 10482 10483 10484 10485 10486 10487 10488 10489 10490 10491 10492 10493 10494 10495 10496 10497 10498 10499 10500 10501 10502 10503 10504 10505 10506 10507 10508 10509 10510 10511 10512 10513 10514 10515 10516 10517 10518 10519 10520 10521 10522 10523 10524 10525 10526 10527 10528 10529 10530 10531 10532 10533 10534 10535 10536 10537 10538 10539 10540 10541 10542 10543 10544 10545 10546 10547 10548 10549 10550 10551 10552 10553 10554 10555 10556 10557 10558 10559 10560 10561 10562 10563 10564 10565 10566 10567 10568 10569 10570 10571 10572 10573 10574 10575 10576 10577 10578 10579 10580 10581 10582 10583 10584 10585 10586 10587 10588 10589 10590 10591 10592 10593 10594 10595 10596 10597 10598 10599 10600 10601 10602 10603 10604 10605 10606 10607 10608 10609 10610 10611 10612 10613 10614 10615 10616 10617 10618 10619 10620 10621 10622 10623 10624 10625 10626 10627 10628 10629 10630 10631 10632 10633 10634 10635 10636 10637 10638 10639 10640 10641 10642 10643 10644 10645 10646 10647 10648 10649 10650 10651 10652 10653 10654 10655 10656 10657 10658 10659 10660 10661 10662 10663 10664 10665 10666 10667 10668 10669 10670 10671 10672 10673 10674 10675 10676 10677 10678 10679 10680 10681 10682 10683 10684 10685 10686 10687 10688 10689 10690 10691 10692 10693 10694 10695 10696 10697 10698 10699 10700 10701 10702 10703 10704 10705 10706 10707 10708 10709 10710 10711 10712 10713 10714 10715 10716 10717 10718 10719 10720 10721 10722 10723 10724 10725 10726 10727 10728 10729 10730 10731 10732 10733 10734 10735 10736 10737 10738 10739 10740 10741 10742 10743 10744 10745 10746 10747 10748 10749 10750 10751 10752 10753 10754 10755 10756 10757 10758 10759 10760 10761 10762 10763 10764 10765 10766 10767 10768 10769 10770 10771 10772 10773 10774 10775 10776 10777 10778 10779 10780 10781 10782 10783 10784 10785 10786 10787 10788 10789 10790 10791 10792 10793 10794 10795 10796 10797 10798 10799 10800 10801 10802 10803 10804 10805 10806 10807 10808 10809 10810 10811 10812 10813 10814 10815 10816 10817 10818 10819 10820 10821 10822 10823 10824 10825 10826 10827 10828 10829 10830 10831 10832 10833 10834 10835 10836 10837 10838 10839 10840 10841 10842 10843 10844 10845 10846 10847 10848 10849 10850 10851 10852 10853 10854 10855 10856 10857 10858 10859 10860 10861 10862 10863 10864 10865 10866 10867 10868 10869 10870 10871 10872 10873 10874 10875 10876 10877 10878 10879 10880 10881 10882 10883 10884 10885 10886 10887 10888 10889 10890 10891 10892 10893 10894 10895 10896 10897 10898 10899 10900 10901 10902 10903 10904 10905 10906 10907 10908 10909 10910 10911 10912 10913 10914 10915 10916 10917 10918 10919 10920 10921 10922 10923 10924 10925 10926 10927 10928 10929 10930 10931 10932 10933 10934 10935 10936 10937 10938 10939 10940 10941 10942 10943 10944 10945 10946 10947 10948 10949 10950 10951 10952 10953 10954 10955 10956 10957 10958 10959 10960 10961 10962 10963 10964 10965 10966 10967 10968 10969 10970 10971 10972 10973 10974 10975 10976 10977 10978 10979 10980 10981 10982 10983 10984 10985 10986 10987 10988 10989 10990 10991 10992 10993 10994 10995 10996 10997 10998 10999 11000 11001 11002 11003 11004 11005 11006 11007 11008 11009 11010 11011 11012 11013 11014 11015 11016 11017 11018 11019 11020 11021 11022 11023 11024 11025 11026 11027 11028 11029 11030 11031 11032 11033 11034 11035 11036 11037 11038 11039 11040 11041 11042 11043 11044 11045 11046 11047 11048 11049 11050 11051 11052 11053 11054 11055 11056 11057 11058 11059 11060 11061 11062 11063 11064 11065 11066 11067 11068 11069 11070 11071 11072 11073 11074 11075 11076 11077 11078 11079 11080 11081 11082 11083 11084 11085 11086 11087 11088 11089 11090 11091 11092 11093 11094 11095 11096 11097 11098 11099 11100 11101 11102 11103 11104 11105 11106 11107 11108 11109 11110 11111 11112 11113 11114 11115 11116 11117 11118 11119 11120 11121 11122 11123 11124 11125 11126 11127 11128 11129 11130 11131 11132 11133 11134 11135 11136 11137 11138 11139 11140 11141 11142 11143 11144 11145 11146 11147 11148 11149 11150 11151 11152 11153 11154 11155 11156 11157 11158 11159 11160 11161 11162 11163 11164 11165 11166 11167 11168 11169 11170 11171 11172 11173 11174 11175 11176 11177 11178 11179 11180 11181 11182 11183 11184 11185 11186 11187 11188 11189 11190 11191 11192 11193 11194 11195 11196 11197 11198 11199 11200 11201 11202 11203 11204 11205 11206 11207 11208 11209 11210 11211 11212 11213 11214 11215 11216 11217 11218 11219 11220 11221 11222 11223 11224 11225 11226 11227 11228 11229 11230 11231 11232 11233 11234 11235 11236 11237 11238 11239 11240 11241 11242 11243 11244 11245 11246 11247 11248 11249 11250 11251 11252 11253 11254 11255 11256 11257 11258 11259 11260 11261 11262 11263 11264 11265 11266 11267 11268 11269 11270 11271 11272 11273 11274 11275 11276 11277 11278 11279 11280 11281 11282 11283 11284 11285 11286 11287 11288 11289 11290 11291 11292 11293 11294 11295 11296 11297 11298 11299 11300 11301 11302 11303 11304 11305 11306 11307 11308 11309 11310 11311 11312 11313 11314 11315 11316 11317 11318 11319 11320 11321 11322 11323 11324 11325 11326 11327 11328 11329 11330 11331 11332 11333 11334 11335 11336 11337 11338 11339 11340 11341 11342 11343 11344 11345 11346 11347 11348 11349 11350 11351 11352 11353 11354 11355 11356 11357 11358 11359 11360 11361 11362 11363 11364 11365 11366 11367 11368 11369 11370 11371 11372 11373 11374 11375 11376 11377 11378 11379 11380 11381 11382 11383 11384 11385 11386 11387 11388 11389 11390 11391 11392 11393 11394 11395 11396 11397 11398 11399 11400 11401 11402 11403 11404 11405 11406 11407 11408 11409 11410 11411 11412 11413 11414 11415 11416 11417 11418 11419 11420 11421 11422 11423 11424 11425 11426 11427 11428 11429 11430 11431 11432 11433 11434 11435 11436 11437 11438 11439 11440 11441 11442 11443 11444 11445 11446 11447 11448 11449 11450 11451 11452 11453 11454 11455 11456 11457 11458 11459 11460 11461 11462 11463 11464 11465 11466 11467 11468 11469 11470 11471 11472 11473 11474 11475 11476 11477 11478 11479 11480 11481 11482 11483 11484 11485 11486 11487 11488 11489 11490 11491 11492 11493 11494 11495 11496 11497 11498 11499 11500 11501 11502 11503 11504 11505 11506 11507 11508 11509 11510 11511 11512 11513 11514 11515 11516 11517 11518 11519 11520 11521 11522 11523 11524 11525 11526 11527 11528 11529 11530 11531 11532 11533 11534 11535 11536 11537 11538 11539 11540 11541 11542 11543 11544 11545 11546 11547 11548 11549 11550 11551 11552 11553 11554 11555 11556 11557 11558 11559 11560 11561 11562 11563 11564 11565 11566 11567 11568 11569 11570 11571 11572 11573 11574 11575 11576 11577 11578 11579 11580 11581 11582 11583 11584 11585 11586 11587 11588 11589 11590 11591 11592 11593 11594 11595 11596 11597 11598 11599 11600 11601 11602 11603 11604 11605 11606 11607 11608 11609 11610 11611 11612 11613 11614 11615 11616 11617 11618 11619 11620 11621 11622 11623 11624 11625 11626 11627 11628 11629 11630 11631 11632 11633 11634 11635 11636 11637 11638 11639 11640 11641 11642 11643 11644 11645 11646 11647 11648 11649 11650 11651 11652 11653 11654 11655 11656 11657 11658 11659 11660 11661 11662 11663 11664 11665 11666 11667 11668 11669 11670 11671 11672 11673 11674 11675 11676 11677 11678 11679 11680 11681 11682 11683 11684 11685 11686 11687 11688 11689 11690 11691 11692 11693 11694 11695 11696 11697 11698 11699 11700 11701 11702 11703 11704 11705 11706 11707 11708 11709 11710 11711 11712 11713 11714 11715 11716 11717 11718 11719 11720 11721 11722 11723 11724 11725 11726 11727 11728 11729 11730 11731 11732 11733 11734 11735 11736 11737 11738 11739 11740 11741 11742 11743 11744 11745 11746 11747 11748 11749 11750 11751 11752 11753 11754 11755 11756 11757 11758 11759 11760 11761 11762 11763 11764 11765 11766 11767 11768 11769 11770 11771 11772 11773 11774 11775 11776 11777 11778 11779 11780 11781 11782 11783 11784 11785 11786 11787 11788 11789 11790 11791 11792 11793 11794 11795 11796 11797 11798 11799 11800 11801 11802 11803 11804 11805 11806 11807 11808 11809 11810 11811 11812 11813 11814 11815 11816 11817 11818 11819 11820 11821 11822 11823 11824 11825 11826 11827 11828 11829 11830 11831 11832 11833 11834 11835 11836 11837 11838 11839 11840 11841 11842 11843 11844 11845 11846 11847 11848 11849 11850 11851 11852 11853 11854 11855 11856 11857 11858 11859 11860 11861 11862 11863 11864 11865 11866 11867 11868 11869 11870 11871 11872 11873 11874 11875 11876 11877 11878 11879 11880 11881 11882 11883 11884 11885 11886 11887 11888 11889 11890 11891 11892 11893 11894 11895 11896 11897 11898 11899 11900 11901 11902 11903 11904 11905 11906 11907 11908 11909 11910 11911 11912 11913 11914 11915 11916 11917 11918 11919 11920 11921 11922 11923 11924 11925 11926 11927 11928 11929 11930 11931 11932 11933 11934 11935 11936 11937 11938 11939 11940 11941 11942 11943 11944 11945 11946 11947 11948 11949 11950 11951 11952 11953 11954 11955 11956 11957 11958 11959 11960 11961 11962 11963 11964 11965 11966 11967 11968 11969 11970 11971 11972 11973 11974 11975 11976 11977 11978 11979 11980 11981 11982 11983 11984 11985 11986 11987 11988 11989 11990 11991 11992 11993 11994 11995 11996 11997 11998 11999 12000 12001 12002 12003 12004 12005 12006 12007 12008 12009 12010 12011 12012 12013 12014 12015 12016 12017 12018 12019 12020 12021 12022 12023 12024 12025 12026 12027 12028 12029 12030 12031 12032 12033 12034 12035 12036 12037 12038 12039 12040 12041 12042 12043 12044 12045 12046 12047 12048 12049 12050 12051 12052 12053 12054 12055 12056 12057 12058 12059 12060 12061 12062 12063 12064 12065 12066 12067 12068 12069 12070 12071 12072 12073 12074 12075 12076 12077 12078 12079 12080 12081 12082 12083 12084 12085 12086 12087 12088 12089 12090 12091 12092 12093 12094 12095 12096 12097 12098 12099 12100 12101 12102 12103 12104 12105 12106 12107 12108 12109 12110 12111 12112 12113 12114 12115 12116 12117 12118 12119 12120 12121 12122 12123 12124 12125 12126 12127 12128 12129 12130 12131 12132 12133 12134 12135 12136 12137 12138 12139 12140 12141 12142 12143 12144 12145 12146 12147 12148 12149 12150 12151 12152 12153 12154 12155 12156 12157 12158 12159 12160 12161 12162 12163 12164 12165 12166 12167 12168 12169 12170 12171 12172 12173 12174 12175 12176 12177 12178 12179 12180 12181 12182 12183 12184 12185 12186 12187 12188 12189 12190 12191 12192 12193 12194 12195 12196 12197 12198 12199 12200 12201 12202 12203 12204 12205 12206 12207 12208 12209 12210 12211 12212 12213 12214 12215 12216 12217 12218 12219 12220 12221 12222 12223 12224 12225 12226 12227 12228 12229 12230 12231 12232 12233 12234 12235 12236 12237 12238 12239 12240 12241 12242 12243 12244 12245 12246 12247 12248 12249 12250 12251 12252 12253 12254 12255 12256 12257 12258 12259 12260 12261 12262 12263 12264 12265 12266 12267 12268 12269 12270 12271 12272 12273 12274 12275 12276 12277 12278 12279 12280 12281 12282 12283 12284 12285 12286 12287 12288 12289 12290 12291 12292 12293 12294 12295 12296 12297 12298 12299 12300 12301 12302 12303 12304 12305 12306 12307 12308 12309 12310 12311 12312 12313 12314 12315 12316 12317 12318 12319 12320 12321 12322 12323 12324 12325 12326 12327 12328 12329 12330 12331 12332 12333 12334 12335 12336 12337 12338 12339 12340 12341 12342 12343 12344 12345 12346 12347 12348 12349 12350 12351 12352 12353 12354 12355 12356 12357 12358 12359 12360 12361 12362 12363 12364 12365 12366 12367 12368 12369 12370 12371 12372 12373 12374 12375 12376 12377 12378 12379 12380 12381 12382 12383 12384 12385 12386 12387 12388 12389 12390 12391 12392 12393 12394 12395 12396 12397 12398 12399 12400 12401 12402 12403 12404 12405 12406 12407 12408 12409 12410 12411 12412 12413 12414 12415 12416 12417 12418 12419 12420 12421 12422 12423 12424 12425 12426 12427 12428 12429 12430 12431 12432 12433 12434 12435 12436 12437 12438 12439 12440 12441 12442 12443 12444 12445 12446 12447 12448 12449 12450 12451 12452 12453 12454 12455 12456 12457 12458 12459 12460 12461 12462 12463 12464 12465 12466 12467 12468 12469 12470 12471 12472 12473 12474 12475 12476 12477 12478 12479 12480 12481 12482 12483 12484 12485 12486 12487 12488 12489 12490 12491 12492 12493 12494 12495 12496 12497 12498 12499 12500 12501 12502 12503 12504 12505 12506 12507 12508 12509 12510 12511 12512 12513 12514 12515 12516 12517 12518 12519 12520 12521 12522 12523 12524 12525 12526 12527 12528 12529 12530 12531 12532 12533 12534 12535 12536 12537 12538 12539 12540 12541 12542 12543 12544 12545 12546 12547 12548 12549 12550 12551 12552 12553 12554 12555 12556 12557 12558 12559 12560 12561 12562 12563 12564 12565 12566 12567 12568 12569 12570 12571 12572 12573 12574 12575 12576 12577 12578 12579 12580 12581 12582 12583 12584 12585 12586 12587 12588 12589 12590 12591 12592 12593 12594 12595 12596 12597 12598 12599 12600 12601 12602 12603 12604 12605 12606 12607 12608 12609 12610 12611 12612 12613 12614 12615 12616 12617 12618 12619 12620 12621 12622 12623 12624 12625 12626 12627 12628 12629 12630 12631 12632 12633 12634 12635 12636 12637 12638 12639 12640 12641 12642 12643 12644 12645 12646 12647 12648 12649 12650 12651 12652 12653 12654 12655 12656 12657 12658 12659 12660 12661 12662 12663 12664 12665 12666 12667 12668 12669 12670 12671 12672 12673 12674 12675 12676 12677 12678 12679 12680 12681 12682 12683 12684 12685 12686 12687 12688 12689 12690 12691 12692 12693 12694 12695 12696 12697 12698 12699 12700 12701 12702 12703 12704 12705 12706 12707 12708 12709 12710 12711 12712 12713 12714 12715 12716 12717 12718 12719 12720 12721 12722 12723 12724 12725 12726 12727 12728 12729 12730 12731 12732 12733 12734 12735 12736 12737 12738 12739 12740 12741 12742 12743 12744 12745 12746 12747 12748 12749 12750 12751 12752 12753 12754 12755 12756 12757 12758 12759 12760 12761 12762 12763 12764 12765 12766 12767 12768 12769 12770 12771 12772 12773 12774 12775 12776 12777 12778 12779 12780 12781 12782 12783 12784 12785 12786 12787 12788 12789 12790 12791 12792 12793 12794 12795 12796 12797 12798 12799 12800 12801 12802 12803 12804 12805 12806 12807 12808 12809 12810 12811 12812 12813 12814 12815 12816 12817 12818 12819 12820 12821 12822 12823 12824 12825 12826 12827 12828 12829 12830 12831 12832 12833 12834 12835 12836 12837 12838 12839 12840 12841 12842 12843 12844 12845 12846 12847 12848 12849 12850 12851 12852 12853 12854 12855 12856 12857 12858 12859 12860 12861 12862 12863 12864 12865 12866 12867 12868 12869 12870 12871 12872 12873 12874 12875 12876 12877 12878 12879 12880 12881 12882 12883 12884 12885 12886 12887 12888 12889 12890 12891 12892 12893 12894 12895 12896 12897 12898 12899 12900 12901 12902 12903 12904 12905 12906 12907 12908 12909 12910 12911 12912 12913 12914 12915 12916 12917 12918 12919 12920 12921 12922 12923 12924 12925 12926 12927 12928 12929 12930 12931 12932 12933 12934 12935 12936 12937 12938 12939 12940 12941 12942 12943 12944 12945 12946 12947 12948 12949 12950 12951 12952 12953 12954 12955 12956 12957 12958 12959 12960 12961 12962 12963 12964 12965 12966 12967 12968 12969 12970 12971 12972 12973 12974 12975 12976 12977 12978 12979 12980 12981 12982 12983 12984 12985 12986 12987 12988 12989 12990 12991 12992 12993 12994 12995 12996 12997 12998 12999 13000 13001 13002 13003 13004 13005 13006 13007 13008 13009 13010 13011 13012 13013 13014 13015 13016 13017 13018 13019 13020 13021 13022 13023 13024 13025 13026 13027 13028 13029 13030 13031 13032 13033 13034 13035 13036 13037 13038 13039 13040 13041 13042 13043 13044 13045 13046 13047 13048 13049 13050 13051 13052 13053 13054 13055 13056 13057 13058 13059 13060 13061 13062 13063 13064 13065 13066 13067 13068 13069 13070 13071 13072 13073 13074 13075 13076 13077 13078 13079 13080 13081 13082 13083 13084 13085 13086 13087 13088 13089 13090 13091 13092 13093 13094 13095 13096 13097 13098 13099 13100 13101 13102 13103 13104 13105 13106 13107 13108 13109 13110 13111 13112 13113 13114 13115 13116 13117 13118 13119 13120 13121 13122 13123 13124 13125 13126 13127 13128 13129 13130 13131 13132 13133 13134 13135 13136 13137 13138 13139 13140 13141 13142 13143 13144 13145 13146 13147 13148 13149 13150 13151 13152 13153 13154 13155 13156 13157 13158 13159 13160 13161 13162 13163 13164 13165 13166 13167 13168 13169 13170 13171 13172 13173 13174 13175 13176 13177 13178 13179 13180 13181 13182 13183 13184 13185 13186 13187 13188 13189 13190 13191 13192 13193 13194 13195 13196 13197 13198 13199 13200 13201 13202 13203 13204 13205 13206 13207 13208 13209 13210 13211 13212 13213 13214 13215 13216 13217 13218 13219 13220 13221 13222 13223 13224 13225 13226 13227 13228 13229 13230 13231 13232 13233 13234 13235 13236 13237 13238 13239 13240 13241 13242 13243 13244 13245 13246 13247 13248 13249 13250 13251 13252 13253 13254 13255 13256 13257 13258 13259 13260 13261 13262 13263 13264 13265 13266 13267 13268 13269 13270 13271 13272 13273 13274 13275 13276 13277 13278 13279 13280 13281 13282 13283 13284 13285 13286 13287 13288 13289 13290 13291 13292 13293 13294 13295 13296 13297 13298 13299 13300 13301 13302 13303 13304 13305 13306 13307 13308 13309 13310 13311 13312 13313 13314 13315 13316 13317 13318 13319 13320 13321 13322 13323 13324 13325 13326 13327 13328 13329 13330 13331 13332 13333 13334 13335 13336 13337 13338 13339 13340 13341 13342 13343 13344 13345 13346 13347 13348 13349 13350 13351 13352 13353 13354 13355 13356 13357 13358 13359 13360 13361 13362 13363 13364 13365 13366 13367 13368 13369 13370 13371 13372 13373 13374 13375 13376 13377 13378 13379 13380 13381 13382 13383 13384 13385 13386 13387 13388 13389 13390 13391 13392 13393 13394 13395 13396 13397 13398 13399 13400 13401 13402 13403 13404 13405 13406 13407 13408 13409 13410 13411 13412 13413 13414 13415 13416 13417 13418 13419 13420 13421 13422 13423 13424 13425 13426 13427 13428 13429 13430 13431 13432 13433 13434 13435 13436 13437 13438 13439 13440 13441 13442 13443 13444 13445 13446 13447 13448 13449 13450 13451 13452 13453 13454 13455 13456 13457 13458 13459 13460 13461 13462 13463 13464 13465 13466 13467 13468 13469 13470 13471 13472 13473 13474 13475 13476 13477 13478 13479 13480 13481 13482 13483 13484 13485 13486 13487 13488 13489 13490 13491 13492 13493 13494 13495 13496 13497 13498 13499 13500 13501 13502 13503 13504 13505 13506 13507 13508 13509 13510 13511 13512 13513 13514 13515 13516 13517 13518 13519 13520 13521 13522 13523 13524 13525 13526 13527 13528 13529 13530 13531 13532 13533 13534 13535 13536 13537 13538 13539 13540 13541 13542 13543 13544 13545 13546 13547 13548 13549 13550 13551 13552 13553 13554 13555 13556 13557 13558 13559 13560 13561 13562 13563 13564 13565 13566 13567 13568 13569 13570 13571 13572 13573 13574 13575 13576 13577 13578 13579 13580 13581 13582 13583 13584 13585 13586 13587 13588 13589 13590 13591 13592 13593 13594 13595 13596 13597 13598 13599 13600 13601 13602 13603 13604 13605 13606 13607 13608 13609 13610 13611 13612 13613 13614 13615 13616 13617 13618 13619 13620 13621 13622 13623 13624 13625 13626 13627 13628 13629 13630 13631 13632 13633 13634 13635 13636 13637 13638 13639 13640 13641 13642 13643 13644 13645 13646 13647 13648 13649 13650 13651 13652 13653 13654 13655 13656 13657 13658 13659 13660 13661 13662 13663 13664 13665 13666 13667 13668 13669 13670 13671 13672 13673 13674 13675 13676 13677 13678 13679 13680 13681 13682 13683 13684 13685 13686 13687 13688 13689 13690 13691 13692 13693 13694 13695 13696 13697 13698 13699 13700 13701 13702 13703 13704 13705 13706 13707 13708 13709 13710 13711 13712 13713 13714 13715 13716 13717 13718 13719 13720 13721 13722 13723 13724 13725 13726 13727 13728 13729 13730 13731 13732 13733 13734 13735 13736 13737 13738 13739 13740 13741 13742 13743 13744 13745 13746 13747 13748 13749 13750 13751 13752 13753 13754 13755 13756 13757 13758 13759 13760 13761 13762 13763 13764 13765 13766 13767 13768 13769 13770 13771 13772 13773 13774 13775 13776 13777 13778 13779 13780 13781 13782 13783 13784 13785 13786 13787 13788 13789 13790 13791 13792 13793 13794 13795 13796 13797 13798 13799 13800 13801 13802 13803 13804 13805 13806 13807 13808 13809 13810 13811 13812 13813 13814 13815 13816 13817 13818 13819 13820 13821 13822 13823 13824 13825 13826 13827 13828 13829 13830 13831 13832 13833 13834 13835 13836 13837 13838 13839 13840 13841 13842 13843 13844 13845 13846 13847 13848 13849 13850 13851 13852 13853 13854 13855 13856 13857 13858 13859 13860 13861 13862 13863 13864 13865 13866 13867 13868 13869 13870 13871 13872 13873 13874 13875 13876 13877 13878 13879 13880 13881 13882 13883 13884 13885 13886 13887 13888 13889 13890 13891 13892 13893 13894 13895 13896 13897 13898 13899 13900 13901 13902 13903 13904 13905 13906 13907 13908 13909 13910 13911 13912 13913 13914 13915 13916 13917 13918 13919 13920 13921 13922 13923 13924 13925 13926 13927 13928 13929 13930 13931 13932 13933 13934 13935 13936 13937 13938 13939 13940 13941 13942 13943 13944 13945 13946 13947 13948 13949 13950 13951 13952 13953 13954 13955 13956 13957 13958 13959 13960 13961 13962 13963 13964 13965 13966 13967 13968 13969 13970 13971 13972 13973 13974 13975 13976 13977 13978 13979 13980 13981 13982 13983 13984 13985 13986 13987 13988 13989 13990 13991 13992 13993 13994 13995 13996 13997 13998 13999 14000 14001 14002 14003 14004 14005 14006 14007 14008 14009 14010 14011 14012 14013 14014 14015 14016 14017 14018 14019 14020 14021 14022 14023 14024 14025 14026 14027 14028 14029 14030 14031 14032 14033 14034 14035 14036 14037 14038 14039 14040 14041 14042 14043 14044 14045 14046 14047 14048 14049 14050 14051 14052 14053 14054 14055 14056 14057 14058 14059 14060 14061 14062 14063 14064 14065 14066 14067 14068 14069 14070 14071 14072 14073 14074 14075 14076 14077 14078 14079 14080 14081 14082 14083 14084 14085 14086 14087 14088 14089 14090 14091 14092 14093 14094 14095 14096 14097 14098 14099 14100 14101 14102 14103 14104 14105 14106 14107 14108 14109 14110 14111 14112 14113 14114 14115 14116 14117 14118 14119 14120 14121 14122 14123 14124 14125 14126 14127 14128 14129 14130 14131 14132 14133 14134 14135 14136 14137 14138 14139 14140 14141 14142 14143 14144 14145 14146 14147 14148 14149 14150 14151 14152 14153 14154 14155 14156 14157 14158 14159 14160 14161 14162 14163 14164 14165 14166 14167 14168 14169 14170 14171 14172 14173 14174 14175 14176 14177 14178 14179 14180 14181 14182 14183 14184 14185 14186 14187 14188 14189 14190 14191 14192 14193 14194 14195 14196 14197 14198 14199 14200 14201 14202 14203 14204 14205 14206 14207 14208 14209 14210 14211 14212 14213 14214 14215 14216 14217 14218 14219 14220 14221 14222 14223 14224 14225 14226 14227 14228 14229 14230 14231 14232 14233 14234 14235 14236 14237 14238 14239 14240 14241 14242 14243 14244 14245 14246 14247 14248 14249 14250 14251 14252 14253 14254 14255 14256 14257 14258 14259 14260 14261 14262 14263 14264 14265 14266 14267 14268 14269 14270 14271 14272 14273 14274 14275 14276 14277 14278 14279 14280 14281 14282 14283 14284 14285 14286 14287 14288 14289 14290 14291 14292 14293 14294 14295 14296 14297 14298 14299 14300 14301 14302 14303 14304 14305 14306 14307 14308 14309 14310 14311 14312 14313 14314 14315 14316 14317 14318 14319 14320 14321 14322 14323 14324 14325 14326 14327 14328 14329 14330 14331 14332 14333 14334 14335 14336 14337 14338 14339 14340 14341 14342 14343 14344 14345 14346 14347 14348 14349 14350 14351 14352 14353 14354 14355 14356 14357 14358 14359 14360 14361 14362 14363 14364 14365 14366 14367 14368 14369 14370 14371 14372 14373 14374 14375 14376 14377 14378 14379 14380 14381 14382 14383 14384 14385 14386 14387 14388 14389 14390 14391 14392 14393 14394 14395 14396 14397 14398 14399 14400 14401 14402 14403 14404 14405 14406 14407 14408 14409 14410 14411 14412 14413 14414 14415 14416 14417 14418 14419 14420 14421 14422 14423 14424 14425 14426 14427 14428 14429 14430 14431 14432 14433 14434 14435 14436 14437 14438 14439 14440 14441 14442 14443 14444 14445 14446 14447 14448 14449 14450 14451 14452 14453 14454 14455 14456 14457 14458 14459 14460 14461 14462 14463 14464 14465 14466 14467 14468 14469 14470 14471 14472 14473 14474 14475 14476 14477 14478 14479 14480 14481 14482 14483 14484 14485 14486 14487 14488 14489 14490 14491 14492 14493 14494 14495 14496 14497 14498 14499 14500 14501 14502 14503 14504 14505 14506 14507 14508 14509 14510 14511 14512 14513 14514 14515 14516 14517 14518 14519 14520 14521 14522 14523 14524 14525 14526 14527 14528 14529 14530 14531 14532 14533 14534 14535 14536 14537 14538 14539 14540 14541 14542 14543 14544 14545 14546 14547 14548 14549 14550 14551 14552 14553 14554 14555 14556 14557 14558 14559 14560 14561 14562 14563 14564 14565 14566 14567 14568 14569 14570 14571 14572 14573 14574 14575 14576 14577 14578 14579 14580 14581 14582 14583 14584 14585 14586 14587 14588 14589 14590 14591 14592 14593 14594 14595 14596 14597 14598 14599 14600 14601 14602 14603 14604 14605 14606 14607 14608 14609 14610 14611 14612 14613 14614 14615 14616 14617 14618 14619 14620 14621 14622 14623 14624 14625 14626 14627 14628 14629 14630 14631 14632 14633 14634 14635 14636 14637 14638 14639 14640 14641 14642 14643 14644 14645 14646 14647 14648 14649 14650 14651 14652 14653 14654 14655 14656 14657 14658 14659 14660 14661 14662 14663 14664 14665 14666 14667 14668 14669 14670 14671 14672 14673 14674 14675 14676 14677 14678 14679 14680 14681 14682 14683 14684 14685 14686 14687 14688 14689 14690 14691 14692 14693 14694 14695 14696 14697 14698 14699 14700 14701 14702 14703 14704 14705 14706 14707 14708 14709 14710 14711 14712 14713 14714 14715 14716 14717 14718 14719 14720 14721 14722 14723 14724 14725 14726 14727 14728 14729 14730 14731 14732 14733 14734 14735 14736 14737 14738 14739 14740 14741 14742 14743 14744 14745 14746 14747 14748 14749 14750 14751 14752 14753 14754 14755 14756 14757 14758 14759 14760 14761 14762 14763 14764 14765 14766 14767 14768 14769 14770 14771 14772 14773 14774 14775 14776 14777 14778 14779 14780 14781 14782 14783 14784 14785 14786 14787 14788 14789 14790 14791 14792 14793 14794 14795 14796 14797 14798 14799 14800 14801 14802 14803 14804 14805 14806 14807 14808 14809 14810 14811 14812 14813 14814 14815 14816 14817 14818 14819 14820 14821 14822 14823 14824 14825 14826 14827 14828 14829 14830 14831 14832 14833 14834 14835 14836 14837 14838 14839 14840 14841 14842 14843 14844 14845 14846 14847 14848 14849 14850 14851 14852 14853 14854 14855 14856 14857 14858 14859 14860 14861 14862 14863 14864 14865 14866 14867 14868 14869 14870 14871 14872 14873 14874 14875 14876 14877 14878 14879 14880 14881 14882 14883 14884 14885 14886 14887 14888 14889 14890 14891 14892 14893 14894 14895 14896 14897 14898 14899 14900 14901 14902 14903 14904 14905 14906 14907 14908 14909 14910 14911 14912 14913 14914 14915 14916 14917 14918 14919 14920 14921 14922 14923 14924 14925 14926 14927 14928 14929 14930 14931 14932 14933 14934 14935 14936 14937 14938 14939 14940 14941 14942 14943 14944 14945 14946 14947 14948 14949 14950 14951 14952 14953 14954 14955 14956 14957 14958 14959 14960 14961 14962 14963 14964 14965 14966 14967 14968 14969 14970 14971 14972 14973 14974 14975 14976 14977 14978 14979 14980 14981 14982 14983 14984 14985 14986 14987 14988 14989 14990 14991 14992 14993 14994 14995 14996 14997 14998 14999 15000 15001 15002 15003 15004 15005 15006 15007 15008 15009 15010 15011 15012 15013 15014 15015 15016 15017 15018 15019 15020 15021 15022 15023 15024 15025 15026 15027 15028 15029 15030 15031 15032 15033 15034 15035 15036 15037 15038 15039 15040 15041 15042 15043 15044 15045 15046 15047 15048 15049 15050 15051 15052 15053 15054 15055 15056 15057 15058 15059 15060 15061 15062 15063 15064 15065 15066 15067 15068 15069 15070 15071 15072 15073 15074 15075 15076 15077 15078 15079 15080 15081 15082 15083 15084 15085 15086 15087 15088 15089 15090 15091 15092 15093 15094 15095 15096 15097 15098 15099 15100 15101 15102 15103 15104 15105 15106 15107 15108 15109 15110 15111 15112 15113 15114 15115 15116 15117 15118 15119 15120 15121 15122 15123 15124 15125 15126 15127 15128 15129 15130 15131 15132 15133 15134 15135 15136 15137 15138 15139 15140 15141 15142 15143 15144 15145 15146 15147 15148 15149 15150 15151 15152 15153 15154 15155 15156 15157 15158 15159 15160 15161 15162 15163 15164 15165 15166 15167 15168 15169 15170 15171 15172 15173 15174 15175 15176 15177 15178 15179 15180 15181 15182 15183 15184 15185 15186 15187 15188 15189 15190 15191 15192 15193 15194 15195 15196 15197 15198 15199 15200 15201 15202 15203 15204 15205 15206 15207 15208 15209 15210 15211 15212 15213 15214 15215 15216 15217 15218 15219 15220 15221 15222 15223 15224 15225 15226 15227 15228 15229 15230 15231 15232 15233 15234 15235 15236 15237 15238 15239 15240 15241 15242 15243 15244 15245 15246 15247 15248 15249 15250 15251 15252 15253 15254 15255 15256 15257 15258 15259 15260 15261 15262 15263 15264 15265 15266 15267 15268 15269 15270 15271 15272 15273 15274 15275 15276 15277 15278 15279 15280 15281 15282 15283 15284 15285 15286 15287 15288 15289 15290 15291 15292 15293 15294 15295 15296 15297 15298 15299 15300 15301 15302 15303 15304 15305 15306 15307 15308 15309 15310 15311 15312 15313 15314 15315 15316 15317 15318 15319 15320 15321 15322 15323 15324 15325 15326 15327 15328 15329 15330 15331 15332 15333 15334 15335 15336 15337 15338 15339 15340 15341 15342 15343 15344 15345 15346 15347 15348 15349 15350 15351 15352 15353 15354 15355 15356 15357 15358 15359 15360 15361 15362 15363 15364 15365 15366 15367 15368 15369 15370 15371 15372 15373 15374 15375 15376 15377 15378 15379 15380 15381 15382 15383 15384 15385 15386 15387 15388 15389 15390 15391 15392 15393 15394 15395 15396 15397 15398 15399 15400 15401 15402 15403 15404 15405 15406 15407 15408 15409 15410 15411 15412 15413 15414 15415 15416 15417 15418 15419 15420 15421 15422 15423 15424 15425 15426 15427 15428 15429 15430 15431 15432 15433 15434 15435 15436 15437 15438 15439 15440 15441 15442 15443 15444 15445 15446 15447 15448 15449 15450 15451 15452 15453 15454 15455 15456 15457 15458 15459 15460 15461 15462 15463 15464 15465 15466 15467 15468 15469 15470 15471 15472 15473 15474 15475 15476 15477 15478 15479 15480 15481 15482 15483 15484 15485 15486 15487 15488 15489 15490 15491 15492 15493 15494 15495 15496 15497 15498 15499 15500 15501 15502 15503 15504 15505 15506 15507 15508 15509 15510 15511 15512 15513 15514 15515 15516 15517 15518 15519 15520 15521 15522 15523 15524 15525 15526 15527 15528 15529 15530 15531 15532 15533 15534 15535 15536 15537 15538 15539 15540 15541 15542 15543 15544 15545 15546 15547 15548 15549 15550 15551 15552 15553 15554 15555 15556 15557 15558 15559 15560 15561 15562 15563 15564 15565 15566 15567 15568 15569 15570 15571 15572 15573 15574 15575 15576 15577 15578 15579 15580 15581 15582 15583 15584 15585 15586 15587 15588 15589 15590 15591 15592 15593 15594 15595 15596 15597 15598 15599 15600 15601 15602 15603 15604 15605 15606 15607 15608 15609 15610 15611 15612 15613 15614 15615 15616 15617 15618 15619 15620 15621 15622 15623 15624 15625 15626 15627 15628 15629 15630 15631 15632 15633 15634 15635 15636 15637 15638 15639 15640 15641 15642 15643 15644 15645 15646 15647 15648 15649 15650 15651 15652 15653 15654 15655 15656 15657 15658 15659 15660 15661 15662 15663 15664 15665 15666 15667 15668 15669 15670 15671 15672 15673 15674 15675 15676 15677 15678 15679 15680 15681 15682 15683 15684 15685 15686 15687 15688 15689 15690 15691 15692 15693 15694 15695 15696 15697 15698 15699 15700 15701 15702 15703 15704 15705 15706 15707 15708 15709 15710 15711 15712 15713 15714 15715 15716 15717 15718 15719 15720 15721 15722 15723 15724 15725 15726 15727 15728 15729 15730 15731 15732 15733 15734 15735 15736 15737 15738 15739 15740 15741 15742 15743 15744 15745 15746 15747 15748 15749 15750 15751 15752 15753 15754 15755 15756 15757 15758 15759 15760 15761 15762 15763 15764 15765 15766 15767 15768 15769 15770 15771 15772 15773 15774 15775 15776 15777 15778 15779 15780 15781 15782 15783 15784 15785 15786 15787 15788 15789 15790 15791 15792 15793 15794 15795 15796 15797 15798 15799 15800 15801 15802 15803 15804 15805 15806 15807 15808 15809 15810 15811 15812 15813 15814 15815 15816 15817 15818 15819 15820 15821 15822 15823 15824 15825 15826 15827 15828 15829 15830 15831 15832 15833 15834 15835 15836 15837 15838 15839 15840 15841 15842 15843 15844 15845 15846 15847 15848 15849 15850 15851 15852 15853 15854 15855 15856 15857 15858 15859 15860 15861 15862 15863 15864 15865 15866 15867 15868 15869 15870 15871 15872 15873 15874 15875 15876 15877 15878 15879 15880 15881 15882 15883 15884 15885 15886 15887 15888 15889 15890 15891 15892 15893 15894 15895 15896 15897 15898 15899 15900 15901 15902 15903 15904 15905 15906 15907 15908 15909 15910 15911 15912 15913 15914 15915 15916 15917 15918 15919 15920 15921 15922 15923 15924 15925 15926 15927 15928 15929 15930 15931 15932 15933 15934 15935 15936 15937 15938 15939 15940 15941 15942 15943 15944 15945 15946 15947 15948 15949 15950 15951 15952 15953 15954 15955 15956 15957 15958 15959 15960 15961 15962 15963 15964 15965 15966 15967 15968 15969 15970 15971 15972 15973 15974 15975 15976 15977 15978 15979 15980 15981 15982 15983 15984 15985 15986 15987 15988 15989 15990 15991 15992 15993 15994 15995 15996 15997 15998 15999 16000 16001 16002 16003 16004 16005 16006 16007 16008 16009 16010 16011 16012 16013 16014 16015 16016 16017 16018 16019 16020 16021 16022 16023 16024 16025 16026 16027 16028 16029 16030 16031 16032 16033 16034 16035 16036 16037 16038 16039 16040 16041 16042 16043 16044 16045 16046 16047 16048 16049 16050 16051 16052 16053 16054 16055 16056 16057 16058 16059 16060 16061 16062 16063 16064 16065 16066 16067 16068 16069 16070 16071 16072 16073 16074 16075 16076 16077 16078 16079 16080 16081 16082 16083 16084 16085 16086 16087 16088 16089 16090 16091 16092 16093 16094 16095 16096 16097 16098 16099 16100 16101 16102 16103 16104 16105 16106 16107 16108 16109 16110 16111 16112 16113 16114 16115 16116 16117 16118 16119 16120 16121 16122 16123 16124 16125 16126 16127 16128 16129 16130 16131 16132 16133 16134 16135 16136 16137 16138 16139 16140 16141 16142 16143 16144 16145 16146 16147 16148 16149 16150 16151 16152 16153 16154 16155 16156 16157 16158 16159 16160 16161 16162 16163 16164 16165 16166 16167 16168 16169 16170 16171 16172 16173 16174 16175 16176 16177 16178 16179 16180 16181 16182 16183 16184 16185 16186 16187 16188 16189 16190 16191 16192 16193 16194 16195 16196 16197 16198 16199 16200 16201 16202 16203 16204 16205 16206 16207 16208 16209 16210 16211 16212 16213 16214 16215 16216 16217 16218 16219 16220 16221 16222 16223 16224 16225 16226 16227 16228 16229 16230 16231 16232 16233 16234 16235 16236 16237 16238 16239 16240 16241 16242 16243 16244 16245 16246 16247 16248 16249 16250 16251 16252 16253 16254 16255 16256 16257 16258 16259 16260 16261 16262 16263 16264 16265 16266 16267 16268 16269 16270 16271 16272 16273 16274 16275 16276 16277 16278 16279 16280 16281 16282 16283 16284 16285 16286 16287 16288 16289 16290 16291 16292 16293 16294 16295 16296 16297 16298 16299 16300 16301 16302 16303 16304 16305 16306 16307 16308 16309 16310 16311 16312 16313 16314 16315 16316 16317 16318 16319 16320 16321 16322 16323 16324 16325 16326 16327 16328 16329 16330 16331 16332 16333 16334 16335 16336 16337 16338 16339 16340 16341 16342 16343 16344 16345 16346 16347 16348 16349 16350 16351 16352 16353 16354 16355 16356 16357 16358 16359 16360 16361 16362 16363 16364 16365 16366 16367 16368 16369 16370 16371 16372 16373 16374 16375 16376 16377 16378 16379 16380 16381 16382 16383 16384 16385 16386 16387 16388 16389 16390 16391 16392 16393 16394 16395 16396 16397 16398 16399 16400 16401 16402 16403 16404 16405 16406 16407 16408 16409 16410 16411 16412 16413 16414 16415 16416 16417 16418 16419 16420 16421 16422 16423 16424 16425 16426 16427 16428 16429 16430 16431 16432 16433 16434 16435 16436 16437 16438 16439 16440 16441 16442 16443 16444 16445 16446 16447 16448 16449 16450 16451 16452 16453 16454 16455 16456 16457 16458 16459 16460 16461 16462 16463 16464 16465 16466 16467 16468 16469 16470 16471 16472 16473 16474 16475 16476 16477 16478 16479 16480 16481 16482 16483 16484 16485 16486 16487 16488 16489 16490 16491 16492 16493 16494 16495 16496 16497 16498 16499 16500 16501 16502 16503 16504 16505 16506 16507 16508 16509 16510 16511 16512 16513 16514 16515 16516 16517 16518 16519 16520 16521 16522 16523 16524 16525 16526 16527 16528 16529 16530 16531 16532 16533 16534 16535 16536 16537 16538 16539 16540 16541 16542 16543 16544 16545 16546 16547 16548 16549 16550 16551 16552 16553 16554 16555 16556 16557 16558 16559 16560 16561 16562 16563 16564 16565 16566 16567 16568 16569 16570 16571 16572 16573 16574 16575 16576 16577 16578 16579 16580 16581 16582 16583 16584 16585 16586 16587 16588 16589 16590 16591 16592 16593 16594 16595 16596 16597 16598 16599 16600 16601 16602 16603 16604 16605 16606 16607 16608 16609 16610 16611 16612 16613 16614 16615 16616 16617 16618 16619 16620 16621 16622 16623 16624 16625 16626 16627 16628 16629 16630 16631 16632 16633 16634 16635 16636 16637 16638 16639 16640 16641 16642 16643 16644 16645 16646 16647 16648 16649 16650 16651 16652 16653 16654 16655 16656 16657 16658 16659 16660 16661 16662 16663 16664 16665 16666 16667 16668 16669 16670 16671 16672 16673 16674 16675 16676 16677 16678 16679 16680 16681 16682 16683 16684 16685 16686 16687 16688 16689 16690 16691 16692 16693 16694 16695 16696 16697 16698 16699 16700 16701 16702 16703 16704 16705 16706 16707 16708 16709 16710 16711 16712 16713 16714 16715 16716 16717 16718 16719 16720 16721 16722 16723 16724 16725 16726 16727 16728 16729 16730 16731 16732 16733 16734 16735 16736 16737 16738 16739 16740 16741 16742 16743 16744 16745 16746 16747 16748 16749 16750 16751 16752 16753 16754 16755 16756 16757 16758 16759 16760 16761 16762 16763 16764 16765 16766 16767 16768 16769 16770 16771 16772 16773 16774 16775 16776 16777 16778 16779 16780 16781 16782 16783 16784 16785 16786 16787 16788 16789 16790 16791 16792 16793 16794 16795 16796 16797 16798 16799 16800 16801 16802 16803 16804 16805 16806 16807 16808 16809 16810 16811 16812 16813 16814 16815 16816 16817 16818 16819 16820 16821 16822 16823 16824 16825 16826 16827 16828 16829 16830 16831 16832 16833 16834 16835 16836 16837 16838 16839 16840 16841 16842 16843 16844 16845 16846 16847 16848 16849 16850 16851 16852 16853 16854 16855 16856 16857 16858 16859 16860 16861 16862 16863 16864 16865 16866 16867 16868 16869 16870 16871 16872 16873 16874 16875 16876 16877 16878 16879 16880 16881 16882 16883 16884 16885 16886 16887 16888 16889 16890 16891 16892 16893 16894 16895 16896 16897 16898 16899 16900 16901 16902 16903 16904 16905 16906 16907 16908 16909 16910 16911 16912 16913 16914 16915 16916 16917 16918 16919 16920 16921 16922 16923 16924 16925 16926 16927 16928 16929 16930 16931 16932 16933 16934 16935 16936 16937 16938 16939 16940 16941 16942 16943 16944 16945 16946 16947 16948 16949 16950 16951 16952 16953 16954 16955 16956 16957 16958 16959 16960 16961 16962 16963 16964 16965 16966 16967 16968 16969 16970 16971 16972 16973 16974 16975 16976 16977 16978 16979 16980 16981 16982 16983 16984 16985 16986 16987 16988 16989 16990 16991 16992 16993 16994 16995 16996 16997 16998 16999 17000 17001 17002 17003 17004 17005 17006 17007 17008 17009 17010 17011 17012 17013 17014 17015 17016 17017 17018 17019 17020 17021 17022 17023 17024 17025 17026 17027 17028 17029 17030 17031 17032 17033 17034 17035 17036 17037 17038 17039 17040 17041 17042 17043 17044 17045 17046 17047 17048 17049 17050 17051 17052 17053 17054 17055 17056 17057 17058 17059 17060 17061 17062 17063 17064 17065 17066 17067 17068 17069 17070 17071 17072 17073 17074 17075 17076 17077 17078 17079 17080 17081 17082 17083 17084 17085 17086 17087 17088 17089 17090 17091 17092 17093 17094 17095 17096 17097 17098 17099 17100 17101 17102 17103 17104 17105 17106 17107 17108 17109 17110 17111 17112 17113 17114 17115 17116 17117 17118 17119 17120 17121 17122 17123 17124 17125 17126 17127 17128 17129 17130 17131 17132 17133 17134 17135 17136 17137 17138 17139 17140 17141 17142 17143 17144 17145 17146 17147 17148 17149 17150 17151 17152 17153 17154 17155 17156 17157 17158 17159 17160 17161 17162 17163 17164 17165 17166 17167 17168 17169 17170 17171 17172 17173 17174 17175 17176 17177 17178 17179 17180 17181 17182 17183 17184 17185 17186 17187 17188 17189 17190 17191 17192 17193 17194 17195 17196 17197 17198 17199 17200 17201 17202 17203 17204 17205 17206 17207 17208 17209 17210 17211 17212 17213 17214 17215 17216 17217 17218 17219 17220 17221 17222 17223 17224 17225 17226 17227 17228 17229 17230 17231 17232 17233 17234 17235 17236 17237 17238 17239 17240 17241 17242 17243 17244 17245 17246 17247 17248 17249 17250 17251 17252 17253 17254 17255 17256 17257 17258 17259 17260 17261 17262 17263 17264 17265 17266 17267 17268 17269 17270 17271 17272 17273 17274 17275 17276 17277 17278 17279 17280 17281 17282 17283 17284 17285 17286 17287 17288 17289 17290 17291 17292 17293 17294 17295 17296 17297 17298 17299 17300 17301 17302 17303 17304 17305 17306 17307 17308 17309 17310 17311 17312 17313 17314 17315 17316 17317 17318 17319 17320 17321 17322 17323 17324 17325 17326 17327 17328 17329 17330 17331 17332 17333 17334 17335 17336 17337 17338 17339 17340 17341 17342 17343 17344 17345 17346 17347 17348 17349 17350 17351 17352 17353 17354 17355 17356 17357 17358 17359 17360 17361 17362 17363 17364 17365 17366 17367 17368 17369 17370 17371 17372 17373 17374 17375 17376 17377 17378 17379 17380 17381 17382 17383 17384 17385 17386 17387 17388 17389 17390 17391 17392 17393 17394 17395 17396 17397 17398 17399 17400 17401 17402 17403 17404 17405 17406 17407 17408 17409 17410 17411 17412 17413 17414 17415 17416 17417 17418 17419 17420 17421 17422 17423 17424 17425 17426 17427 17428 17429 17430 17431 17432 17433 17434 17435 17436 17437 17438 17439 17440 17441 17442 17443 17444 17445 17446 17447 17448 17449 17450 17451 17452 17453 17454 17455 17456 17457 17458 17459 17460 17461 17462 17463 17464 17465 17466 17467 17468 17469 17470 17471 17472 17473 17474 17475 17476 17477 17478 17479 17480 17481 17482 17483 17484 17485 17486 17487 17488 17489 17490 17491 17492 17493 17494 17495 17496 17497 17498 17499 17500 17501 17502 17503 17504 17505 17506 17507 17508 17509 17510 17511 17512 17513 17514 17515 17516 17517 17518 17519 17520 17521 17522 17523 17524 17525 17526 17527 17528 17529 17530 17531 17532 17533 17534 17535 17536 17537 17538 17539 17540 17541 17542 17543 17544 17545 17546 17547 17548 17549 17550 17551 17552 17553 17554 17555 17556 17557 17558 17559 17560 17561 17562 17563 17564 17565 17566 17567 17568 17569 17570 17571 17572 17573 17574 17575 17576 17577 17578 17579 17580 17581 17582 17583 17584 17585 17586 17587 17588 17589 17590 17591 17592 17593 17594 17595 17596 17597 17598 17599 17600 17601 17602 17603 17604 17605 17606 17607 17608 17609 17610 17611 17612 17613 17614 17615 17616 17617 17618 17619 17620 17621 17622 17623 17624 17625 17626 17627 17628 17629 17630 17631 17632 17633 17634 17635 17636 17637 17638 17639 17640 17641 17642 17643 17644 17645 17646 17647 17648 17649 17650 17651 17652 17653 17654 17655 17656 17657 17658 17659 17660 17661 17662 17663 17664 17665 17666 17667 17668 17669 17670 17671 17672 17673 17674 17675 17676 17677 17678 17679 17680 17681 17682 17683 17684 17685 17686 17687 17688 17689 17690 17691 17692 17693 17694 17695 17696 17697 17698 17699 17700 17701 17702 17703 17704 17705 17706 17707 17708 17709 17710 17711 17712 17713 17714 17715 17716 17717 17718 17719 17720 17721 17722 17723 17724 17725 17726 17727 17728 17729 17730 17731 17732 17733 17734 17735 17736 17737 17738 17739 17740 17741 17742 17743 17744 17745 17746 17747 17748 17749 17750 17751 17752 17753 17754 17755 17756 17757 17758 17759 17760 17761 17762 17763 17764 17765 17766 17767 17768 17769 17770 17771 17772 17773 17774 17775 17776 17777 17778 17779 17780 17781 17782 17783 17784 17785 17786 17787 17788 17789 17790 17791 17792 17793 17794 17795 17796 17797 17798 17799 17800 17801 17802 17803 17804 17805 17806 17807 17808 17809 17810 17811 17812 17813 17814 17815 17816 17817 17818 17819 17820 17821 17822 17823 17824 17825 17826 17827 17828 17829 17830 17831 17832 17833 17834 17835 17836 17837 17838 17839 17840 17841 17842 17843 17844 17845 17846 17847 17848 17849 17850 17851 17852 17853 17854 17855 17856 17857 17858 17859 17860 17861 17862 17863 17864 17865 17866 17867 17868 17869 17870 17871 17872 17873 17874 17875 17876 17877 17878 17879 17880 17881 17882 17883 17884 17885 17886 17887 17888 17889 17890 17891 17892 17893 17894 17895 17896 17897 17898 17899 17900 17901 17902 17903 17904 17905 17906 17907 17908 17909 17910 17911 17912 17913 17914 17915 17916 17917 17918 17919 17920 17921 17922 17923 17924 17925 17926 17927 17928 17929 17930 17931 17932 17933 17934 17935 17936 17937 17938 17939 17940 17941 17942 17943 17944 17945 17946 17947 17948 17949 17950 17951 17952 17953 17954 17955 17956 17957 17958 17959 17960 17961 17962 17963 17964 17965 17966 17967 17968 17969 17970 17971 17972 17973 17974 17975 17976 17977 17978 17979 17980 17981 17982 17983 17984 17985 17986 17987 17988 17989 17990 17991 17992 17993 17994 17995 17996 17997 17998 17999 18000 18001 18002 18003 18004 18005 18006 18007 18008 18009 18010 18011 18012 18013 18014 18015 18016 18017 18018 18019 18020 18021 18022 18023 18024 18025 18026 18027 18028 18029 18030 18031 18032 18033 18034 18035 18036 18037 18038 18039 18040 18041 18042 18043 18044 18045 18046 18047 18048 18049 18050 18051 18052 18053 18054 18055 18056 18057 18058 18059 18060 18061 18062 18063 18064 18065 18066 18067 18068 18069 18070 18071 18072 18073 18074 18075 18076 18077 18078 18079 18080 18081 18082 18083 18084 18085 18086 18087 18088 18089 18090 18091 18092 18093 18094 18095 18096 18097 18098 18099 18100 18101 18102 18103 18104 18105 18106 18107 18108 18109 18110 18111 18112 18113 18114 18115 18116 18117 18118 18119 18120 18121 18122 18123 18124 18125 18126 18127 18128 18129 18130 18131 18132 18133 18134 18135 18136 18137 18138 18139 18140 18141 18142 18143 18144 18145 18146 18147 18148 18149 18150 18151 18152 18153 18154 18155 18156 18157 18158 18159 18160 18161 18162 18163 18164 18165 18166 18167 18168 18169 18170 18171 18172 18173 18174 18175 18176 18177 18178 18179 18180 18181 18182 18183 18184 18185 18186 18187 18188 18189 18190 18191 18192 18193 18194 18195 18196 18197 18198 18199 18200 18201 18202 18203 18204 18205 18206 18207 18208 18209 18210 18211 18212 18213 18214 18215 18216 18217 18218 18219 18220 18221 18222 18223 18224 18225 18226 18227 18228 18229 18230 18231 18232 18233 18234 18235 18236 18237 18238 18239 18240 18241 18242 18243 18244 18245 18246 18247 18248 18249 18250 18251 18252 18253 18254 18255 18256 18257 18258 18259 18260 18261 18262 18263 18264 18265 18266 18267 18268 18269 18270 18271 18272 18273 18274 18275 18276 18277 18278 18279 18280 18281 18282 18283 18284 18285 18286 18287 18288 18289 18290 18291 18292 18293 18294 18295 18296 18297 18298 18299 18300 18301 18302 18303 18304 18305 18306 18307 18308 18309 18310 18311 18312 18313 18314 18315 18316 18317 18318 18319 18320 18321 18322 18323 18324 18325 18326 18327 18328 18329 18330 18331 18332 18333 18334 18335 18336 18337 18338 18339 18340 18341 18342 18343 18344 18345 18346 18347 18348 18349 18350 18351 18352 18353 18354 18355 18356 18357 18358 18359 18360 18361 18362 18363 18364 18365 18366 18367 18368 18369 18370 18371 18372 18373 18374 18375 18376 18377 18378 18379 18380 18381 18382 18383 18384 18385 18386 18387 18388 18389 18390 18391 18392 18393 18394 18395 18396 18397 18398 18399 18400 18401 18402 18403 18404 18405 18406 18407 18408 18409 18410 18411 18412 18413 18414 18415 18416 18417 18418 18419 18420 18421 18422 18423 18424 18425 18426 18427 18428 18429 18430 18431 18432 18433 18434 18435 18436 18437 18438 18439 18440 18441 18442 18443 18444 18445 18446 18447 18448 18449 18450 18451 18452 18453 18454 18455 18456 18457 18458 18459 18460 18461 18462 18463 18464 18465 18466 18467 18468 18469 18470 18471 18472 18473 18474 18475 18476 18477 18478 18479 18480 18481 18482 18483 18484 18485 18486 18487 18488 18489 18490 18491 18492 18493 18494 18495 18496 18497 18498 18499 18500 18501 18502 18503 18504 18505 18506 18507 18508 18509 18510 18511 18512 18513 18514 18515 18516 18517 18518 18519 18520 18521 18522 18523 18524 18525 18526 18527 18528 18529 18530 18531 18532 18533 18534 18535 18536 18537 18538 18539 18540 18541 18542 18543 18544 18545 18546 18547 18548 18549 18550 18551 18552 18553 18554 18555 18556 18557 18558 18559 18560 18561 18562 18563 18564 18565 18566 18567 18568 18569 18570 18571 18572 18573 18574 18575 18576 18577 18578 18579 18580 18581 18582 18583 18584 18585 18586 18587 18588 18589 18590 18591 18592 18593 18594 18595 18596 18597 18598 18599 18600 18601 18602 18603 18604 18605 18606 18607 18608 18609 18610 18611 18612 18613 18614 18615 18616 18617 18618 18619 18620 18621 18622 18623 18624 18625 18626 18627 18628 18629 18630 18631 18632 18633 18634 18635 18636 18637 18638 18639 18640 18641 18642 18643 18644 18645 18646 18647 18648 18649 18650 18651 18652 18653 18654 18655 18656 18657 18658 18659 18660 18661 18662 18663 18664 18665 18666 18667 18668 18669 18670 18671 18672 18673 18674 18675 18676 18677 18678 18679 18680 18681 18682 18683 18684 18685 18686 18687 18688 18689 18690 18691 18692 18693 18694 18695 18696 18697 18698 18699 18700 18701 18702 18703 18704 18705 18706 18707 18708 18709 18710 18711 18712 18713 18714 18715 18716 18717 18718 18719 18720 18721 18722 18723 18724 18725 18726 18727 18728 18729 18730 18731 18732 18733 18734 18735 18736 18737 18738 18739 18740 18741 18742 18743 18744 18745 18746 18747 18748 18749 18750 18751 18752 18753 18754 18755 18756 18757 18758 18759 18760 18761 18762 18763 18764 18765 18766 18767 18768 18769 18770 18771 18772 18773 18774 18775 18776 18777 18778 18779 18780 18781 18782 18783 18784 18785 18786 18787 18788 18789 18790 18791 18792 18793 18794 18795 18796 18797 18798 18799 18800 18801 18802 18803 18804 18805 18806 18807 18808 18809 18810 18811 18812 18813 18814 18815 18816 18817 18818 18819 18820 18821 18822 18823 18824 18825 18826 18827 18828 18829 18830 18831 18832 18833 18834 18835 18836 18837 18838 18839 18840 18841 18842 18843 18844 18845 18846 18847 18848 18849 18850 18851 18852 18853 18854 18855 18856 18857 18858 18859 18860 18861 18862 18863 18864 18865 18866 18867 18868 18869 18870 18871 18872 18873 18874 18875 18876 18877 18878 18879 18880 18881 18882 18883 18884 18885 18886 18887 18888 18889 18890 18891 18892 18893 18894 18895 18896 18897 18898 18899 18900 18901 18902 18903 18904 18905 18906 18907 18908 18909 18910 18911 18912 18913 18914 18915 18916 18917 18918 18919 18920 18921 18922 18923 18924 18925 18926 18927 18928 18929 18930 18931 18932 18933 18934 18935 18936 18937 18938 18939 18940 18941 18942 18943 18944 18945 18946 18947 18948 18949 18950 18951 18952 18953 18954 18955 18956 18957 18958 18959 18960 18961 18962 18963 18964 18965 18966 18967 18968 18969 18970 18971 18972 18973 18974 18975 18976 18977 18978 18979 18980 18981 18982 18983 18984 18985 18986 18987 18988 18989 18990 18991 18992 18993 18994 18995 18996 18997 18998 18999 19000 19001 19002 19003 19004 19005 19006 19007 19008 19009 19010 19011 19012 19013 19014 19015 19016 19017 19018 19019 19020 19021 19022 19023 19024 19025 19026 19027 19028 19029 19030 19031 19032 19033 19034 19035 19036 19037 19038 19039 19040 19041 19042 19043 19044 19045 19046 19047 19048 19049 19050 19051 19052 19053 19054 19055 19056 19057 19058 19059 19060 19061 19062 19063 19064 19065 19066 19067 19068 19069 19070 19071 19072 19073 19074 19075 19076 19077 19078 19079 19080 19081 19082 19083 19084 19085 19086 19087 19088 19089 19090 19091 19092 19093 19094 19095 19096 19097 19098 19099 19100 19101 19102 19103 19104 19105 19106 19107 19108 19109 19110 19111 19112 19113 19114 19115 19116 19117 19118 19119 19120 19121 19122 19123 19124 19125 19126 19127 19128 19129 19130 19131 19132 19133 19134 19135 19136 19137 19138 19139 19140 19141 19142 19143 19144 19145 19146 19147 19148 19149 19150 19151 19152 19153 19154 19155 19156 19157 19158 19159 19160 19161 19162 19163 19164 19165 19166 19167 19168 19169 19170 19171 19172 19173 19174 19175 19176 19177 19178 19179 19180 19181 19182 19183 19184 19185 19186 19187 19188 19189 19190 19191 19192 19193 19194 19195 19196 19197 19198 19199 19200 19201 19202 19203 19204 19205 19206 19207 19208 19209 19210 19211 19212 19213 19214 19215 19216 19217 19218 19219 19220 19221 19222 19223 19224 19225 19226 19227 19228 19229 19230 19231 19232 19233 19234 19235 19236 19237 19238 19239 19240 19241 19242 19243 19244 19245 19246 19247 19248 19249 19250 19251 19252 19253 19254 19255 19256 19257 19258 19259 19260 19261 19262 19263 19264 19265 19266 19267 19268 19269 19270 19271 19272 19273 19274 19275 19276 19277 19278 19279 19280 19281 19282 19283 19284 19285 19286 19287 19288 19289 19290 19291 19292 19293 19294 19295 19296 19297 19298 19299 19300 19301 19302 19303 19304 19305 19306 19307 19308 19309 19310 19311 19312 19313 19314 19315 19316 19317 19318 19319 19320 19321 19322 19323 19324 19325 19326 19327 19328 19329 19330 19331 19332 19333 19334 19335 19336 19337 19338 19339 19340 19341 19342 19343 19344 19345 19346 19347 19348 19349 19350 19351 19352 19353 19354 19355 19356 19357 19358 19359 19360 19361 19362 19363 19364 19365 19366 19367 19368 19369 19370 19371 19372 19373 19374 19375 19376 19377 19378 19379 19380 19381 19382 19383 19384 19385 19386 19387 19388 19389 19390 19391 19392 19393 19394 19395 19396 19397 19398 19399 19400 19401 19402 19403 19404 19405 19406 19407 19408 19409 19410 19411 19412 19413 19414 19415 19416 19417 19418 19419 19420 19421 19422 19423 19424 19425 19426 19427 19428 19429 19430 19431 19432 19433 19434 19435 19436 19437 19438 19439 19440 19441 19442 19443 19444 19445 19446 19447 19448 19449 19450 19451 19452 19453 19454 19455 19456 19457 19458 19459 19460 19461 19462 19463 19464 19465 19466 19467 19468 19469 19470 19471 19472 19473 19474 19475 19476 19477 19478 19479 19480 19481 19482 19483 19484 19485 19486 19487 19488 19489 19490 19491 19492 19493 19494 19495 19496 19497 19498 19499 19500 19501 19502 19503 19504 19505 19506 19507 19508 19509 19510 19511 19512 19513 19514 19515 19516 19517 19518 19519 19520 19521 19522 19523 19524 19525 19526 19527 19528 19529 19530 19531 19532 19533 19534 19535 19536 19537 19538 19539 19540 19541 19542 19543 19544 19545 19546 19547 19548 19549 19550 19551 19552 19553 19554 19555 19556 19557 19558 19559 19560 19561 19562 19563 19564 19565 19566 19567 19568 19569 19570 19571 19572 19573 19574 19575 19576 19577 19578 19579 19580 19581 19582 19583 19584 19585 19586 19587 19588 19589 19590 19591 19592 19593 19594 19595 19596 19597 19598 19599 19600 19601 19602 19603 19604 19605 19606 19607 19608 19609 19610 19611 19612 19613 19614 19615 19616 19617 19618 19619 19620 19621 19622 19623 19624 19625 19626 19627 19628 19629 19630 19631 19632 19633 19634 19635 19636 19637 19638 19639 19640 19641 19642 19643 19644 19645 19646 19647 19648 19649 19650 19651 19652 19653 19654 19655 19656 19657 19658 19659 19660 19661 19662 19663 19664 19665 19666 19667 19668 19669 19670 19671 19672 19673 19674 19675 19676 19677 19678 19679 19680 19681 19682 19683 19684 19685 19686 19687 19688 19689 19690 19691 19692 19693 19694 19695 19696 19697 19698 19699 19700 19701 19702 19703 19704 19705 19706 19707 19708 19709 19710 19711 19712 19713 19714 19715 19716 19717 19718 19719 19720 19721 19722 19723 19724 19725 19726 19727 19728 19729 19730 19731 19732 19733 19734 19735 19736 19737 19738 19739 19740 19741 19742 19743 19744 19745 19746 19747 19748 19749 19750 19751 19752 19753 19754 19755 19756 19757 19758 19759 19760 19761 19762 19763 19764 19765 19766 19767 19768 19769 19770 19771 19772 19773 19774 19775 19776 19777 19778 19779 19780 19781 19782 19783 19784 19785 19786 19787 19788 19789 19790 19791 19792 19793 19794 19795 19796 19797 19798 19799 19800 19801 19802 19803 19804 19805 19806 19807 19808 19809 19810 19811 19812 19813 19814 19815 19816 19817 19818 19819 19820 19821 19822 19823 19824 19825 19826 19827 19828 19829 19830 19831 19832 19833 19834 19835 19836 19837 19838 19839 19840 19841 19842 19843 19844 19845 19846 19847 19848 19849 19850 19851 19852 19853 19854 19855 19856 19857 19858 19859 19860 19861 19862 19863 19864 19865 19866 19867 19868 19869 19870 19871 19872 19873 19874 19875 19876 19877 19878 19879 19880 19881 19882 19883 19884 19885 19886 19887 19888 19889 19890 19891 19892 19893 19894 19895 19896 19897 19898 19899 19900 19901 19902 19903 19904 19905 19906 19907 19908 19909 19910 19911 19912 19913 19914 19915 19916 19917 19918 19919 19920 19921 19922 19923 19924 19925 19926 19927 19928 19929 19930 19931 19932 19933 19934 19935 19936 19937 19938 19939 19940 19941 19942 19943 19944 19945 19946 19947 19948 19949 19950 19951 19952 19953 19954 19955 19956 19957 19958 19959 19960 19961 19962 19963 19964 19965 19966 19967 19968 19969 19970 19971 19972 19973 19974 19975 19976 19977 19978 19979 19980 19981 19982 19983 19984 19985 19986 19987 19988 19989 19990 19991 19992 19993 19994 19995 19996 19997 19998 19999 20000 20001 20002 20003 20004 20005 20006 20007 20008 20009 20010 20011 20012 20013 20014 20015 20016 20017 20018 20019 20020 20021 20022 20023 20024 20025 20026 20027 20028 20029 20030 20031 20032 20033 20034 20035 20036 20037 20038 20039 20040 20041 20042 20043 20044 20045 20046 20047 20048 20049 20050 20051 20052 20053 20054 20055 20056 20057 20058 20059 20060 20061 20062 20063 20064 20065 20066 20067 20068 20069 20070 20071 20072 20073 20074 20075 20076 20077 20078 20079 20080 20081 20082 20083 20084 20085 20086 20087 20088 20089 20090 20091 20092 20093 20094 20095 20096 20097 20098 20099 20100 20101 20102 20103 20104 20105 20106 20107 20108 20109 20110 20111 20112 20113 20114 20115 20116 20117 20118 20119 20120 20121 20122 20123 20124 20125 20126 20127 20128 20129 20130 20131 20132 20133 20134 20135 20136 20137 20138 20139 20140 20141 20142 20143 20144 20145 20146 20147 20148 20149 20150 20151 20152 20153 20154 20155 20156 20157 20158 20159 20160 20161 20162 20163 20164 20165 20166 20167 20168 20169 20170 20171 20172 20173 20174 20175 20176 20177 20178 20179 20180 20181 20182 20183 20184 20185 20186 20187 20188 20189 20190 20191 20192 20193 20194 20195 20196 20197 20198 20199 20200 20201 20202 20203 20204 20205 20206 20207 20208 20209 20210 20211 20212 20213 20214 20215 20216 20217 20218 20219 20220 20221 20222 20223 20224 20225 20226 20227 20228 20229 20230 20231 20232 20233 20234 20235 20236 20237 20238 20239 20240 20241 20242 20243 20244 20245 20246 20247 20248 20249 20250 20251 20252 20253 20254 20255 20256 20257 20258 20259 20260 20261 20262 20263 20264 20265 20266 20267 20268 20269 20270 20271 20272 20273 20274 20275 20276 20277 20278 20279 20280 20281 20282 20283 20284 20285 20286 20287 20288 20289 20290 20291 20292 20293 20294 20295 20296 20297 20298 20299 20300 20301 20302 20303 20304 20305 20306 20307 20308 20309 20310 20311 20312 20313 20314 20315 20316 20317 20318 20319 20320 20321 20322 20323 20324 20325 20326 20327 20328 20329 20330 20331 20332 20333 20334 20335 20336 20337 20338 20339 20340 20341 20342 20343 20344 20345 20346 20347 20348 20349 20350 20351 20352 20353 20354 20355 20356 20357 20358 20359 20360 20361 20362 20363 20364 20365 20366 20367 20368 20369 20370 20371 20372 20373 20374 20375 20376 20377 20378 20379 20380 20381 20382 20383 20384 20385 20386 20387 20388 20389 20390 20391 20392 20393 20394 20395 20396 20397 20398 20399 20400 20401 20402 20403 20404 20405 20406 20407 20408 20409 20410 20411 20412 20413 20414 20415 20416 20417 20418 20419 20420 20421 20422 20423 20424 20425 20426 20427 20428 20429 20430 20431 20432 20433 20434 20435 20436 20437 20438 20439 20440 20441 20442 20443 20444 20445 20446 20447 20448 20449 20450 20451 20452 20453 20454 20455 20456 20457 20458 20459 20460 20461 20462 20463 20464 20465 20466 20467 20468 20469 20470 20471 20472 20473 20474 20475 20476 20477 20478 20479 20480 20481 20482 20483 20484 20485 20486 20487 20488 20489 20490 20491 20492 20493 20494 20495 20496 20497 20498 20499 20500 20501 20502 20503 20504 20505 20506 20507 20508 20509 20510 20511 20512 20513 20514 20515 20516 20517 20518 20519 20520 20521 20522 20523 20524 20525 20526 20527 20528 20529 20530 20531 20532 20533 20534 20535 20536 20537 20538 20539 20540 20541 20542 20543 20544 20545 20546 20547 20548 20549 20550 20551 20552 20553 20554 20555 20556 20557 20558 20559 20560 20561 20562 20563 20564 20565 20566 20567 20568 20569 20570 20571 20572 20573 20574 20575 20576 20577 20578 20579 20580 20581 20582 20583 20584 20585 20586 20587 20588 20589 20590 20591 20592 20593 20594 20595 20596 20597 20598 20599 20600 20601 20602 20603 20604 20605 20606 20607 20608 20609 20610 20611 20612 20613 20614 20615 20616 20617 20618 20619 20620 20621 20622 20623 20624 20625 20626 20627 20628 20629 20630 20631 20632 20633 20634 20635 20636 20637 20638 20639 20640 20641 20642 20643 20644 20645 20646 20647 20648 20649 20650 20651 20652 20653 20654 20655 20656 20657 20658 20659 20660 20661 20662 20663 20664 20665 20666 20667 20668 20669 20670 20671 20672 20673 20674 20675 20676 20677 20678 20679 20680 20681 20682 20683 20684 20685 20686 20687 20688 20689 20690 20691 20692 20693 20694 20695 20696 20697 20698 20699 20700 20701 20702 20703 20704 20705 20706 20707 20708 20709 20710 20711 20712 20713 20714 20715 20716 20717 20718 20719 20720 20721 20722 20723 20724 20725 20726 20727 20728 20729 20730 20731 20732 20733 20734 20735 20736 20737 20738 20739 20740 20741 20742 20743 20744 20745 20746 20747 20748 20749 20750 20751 20752 20753 20754 20755 20756 20757 20758 20759 20760 20761 20762 20763 20764 20765 20766 20767 20768 20769 20770 20771 20772 20773 20774 20775 20776 20777 20778 20779 20780 20781 20782 20783 20784 20785 20786 20787 20788 20789 20790 20791 20792 20793 20794 20795 20796 20797 20798 20799 20800 20801 20802 20803 20804 20805 20806 20807 20808 20809 20810 20811 20812 20813 20814 20815 20816 20817 20818 20819 20820 20821 20822 20823 20824 20825 20826 20827 20828 20829 20830 20831 20832 20833 20834 20835 20836 20837 20838 20839 20840 20841 20842 20843 20844 20845 20846 20847 20848 20849 20850 20851 20852 20853 20854 20855 20856 20857 20858 20859 20860 20861 20862 20863 20864 20865 20866 20867 20868 20869 20870 20871 20872 20873 20874 20875 20876 20877 20878 20879 20880 20881 20882 20883 20884 20885 20886 20887 20888 20889 20890 20891 20892 20893 20894 20895 20896 20897 20898 20899 20900 20901 20902 20903 20904 20905 20906 20907 20908 20909 20910 20911 20912 20913 20914 20915 20916 20917 20918 20919 20920 20921 20922 20923 20924 20925 20926 20927 20928 20929 20930 20931 20932 20933 20934 20935 20936 20937 20938 20939 20940 20941 20942 20943 20944 20945 20946 20947 20948 20949 20950 20951 20952 20953 20954 20955 20956 20957 20958 20959 20960 20961 20962 20963 20964 20965 20966 20967 20968 20969 20970 20971 20972 20973 20974 20975 20976 20977 20978 20979 20980 20981 20982 20983 20984 20985 20986 20987 20988 20989 20990 20991 20992 20993 20994 20995 20996 20997 20998 20999 21000 21001 21002 21003 21004 21005 21006 21007 21008 21009 21010 21011 21012 21013 21014 21015 21016 21017 21018 21019 21020 21021 21022 21023 21024 21025 21026 21027 21028 21029 21030 21031 21032 21033 21034 21035 21036 21037 21038 21039 21040 21041 21042 21043 21044 21045 21046 21047 21048 21049 21050 21051 21052 21053 21054 21055 21056 21057 21058 21059 21060 21061 21062 21063 21064 21065 21066 21067 21068 21069 21070 21071 21072 21073 21074 21075 21076 21077 21078 21079 21080 21081 21082 21083 21084 21085 21086 21087 21088 21089 21090 21091 21092 21093 21094 21095 21096 21097 21098 21099 21100 21101 21102 21103 21104 21105 21106 21107 21108 21109 21110 21111 21112 21113 21114 21115 21116 21117 21118 21119 21120 21121 21122 21123 21124 21125 21126 21127 21128 21129 21130 21131 21132 21133 21134 21135 21136 21137 21138 21139 21140 21141 21142 21143 21144 21145 21146 21147 21148 21149 21150 21151 21152 21153 21154 21155 21156 21157 21158 21159 21160 21161 21162 21163 21164 21165 21166 21167 21168 21169 21170 21171 21172 21173 21174 21175 21176 21177 21178 21179 21180 21181 21182 21183 21184 21185 21186 21187 21188 21189 21190 21191 21192 21193 21194 21195 21196 21197 21198 21199 21200 21201 21202 21203 21204 21205 21206 21207 21208 21209 21210 21211 21212 21213 21214 21215 21216 21217 21218 21219 21220 21221 21222 21223 21224 21225 21226 21227 21228 21229 21230 21231 21232 21233 21234 21235 21236 21237 21238 21239 21240 21241 21242 21243 21244 21245 21246 21247 21248 21249 21250 21251 21252 21253 21254 21255 21256 21257 21258 21259 21260 21261 21262 21263 21264 21265 21266 21267 21268 21269 21270 21271 21272 21273 21274 21275 21276 21277 21278 21279 21280 21281 21282 21283 21284 21285 21286 21287 21288 21289 21290 21291 21292 21293 21294 21295 21296 21297 21298 21299 21300 21301 21302 21303 21304 21305 21306 21307 21308 21309 21310 21311 21312 21313 21314 21315 21316 21317 21318 21319 21320 21321 21322 21323 21324 21325 21326 21327 21328 21329 21330 21331 21332 21333 21334 21335 21336 21337 21338 21339 21340 21341 21342 21343 21344 21345 21346 21347 21348 21349 21350 21351 21352 21353 21354 21355 21356 21357 21358 21359 21360 21361 21362 21363 21364 21365 21366 21367 21368 21369 21370 21371 21372 21373 21374 21375 21376 21377 21378 21379 21380 21381 21382 21383 21384 21385 21386 21387 21388 21389 21390 21391 21392 21393 21394 21395 21396 21397 21398 21399 21400 21401 21402 21403 21404 21405 21406 21407 21408 21409 21410 21411 21412 21413 21414 21415 21416 21417 21418 21419 21420 21421 21422 21423 21424 21425 21426 21427 21428 21429 21430 21431 21432 21433 21434 21435 21436 21437 21438 21439 21440 21441 21442 21443 21444 21445 21446 21447 21448 21449 21450 21451 21452 21453 21454 21455 21456 21457 21458 21459 21460 21461 21462 21463 21464 21465 21466 21467 21468 21469 21470 21471 21472 21473 21474 21475 21476 21477 21478 21479 21480 21481 21482 21483 21484 21485 21486 21487 21488 21489 21490 21491 21492 21493 21494 21495 21496 21497 21498 21499 21500 21501 21502 21503 21504 21505 21506 21507 21508 21509 21510 21511 21512 21513 21514 21515 21516 21517 21518 21519 21520 21521 21522 21523 21524 21525 21526 21527 21528 21529 21530 21531 21532 21533 21534 21535 21536 21537 21538 21539 21540 21541 21542 21543 21544 21545 21546 21547 21548 21549 21550 21551 21552 21553 21554 21555 21556 21557 21558 21559 21560 21561 21562 21563 21564 21565 21566 21567 21568 21569 21570 21571 21572 21573 21574 21575 21576 21577 21578 21579 21580 21581 21582 21583 21584 21585 21586 21587 21588 21589 21590 21591 21592 21593 21594 21595 21596 21597 21598 21599 21600 21601 21602 21603 21604 21605 21606 21607 21608 21609 21610 21611 21612 21613 21614 21615 21616 21617 21618 21619 21620 21621 21622 21623 21624 21625 21626 21627 21628 21629 21630 21631 21632 21633 21634 21635 21636 21637 21638 21639 21640 21641 21642 21643 21644 21645 21646 21647 21648 21649 21650 21651 21652 21653 21654 21655 21656 21657 21658 21659 21660 21661 21662 21663 21664 21665 21666 21667 21668 21669 21670 21671 21672 21673 21674 21675 21676 21677 21678 21679 21680 21681 21682 21683 21684 21685 21686 21687 21688 21689 21690 21691 21692 21693 21694 21695 21696 21697 21698 21699 21700 21701 21702 21703 21704 21705 21706 21707 21708 21709 21710 21711 21712 21713 21714 21715 21716 21717 21718 21719 21720 21721 21722 21723 21724 21725 21726 21727 21728 21729 21730 21731 21732 21733 21734 21735 21736 21737 21738 21739 21740 21741 21742 21743 21744 21745 21746 21747 21748 21749 21750 21751 21752 21753 21754 21755 21756 21757 21758 21759 21760 21761 21762 21763 21764 21765 21766 21767 21768 21769 21770 21771 21772 21773 21774 21775 21776 21777 21778 21779 21780 21781 21782 21783 21784 21785 21786 21787 21788 21789 21790 21791 21792 21793 21794 21795 21796 21797 21798 21799 21800 21801 21802 21803 21804 21805 21806 21807 21808 21809 21810 21811 21812 21813 21814 21815 21816 21817 21818 21819 21820 21821 21822 21823 21824 21825 21826 21827 21828 21829 21830 21831 21832 21833 21834 21835 21836 21837 21838 21839 21840 21841 21842 21843 21844 21845 21846 21847 21848 21849 21850 21851 21852 21853 21854 21855 21856 21857 21858 21859 21860 21861 21862 21863 21864 21865 21866 21867 21868 21869 21870 21871 21872 21873 21874 21875 21876 21877 21878 21879 21880 21881 21882 21883 21884 21885 21886 21887 21888 21889 21890 21891 21892 21893 21894 21895 21896 21897 21898 21899 21900 21901 21902 21903 21904 21905 21906 21907 21908 21909 21910 21911 21912 21913 21914 21915 21916 21917 21918 21919 21920 21921 21922 21923 21924 21925 21926 21927 21928 21929 21930 21931 21932 21933 21934 21935 21936 21937 21938 21939 21940 21941 21942 21943 21944 21945 21946 21947 21948 21949 21950 21951 21952 21953 21954 21955 21956 21957 21958 21959 21960 21961 21962 21963 21964 21965 21966 21967 21968 21969 21970 21971 21972 21973 21974 21975 21976 21977 21978 21979 21980 21981 21982 21983 21984 21985 21986 21987 21988 21989 21990 21991 21992 21993 21994 21995 21996 21997 21998 21999 22000 22001 22002 22003 22004 22005 22006 22007 22008 22009 22010 22011 22012 22013 22014 22015 22016 22017 22018 22019 22020 22021 22022 22023 22024 22025 22026 22027 22028 22029 22030 22031 22032 22033 22034 22035 22036 22037 22038 22039 22040 22041 22042 22043 22044 22045 22046 22047 22048 22049 22050 22051 22052 22053 22054 22055 22056 22057 22058 22059 22060 22061 22062 22063 22064 22065 22066 22067 22068 22069 22070 22071 22072 22073 22074 22075 22076 22077 22078 22079 22080 22081 22082 22083 22084 22085 22086 22087 22088 22089 22090 22091 22092 22093 22094 22095 22096 22097 22098 22099 22100 22101 22102 22103 22104 22105 22106 22107 22108 22109 22110 22111 22112 22113 22114 22115 22116 22117 22118 22119 22120 22121 22122 22123 22124 22125 22126 22127 22128 22129 22130 22131 22132 22133 22134 22135 22136 22137 22138 22139 22140 22141 22142 22143 22144 22145 22146 22147 22148 22149 22150 22151 22152 22153 22154 22155 22156 22157 22158 22159 22160 22161 22162 22163 22164 22165 22166 22167 22168 22169 22170 22171 22172 22173 22174 22175 22176 22177 22178 22179 22180 22181 22182 22183 22184 22185 22186 22187 22188 22189 22190 22191 22192 22193 22194 22195 22196 22197 22198 22199 22200 22201 22202 22203 22204 22205 22206 22207 22208 22209 22210 22211 22212 22213 22214 22215 22216 22217 22218 22219 22220 22221 22222 22223 22224 22225 22226 22227 22228 22229 22230 22231 22232 22233 22234 22235 22236 22237 22238 22239 22240 22241 22242 22243 22244 22245 22246 22247 22248 22249 22250 22251 22252 22253 22254 22255 22256 22257 22258 22259 22260 22261 22262 22263 22264 22265 22266 22267 22268 22269 22270 22271 22272 22273 22274 22275 22276 22277 22278 22279 22280 22281 22282 22283 22284 22285 22286 22287 22288 22289 22290 22291 22292 22293 22294 22295 22296 22297 22298 22299 22300 22301 22302 22303 22304 22305 22306 22307 22308 22309 22310 22311 22312 22313 22314 22315 22316 22317 22318 22319 22320 22321 22322 22323 22324 22325 22326 22327 22328 22329 22330 22331 22332 22333 22334 22335 22336 22337 22338 22339 22340 22341 22342 22343 22344 22345 22346 22347 22348 22349 22350 22351 22352 22353 22354 22355 22356 22357 22358 22359 22360 22361 22362 22363 22364 22365 22366 22367 22368 22369 22370 22371 22372 22373 22374 22375 22376 22377 22378 22379 22380 22381 22382 22383 22384 22385 22386 22387 22388 22389 22390 22391 22392 22393 22394 22395 22396 22397 22398 22399 22400 22401 22402 22403 22404 22405 22406 22407 22408 22409 22410 22411 22412 22413 22414 22415 22416 22417 22418 22419 22420 22421 22422 22423 22424 22425 22426 22427 22428 22429 22430 22431 22432 22433 22434 22435 22436 22437 22438 22439 22440 22441 22442 22443 22444 22445 22446 22447 22448 22449 22450 22451 22452 22453 22454 22455 22456 22457 22458 22459 22460 22461 22462 22463 22464 22465 22466 22467 22468 22469 22470 22471 22472 22473 22474 22475 22476 22477 22478 22479 22480 22481 22482 22483 22484 22485 22486 22487 22488 22489 22490 22491 22492 22493 22494 22495 22496 22497 22498 22499 22500 22501 22502 22503 22504 22505 22506 22507 22508 22509 22510 22511 22512 22513 22514 22515 22516 22517 22518 22519 22520 22521 22522 22523 22524 22525 22526 22527 22528 22529 22530 22531 22532 22533 22534 22535 22536 22537 22538 22539 22540 22541 22542 22543 22544 22545 22546 22547 22548 22549 22550 22551 22552 22553 22554 22555 22556 22557 22558 22559 22560 22561 22562 22563 22564 22565 22566 22567 22568 22569 22570 22571 22572 22573 22574 22575 22576 22577 22578 22579 22580 22581 22582 22583 22584 22585 22586 22587 22588 22589 22590 22591 22592 22593 22594 22595 22596 22597 22598 22599 22600 22601 22602 22603 22604 22605 22606 22607 22608 22609 22610 22611 22612 22613 22614 22615 22616 22617 22618 22619 22620 22621 22622 22623 22624 22625 22626 22627 22628 22629 22630 22631 22632 22633 22634 22635 22636 22637 22638 22639 22640 22641 22642 22643 22644 22645 22646 22647 22648 22649 22650 22651 22652 22653 22654 22655 22656 22657 22658 22659 22660 22661 22662 22663 22664 22665 22666 22667 22668 22669 22670 22671 22672 22673 22674 22675 22676 22677 22678 22679 22680 22681 22682 22683 22684 22685 22686 22687 22688 22689 22690 22691 22692 22693 22694 22695 22696 22697 22698 22699 22700 22701 22702 22703 22704 22705 22706 22707 22708 22709 22710 22711 22712 22713 22714 22715 22716 22717 22718 22719 22720 22721 22722 22723 22724 22725 22726 22727 22728 22729 22730 22731 22732 22733 22734 22735 22736 22737 22738 22739 22740 22741 22742 22743 22744 22745 22746 22747 22748 22749 22750 22751 22752 22753 22754 22755 22756 22757 22758 22759 22760 22761 22762 22763 22764 22765 22766 22767 22768 22769 22770 22771 22772 22773 22774 22775 22776 22777 22778 22779 22780 22781 22782 22783 22784 22785 22786 22787 22788 22789 22790 22791 22792 22793 22794 22795 22796 22797 22798 22799 22800 22801 22802 22803 22804 22805 22806 22807 22808 22809 22810 22811 22812 22813 22814 22815 22816 22817 22818 22819 22820 22821 22822 22823 22824 22825 22826 22827 22828 22829 22830 22831 22832 22833 22834 22835 22836 22837 22838 22839 22840 22841 22842 22843 22844 22845 22846 22847 22848 22849 22850 22851 22852 22853 22854 22855 22856 22857 22858 22859 22860 22861 22862 22863 22864 22865 22866 22867 22868 22869 22870 22871 22872 22873 22874 22875 22876 22877 22878 22879 22880 22881 22882 22883 22884 22885 22886 22887 22888 22889 22890 22891 22892 22893 22894 22895 22896 22897 22898 22899 22900 22901 22902 22903 22904 22905 22906 22907 22908 22909 22910 22911 22912 22913 22914 22915 22916 22917 22918 22919 22920 22921 22922 22923 22924 22925 22926 22927 22928 22929 22930 22931 22932 22933 22934 22935 22936 22937 22938 22939 22940 22941 22942 22943 22944 22945 22946 22947 22948 22949 22950 22951 22952 22953 22954 22955 22956 22957 22958 22959 22960 22961 22962 22963 22964 22965 22966 22967 22968 22969 22970 22971 22972 22973 22974 22975 22976 22977 22978 22979 22980 22981 22982 22983 22984 22985 22986 22987 22988 22989 22990 22991 22992 22993 22994 22995 22996 22997 22998 22999 23000 23001 23002 23003 23004 23005 23006 23007 23008 23009 23010 23011 23012 23013 23014 23015 23016 23017 23018 23019 23020 23021 23022 23023 23024 23025 23026 23027 23028 23029 23030 23031 23032 23033 23034 23035 23036 23037 23038 23039 23040 23041 23042 23043 23044 23045 23046 23047 23048 23049 23050 23051 23052 23053 23054 23055 23056 23057 23058 23059 23060 23061 23062 23063 23064 23065 23066 23067 23068 23069 23070 23071 23072 23073 23074 23075 23076 23077 23078 23079 23080 23081 23082 23083 23084 23085 23086 23087 23088 23089 23090 23091 23092 23093 23094 23095 23096 23097 23098 23099 23100 23101 23102 23103 23104 23105 23106 23107 23108 23109 23110 23111 23112 23113 23114 23115 23116 23117 23118 23119 23120 23121 23122 23123 23124 23125 23126 23127 23128 23129 23130 23131 23132 23133 23134 23135 23136 23137 23138 23139 23140 23141 23142 23143 23144 23145 23146 23147 23148 23149 23150 23151 23152 23153 23154 23155 23156 23157 23158 23159 23160 23161 23162 23163 23164 23165 23166 23167 23168 23169 23170 23171 23172 23173 23174 23175 23176 23177 23178 23179 23180 23181 23182 23183 23184 23185 23186 23187 23188 23189 23190 23191 23192 23193 23194 23195 23196 23197 23198 23199 23200 23201 23202 23203 23204 23205 23206 23207 23208 23209 23210 23211 23212 23213 23214 23215 23216 23217 23218 23219 23220 23221 23222 23223 23224 23225 23226 23227 23228 23229 23230 23231 23232 23233 23234 23235 23236 23237 23238 23239 23240 23241 23242 23243 23244 23245 23246 23247 23248 23249 23250 23251 23252 23253 23254 23255 23256 23257 23258 23259 23260 23261 23262 23263 23264 23265 23266 23267 23268 23269 23270 23271 23272 23273 23274 23275 23276 23277 23278 23279 23280 23281 23282 23283 23284 23285 23286 23287 23288 23289 23290 23291 23292 23293 23294 23295 23296 23297 23298 23299 23300 23301 23302 23303 23304 23305 23306 23307 23308 23309 23310 23311 23312 23313 23314 23315 23316 23317 23318 23319 23320 23321 23322 23323 23324 23325 23326 23327 23328 23329 23330 23331 23332 23333 23334 23335 23336 23337 23338 23339 23340 23341 23342 23343 23344 23345 23346 23347 23348 23349 23350 23351 23352 23353 23354 23355 23356 23357 23358 23359 23360 23361 23362 23363 23364 23365 23366 23367 23368 23369 23370 23371 23372 23373 23374 23375 23376 23377 23378 23379 23380 23381 23382 23383 23384 23385 23386 23387 23388 23389 23390 23391 23392 23393 23394 23395 23396 23397 23398 23399 23400 23401 23402 23403 23404 23405 23406 23407 23408 23409 23410 23411 23412 23413 23414 23415 23416 23417 23418 23419 23420 23421 23422 23423 23424 23425 23426 23427 23428 23429 23430 23431 23432 23433 23434 23435 23436 23437 23438 23439 23440 23441 23442 23443 23444 23445 23446 23447 23448 23449 23450 23451 23452 23453 23454 23455 23456 23457 23458 23459 23460 23461 23462 23463 23464 23465 23466 23467 23468 23469 23470 23471 23472 23473 23474 23475 23476 23477 23478 23479 23480 23481 23482 23483 23484 23485 23486 23487 23488 23489 23490 23491 23492 23493 23494 23495 23496 23497 23498 23499 23500 23501 23502 23503 23504 23505 23506 23507 23508 23509 23510 23511 23512 23513 23514 23515 23516 23517 23518 23519 23520 23521 23522 23523 23524 23525 23526 23527 23528 23529 23530 23531 23532 23533 23534 23535 23536 23537 23538 23539 23540 23541 23542 23543 23544 23545 23546 23547 23548 23549 23550 23551 23552 23553 23554 23555 23556 23557 23558 23559 23560 23561 23562 23563 23564 23565 23566 23567 23568 23569 23570 23571 23572 23573 23574 23575 23576 23577 23578 23579 23580 23581 23582 23583 23584 23585 23586 23587 23588 23589 23590 23591 23592 23593 23594 23595 23596 23597 23598 23599 23600 23601 23602 23603 23604 23605 23606 23607 23608 23609 23610 23611 23612 23613 23614 23615 23616 23617 23618 23619 23620 23621 23622 23623 23624 23625 23626 23627 23628 23629 23630 23631 23632 23633 23634 23635 23636 23637 23638 23639 23640 23641 23642 23643 23644 23645 23646 23647 23648 23649 23650 23651 23652 23653 23654 23655 23656 23657 23658 23659 23660 23661 23662 23663 23664 23665 23666 23667 23668 23669 23670 23671 23672 23673 23674 23675 23676 23677 23678 23679 23680 23681 23682 23683 23684 23685 23686 23687 23688 23689 23690 23691 23692 23693 23694 23695 23696 23697 23698 23699 23700 23701 23702 23703 23704 23705 23706 23707 23708 23709 23710 23711 23712 23713 23714 23715 23716 23717 23718 23719 23720 23721 23722 23723 23724 23725 23726 23727 23728 23729 23730 23731 23732 23733 23734 23735 23736 23737 23738 23739 23740 23741 23742 23743 23744 23745 23746 23747 23748 23749 23750 23751 23752 23753 23754 23755 23756 23757 23758 23759 23760 23761 23762 23763 23764 23765 23766 23767 23768 23769 23770 23771 23772 23773 23774 23775 23776 23777 23778 23779 23780 23781 23782 23783 23784 23785 23786 23787 23788 23789 23790 23791 23792 23793 23794 23795 23796 23797 23798 23799 23800 23801 23802 23803 23804 23805 23806 23807 23808 23809 23810 23811 23812 23813 23814 23815 23816 23817 23818 23819 23820 23821 23822 23823 23824 23825 23826 23827 23828 23829 23830 23831 23832 23833 23834 23835 23836 23837 23838 23839 23840 23841 23842 23843 23844 23845 23846 23847 23848 23849 23850 23851 23852 23853 23854 23855 23856 23857 23858 23859 23860 23861 23862 23863 23864 23865 23866 23867 23868 23869 23870 23871 23872 23873 23874 23875 23876 23877 23878 23879 23880 23881 23882 23883 23884 23885 23886 23887 23888 23889 23890 23891 23892 23893 23894 23895 23896 23897 23898 23899 23900 23901 23902 23903 23904 23905 23906 23907 23908 23909 23910 23911 23912 23913 23914 23915 23916 23917 23918 23919 23920 23921 23922 23923 23924 23925 23926 23927 23928 23929 23930 23931 23932 23933 23934 23935 23936 23937 23938 23939 23940 23941 23942 23943 23944 23945 23946 23947 23948 23949 23950 23951 23952 23953 23954 23955 23956 23957 23958 23959 23960 23961 23962 23963 23964 23965 23966 23967 23968 23969 23970 23971 23972 23973 23974 23975 23976 23977 23978 23979 23980 23981 23982 23983 23984 23985 23986 23987 23988 23989 23990 23991 23992 23993 23994 23995 23996 23997 23998 23999 24000 24001 24002 24003 24004 24005 24006 24007 24008 24009 24010 24011 24012 24013 24014 24015 24016 24017 24018 24019 24020 24021 24022 24023 24024 24025 24026 24027 24028 24029 24030 24031 24032 24033 24034 24035 24036 24037 24038 24039 24040 24041 24042 24043 24044 24045 24046 24047 24048 24049 24050 24051 24052 24053 24054 24055 24056 24057 24058 24059 24060 24061 24062 24063 24064 24065 24066 24067 24068 24069 24070 24071 24072 24073 24074 24075 24076 24077 24078 24079 24080 24081 24082 24083 24084 24085 24086 24087 24088 24089 24090 24091 24092 24093 24094 24095 24096 24097 24098 24099 24100 24101 24102 24103 24104 24105 24106 24107 24108 24109 24110 24111 24112 24113 24114 24115 24116 24117 24118 24119 24120 24121 24122 24123 24124 24125 24126 24127 24128 24129 24130 24131 24132 24133 24134 24135 24136 24137 24138 24139 24140 24141 24142 24143 24144 24145 24146 24147 24148 24149 24150 24151 24152 24153 24154 24155 24156 24157 24158 24159 24160 24161 24162 24163 24164 24165 24166 24167 24168 24169 24170 24171 24172 24173 24174 24175 24176 24177 24178 24179 24180 24181 24182 24183 24184 24185 24186 24187 24188 24189 24190 24191 24192 24193 24194 24195 24196 24197 24198 24199 24200 24201 24202 24203 24204 24205 24206 24207 24208 24209 24210 24211 24212 24213 24214 24215 24216 24217 24218 24219 24220 24221 24222 24223 24224 24225 24226 24227 24228 24229 24230 24231 24232 24233 24234 24235 24236 24237 24238 24239 24240 24241 24242 24243 24244 24245 24246 24247 24248 24249 24250 24251 24252 24253 24254 24255 24256 24257 24258 24259 24260 24261 24262 24263 24264 24265 24266 24267 24268 24269 24270 24271 24272 24273 24274 24275 24276 24277 24278 24279 24280 24281 24282 24283 24284 24285 24286 24287 24288 24289 24290 24291 24292 24293 24294 24295 24296 24297 24298 24299 24300 24301 24302 24303 24304 24305 24306 24307 24308 24309 24310 24311 24312 24313 24314 24315 24316 24317 24318 24319 24320 24321 24322 24323 24324 24325 24326 24327 24328 24329 24330 24331 24332 24333 24334 24335 24336 24337 24338 24339 24340 24341 24342 24343 24344 24345 24346 24347 24348 24349 24350 24351 24352 24353 24354 24355 24356 24357 24358 24359 24360 24361 24362 24363 24364 24365 24366 24367 24368 24369 24370 24371 24372 24373 24374 24375 24376 24377 24378 24379 24380 24381 24382 24383 24384 24385 24386 24387 24388 24389 24390 24391 24392 24393 24394 24395 24396 24397 24398 24399 24400 24401 24402 24403 24404 24405 24406 24407 24408 24409 24410 24411 24412 24413 24414 24415 24416 24417 24418 24419 24420 24421 24422 24423 24424 24425 24426 24427 24428 24429 24430 24431 24432 24433 24434 24435 24436 24437 24438 24439 24440 24441 24442 24443 24444 24445 24446 24447 24448 24449 24450 24451 24452 24453 24454 24455 24456 24457 24458 24459 24460 24461 24462 24463 24464 24465 24466 24467 24468 24469 24470 24471 24472 24473 24474 24475 24476 24477 24478 24479 24480 24481 24482 24483 24484 24485 24486 24487 24488 24489 24490 24491 24492 24493 24494 24495 24496 24497 24498 24499 24500 24501 24502 24503 24504 24505 24506 24507 24508 24509 24510 24511 24512 24513 24514 24515 24516 24517 24518 24519 24520 24521 24522 24523 24524 24525 24526 24527 24528 24529 24530 24531 24532 24533 24534 24535 24536 24537 24538 24539 24540 24541 24542 24543 24544 24545 24546 24547 24548 24549 24550 24551 24552 24553 24554 24555 24556 24557 24558 24559 24560 24561 24562 24563 24564 24565 24566 24567 24568 24569 24570 24571 24572 24573 24574 24575 24576 24577 24578 24579 24580 24581 24582 24583 24584 24585 24586 24587 24588 24589 24590 24591 24592 24593 24594 24595 24596 24597 24598 24599 24600 24601 24602 24603 24604 24605 24606 24607 24608 24609 24610 24611 24612 24613 24614 24615 24616 24617 24618 24619 24620 24621 24622 24623 24624 24625 24626 24627 24628 24629 24630 24631 24632 24633 24634 24635 24636 24637 24638 24639 24640 24641 24642 24643 24644 24645 24646 24647 24648 24649 24650 24651 24652 24653 24654 24655 24656 24657 24658 24659 24660 24661 24662 24663 24664 24665 24666 24667 24668 24669 24670 24671 24672 24673 24674 24675 24676 24677 24678 24679 24680 24681 24682 24683 24684 24685 24686 24687 24688 24689 24690 24691 24692 24693 24694 24695 24696 24697 24698 24699 24700 24701 24702 24703 24704 24705 24706 24707 24708 24709 24710 24711 24712 24713 24714 24715 24716 24717 24718 24719 24720 24721 24722 24723 24724 24725 24726 24727 24728 24729 24730 24731 24732 24733 24734 24735 24736 24737 24738 24739 24740 24741 24742 24743 24744 24745 24746 24747 24748 24749 24750 24751 24752 24753 24754 24755 24756 24757 24758 24759 24760 24761 24762 24763 24764 24765 24766 24767 24768 24769 24770 24771 24772 24773 24774 24775 24776 24777 24778 24779 24780 24781 24782 24783 24784 24785 24786 24787 24788 24789 24790 24791 24792 24793 24794 24795 24796 24797 24798 24799 24800 24801 24802 24803 24804 24805 24806 24807 24808 24809 24810 24811 24812 24813 24814 24815 24816 24817 24818 24819 24820 24821 24822 24823 24824 24825 24826 24827 24828 24829 24830 24831 24832 24833 24834 24835 24836 24837 24838 24839 24840 24841 24842 24843 24844 24845 24846 24847 24848 24849 24850 24851 24852 24853 24854 24855 24856 24857 24858 24859 24860 24861 24862 24863 24864 24865 24866 24867 24868 24869 24870 24871 24872 24873 24874 24875 24876 24877 24878 24879 24880 24881 24882 24883 24884 24885 24886 24887 24888 24889 24890 24891 24892 24893 24894 24895 24896 24897 24898 24899 24900 24901 24902 24903 24904 24905 24906 24907 24908 24909 24910 24911 24912 24913 24914 24915 24916 24917 24918 24919 24920 24921 24922 24923 24924 24925 24926 24927 24928 24929 24930 24931 24932 24933 24934 24935 24936 24937 24938 24939 24940 24941 24942 24943 24944 24945 24946 24947 24948 24949 24950 24951 24952 24953 24954 24955 24956 24957 24958 24959 24960 24961 24962 24963 24964 24965 24966 24967 24968 24969 24970 24971 24972 24973 24974 24975 24976 24977 24978 24979 24980 24981 24982 24983 24984 24985 24986 24987 24988 24989 24990 24991 24992 24993 24994 24995 24996 24997 24998 24999 25000 25001 25002 25003 25004 25005 25006 25007 25008 25009 25010 25011 25012 25013 25014 25015 25016 25017 25018 25019 25020 25021 25022 25023 25024 25025 25026 25027 25028 25029 25030 25031 25032 25033 25034 25035 25036 25037 25038 25039 25040 25041 25042 25043 25044 25045 25046 25047 25048 25049 25050 25051 25052 25053 25054 25055 25056 25057 25058 25059 25060 25061 25062 25063 25064 25065 25066 25067 25068 25069 25070 25071 25072 25073 25074 25075 25076 25077 25078 25079 25080 25081 25082 25083 25084 25085 25086 25087 25088 25089 25090 25091 25092 25093 25094 25095 25096 25097 25098 25099 25100 25101 25102 25103 25104 25105 25106 25107 25108 25109 25110 25111 25112 25113 25114 25115 25116 25117 25118 25119 25120 25121 25122 25123 25124 25125 25126 25127 25128 25129 25130 25131 25132 25133 25134 25135 25136 25137 25138 25139 25140 25141 25142 25143 25144 25145 25146 25147 25148 25149 25150 25151 25152 25153 25154 25155 25156 25157 25158 25159 25160 25161 25162 25163 25164 25165 25166 25167 25168 25169 25170 25171 25172 25173 25174 25175 25176 25177 25178 25179 25180 25181 25182 25183 25184 25185 25186 25187 25188 25189 25190 25191 25192 25193 25194 25195 25196 25197 25198 25199 25200 25201 25202 25203 25204 25205 25206 25207 25208 25209 25210 25211 25212 25213 25214 25215 25216 25217 25218 25219 25220 25221 25222 25223 25224 25225 25226 25227 25228 25229 25230 25231 25232 25233 25234 25235 25236 25237 25238 25239 25240 25241 25242 25243 25244 25245 25246 25247 25248 25249 25250 25251 25252 25253 25254 25255 25256 25257 25258 25259 25260 25261 25262 25263 25264 25265 25266 25267 25268 25269 25270 25271 25272 25273 25274 25275 25276 25277 25278 25279 25280 25281 25282 25283 25284 25285 25286 25287 25288 25289 25290 25291 25292 25293 25294 25295 25296 25297 25298 25299 25300 25301 25302 25303 25304 25305 25306 25307 25308 25309 25310 25311 25312 25313 25314 25315 25316 25317 25318 25319 25320 25321 25322 25323 25324 25325 25326 25327 25328 25329 25330 25331 25332 25333 25334 25335 25336 25337 25338 25339 25340 25341 25342 25343 25344 25345 25346 25347 25348 25349 25350 25351 25352 25353 25354 25355 25356 25357 25358 25359 25360 25361 25362 25363 25364 25365 25366 25367 25368 25369 25370 25371 25372 25373 25374 25375 25376 25377 25378 25379 25380 25381 25382 25383 25384 25385 25386 25387 25388 25389 25390 25391 25392 25393 25394 25395 25396 25397 25398 25399 25400 25401 25402 25403 25404 25405 25406 25407 25408 25409 25410 25411 25412 25413 25414 25415 25416 25417 25418 25419 25420 25421 25422 25423 25424 25425 25426 25427 25428 25429 25430 25431 25432 25433 25434 25435 25436 25437 25438 25439 25440 25441 25442 25443 25444 25445 25446 25447 25448 25449 25450 25451 25452 25453 25454 25455 25456 25457 25458 25459 25460 25461 25462 25463 25464 25465 25466 25467 25468 25469 25470 25471 25472 25473 25474 25475 25476 25477 25478 25479 25480 25481 25482 25483 25484 25485 25486 25487 25488 25489 25490 25491 25492 25493 25494 25495 25496 25497 25498 25499 25500 25501 25502 25503 25504 25505 25506 25507 25508 25509 25510 25511 25512 25513 25514 25515 25516 25517 25518 25519 25520 25521 25522 25523 25524 25525 25526 25527 25528 25529 25530 25531 25532 25533 25534 25535 25536 25537 25538 25539 25540 25541 25542 25543 25544 25545 25546 25547 25548 25549 25550 25551 25552 25553 25554 25555 25556 25557 25558 25559 25560 25561 25562 25563 25564 25565 25566 25567 25568 25569 25570 25571 25572 25573 25574 25575 25576 25577 25578 25579 25580 25581 25582 25583 25584 25585 25586 25587 25588 25589 25590 25591 25592 25593 25594 25595 25596 25597 25598 25599 25600 25601 25602 25603 25604 25605 25606 25607 25608 25609 25610 25611 25612 25613 25614 25615 25616 25617 25618 25619 25620 25621 25622 25623 25624 25625 25626 25627 25628 25629 25630 25631 25632 25633 25634 25635 25636 25637 25638 25639 25640 25641 25642 25643 25644 25645 25646 25647 25648 25649 25650 25651 25652 25653 25654 25655 25656 25657 25658 25659 25660 25661 25662 25663 25664 25665 25666 25667 25668 25669 25670 25671 25672 25673 25674 25675 25676 25677 25678 25679 25680 25681 25682 25683 25684 25685 25686 25687 25688 25689 25690 25691 25692 25693 25694 25695 25696 25697 25698 25699 25700 25701 25702 25703 25704 25705 25706 25707 25708 25709 25710 25711 25712 25713 25714 25715 25716 25717 25718 25719 25720 25721 25722 25723 25724 25725 25726 25727 25728 25729 25730 25731 25732 25733 25734 25735 25736 25737 25738 25739 25740 25741 25742 25743 25744 25745 25746 25747 25748 25749 25750 25751 25752 25753 25754 25755 25756 25757 25758 25759 25760 25761 25762 25763 25764 25765 25766 25767 25768 25769 25770 25771 25772 25773 25774 25775 25776 25777 25778 25779 25780 25781 25782 25783 25784 25785 25786 25787 25788 25789 25790 25791 25792 25793 25794 25795 25796 25797 25798 25799 25800 25801 25802 25803 25804 25805 25806 25807 25808 25809 25810 25811 25812 25813 25814 25815 25816 25817 25818 25819 25820 25821 25822 25823 25824 25825 25826 25827 25828 25829 25830 25831 25832 25833 25834 25835 25836 25837 25838 25839 25840 25841 25842 25843 25844 25845 25846 25847 25848 25849 25850 25851 25852 25853 25854 25855 25856 25857 25858 25859 25860 25861 25862 25863 25864 25865 25866 25867 25868 25869 25870 25871 25872 25873 25874 25875 25876 25877 25878 25879 25880 25881 25882 25883 25884 25885 25886 25887 25888 25889 25890 25891 25892 25893 25894 25895 25896 25897 25898 25899 25900 25901 25902 25903 25904 25905 25906 25907 25908 25909 25910 25911 25912 25913 25914 25915 25916 25917 25918 25919 25920 25921 25922 25923 25924 25925 25926 25927 25928 25929 25930 25931 25932 25933 25934 25935 25936 25937 25938 25939 25940 25941 25942 25943 25944 25945 25946 25947 25948 25949 25950 25951 25952 25953 25954 25955 25956 25957 25958 25959 25960 25961 25962 25963 25964 25965 25966 25967 25968 25969 25970 25971 25972 25973 25974 25975 25976 25977 25978 25979 25980 25981 25982 25983 25984 25985 25986 25987 25988 25989 25990 25991 25992 25993 25994 25995 25996 25997 25998 25999 26000 26001 26002 26003 26004 26005 26006 26007 26008 26009 26010 26011 26012 26013 26014 26015 26016 26017 26018 26019 26020 26021 26022 26023 26024 26025 26026 26027 26028 26029 26030 26031 26032 26033 26034 26035 26036 26037 26038 26039 26040 26041 26042 26043 26044 26045 26046 26047 26048 26049 26050 26051 26052 26053 26054 26055 26056 26057 26058 26059 26060 26061 26062 26063 26064 26065 26066 26067 26068 26069 26070 26071 26072 26073 26074 26075 26076 26077 26078 26079 26080 26081 26082 26083 26084 26085 26086 26087 26088 26089 26090 26091 26092 26093 26094 26095 26096 26097 26098 26099 26100 26101 26102 26103 26104 26105 26106 26107 26108 26109 26110 26111 26112 26113 26114 26115 26116 26117 26118 26119 26120 26121 26122 26123 26124 26125 26126 26127 26128 26129 26130 26131 26132 26133 26134 26135 26136 26137 26138 26139 26140 26141 26142 26143 26144 26145 26146 26147 26148 26149 26150 26151 26152 26153 26154 26155 26156 26157 26158 26159 26160 26161 26162 26163 26164 26165 26166 26167 26168 26169 26170 26171 26172 26173 26174 26175 26176 26177 26178 26179 26180 26181 26182 26183 26184 26185 26186 26187 26188 26189 26190 26191 26192 26193 26194 26195 26196 26197 26198 26199 26200 26201 26202 26203 26204 26205 26206 26207 26208 26209 26210 26211 26212 26213 26214 26215 26216 26217 26218 26219 26220 26221 26222 26223 26224 26225 26226 26227 26228 26229 26230 26231 26232 26233 26234 26235 26236 26237 26238 26239 26240 26241 26242 26243 26244 26245 26246 26247 26248 26249 26250 26251 26252 26253 26254 26255 26256 26257 26258 26259 26260 26261 26262 26263 26264 26265 26266 26267 26268 26269 26270 26271 26272 26273 26274 26275 26276 26277 26278 26279 26280 26281 26282 26283 26284 26285 26286 26287 26288 26289 26290 26291 26292 26293 26294 26295 26296 26297 26298 26299 26300 26301 26302 26303 26304 26305 26306 26307 26308 26309 26310 26311 26312 26313 26314 26315 26316 26317 26318 26319 26320 26321 26322 26323 26324 26325 26326 26327 26328 26329 26330 26331 26332 26333 26334 26335 26336 26337 26338 26339 26340 26341 26342 26343 26344 26345 26346 26347 26348 26349 26350 26351 26352 26353 26354 26355 26356 26357 26358 26359 26360 26361 26362 26363 26364 26365 26366 26367 26368 26369 26370 26371 26372 26373 26374 26375 26376 26377 26378 26379 26380 26381 26382 26383 26384 26385 26386 26387 26388 26389 26390 26391 26392 26393 26394 26395 26396 26397 26398 26399 26400 26401 26402 26403 26404 26405 26406 26407 26408 26409 26410 26411 26412 26413 26414 26415 26416 26417 26418 26419 26420 26421 26422 26423 26424 26425 26426 26427 26428 26429 26430 26431 26432 26433 26434 26435 26436 26437 26438 26439 26440 26441 26442 26443 26444 26445 26446 26447 26448 26449 26450 26451 26452 26453 26454 26455 26456 26457 26458 26459 26460 26461 26462 26463 26464 26465 26466 26467 26468 26469 26470 26471 26472 26473 26474 26475 26476 26477 26478 26479 26480 26481 26482 26483 26484 26485 26486 26487 26488 26489 26490 26491 26492 26493 26494 26495 26496 26497 26498 26499 26500 26501 26502 26503 26504 26505 26506 26507 26508 26509 26510 26511 26512 26513 26514 26515 26516 26517 26518 26519 26520 26521 26522 26523 26524 26525 26526 26527 26528 26529 26530 26531 26532 26533 26534 26535 26536 26537 26538 26539 26540 26541 26542 26543 26544 26545 26546 26547 26548 26549 26550 26551 26552 26553 26554 26555 26556 26557 26558 26559 26560 26561 26562 26563 26564 26565 26566 26567 26568 26569 26570 26571 26572 26573 26574 26575 26576 26577 26578 26579 26580 26581 26582 26583 26584 26585 26586 26587 26588 26589 26590 26591 26592 26593 26594 26595 26596 26597 26598 26599 26600 26601 26602 26603 26604 26605 26606 26607 26608 26609 26610 26611 26612 26613 26614 26615 26616 26617 26618 26619 26620 26621 26622 26623 26624 26625 26626 26627 26628 26629 26630 26631 26632 26633 26634 26635 26636 26637 26638 26639 26640 26641 26642 26643 26644 26645 26646 26647 26648 26649 26650 26651 26652 26653 26654 26655 26656 26657 26658 26659 26660 26661 26662 26663 26664 26665 26666 26667 26668 26669 26670 26671 26672 26673 26674 26675 26676 26677 26678 26679 26680 26681 26682 26683 26684 26685 26686 26687 26688 26689 26690 26691 26692 26693 26694 26695 26696 26697 26698 26699 26700 26701 26702 26703 26704 26705 26706 26707 26708 26709 26710 26711 26712 26713 26714 26715 26716 26717 26718 26719 26720 26721 26722 26723 26724 26725 26726 26727 26728 26729 26730 26731 26732 26733 26734 26735 26736 26737 26738 26739 26740 26741 26742 26743 26744 26745 26746 26747 26748 26749 26750 26751 26752 26753 26754 26755 26756 26757 26758 26759 26760 26761 26762 26763 26764 26765 26766 26767 26768 26769 26770 26771 26772 26773 26774 26775 26776 26777 26778 26779 26780 26781 26782 26783 26784 26785 26786 26787 26788 26789 26790 26791 26792 26793 26794 26795 26796 26797 26798 26799 26800 26801 26802 26803 26804 26805 26806 26807 26808 26809 26810 26811 26812 26813 26814 26815 26816 26817 26818 26819 26820 26821 26822 26823 26824 26825 26826 26827 26828 26829 26830 26831 26832 26833 26834 26835 26836 26837 26838 26839 26840 26841 26842 26843 26844 26845 26846 26847 26848 26849 26850 26851 26852 26853 26854 26855 26856 26857 26858 26859 26860 26861 26862 26863 26864 26865 26866 26867 26868 26869 26870 26871 26872 26873 26874 26875 26876 26877 26878 26879 26880 26881 26882 26883 26884 26885 26886 26887 26888 26889 26890 26891 26892 26893 26894 26895 26896 26897 26898 26899 26900 26901 26902 26903 26904 26905 26906 26907 26908 26909 26910 26911 26912 26913 26914 26915 26916 26917 26918 26919 26920 26921 26922 26923 26924 26925 26926 26927 26928 26929 26930 26931 26932 26933 26934 26935 26936 26937 26938 26939 26940 26941 26942 26943 26944 26945 26946 26947 26948 26949 26950 26951 26952 26953 26954 26955 26956 26957 26958 26959 26960 26961 26962 26963 26964 26965 26966 26967 26968 26969 26970 26971 26972 26973 26974 26975 26976 26977 26978 26979 26980 26981 26982 26983 26984 26985 26986 26987 26988 26989 26990 26991 26992 26993 26994 26995 26996 26997 26998 26999 27000 27001 27002 27003 27004 27005 27006 27007 27008 27009 27010 27011 27012 27013 27014 27015 27016 27017 27018 27019 27020 27021 27022 27023 27024 27025 27026 27027 27028 27029 27030 27031 27032 27033 27034 27035 27036 27037 27038 27039 27040 27041 27042 27043 27044 27045 27046 27047 27048 27049 27050 27051 27052 27053 27054 27055 27056 27057 27058 27059 27060 27061 27062 27063 27064 27065 27066 27067 27068 27069 27070 27071 27072 27073 27074 27075 27076 27077 27078 27079 27080 27081 27082 27083 27084 27085 27086 27087 27088 27089 27090 27091 27092 27093 27094 27095 27096 27097 27098 27099 27100 27101 27102 27103 27104 27105 27106 27107 27108 27109 27110 27111 27112 27113 27114 27115 27116 27117 27118 27119 27120 27121 27122 27123 27124 27125 27126 27127 27128 27129 27130 27131 27132 27133 27134 27135 27136 27137 27138 27139 27140 27141 27142 27143 27144 27145 27146 27147 27148 27149 27150 27151 27152 27153 27154 27155 27156 27157 27158 27159 27160 27161 27162 27163 27164 27165 27166 27167 27168 27169 27170 27171 27172 27173 27174 27175 27176 27177 27178 27179 27180 27181 27182 27183 27184 27185 27186 27187 27188 27189 27190 27191 27192 27193 27194 27195 27196 27197 27198 27199 27200 27201 27202 27203 27204 27205 27206 27207 27208 27209 27210 27211 27212 27213 27214 27215 27216 27217 27218 27219 27220 27221 27222 27223 27224 27225 27226 27227 27228 27229 27230 27231 27232 27233 27234 27235 27236 27237 27238 27239 27240 27241 27242 27243 27244 27245 27246 27247 27248 27249 27250 27251 27252 27253 27254 27255 27256 27257 27258 27259 27260 27261 27262 27263 27264 27265 27266 27267 27268 27269 27270 27271 27272 27273 27274 27275 27276 27277 27278 27279 27280 27281 27282 27283 27284 27285 27286 27287 27288 27289 27290 27291 27292 27293 27294 27295 27296 27297 27298 27299 27300 27301 27302 27303 27304 27305 27306 27307 27308 27309 27310 27311 27312 27313 27314 27315 27316 27317 27318 27319 27320 27321 27322 27323 27324 27325 27326 27327 27328 27329 27330 27331 27332 27333 27334 27335 27336 27337 27338 27339 27340 27341 27342 27343 27344 27345 27346 27347 27348 27349 27350 27351 27352 27353 27354 27355 27356 27357 27358 27359 27360 27361 27362 27363 27364 27365 27366 27367 27368 27369 27370 27371 27372 27373 27374 27375 27376 27377 27378 27379 27380 27381 27382 27383 27384 27385 27386 27387 27388 27389 27390 27391 27392 27393 27394 27395 27396 27397 27398 27399 27400 27401 27402 27403 27404 27405 27406 27407 27408 27409 27410 27411 27412 27413 27414 27415 27416 27417 27418 27419 27420 27421 27422 27423 27424 27425 27426 27427 27428 27429 27430 27431 27432 27433 27434 27435 27436 27437 27438 27439 27440 27441 27442 27443 27444 27445 27446 27447 27448 27449 27450 27451 27452 27453 27454 27455 27456 27457 27458 27459 27460 27461 27462 27463 27464 27465 27466 27467 27468 27469 27470 27471 27472 27473 27474 27475 27476 27477 27478 27479 27480 27481 27482 27483 27484 27485 27486 27487 27488 27489 27490 27491 27492 27493 27494 27495 27496 27497 27498 27499 27500 27501 27502 27503 27504 27505 27506 27507 27508 27509 27510 27511 27512 27513 27514 27515 27516 27517 27518 27519 27520 27521 27522 27523 27524 27525 27526 27527 27528 27529 27530 27531 27532 27533 27534 27535 27536 27537 27538 27539 27540 27541 27542 27543 27544 27545 27546 27547 27548 27549 27550 27551 27552 27553 27554 27555 27556 27557 27558 27559 27560 27561 27562 27563 27564 27565 27566 27567 27568 27569 27570 27571 27572 27573 27574 27575 27576 27577 27578 27579 27580 27581 27582 27583 27584 27585 27586 27587 27588 27589 27590 27591 27592 27593 27594 27595 27596 27597 27598 27599 27600 27601 27602 27603 27604 27605 27606 27607 27608 27609 27610 27611 27612 27613 27614 27615 27616 27617 27618 27619 27620 27621 27622 27623 27624 27625 27626 27627 27628 27629 27630 27631 27632 27633 27634 27635 27636 27637 27638 27639 27640 27641 27642 27643 27644 27645 27646 27647 27648 27649 27650 27651 27652 27653 27654 27655 27656 27657 27658 27659 27660 27661 27662 27663 27664 27665 27666 27667 27668 27669 27670 27671 27672 27673 27674 27675 27676 27677 27678 27679 27680 27681 27682 27683 27684 27685 27686 27687 27688 27689 27690 27691 27692 27693 27694 27695 27696 27697 27698 27699 27700 27701 27702 27703 27704 27705 27706 27707 27708 27709 27710 27711 27712 27713 27714 27715 27716 27717 27718 27719 27720 27721 27722 27723 27724 27725 27726 27727 27728 27729 27730 27731 27732 27733 27734 27735 27736 27737 27738 27739 27740 27741 27742 27743 27744 27745 27746 27747 27748 27749 27750 27751 27752 27753 27754 27755 27756 27757 27758 27759 27760 27761 27762 27763 27764 27765 27766 27767 27768 27769 27770 27771 27772 27773 27774 27775 27776 27777 27778 27779 27780 27781 27782 27783 27784 27785 27786 27787 27788 27789 27790 27791 27792 27793 27794 27795 27796 27797 27798 27799 27800 27801 27802 27803 27804 27805 27806 27807 27808 27809 27810 27811 27812 27813 27814 27815 27816 27817 27818 27819 27820 27821 27822 27823 27824 27825 27826 27827 27828 27829 27830 27831 27832 27833 27834 27835 27836 27837 27838 27839 27840 27841 27842 27843 27844 27845 27846 27847 27848 27849 27850 27851 27852 27853 27854 27855 27856 27857 27858 27859 27860 27861 27862 27863 27864 27865 27866 27867 27868 27869 27870 27871 27872 27873 27874 27875 27876 27877 27878 27879 27880 27881 27882 27883 27884 27885 27886 27887 27888 27889 27890 27891 27892 27893 27894 27895 27896 27897 27898 27899 27900 27901 27902 27903 27904 27905 27906 27907 27908 27909 27910 27911 27912 27913 27914 27915 27916 27917 27918 27919 27920 27921 27922 27923 27924 27925 27926 27927 27928 27929 27930 27931 27932 27933 27934 27935 27936 27937 27938 27939 27940 27941 27942 27943 27944 27945 27946 27947 27948 27949 27950 27951 27952 27953 27954 27955 27956 27957 27958 27959 27960 27961 27962 27963 27964 27965 27966 27967 27968 27969 27970 27971 27972 27973 27974 27975 27976 27977 27978 27979 27980 27981 27982 27983 27984 27985 27986 27987 27988 27989 27990 27991 27992 27993 27994 27995 27996 27997 27998 27999 28000 28001 28002 28003 28004 28005 28006 28007 28008 28009 28010 28011 28012 28013 28014 28015 28016 28017 28018 28019 28020 28021 28022 28023 28024 28025 28026 28027 28028 28029 28030 28031 28032 28033 28034 28035 28036 28037 28038 28039 28040 28041 28042 28043 28044 28045 28046 28047 28048 28049 28050 28051 28052 28053 28054 28055 28056 28057 28058 28059 28060 28061 28062 28063 28064 28065 28066 28067 28068 28069 28070 28071 28072 28073 28074 28075 28076 28077 28078 28079 28080 28081 28082 28083 28084 28085 28086 28087 28088 28089 28090 28091 28092 28093 28094 28095 28096 28097 28098 28099 28100 28101 28102 28103 28104 28105 28106 28107 28108 28109 28110 28111 28112 28113 28114 28115 28116 28117 28118 28119 28120 28121 28122 28123 28124 28125 28126 28127 28128 28129 28130 28131 28132 28133 28134 28135 28136 28137 28138 28139 28140 28141 28142 28143 28144 28145 28146 28147 28148 28149 28150 28151 28152 28153 28154 28155 28156 28157 28158 28159 28160 28161 28162 28163 28164 28165 28166 28167 28168 28169 28170 28171 28172 28173 28174 28175 28176 28177 28178 28179 28180 28181 28182 28183 28184 28185 28186 28187 28188 28189 28190 28191 28192 28193 28194 28195 28196 28197 28198 28199 28200 28201 28202 28203 28204 28205 28206 28207 28208 28209 28210 28211 28212 28213 28214 28215 28216 28217 28218 28219 28220 28221 28222 28223 28224 28225 28226 28227 28228 28229 28230 28231 28232 28233 28234 28235 28236 28237 28238 28239 28240 28241 28242 28243 28244 28245 28246 28247 28248 28249 28250 28251 28252 28253 28254 28255 28256 28257 28258 28259 28260 28261 28262 28263 28264 28265 28266 28267 28268 28269 28270 28271 28272 28273 28274 28275 28276 28277 28278 28279 28280 28281 28282 28283 28284 28285 28286 28287 28288 28289 28290 28291 28292 28293 28294 28295 28296 28297 28298 28299 28300 28301 28302 28303 28304 28305 28306 28307 28308 28309 28310 28311 28312 28313 28314 28315 28316 28317 28318 28319 28320 28321 28322 28323 28324 28325 28326 28327 28328 28329 28330 28331 28332 28333 28334 28335 28336 28337 28338 28339 28340 28341 28342 28343 28344 28345 28346 28347 28348 28349 28350 28351 28352 28353 28354 28355 28356 28357 28358 28359 28360 28361 28362 28363 28364 28365 28366 28367 28368 28369 28370 28371 28372 28373 28374 28375 28376 28377 28378 28379 28380 28381 28382 28383 28384 28385 28386 28387 28388 28389 28390 28391 28392 28393 28394 28395 28396 28397 28398 28399 28400 28401 28402 28403 28404 28405 28406 28407 28408 28409 28410 28411 28412 28413 28414 28415 28416 28417 28418 28419 28420 28421 28422 28423 28424 28425 28426 28427 28428 28429 28430 28431 28432 28433 28434 28435 28436 28437 28438 28439 28440 28441 28442 28443 28444 28445 28446 28447 28448 28449 28450 28451 28452 28453 28454 28455 28456 28457 28458 28459 28460 28461 28462 28463 28464 28465 28466 28467 28468 28469 28470 28471 28472 28473 28474 28475 28476 28477 28478 28479 28480 28481 28482 28483 28484 28485 28486 28487 28488 28489 28490 28491 28492 28493 28494 28495 28496 28497 28498 28499 28500 28501 28502 28503 28504 28505 28506 28507 28508 28509 28510 28511 28512 28513 28514 28515 28516 28517 28518 28519 28520 28521 28522 28523 28524 28525 28526 28527 28528 28529 28530 28531 28532 28533 28534 28535 28536 28537 28538 28539 28540 28541 28542 28543 28544 28545 28546 28547 28548 28549 28550 28551 28552 28553 28554 28555 28556 28557 28558 28559 28560 28561 28562 28563 28564 28565 28566 28567 28568 28569 28570 28571 28572 28573 28574 28575 28576 28577 28578 28579 28580 28581 28582 28583 28584 28585 28586 28587 28588 28589 28590 28591 28592 28593 28594 28595 28596 28597 28598 28599 28600 28601 28602 28603 28604 28605 28606 28607 28608 28609 28610 28611 28612 28613 28614 28615 28616 28617 28618 28619 28620 28621 28622 28623 28624 28625 28626 28627 28628 28629 28630 28631 28632 28633 28634 28635 28636 28637 28638 28639 28640 28641 28642 28643 28644 28645 28646 28647 28648 28649 28650 28651 28652 28653 28654 28655 28656 28657 28658 28659 28660 28661 28662 28663 28664 28665 28666 28667 28668 28669 28670 28671 28672 28673 28674 28675 28676 28677 28678 28679 28680 28681 28682 28683 28684 28685 28686 28687 28688 28689 28690 28691 28692 28693 28694 28695 28696 28697 28698 28699 28700 28701 28702 28703 28704 28705 28706 28707 28708 28709 28710 28711 28712 28713 28714 28715 28716 28717 28718 28719 28720 28721 28722 28723 28724 28725 28726 28727 28728 28729 28730 28731 28732 28733 28734 28735 28736 28737 28738 28739 28740 28741 28742 28743 28744 28745 28746 28747 28748 28749 28750 28751 28752 28753 28754 28755 28756 28757 28758 28759 28760 28761 28762 28763 28764 28765 28766 28767 28768 28769 28770 28771 28772 28773 28774 28775 28776 28777 28778 28779 28780 28781 28782 28783 28784 28785 28786 28787 28788 28789 28790 28791 28792 28793 28794 28795 28796 28797 28798 28799 28800 28801 28802 28803 28804 28805 28806 28807 28808 28809 28810 28811 28812 28813 28814 28815 28816 28817 28818 28819 28820 28821 28822 28823 28824 28825 28826 28827 28828 28829 28830 28831 28832 28833 28834 28835 28836 28837 28838 28839 28840 28841 28842 28843 28844 28845 28846 28847 28848 28849 28850 28851 28852 28853 28854 28855 28856 28857 28858 28859 28860 28861 28862 28863 28864 28865 28866 28867 28868 28869 28870 28871 28872 28873 28874 28875 28876 28877 28878 28879 28880 28881 28882 28883 28884 28885 28886 28887 28888 28889 28890 28891 28892 28893 28894 28895 28896 28897 28898 28899 28900 28901 28902 28903 28904 28905 28906 28907 28908 28909 28910 28911 28912 28913 28914 28915 28916 28917 28918 28919 28920 28921 28922 28923 28924 28925 28926 28927 28928 28929 28930 28931 28932 28933 28934 28935 28936 28937 28938 28939 28940 28941 28942 28943 28944 28945 28946 28947 28948 28949 28950 28951 28952 28953 28954 28955 28956 28957 28958 28959 28960 28961 28962 28963 28964 28965 28966 28967 28968 28969 28970 28971 28972 28973 28974 28975 28976 28977 28978 28979 28980 28981 28982 28983 28984 28985 28986 28987 28988 28989 28990 28991 28992 28993 28994 28995 28996 28997 28998 28999 29000 29001 29002 29003 29004 29005 29006 29007 29008 29009 29010 29011 29012 29013 29014 29015 29016 29017 29018 29019 29020 29021 29022 29023 29024 29025 29026 29027 29028 29029 29030 29031 29032 29033 29034 29035 29036 29037 29038 29039 29040 29041 29042 29043 29044 29045 29046 29047 29048 29049 29050 29051 29052 29053 29054 29055 29056 29057 29058 29059 29060 29061 29062 29063 29064 29065 29066 29067 29068 29069 29070 29071 29072 29073 29074 29075 29076 29077 29078 29079 29080 29081 29082 29083 29084 29085 29086 29087 29088 29089 29090 29091 29092 29093 29094 29095 29096 29097 29098 29099 29100 29101 29102 29103 29104 29105 29106 29107 29108 29109 29110 29111 29112 29113 29114 29115 29116 29117 29118 29119 29120 29121 29122 29123 29124 29125 29126 29127 29128 29129 29130 29131 29132 29133 29134 29135 29136 29137 29138 29139 29140 29141 29142 29143 29144 29145 29146 29147 29148 29149 29150 29151 29152 29153 29154 29155 29156 29157 29158 29159 29160 29161 29162 29163 29164 29165 29166 29167 29168 29169 29170 29171 29172 29173 29174 29175 29176 29177 29178 29179 29180 29181 29182 29183 29184 29185 29186 29187 29188 29189 29190 29191 29192 29193 29194 29195 29196 29197 29198 29199 29200 29201 29202 29203 29204 29205 29206 29207 29208 29209 29210 29211 29212 29213 29214 29215 29216 29217 29218 29219 29220 29221 29222 29223 29224 29225 29226 29227 29228 29229 29230 29231 29232 29233 29234 29235 29236 29237 29238 29239 29240 29241 29242 29243 29244 29245 29246 29247 29248 29249 29250 29251 29252 29253 29254 29255 29256 29257 29258 29259 29260 29261 29262 29263 29264 29265 29266 29267 29268 29269 29270 29271 29272 29273 29274 29275 29276 29277 29278 29279 29280 29281 29282 29283 29284 29285 29286 29287 29288 29289 29290 29291 29292 29293 29294 29295 29296 29297 29298 29299 29300 29301 29302 29303 29304 29305 29306 29307 29308 29309 29310 29311 29312 29313 29314 29315 29316 29317 29318 29319 29320 29321 29322 29323 29324 29325 29326 29327 29328 29329 29330 29331 29332 29333 29334 29335 29336 29337 29338 29339 29340 29341 29342 29343 29344 29345 29346 29347 29348 29349 29350 29351 29352 29353 29354 29355 29356 29357 29358 29359 29360 29361 29362 29363 29364 29365 29366 29367 29368 29369 29370 29371 29372 29373 29374 29375 29376 29377 29378 29379 29380 29381 29382 29383 29384 29385 29386 29387 29388 29389 29390 29391 29392 29393 29394 29395 29396 29397 29398 29399 29400 29401 29402 29403 29404 29405 29406 29407 29408 29409 29410 29411 29412 29413 29414 29415 29416 29417 29418 29419 29420 29421 29422 29423 29424 29425 29426 29427 29428 29429 29430 29431 29432 29433 29434 29435 29436 29437 29438 29439 29440 29441 29442 29443 29444 29445 29446 29447 29448 29449 29450 29451 29452 29453 29454 29455 29456 29457 29458 29459 29460 29461 29462 29463 29464 29465 29466 29467 29468 29469 29470 29471 29472 29473 29474 29475 29476 29477 29478 29479 29480 29481 29482 29483 29484 29485 29486 29487 29488 29489 29490 29491 29492 29493 29494 29495 29496 29497 29498 29499 29500 29501 29502 29503 29504 29505 29506 29507 29508 29509 29510 29511 29512 29513 29514 29515 29516 29517 29518 29519 29520 29521 29522 29523 29524 29525 29526 29527 29528 29529 29530 29531 29532 29533 29534 29535 29536 29537 29538 29539 29540 29541 29542 29543 29544 29545 29546 29547 29548 29549 29550 29551 29552 29553 29554 29555 29556 29557 29558 29559 29560 29561 29562 29563 29564 29565 29566 29567 29568 29569 29570 29571 29572 29573 29574 29575 29576 29577 29578 29579 29580 29581 29582 29583 29584 29585 29586 29587 29588 29589 29590 29591 29592 29593 29594 29595 29596 29597 29598 29599 29600 29601 29602 29603 29604 29605 29606 29607 29608 29609 29610 29611 29612 29613 29614 29615 29616 29617 29618 29619 29620 29621 29622 29623 29624 29625 29626 29627 29628 29629 29630 29631 29632 29633 29634 29635 29636 29637 29638 29639 29640 29641 29642 29643 29644 29645 29646 29647 29648 
</DataArray>
<DataArray type="UInt32" Name="offsets" format="ascii">
3 6 9 12 15 17 20 23 26 29 31 34 37 40 43 46 49 51 54 56 59 62 65 68 71 74 77 80 83 86 89 92 95 98 101 104 106 109 112 115 118 121 124 127 130 132 135 138 141 144 147 150 153 156 159 162 164 167 170 173 176 179 182 185 188 191 194 197 200 203 206 209 212 214 216 219 222 225 228 231 233 236 238 241 244 247 250 253 255 258 261 264 266 269 272 274 277 280 283 285 288 290 293 296 299 302 304 307 310 312 315 318 321 324 327 330 333 336 339 342 344 347 350 352 355 358 361 364 366 369 372 375 378 380 383 386 389 392 394 397 400 402 405 408 410 413 416 419 421 424 427 430 433 436 439 441 444 447 450 453 456 459 461 464 467 470 473 476 479 482 485 488 490 493 495 498 501 504 507 510 513 516 518 521 524 527 530 532 535 538 541 544 546 548 551 554 557 560 563 566 569 572 574 577 580 583 586 588 591 593 596 599 602 605 608 610 613 616 619 622 625 628 631 634 637 640 643 646 649 652 655 658 661 664 667 670 672 675 678 681 684 687 689 692 695 698 701 704 707 710 713 716 719 722 725 728 730 733 736 739 741 744 746 749 752 755 757 760 763 766 769 772 775 778 781 783 785 788 791 794 797 800 803 806 809 812 815 818 821 823 826 828 831 834 837 840 843 846 849 852 854 857 860 862 865 868 871 874 876 879 882 885 887 890 893 896 898 901 904 906 909 912 915 918 920 923 926 929 932 935 938 941 944 946 949 952 955 957 960 962 965 968 970 973 976 979 981 984 987 989 992 995 998 1001 1004 1007 1010 1013 1016 1019 1022 1025 1028 1031 1034 1037 1040 1042 1045 1048 1051 1054 1056 1059 1062 1064 1067 1070 1073 1076 1079 1082 1085 1088 1091 1093 1096 1099 1102 1104 1107 1110 1113 1116 1119 1122 1125 1128 1131 1134 1137 1140 1143 1146 1149 1152 1155 1158 1161 1164 1167 1170 1173 1176 1179 1182 1185 1188 1191 1194 1197 1199 1202 1205 1208 1211 1214 1217 1220 1222 1225 1228 1231 1234 1236 1239 1242 1245 1248 1251 1254 1257 1259 1262 1265 1268 1271 1274 1277 1280 1283 1286 1289 1292 1295 1298 1301 1304 1307 1310 1313 1316 1319 1321 1324 1326 1329 1332 1335 1338 1341 1344 1347 1350 1352 1355 1357 1360 1363 1366 1369 1371 1374 1376 1379 1382 1384 1386 1389 1392 1394 1396 1399 1402 1405 1408 1411 1414 1417 1420 1423 1426 1428 1431 1434 1437 1440 1443 1446 1449 1452 1455 1458 1461 1464 1467 1469 1472 1474 1477 1480 1483 1486 1489 1492 1495 1497 1500 1503 1506 1509 1512 1515 1518 1521 1524 1527 1530 1533 1535 1538 1540 1543 1546 1549 1552 1554 1557 1560 1562 1565 1568 1571 1574 1577 1580 1583 1586 1589 1592 1594 1597 1600 1603 1606 1609 1611 1614 1616 1619 1622 1624 1626 1629 1632 1635 1637 1639 1642 1645 1648 1651 1653 1656 1659 1661 1664 1667 1669 1671 1673 1675 1677 1680 1682 1685 1687 1690 1693 1695 1698 1700 1703 1706 1708 1710 1713 1716 1719 1722 1724 1727 1729 1731 1734 1737 1740 1742 1745 1748 1751 1754 1757 1759 1762 1765 1768 1771 1774 1777 1780 1783 1786 1789 1792 1794 1797 1799 1802 1804 1807 1810 1813 1816 1819 1821 1824 1827 1830 1833 1836 1839 1841 1844 1847 1850 1853 1856 1858 1861 1864 1867 1870 1873 1876 1879 1882 1885 1888 1891 1893 1896 1899 1902 1905 1908 1911 1914 1916 1918 1921 1924 1927 1930 1933 1936 1939 1942 1945 1948 1951 1954 1956 1959 1962 1965 1967 1970 1973 1976 1979 1982 1985 1988 1991 1994 1997 2000 2003 2006 2009 2012 2015 2018 2021 2024 2027 2030 2033 2036 2039 2041 2043 2046 2049 2052 2055 2058 2061 2063 2066 2069 2072 2075 2078 2081 2084 2087 2090 2093 2096 2099 2102 2105 2108 2111 2114 2117 2120 2123 2126 2129 2132 2135 2137 2140 2142 2145 2148 2151 2154 2157 2160 2162 2165 2168 2171 2174 2177 2180 2183 2186 2189 2192 2194 2197 2200 2203 2206 2209 2211 2214 2217 2219 2222 2225 2228 2231 2234 2237 2240 2243 2246 2249 2252 2254 2257 2260 2263 2266 2269 2271 2274 2277 2280 2282 2285 2288 2291 2293 2296 2299 2302 2305 2308 2311 2314 2317 2320 2323 2325 2328 2331 2334 2337 2340 2343 2346 2349 2352 2355 2358 2361 2364 2367 2370 2373 2375 2378 2381 2384 2386 2389 2392 2395 2398 2401 2403 2406 2409 2412 2415 2418 2421 2424 2427 2430 2433 2436 2438 2441 2444 2447 2450 2453 2456 2459 2462 2464 2467 2470 2473 2476 2479 2482 2485 2488 2491 2494 2497 2500 2503 2506 2509 2512 2515 2518 2521 2523 2526 2529 2532 2535 2538 2541 2543 2546 2549 2552 2555 2558 2561 2564 2567 2570 2573 2576 2579 2582 2585 2588 2591 2594 2597 2600 2603 2606 2609 2612 2615 2618 2620 2623 2626 2629 2632 2635 2638 2641 2644 2647 2650 2653 2656 2659 2662 2665 2668 2671 2673 2676 2678 2681 2684 2687 2690 2693 2695 2697 2700 2703 2706 2709 2712 2715 2718 2721 2723 2726 2729 2732 2735 2738 2741 2743 2746 2749 2752 2755 2758 2761 2764 2767 2770 2773 2776 2779 2782 2785 2788 2791 2794 2797 2800 2803 2805 2808 2811 2814 2817 2820 2823 2825 2828 2831 2833 2836 2839 2842 2845 2848 2851 2854 2857 2859 2862 2864 2867 2870 2872 2875 2878 2881 2883 2886 2889 2892 2895 2898 2901 2904 2907 2910 2913 2916 2919 2922 2925 2928 2931 2934 2937 2940 2943 2946 2949 2952 2955 2958 2961 2964 2967 2970 2973 2976 2979 2982 2985 2987 2990 2993 2996 2998 3001 3004 3007 3010 3012 3015 3018 3021 3024 3027 3030 3032 3035 3038 3041 3044 3046 3049 3052 3055 3058 3060 3063 3066 3069 3072 3074 3077 3080 3082 3085 3088 3091 3094 3097 3100 3102 3105 3107 3110 3113 3115 3118 3121 3124 3126 3129 3132 3135 3138 3141 3144 3147 3150 3153 3155 3158 3161 3164 3167 3170 3173 3176 3179 3181 3184 3187 3190 3193 3196 3199 3202 3205 3208 3211 3214 3217 3220 3223 3226 3229 3232 3235 3238 3241 3244 3247 3250 3253 3256 3259 3262 3265 3268 3271 3274 3277 3280 3283 3285 3288 3291 3294 3297 3299 3302 3305 3308 3311 3314 3317 3320 3323 3326 3329 3332 3335 3338 3341 3344 3347 3349 3352 3355 3357 3359 3362 3365 3368 3371 3374 3376 3379 3382 3385 3387 3389 3391 3394 3396 3399 3401 3403 3406 3409 3412 3415 3417 3420 3423 3426 3429 3432 3435 3438 3441 3444 3447 3449 3452 3455 3458 3461 3463 3466 3469 3471 3474 3477 3480 3483 3485 3488 3491 3494 3497 3500 3503 3506 3509 3512 3515 3518 3521 3523 3526 3529 3532 3535 3538 3541 3544 3547 3550 3553 3556 3559 3561 3564 3567 3570 3573 3576 3579 3582 3585 3588 3590 3593 3595 3598 3600 3603 3606 3609 3612 3615 3618 3621 3624 3627 3630 3633 3636 3639 3642 3645 3648 3651 3654 3657 3660 3663 3666 3669 3672 3675 3677 3680 3683 3686 3688 3691 3694 3697 3700 3703 3706 3709 3712 3714 3717 3720 3723 3726 3729 3732 3735 3737 3740 3742 3745 3748 3751 3754 3757 3760 3763 3766 3769 3771 3774 3777 3779 3781 3784 3787 3790 3793 3796 3799 3802 3805 3808 3811 3813 3816 3819 3822 3825 3828 3831 3834 3837 3840 3843 3846 3849 3852 3855 3858 3861 3863 3866 3869 3872 3874 3877 3880 3882 3885 3887 3890 3892 3895 3898 3901 3904 3907 3910 3913 3916 3918 3921 3924 3927 3930 3932 3934 3937 3940 3943 3946 3948 3951 3954 3957 3960 3963 3966 3969 3972 3975 3978 3981 3984 3987 3990 3993 3996 3999 4002 4005 4008 4011 4014 4017 4020 4023 4026 4029 4032 4034 4037 4039 4042 4045 4048 4051 4053 4056 4059 4062 4065 4068 4071 4074 4077 4080 4083 4086 4089 4091 4093 4096 4099 4102 4105 4108 4111 4114 4117 4120 4123 4126 4129 4132 4134 4137 4140 4143 4146 4149 4152 4155 4158 4161 4164 4166 4169 4172 4175 4178 4181 4184 4187 4190 4193 4196 4198 4201 4204 4207 4210 4212 4215 4218 4221 4224 4227 4230 4233 4236 4239 4241 4244 4247 4250 4252 4255 4258 4261 4264 4267 4270 4273 4276 4279 4282 4285 4288 4291 4294 4297 4300 4303 4306 4309 4312 4315 4318 4321 4324 4327 4330 4333 4336 4339 4342 4345 4348 4350 4353 4356 4359 4362 4365 4368 4371 4374 4377 4379 4382 4385 4388 4390 4392 4395 4397 4400 4403 4405 4408 4411 4414 4417 4420 4423 4426 4429 4431 4434 4437 4439 4441 4443 4445 4448 4451 4454 4457 4459 4461 4463 4466 4469 4472 4474 4477 4480 4483 4486 4489 4491 4494 4497 4500 4503 4506 4509 4512 4515 4517 4520 4522 4525 4528 4531 4534 4537 4540 4543 4546 4549 4552 4554 4557 4559 4562 4565 4568 4571 4574 4577 4580 4583 4586 4589 4592 4595 4598 4601 4604 4607 4610 4612 4615 4618 4621 4624 4627 4630 4633 4636 4639 4642 4645 4648 4651 4654 4657 4660 4662 4665 4668 4671 4674 4677 4680 4683 4686 4688 4691 4694 4697 4699 4702 4705 4708 4711 4713 4716 4719 4722 4725 4728 4731 4734 4737 4740 4742 4745 4748 4751 4753 4756 4759 4761 4764 4767 4770 4773 4776 4779 4782 4784 4787 4790 4793 4796 4799 4802 4805 4808 4811 4814 4817 4820 4823 4825 4828 4831 4834 4837 4840 4843 4846 4849 4852 4854 4857 4860 4862 4865 4868 4871 4874 4877 4880 4883 4886 4889 4891 4894 4897 4900 4902 4905 4908 4911 4914 4917 4919 4922 4925 4927 4930 4933 4935 4938 4941 4943 4946 4949 4952 4955 4958 4961 4964 4967 4970 4973 4976 4979 4982 4985 4988 4991 4994 4997 5000 5003 5006 5009 5012 5014 5017 5020 5023 5026 5029 5032 5035 5038 5041 5044 5046 5049 5052 5054 5057 5059 5062 5065 5068 5071 5074 5077 5079 5082 5084 5087 5090 5093 5096 5099 5102 5105 5108 5111 5114 5117 5120 5123 5126 5129 5132 5135 5137 5140 5143 5146 5149 5152 5155 5157 5160 5163 5166 5168 5171 5174 5177 5180 5183 5186 5189 5192 5194 5197 5200 5203 5206 5209 5212 5215 5218 5220 5223 5226 5229 5232 5235 5238 5241 5244 5247 5250 5253 5255 5258 5261 5264 5266 5269 5272 5275 5278 5280 5283 5286 5289 5292 5295 5298 5301 5304 5306 5309 5312 5315 5317 5320 5323 5326 5328 5331 5334 5337 5340 5343 5346 5349 5352 5355 5358 5360 5363 5365 5368 5371 5373 5376 5379 5382 5385 5388 5391 5394 5397 5400 5402 5405 5407 5410 5413 5416 5418 5420 5423 5426 5429 5431 5434 5437 5440 5443 5446 5449 5452 5455 5458 5461 5464 5467 5469 5472 5475 5478 5480 5483 5486 5489 5492 5495 5498 5500 5503 5506 5509 5512 5515 5518 5521 5524 5527 5530 5532 5535 5537 5540 5543 5546 5549 5552 5555 5557 5560 5563 5566 5569 5572 5575 5578 5580 5583 5586 5589 5592 5595 5598 5601 5603 5606 5609 5612 5614 5617 5620 5622 5625 5628 5631 5634 5637 5640 5642 5645 5648 5651 5654 5657 5659 5662 5665 5668 5671 5674 5677 5679 5682 5685 5688 5691 5694 5697 5700 5703 5705 5708 5710 5713 5716 5719 5722 5725 5728 5731 5733 5736 5739 5742 5744 5747 5750 5753 5756 5759 5762 5765 5768 5771 5774 5777 5780 5783 5786 5789 5792 5795 5798 5801 5804 5807 5810 5813 5816 5819 5822 5825 5828 5831 5834 5837 5839 5842 5844 5847 5850 5853 5856 5859 5862 5865 5868 5871 5874 5877 5880 5883 5886 5888 5891 5894 5897 5900 5903 5906 5909 5912 5915 5918 5921 5924 5927 5930 5933 5935 5938 5941 5943 5946 5949 5952 5955 5958 5961 5964 5967 5970 5973 5976 5979 5981 5984 5987 5990 5993 5996 5999 6002 6005 6008 6011 6014 6017 6020 6023 6026 6029 6032 6035 6038 6040 6043 6046 6049 6052 6055 6058 6061 6064 6067 6070 6073 6076 6079 6082 6085 6088 6091 6094 6097 6100 6103 6106 6109 6112 6115 6118 6121 6124 6127 6130 6133 6136 6139 6142 6145 6148 6151 6154 6157 6160 6163 6166 6169 6172 6175 6178 6181 6184 6187 6190 6193 6196 6199 6202 6204 6207 6210 6213 6216 6219 6222 6225 6228 6231 6234 6236 6239 6242 6244 6247 6250 6252 6255 6258 6261 6264 6267 6270 6273 6275 6278 6281 6283 6286 6289 6292 6295 6298 6301 6304 6307 6310 6312 6315 6317 6320 6323 6326 6329 6332 6335 6338 6340 6343 6346 6348 6351 6354 6357 6359 6362 6365 6368 6371 6373 6375 6378 6381 6384 6386 6389 6392 6395 6397 6399 6402 6405 6408 6410 6413 6415 6418 6420 6423 6426 6429 6432 6435 6438 6440 6443 6446 6449 6452 6455 6458 6461 6464 6467 6470 6473 6476 6479 6482 6485 6488 6491 6494 6497 6499 6502 6505 6508 6510 6513 6516 6519 6522 6525 6528 6531 6534 6537 6540 6543 6546 6548 6551 6554 6557 6560 6562 6565 6567 6570 6573 6576 6579 6582 6585 6587 6589 6592 6595 6598 6601 6604 6607 6610 6613 6616 6619 6622 6624 6627 6630 6633 6636 6638 6641 6644 6646 6649 6652 6655 6658 6661 6664 6667 6670 6672 6675 6678 6680 6683 6686 6689 6692 6695 6698 6701 6704 6707 6710 6713 6716 6719 6722 6725 6728 6731 6734 6737 6740 6743 6746 6749 6752 6754 6757 6760 6763 6766 6769 6772 6775 6778 6781 6784 6787 6790 6793 6795 6798 6801 6803 6806 6809 6812 6814 6817 6820 6823 6825 6827 6830 6833 6836 6839 6842 6845 6847 6850 6853 6856 6859 6861 6863 6865 6867 6870 6873 6876 6878 6881 6884 6886 6889 6892 6895 6897 6900 6903 6906 6909 6912 6915 6918 6921 6923 6926 6929 6931 6934 6937 6940 6943 6946 6949 6951 6954 6957 6960 6963 6966 6968 6971 6974 6977 6980 6983 6986 6989 6992 6995 6998 7001 7004 7007 7010 7013 7016 7019 7021 7024 7027 7030 7033 7036 7039 7042 7044 7047 7050 7053 7056 7059 7062 7065 7068 7071 7074 7077 7080 7083 7085 7088 7091 7094 7097 7100 7103 7106 7109 7112 7115 7117 7120 7123 7125 7128 7131 7134 7136 7139 7141 7144 7146 7149 7152 7155 7158 7161 7164 7167 7169 7172 7174 7177 7179 7182 7185 7187 7190 7192 7195 7198 7200 7202 7205 7208 7210 7212 7215 7218 7221 7224 7227 7230 7233 7236 7239 7242 7245 7248 7251 7254 7257 7259 7261 7264 7267 7270 7272 7274 7276 7279 7282 7285 7288 7291 7294 7296 7299 7301 7303 7306 7309 7312 7315 7317 7320 7323 7326 7328 7331 7334 7337 7339 7342 7344 7347 7350 7353 7355 7358 7361 7364 7367 7370 7373 7376 7379 7382 7385 7388 7391 7394 7397 7400 7402 7404 7407 7410 7413 7416 7418 7421 7424 7426 7429 7432 7434 7437 7440 7443 7446 7449 7452 7454 7457 7460 7463 7465 7468 7470 7473 7476 7478 7481 7484 7487 7490 7492 7495 7498 7500 7502 7505 7508 7511 7514 7517 7520 7523 7526 7529 7531 7534 7537 7540 7543 7546 7549 7552 7554 7556 7559 7562 7564 7567 7570 7573 7576 7578 7581 7584 7587 7590 7593 7595 7598 7601 7604 7607 7609 7612 7615 7618 7620 7623 7626 7629 7632 7635 7638 7641 7643 7646 7649 7652 7655 7657 7660 7663 7666 7669 7671 7674 7677 7680 7683 7686 7689 7692 7695 7698 7701 7704 7707 7710 7713 7716 7719 7722 7725 7727 7730 7732 7735 7738 7741 7744 7747 7750 7753 7756 7759 7762 7765 7767 7770 7773 7776 7779 7782 7785 7788 7791 7794 7797 7800 7803 7806 7809 7812 7815 7817 7820 7822 7825 7828 7830 7832 7835 7838 7841 7844 7847 7850 7853 7855 7858 7860 7862 7865 7867 7870 7873 7876 7879 7881 7884 7886 7889 7891 7893 7895 7898 7901 7903 7906 7909 7912 7914 7917 7920 7923 7926 7929 7932 7935 7938 7941 7944 7947 7950 7952 7955 7958 7961 7964 7967 7970 7973 7976 7979 7982 7985 7988 7991 7994 7997 8000 8002 8005 8007 8009 8012 8015 8018 8021 8023 8026 8029 8032 8035 8038 8041 8044 8047 8050 8053 8056 8059 8062 8065 8068 8071 8074 8077 8080 8083 8086 8089 8092 8095 8098 8101 8104 8107 8110 8113 8116 8119 8122 8125 8128 8131 8134 8137 8140 8143 8146 8149 8152 8155 8157 8160 8163 8166 8169 8172 8174 8177 8179 8182 8185 8188 8190 8193 8196 8199 8202 8205 8207 8210 8213 8216 8219 8222 8224 8227 8229 8232 8235 8237 8240 8243 8245 8248 8251 8254 8257 8260 8263 8266 8269 8272 8275 8278 8281 8284 8287 8289 8292 8294 8297 8300 8303 8306 8309 8312 8315 8318 8321 8324 8326 8329 8332 8335 8338 8341 8344 8347 8350 8353 8356 8359 8362 8365 8368 8371 8374 8377 8380 8383 8386 8389 8392 8395 8398 8401 8404 8407 8410 8413 8416 8419 8422 8425 8428 8431 8434 8437 8440 8443 8446 8449 8452 8455 8458 8461 8464 8467 8470 8473 8476 8479 8482 8485 8488 8491 8494 8497 8500 8503 8506 8509 8512 8515 8518 8521 8524 8527 8530 8533 8536 8539 8542 8544 8546 8548 8551 8553 8556 8559 8562 8565 8567 8570 8573 8576 8579 8582 8585 8587 8590 8593 8596 8599 8602 8605 8608 8610 8613 8616 8619 8622 8624 8627 8629 8632 8635 8638 8641 8644 8647 8650 8653 8656 8659 8662 8665 8668 8671 8674 8677 8680 8683 8686 8689 8691 8694 8696 8699 8701 8704 8707 8710 8712 8715 8717 8720 8723 8726 8729 8731 8734 8737 8740 8742 8745 8748 8751 8754 8757 8760 8762 8765 8768 8771 8774 8777 8780 8783 8786 8789 8792 8795 8798 8800 8803 8806 8808 8811 8814 8816 8819 8822 8825 8828 8830 8833 8836 8838 8841 8844 8846 8849 8851 8854 8857 8860 8862 8865 8867 8870 8873 8875 8877 8880 8883 8885 8888 8891 8893 8895 8898 8901 8903 8906 8908 8911 8914 8917 8919 8922 8924 8927 8930 8932 8935 8938 8941 8944 8947 8950 8953 8956 8959 8962 8965 8968 8971 8974 8977 8980 8983 8986 8989 8992 8995 8997 9000 9003 9006 9009 9012 9015 9018 9020 9023 9026 9029 9032 9035 9038 9041 9044 9047 9050 9053 9056 9059 9062 9065 9068 9071 9074 9077 9080 9083 9085 9088 9091 9093 9096 9099 9102 9105 9108 9111 9114 9117 9119 9122 9125 9128 9131 9133 9135 9138 9141 9143 9146 9148 9151 9154 9157 9160 9162 9165 9168 9171 9173 9176 9179 9182 9185 9187 9190 9193 9196 9199 9202 9204 9206 9209 9211 9213 9216 9219 9221 9224 9226 9229 9232 9235 9238 9241 9243 9246 9249 9252 9255 9258 9260 9263 9265 9268 9270 9273 9276 9278 9281 9283 9286 9289 9292 9295 9297 9300 9303 9306 9309 9312 9314 9317 9319 9322 9325 9328 9331 9334 9337 9340 9343 9346 9349 9352 9354 9357 9359 9362 9365 9368 9371 9374 9377 9380 9383 9386 9388 9391 9394 9397 9400 9403 9405 9408 9411 9414 9417 9419 9422 9425 9427 9429 9432 9435 9437 9440 9443 9446 9449 9452 9455 9458 9461 9464 9467 9470 9472 9475 9478 9481 9484 9487 9490 9493 9496 9499 9502 9505 9508 9510 9513 9516 9519 9522 9525 9527 9530 9533 9536 9539 9542 9545 9548 9550 9553 9556 9559 9562 9565 9568 9571 9574 9576 9579 9582 9585 9588 9590 9593 9596 9599 9602 9605 9608 9610 9613 9616 9619 9622 9624 9627 9630 9633 9635 9637 9639 9642 9645 9648 9651 9654 9657 9660 9663 9666 9669 9671 9674 9676 9679 9682 9684 9687 9690 9693 9696 9699 9702 9705 9707 9710 9713 9715 9718 9720 9723 9726 9729 9732 9735 9738 9741 9743 9746 9749 9752 9754 9757 9760 9763 9766 9769 9772 9775 9778 9781 9784 9787 9790 9792 9795 9798 9801 9804 9807 9810 9813 9816 9819 9822 9825 9828 9831 9834 9837 9840 9843 9846 9849 9852 9855 9858 9861 9864 9867 9870 9873 9875 9877 9880 9883 9885 9888 9891 9894 9897 9900 9902 9905 9908 9911 9913 9916 9919 9922 9925 9928 9931 9934 9937 9940 9942 9945 9948 9951 9954 9957 9960 9963 9966 9969 9972 9975 9978 9981 9984 9986 9989 9992 9995 9998 10001 10004 10007 10010 10013 10016 10019 10022 10024 10027 10030 10033 10036 10039 10042 10045 10047 10050 10053 10056 10059 10062 10065 10068 10071 10074 10077 10080 10083 10086 10089 10092 10095 10098 10101 10104 10107 10110 10113 10116 10119 10122 10125 10128 10131 10134 10137 10140 10143 10146 10149 10152 10155 10158 10161 10164 10167 10170 10173 10176 10179 10182 10185 10188 10191 10194 10197 10199 10202 10205 10208 10210 10213 10215 10218 10221 10224 10227 10230 10233 10236 10239 10241 10244 10247 10250 10253 10256 10259 10262 10265 10267 10269 10272 10275 10278 10281 10284 10287 10290 10293 10296 10299 10301 10303 10305 10308 10311 10314 10316 10319 10322 10325 10328 10330 10333 10336 10339 10342 10345 10348 10351 10354 10357 10360 10363 10366 10368 10371 10374 10377 10380 10383 10386 10389 10392 10394 10396 10399 10402 10404 10407 10410 10413 10416 10419 10422 10425 10428 10431 10434 10437 10440 10443 10445 10448 10451 10454 10457 10460 10462 10465 10468 10471 10474 10476 10479 10482 10485 10488 10490 10493 10496 10498 10501 10504 10507 10509 10512 10515 10518 10521 10524 10527 10530 10533 10535 10538 10541 10544 10546 10549 10552 10555 10557 10559 10562 10565 10567 10570 10573 10575 10578 10581 10583 10586 10588 10591 10594 10597 10600 10603 10606 10609 10612 10615 10618 10621 10624 10626 10629 10632 10635 10638 10641 10644 10647 10650 10652 10655 10658 10660 10663 10666 10669 10672 10674 10677 10680 10683 10686 10689 10692 10695 10698 10701 10703 10706 10709 10712 10715 10718 10721 10724 10727 10729 10732 10735 10738 10740 10743 10746 10749 10751 10754 10757 10760 10762 10765 10768 10771 10774 10777 10780 10783 10786 10789 10792 10795 10797 10800 10803 10806 10808 10811 10814 10817 10820 10823 10826 10829 10831 10834 10837 10840 10843 10846 10848 10851 10854 10857 10859 10862 10865 10868 10871 10874 10877 10880 10883 10886 10889 10892 10895 10897 10900 10903 10905 10908 10910 10913 10916 10919 10922 10925 10928 10931 10934 10937 10940 10942 10944 10947 10950 10953 10956 10959 10961 10964 10966 10968 10971 10973 10976 10978 10981 10984 10987 10990 10993 10996 10999 11002 11005 11008 11011 11014 11017 11020 11023 11026 11029 11032 11035 11038 11041 11044 11046 11049 11052 11055 11058 11061 11064 11067 11070 11072 11075 11078 11081 11084 11086 11089 11092 11095 11098 11101 11104 11107 11110 11113 11115 11118 11120 11123 11126 11129 11132 11135 11138 11141 11144 11147 11150 11153 11156 11158 11161 11164 11167 11170 11173 11176 11179 11182 11185 11187 11190 11192 11195 11198 11200 11203 11206 11208 11211 11214 11216 11219 11222 11225 11228 11230 11233 11236 11239 11242 11245 11248 11251 11254 11257 11260 11263 11266 11269 11272 11275 11278 11281 11284 11287 11290 11293 11295 11298 11301 11303 11306 11309 11311 11313 11316 11319 11322 11325 11327 11330 11333 11335 11338 11341 11344 11347 11350 11353 11356 11358 11361 11364 11367 11370 11373 11376 11378 11381 11384 11387 11389 11392 11394 11396 11399 11402 11405 11408 11411 11414 11417 11419 11422 11425 11428 11431 11434 11437 11440 11442 11445 11448 11451 11454 11457 11460 11463 11466 11469 11472 11475 11478 11481 11484 11487 11490 11492 11495 11498 11501 11504 11506 11509 11512 11515 11518 11521 11524 11527 11530 11533 11536 11539 11542 11545 11548 11551 11554 11557 11560 11562 11564 11566 11569 11571 11574 11576 11579 11582 11585 11588 11590 11593 11596 11599 11602 11605 11608 11611 11613 11616 11619 11622 11625 11628 11631 11634 11636 11639 11642 11644 11647 11650 11653 11656 11659 11662 11665 11668 11670 11673 11676 11679 11681 11684 11687 11690 11693 11696 11698 11701 11704 11706 11709 11712 11715 11718 11720 11723 11726 11728 11731 11733 11736 11739 11742 11745 11748 11751 11754 11757 11760 11763 11766 11769 11771 11774 11777 11780 11783 11786 11788 11791 11794 11797 11800 11803 11806 11809 11811 11814 11817 11820 11822 11825 11828 11831 11834 11836 11839 11842 11845 11847 11850 11853 11856 11859 11862 11864 11867 11870 11873 11876 11879 11882 11885 11888 11891 11894 11897 11900 11902 11905 11908 11911 11914 11917 11920 11922 11925 11928 11930 11933 11935 11938 11941 11943 11946 11949 11952 11955 11958 11961 11964 11967 11970 11973 11976 11979 11982 11985 11987 11990 11993 11995 11998 12000 12003 12006 12009 12012 12015 12017 12020 12023 12026 12029 12032 12035 12038 12041 12044 12047 12050 12053 12056 12059 12062 12065 12068 12071 12074 12077 12080 12083 12085 12087 12090 12093 12096 12099 12102 12105 12107 12110 12113 12115 12118 12121 12124 12127 12129 12132 12134 12137 12139 12141 12144 12147 12150 12153 12156 12158 12161 12164 12166 12169 12172 12175 12178 12181 12183 12186 12188 12191 12194 12196 12199 12201 12204 12207 12210 12213 12216 12219 12222 12225 12228 12231 12234 12237 12240 12243 12246 12249 12252 12255 12258 12261 12264 12267 12270 12273 12276 12279 12282 12285 12288 12291 12294 12297 12300 12303 12306 12309 12312 12314 12317 12319 12322 12324 12327 12330 12333 12335 12338 12341 12344 12347 12350 12353 12355 12358 12361 12364 12367 12370 12373 12376 12379 12382 12385 12388 12391 12394 12397 12400 12403 12406 12409 12412 12415 12417 12420 12423 12426 12429 12432 12435 12438 12441 12444 12447 12450 12453 12456 12458 12460 12463 12466 12469 12472 12475 12478 12481 12484 12487 12490 12493 12495 12498 12501 12504 12506 12509 12512 12515 12518 12521 12524 12527 12530 12533 12536 12539 12542 12545 12548 12551 12554 12557 12560 12563 12565 12568 12570 12573 12576 12579 12582 12585 12588 12591 12594 12597 12600 12603 12606 12609 12611 12614 12617 12620 12623 12626 12629 12632 12635 12638 12641 12643 12646 12649 12651 12654 12657 12660 12663 12666 12669 12672 12675 12678 12681 12684 12687 12690 12693 12696 12699 12702 12705 12708 12711 12714 12717 12720 12723 12725 12728 12731 12734 12737 12740 12743 12746 12749 12752 12755 12758 12761 12764 12767 12770 12773 12776 12779 12782 12785 12788 12791 12794 12797 12800 12802 12805 12808 12811 12814 12816 12819 12822 12825 12828 12831 12834 12836 12839 12842 12845 12848 12851 12854 12857 12860 12863 12866 12868 12871 12874 12877 12880 12883 12885 12888 12891 12893 12896 12899 12902 12905 12908 12911 12914 12917 12920 12923 12926 12929 12932 12935 12937 12940 12943 12946 12949 12951 12954 12956 12959 12962 12964 12966 12969 12972 12974 12977 12980 12982 12985 12988 12991 12994 12997 13000 13003 13006 13009 13012 13015 13018 13021 13024 13027 13030 13032 13035 13038 13041 13044 13046 13049 13052 13055 13057 13060 13063 13066 13068 13071 13074 13077 13080 13083 13086 13089 13091 13094 13097 13100 13102 13105 13108 13111 13114 13117 13120 13123 13126 13129 13132 13135 13138 13141 13144 13147 13150 13153 13156 13159 13162 13165 13168 13171 13174 13177 13180 13183 13186 13188 13191 13194 13197 13200 13203 13206 13209 13212 13215 13218 13221 13223 13226 13229 13232 13235 13237 13240 13243 13246 13249 13252 13255 13258 13261 13264 13267 13270 13272 13275 13278 13281 13284 13287 13290 13293 13296 13299 13302 13305 13308 13311 13314 13317 13320 13323 13326 13329 13332 13335 13338 13341 13344 13347 13350 13353 13356 13359 13362 13365 13368 13371 13374 13377 13380 13383 13386 13389 13391 13394 13396 13399 13402 13405 13408 13411 13413 13416 13419 13422 13424 13427 13430 13433 13436 13439 13441 13444 13447 13450 13453 13456 13459 13462 13465 13468 13470 13473 13476 13479 13481 13484 13487 13490 13493 13496 13499 13502 13505 13508 13511 13514 13517 13520 13523 13526 13529 13532 13535 13538 13541 13544 13547 13550 13553 13556 13559 13562 13565 13568 13571 13574 13577 13580 13583 13586 13589 13591 13594 13597 13600 13603 13606 13609 13612 13615 13617 13620 13623 13626 13629 13632 13635 13638 13641 13644 13647 13650 13653 13656 13658 13661 13664 13667 13670 13673 13676 13678 13681 13684 13687 13690 13693 13696 13699 13702 13705 13708 13711 13714 13717 13719 13722 13725 13728 13731 13734 13737 13740 13743 13746 13749 13752 13755 13758 13761 13764 13767 13770 13773 13776 13779 13782 13785 13787 13790 13793 13796 13799 13802 13805 13808 13811 13814 13817 13819 13821 13824 13827 13830 13833 13836 13839 13842 13845 13848 13851 13854 13857 13860 13863 13866 13869 13872 13874 13876 13879 13882 13885 13888 13891 13894 13896 13899 13902 13905 13908 13911 13914 13917 13920 13923 13926 13929 13932 13935 13937 13940 13943 13946 13949 13952 13955 13958 13961 13964 13967 13970 13973 13976 13979 13982 13985 13988 13991 13994 13997 14000 14003 14006 14009 14012 14015 14018 14020 14023 14026 14028 14031 14034 14037 14040 14043 14046 14049 14052 14055 14058 14061 14064 14067 14070 14073 14076 14079 14081 14084 14086 14089 14092 14095 14098 14101 14104 14107 14110 14113 14116 14119 14121 14123 14126 14129 14132 14134 14136 14139 14142 14145 14148 14150 14153 14156 14158 14161 14164 14167 14170 14173 14176 14179 14182 14185 14188 14191 14194 14197 14200 14203 14206 14209 14212 14215 14218 14221 14224 14227 14230 14233 14236 14239 14242 14245 14248 14251 14254 14257 14260 14263 14266 14269 14272 14275 14278 14281 14284 14287 14290 14293 14296 14299 14302 14305 14308 14311 14314 14317 14320 14323 14326 14329 14332 14334 14337 14340 14343 14346 14349 14352 14355 14358 14361 14364 14367 14370 14372 14375 14378 14380 14383 14386 14388 14391 14394 14397 14400 14403 14405 14408 14411 14414 14417 14419 14422 14425 14428 14431 14434 14437 14440 14443 14446 14449 14452 14455 14458 14461 14463 14466 14469 14472 14475 14478 14480 14482 14485 14488 14491 14494 14496 14499 14502 14505 14508 14511 14513 14516 14519 14522 14525 14528 14531 14534 14537 14540 14543 14546 14549 14552 14555 14558 14561 14564 14567 14570 14573 14576 14579 14582 14585 14588 14591 14594 14597 14600 14603 14606 14609 14612 14615 14618 14621 14624 14627 14630 14633 14636 14639 14642 14645 14648 14651 14654 14657 14660 14663 14666 14669 14672 14675 14678 14681 14684 14687 14690 14692 14695 14698 14701 14704 14707 14710 14713 14716 14719 14722 14725 14728 14731 14734 14737 14740 14743 14746 14749 14751 14754 14757 14760 14763 14765 14768 14771 14773 14775 14778 14781 14784 14787 14790 14793 14796 14799 14802 14805 14808 14811 14814 14817 14820 14823 14826 14829 14832 14835 14838 14841 14844 14846 14849 14851 14854 14857 14860 14863 14866 14869 14872 14875 14878 14881 14884 14887 14890 14893 14896 14898 14901 14904 14907 14910 14913 14916 14919 14922 14925 14928 14931 14933 14936 14939 14942 14945 14948 14951 14954 14957 14960 14963 14966 14969 14972 14975 14978 14981 14983 14986 14989 14991 14994 14997 15000 15003 15006 15008 15011 15014 15017 15019 15022 15025 15027 15030 15033 15036 15039 15042 15045 15048 15051 15054 15057 15060 15063 15066 15069 15072 15075 15078 15081 15084 15087 15089 15092 15095 15098 15101 15104 15106 15109 15112 15115 15117 15120 15123 15126 15129 15131 15133 15135 15138 15141 15144 15147 15150 15152 15155 15157 15160 15163 15166 15168 15170 15173 15176 15179 15181 15184 15187 15190 15192 15195 15197 15200 15203 15206 15209 15212 15215 15218 15221 15224 15227 15230 15233 15236 15239 15242 15245 15248 15251 15254 15257 15260 15263 15266 15268 15271 15273 15276 15279 15282 15285 15288 15291 15294 15297 15300 15303 15306 15309 15312 15315 15318 15321 15324 15327 15330 15333 15336 15339 15342 15345 15348 15351 15354 15357 15360 15363 15366 15369 15372 15374 15377 15379 15382 15385 15388 15391 15394 15397 15400 15403 15406 15409 15412 15415 15418 15421 15424 15427 15430 15433 15436 15439 15442 15445 15447 15450 15453 15456 15459 15462 15465 15467 15470 15473 15476 15479 15482 15485 15488 15491 15493 15496 15499 15502 15505 15508 15511 15514 15517 15520 15523 15526 15529 15532 15535 15537 15540 15543 15546 15549 15551 15554 15557 15560 15563 15566 15569 15572 15575 15578 15581 15584 15587 15590 15593 15595 15598 15601 15604 15607 15610 15613 15616 15619 15622 15624 15627 15630 15633 15636 15639 15641 15644 15647 15650 15653 15656 15659 15662 15665 15668 15671 15673 15676 15678 15681 15684 15687 15690 15692 15695 15698 15701 15704 15707 15710 15713 15716 15719 15722 15725 15728 15731 15734 15737 15740 15743 15746 15748 15751 15754 15757 15759 15762 15765 15768 15771 15774 15776 15778 15781 15784 15786 15789 15792 15795 15798 15801 15803 15806 15809 15812 15815 15818 15820 15823 15826 15829 15832 15835 15838 15841 15844 15847 15850 15853 15856 15859 15862 15865 15868 15871 15874 15876 15879 15882 15885 15888 15891 15894 15896 15899 15902 15905 15908 15911 15914 15917 15920 15923 15926 15929 15932 15935 15938 15941 15944 15947 15950 15953 15956 15959 15962 15965 15968 15971 15974 15977 15980 15983 15986 15989 15991 15994 15997 16000 16003 16006 16009 16012 16015 16018 16021 16024 16027 16030 16033 16036 16039 16042 16045 16047 16050 16053 16056 16059 16062 16065 16068 16071 16074 16077 16080 16083 16086 16089 16091 16094 16097 16100 16103 16106 16109 16112 16115 16118 16121 16123 16126 16129 16131 16133 16136 16139 16141 16144 16147 16150 16153 16156 16159 16161 16164 16167 16170 16173 16175 16178 16181 16184 16186 16188 16191 16194 16197 16199 16201 16204 16207 16209 16211 16214 16216 16219 16222 16224 16227 16230 16232 16235 16238 16240 16243 16246 16248 16251 16254 16257 16260 16262 16264 16267 16270 16273 16276 16279 16281 16284 16287 16290 16292 16295 16297 16300 16303 16305 16307 16310 16313 16316 16319 16322 16325 16328 16330 16333 16336 16339 16342 16345 16348 16351 16354 16357 16360 16363 16366 16369 16372 16374 16377 16380 16383 16386 16388 16391 16394 16397 16400 16402 16405 16408 16411 16414 16416 16419 16422 16425 16428 16431 16434 16437 16439 16442 16445 16448 16450 16453 16456 16459 16461 16464 16467 16470 16473 16476 16479 16482 16484 16487 16490 16492 16495 16498 16500 16503 16506 16509 16512 16515 16518 16521 16524 16526 16529 16531 16534 16537 16540 16542 16545 16548 16551 16554 16557 16560 16563 16566 16569 16571 16574 16577 16580 16582 16585 16588 16591 16593 16596 16599 16601 16604 16607 16610 16613 16616 16618 16621 16624 16627 16630 16633 16636 16639 16642 16645 16648 16651 16654 16657 16660 16663 16666 16669 16672 16675 16678 16681 16683 16686 16689 16692 16695 16697 16700 16702 16705 16707 16710 16713 16716 16719 16722 16725 16728 16731 16734 16737 16740 16743 16746 16749 16752 16755 16758 16761 16764 16767 16770 16773 16776 16779 16782 16785 16788 16791 16794 16797 16800 16803 16805 16808 16811 16814 16817 16820 16823 16826 16829 16832 16835 16838 16840 16843 16846 16849 16852 16855 16858 16861 16864 16867 16870 16873 16875 16878 16881 16884 16887 16890 16893 16896 16899 16902 16905 16908 16911 16914 16917 16920 16922 16925 16928 16931 16934 16937 16939 16942 16945 16947 16950 16953 16956 16959 16962 16965 16968 16971 16974 16977 16980 16983 16986 16989 16992 16995 16998 17001 17004 17007 17010 17013 17016 17019 17022 17025 17028 17031 17034 17037 17040 17043 17046 17049 17052 17055 17058 17061 17064 17067 17070 17073 17076 17079 17082 17085 17088 17090 17093 17096 17099 17102 17105 17108 17111 17114 17117 17120 17123 17126 17129 17132 17135 17138 17141 17144 17147 17150 17153 17156 17159 17161 17164 17167 17170 17173 17176 17179 17182 17184 17187 17190 17193 17196 17199 17202 17205 17208 17210 17213 17216 17219 17222 17225 17228 17231 17233 17236 17239 17241 17244 17247 17250 17253 17256 17258 17261 17264 17267 17270 17273 17276 17279 17282 17285 17287 17290 17293 17296 17299 17302 17305 17308 17311 17314 17317 17320 17323 17326 17329 17332 17335 17338 17341 17344 17347 17350 17353 17356 17359 17362 17365 17368 17371 17374 17377 17380 17382 17385 17388 17390 17393 17396 17398 17401 17403 17406 17409 17411 17414 17417 17420 17422 17425 17428 17430 17433 17436 17439 17441 17444 17447 17450 17453 17456 17459 17462 17465 17468 17471 17474 17477 17480 17483 17485 17488 17490 17493 17496 17499 17502 17505 17508 17511 17514 17517 17520 17523 17526 17529 17531 17534 17537 17540 17543 17546 17549 17551 17554 17557 17560 17563 17566 17569 17572 17575 17578 17581 17584 17587 17590 17593 17596 17599 17602 17604 17607 17610 17613 17615 17618 17621 17624 17627 17630 17633 17636 17639 17642 17645 17648 17651 17654 17657 17660 17663 17666 17669 17672 17675 17678 17681 17684 17687 17690 17693 17695 17698 17701 17704 17707 17710 17712 17715 17717 17720 17723 17725 17728 17731 17734 17736 17739 17741 17744 17747 17749 17752 17755 17758 17761 17763 17766 17769 17772 17774 17777 17779 17782 17785 17788 17790 17793 17795 17798 17801 17804 17807 17809 17812 17815 17817 17820 17822 17825 17828 17830 17833 17836 17839 17841 17843 17846 17849 17852 17855 17858 17860 17862 17865 17868 17871 17874 17877 17879 17881 17883 17886 17889 17891 17894 17897 17900 17902 17905 17908 17911 17914 17916 17919 17922 17924 17927 17930 17933 17936 17939 17942 17945 17948 17950 17953 17955 17958 17961 17964 17967 17970 17973 17976 17979 17982 17985 17988 17991 17993 17996 17999 18002 18005 18008 18011 18014 18017 18020 18023 18026 18029 18032 18035 18038 18041 18044 18047 18050 18053 18056 18059 18062 18065 18068 18071 18074 18076 18078 18081 18084 18086 18088 18090 18093 18096 18099 18102 18105 18107 18110 18112 18115 18118 18121 18124 18127 18129 18132 18135 18138 18141 18144 18147 18150 18153 18155 18158 18161 18164 18167 18170 18173 18176 18179 18182 18185 18187 18190 18193 18195 18198 18201 18204 18207 18210 18213 18215 18218 18221 18224 18226 18229 18232 18234 18237 18240 18242 18244 18247 18250 18252 18255 18258 18261 18264 18267 18270 18273 18276 18279 18282 18285 18288 18291 18294 18297 18300 18303 18305 18308 18311 18314 18317 18320 18323 18325 18328 18331 18333 18336 18339 18341 18344 18347 18350 18353 18356 18359 18362 18365 18368 18371 18374 18377 18380 18383 18386 18389 18392 18394 18396 18399 18402 18405 18408 18410 18413 18416 18419 18422 18424 18427 18430 18433 18436 18438 18441 18444 18447 18450 18453 18456 18459 18461 18464 18466 18469 18472 18474 18477 18480 18482 18485 18488 18491 18494 18497 18500 18503 18506 18509 18512 18515 18518 18521 18524 18527 18530 18533 18536 18539 18542 18545 18548 18551 18554 18556 18559 18562 18565 18568 18571 18574 18577 18579 18582 18585 18587 18590 18592 18595 18597 18600 18603 18606 18609 18612 18615 18618 18621 18624 18627 18630 18633 18636 18639 18642 18645 18648 18651 18654 18657 18660 18663 18666 18669 18671 18674 18677 18680 18683 18686 18689 18692 18695 18698 18701 18704 18707 18710 18712 18715 18717 18720 18723 18726 18729 18732 18735 18738 18741 18744 18747 18750 18753 18756 18759 18762 18765 18768 18771 18774 18776 18779 18781 18783 18786 18789 18792 18794 18797 18800 18803 18805 18808 18811 18814 18816 18819 18822 18825 18828 18831 18834 18837 18840 18843 18846 18849 18852 18854 18856 18858 18861 18864 18867 18870 18873 18876 18879 18881 18884 18887 18890 18893 18896 18899 18901 18904 18907 18910 18913 18916 18919 18922 18924 18927 18930 18933 18936 18938 18941 18944 18947 18950 18953 18956 18959 18961 18963 18966 18969 18972 18975 18978 18981 18983 18986 18989 18992 18995 18998 19001 19004 19007 19010 19013 19015 19018 19021 19024 19027 19030 19033 19035 19038 19041 19044 19047 19050 19053 19056 19059 19062 19065 19068 19071 19074 19077 19080 19083 19086 19089 19092 19095 19098 19101 19103 19106 19109 19112 19115 19117 19119 19122 19125 19128 19130 19133 19136 19138 19141 19144 19147 19150 19153 19156 19159 19162 19165 19168 19171 19174 19177 19180 19183 19186 19189 19192 19195 19198 19201 19204 19206 19209 19212 19215 19218 19220 19223 19226 19229 19232 19235 19238 19241 19243 19246 19249 19252 19255 19258 19261 19264 19266 19269 19272 19275 19277 19280 19283 19286 19289 19292 19295 19298 19301 19304 19307 19310 19313 19316 19319 19322 19325 19328 19331 19334 19337 19340 19343 19345 19347 19350 19353 19356 19358 19360 19363 19366 19368 19370 19372 19375 19378 19381 19384 19387 19390 19393 19396 19399 19402 19405 19408 19411 19414 19417 19420 19423 19426 19429 19432 19434 19436 19439 19442 19444 19447 19450 19452 19455 19458 19461 19464 19467 19470 19473 19475 19478 19481 19484 19487 19490 19493 19496 19499 19502 19505 19508 19511 19514 19517 19520 19523 19526 19529 19532 19535 19538 19541 19543 19546 19549 19552 19554 19557 19560 19563 19565 19568 19571 19574 19576 19579 19582 19585 19588 19591 19594 19597 19600 19603 19606 19609 19612 19615 19618 19621 19624 19627 19630 19633 19636 19639 19641 19644 19647 19650 19653 19656 19659 19662 19665 19668 19670 19673 19675 19678 19680 19683 19686 19689 19692 19695 19698 19701 19704 19707 19710 19713 19715 19718 19721 19724 19727 19729 19732 19734 19737 19739 19742 19745 19748 19750 19753 19756 19759 19761 19764 19767 19770 19773 19776 19778 19781 19784 19787 19790 19792 19795 19798 19801 19804 19807 19810 19813 19815 19818 19820 19823 19826 19829 19832 19834 19837 19840 19843 19846 19848 19851 19854 19857 19860 19863 19866 19869 19872 19875 19877 19880 19883 19886 19889 19891 19894 19897 19900 19903 19906 19908 19910 19912 19915 19918 19921 19924 19927 19929 19932 19934 19937 19940 19943 19946 19949 19951 19954 19956 19959 19962 19965 19967 19970 19973 19976 19978 19981 19984 19987 19989 19992 19994 19997 20000 20002 20005 20007 20010 20013 20016 20019 20022 20025 20027 20030 20033 20036 20039 20041 20044 20047 20050 20053 20056 20059 20061 20064 20066 20069 20072 20074 20077 20080 20083 20086 20089 20092 20095 20098 20100 20103 20106 20108 20111 20114 20117 20120 20123 20125 20128 20131 20134 20137 20140 20143 20146 20149 20152 20155 20158 20161 20164 20167 20169 20172 20174 20177 20180 20182 20185 20188 20191 20194 20197 20200 20203 20205 20208 20211 20214 20217 20219 20222 20225 20228 20231 20234 20237 20240 20243 20246 20249 20251 20254 20257 20260 20262 20265 20268 20271 20274 20277 20280 20283 20285 20288 20290 20293 20296 20299 20302 20305 20308 20310 20313 20315 20318 20321 20324 20327 20329 20332 20335 20337 20340 20343 20346 20349 20352 20355 20358 20360 20363 20366 20369 20372 20375 20377 20380 20382 20385 20388 20391 20394 20397 20400 20403 20406 20409 20412 20415 20418 20421 20424 20427 20430 20433 20436 20439 20442 20445 20448 20450 20452 20454 20457 20459 20462 20465 20467 20470 20473 20475 20478 20481 20484 20487 20490 20493 20496 20498 20501 20504 20507 20510 20513 20516 20519 20522 20525 20528 20531 20533 20536 20539 20541 20543 20546 20549 20552 20554 20557 20560 20563 20566 20569 20572 20575 20577 20580 20583 20586 20589 20592 20595 20598 20601 20604 20607 20610 20613 20616 20619 20622 20625 20628 20631 20634 20637 20640 20643 20646 20649 20652 20655 20658 20661 20664 20667 20670 20673 20676 20679 20682 20685 20688 20691 20694 20697 20700 20703 20705 20708 20711 20714 20717 20719 20722 20725 20728 20731 20734 20737 20740 20743 20746 20749 20752 20755 20758 20761 20764 20767 20770 20773 20776 20778 20781 20783 20786 20789 20791 20794 20797 20800 20803 20806 20809 20812 20814 20817 20820 20823 20826 20829 20832 20835 20838 20841 20843 20845 20848 20851 20853 20856 20858 20861 20864 20867 20870 20873 20876 20879 20882 20885 20888 20890 20893 20896 20899 20902 20905 20908 20911 20914 20917 20920 20923 20926 20929 20932 20935 20938 20941 20944 20947 20950 20952 20955 20958 20961 20964 20967 20970 20972 20975 20978 20981 20983 20986 20989 20992 20995 20998 21001 21004 21007 21010 21012 21014 21017 21020 21023 21026 21029 21032 21035 21037 21040 21043 21046 21048 21051 21053 21056 21059 21062 21065 21068 21071 21074 21077 21080 21083 21086 21089 21092 21095 21098 21100 21103 21106 21109 21111 21114 21117 21120 21123 21126 21129 21132 21135 21138 21141 21144 21147 21150 21152 21155 21157 21160 21163 21166 21169 21172 21175 21178 21181 21184 21187 21190 21193 21196 21199 21202 21205 21208 21210 21213 21216 21219 21222 21225 21228 21231 21234 21237 21240 21243 21246 21249 21252 21255 21258 21261 21264 21267 21270 21273 21276 21279 21282 21285 21288 21291 21294 21297 21300 21303 21306 21309 21312 21315 21318 21321 21324 21327 21330 21333 21336 21339 21342 21345 21348 21351 21354 21357 21360 21363 21366 21369 21372 21375 21378 21381 21384 21387 21390 21393 21395 21398 21401 21403 21406 21409 21412 21415 21418 21421 21424 21426 21429 21432 21435 21438 21441 21444 21447 21450 21453 21456 21459 21462 21465 21468 21471 21474 21477 21480 21482 21485 21488 21491 21494 21497 21500 21503 21505 21508 21511 21514 21517 21520 21523 21525 21528 21531 21534 21537 21539 21542 21545 21547 21549 21552 21555 21558 21561 21564 21567 21570 21573 21576 21579 21582 21584 21587 21590 21593 21596 21599 21602 21605 21608 21610 21613 21616 21619 21622 21625 21628 21631 21634 21637 21639 21642 21645 21648 21651 21654 21657 21660 21662 21665 21668 21671 21674 21676 21679 21682 21685 21688 21690 21693 21696 21698 21700 21703 21706 21709 21712 21715 21717 21720 21723 21726 21728 21731 21734 21737 21740 21743 21745 21748 21750 21753 21756 21759 21762 21765 21768 21770 21773 21776 21779 21781 21784 21787 21790 21792 21795 21798 21801 21804 21807 21810 21813 21815 21818 21821 21824 21826 21829 21832 21835 21838 21841 21844 21847 21850 21853 21856 21859 21862 21865 21868 21871 21874 21876 21879 21882 21885 21888 21890 21893 21896 21899 21901 21904 21906 21909 21911 21914 21916 21919 21922 21924 21927 21929 21932 21934 21937 21940 21943 21946 21949 21952 21955 21958 21961 21964 21967 21970 21973 21976 21979 21982 21985 21988 21991 21994 21997 22000 22003 22006 22009 22012 22015 22017 22020 22022 22025 22028 22031 22033 22036 22039 22042 22045 22048 22051 22054 22057 22060 22062 22064 22066 22069 22072 22074 22077 22080 22082 22085 22087 22090 22093 22096 22099 22102 22105 22108 22110 22113 22116 22119 22122 22125 22128 22130 22132 22135 22138 22140 22143 22146 22148 22151 22153 22156 22158 22160 22163 22166 22169 22172 22175 22177 22179 22182 22185 22188 22190 22193 22196 22199 22202 22205 22207 22210 22213 22216 22219 22222 22225 22228 22231 22234 22237 22240 22243 22246 22249 22251 22254 22257 22259 22262 22265 22267 22270 22273 22275 22278 22281 22284 22287 22290 22292 22295 22298 22301 22303 22306 22309 22312 22314 22317 22320 22323 22325 22327 22330 22333 22335 22338 22341 22344 22347 22350 22353 22355 22358 22361 22364 22367 22370 22372 22375 22378 22381 22384 22387 22390 22393 22396 22399 22402 22405 22408 22411 22414 22417 22420 22423 22426 22429 22432 22435 22437 22440 22443 22446 22449 22452 22455 22457 22459 22461 22464 22466 22469 22471 22474 22477 22480 22483 22486 22489 22492 22495 22498 22500 22503 22506 22509 22512 22515 22517 22520 22523 22526 22528 22531 22534 22537 22540 22542 22545 22548 22550 22553 22556 22559 22562 22565 22568 22571 22574 22577 22580 22583 22586 22589 22592 22595 22598 22601 22604 22607 22610 22613 22616 22619 22622 22625 22628 22631 22634 22637 22640 22643 22646 22649 22651 22653 22655 22658 22660 22663 22666 22669 22671 22674 22677 22680 22683 22686 22689 22692 22694 22697 22700 22703 22706 22709 22712 22715 22718 22721 22724 22727 22730 22733 22736 22739 22742 22745 22748 22751 22754 22757 22760 22763 22766 22769 22772 22775 22778 22781 22784 22787 22790 22793 22796 22799 22801 22804 22807 22810 22812 22815 22818 22821 22824 22827 22830 22833 22836 22839 22842 22845 22848 22850 22853 22856 22859 22862 22864 22867 22870 22873 22876 22879 22881 22884 22887 22890 22893 22896 22898 22901 22904 22907 22909 22912 22914 22917 22920 22923 22925 22927 22930 22932 22934 22937 22939 22942 22945 22948 22951 22954 22956 22959 22961 22964 22967 22970 22973 22976 22979 22981 22984 22987 22990 22993 22995 22998 23001 23004 23006 23009 23012 23015 23018 23021 23023 23026 23029 23032 23034 23037 23040 23043 23046 23049 23051 23054 23057 23060 23063 23066 23068 23071 23074 23077 23080 23083 23086 23089 23092 23095 23098 23100 23102 23105 23108 23111 23114 23117 23120 23123 23126 23129 23131 23134 23137 23140 23143 23146 23149 23152 23155 23158 23161 23164 23167 23170 23172 23175 23177 23180 23183 23186 23189 23192 23195 23198 23201 23204 23207 23210 23213 23216 23219 23221 23224 23227 23230 23233 23236 23238 23241 23244 23247 23250 23253 23256 23259 23262 23265 23268 23271 23274 23277 23280 23283 23286 23289 23291 23294 23297 23300 23303 23306 23309 23312 23315 23318 23321 23324 23326 23329 23332 23335 23338 23341 23344 23346 23349 23352 23354 23357 23360 23363 23366 23369 23372 23375 23378 23381 23384 23387 23389 23392 23395 23398 23401 23404 23406 23409 23412 23415 23418 23421 23424 23427 23430 23433 23436 23439 23442 23445 23448 23451 23454 23457 23460 23463 23466 23469 23472 23475 23478 23481 23484 23487 23490 23493 23496 23499 23502 23505 23508 23511 23514 23517 23520 23523 23526 23529 23532 23535 23538 23541 23544 23547 23550 23553 23556 23559 23562 23565 23568 23571 23574 23577 23580 23583 23586 23589 23592 23595 23598 23601 23604 23607 23610 23613 23616 23619 23622 23625 23627 23630 23633 23635 23638 23641 23644 23646 23649 23652 23655 23658 23661 23664 23667 23670 23673 23676 23679 23682 23685 23688 23691 23694 23697 23700 23702 23705 23707 23710 23712 23715 23718 23721 23723 23726 23729 23732 23734 23737 23739 23741 23744 23747 23750 23752 23755 23758 23760 23763 23766 23769 23772 23775 23778 23781 23784 23787 23790 23792 23795 23798 23801 23804 23807 23810 23813 23816 23819 23822 23825 23828 23830 23833 23836 23838 23841 23844 23847 23850 23853 23856 23859 23862 23864 23867 23870 23873 23876 23879 23882 23885 23887 23890 23893 23895 23898 23901 23904 23907 23910 23913 23916 23919 23922 23925 23928 23931 23934 23937 23939 23942 23945 23948 23951 23954 23957 23960 23963 23965 23968 23971 23974 23977 23980 23983 23985 23988 23991 23994 23996 23999 24002 24005 24008 24011 24014 24016 24019 24022 24025 24028 24031 24034 24037 24040 24042 24045 24048 24051 24054 24057 24060 24063 24066 24069 24072 24075 24078 24081 24084 24087 24090 24093 24095 24098 24101 24103 24106 24109 24112 24115 24118 24121 24124 24127 24129 24132 24135 24138 24141 24143 24146 24149 24152 24155 24158 24160 24163 24166 24169 24172 24175 24178 24181 24184 24187 24190 24193 24196 24198 24201 24204 24207 24210 24213 24216 24219 24222 24225 24227 24230 24233 24236 24239 24242 24245 24248 24251 24254 24257 24260 24263 24266 24269 24272 24275 24278 24281 24284 24287 24290 24293 24296 24299 24302 24305 24308 24311 24314 24316 24319 24322 24325 24328 24331 24334 24336 24338 24340 24343 24346 24349 24352 24354 24357 24360 24363 24365 24368 24371 24374 24377 24380 24383 24386 24389 24392 24395 24398 24401 24404 24407 24410 24413 24416 24419 24422 24425 24428 24431 24434 24436 24439 24442 24445 24447 24450 24453 24456 24459 24462 24465 24468 24471 24474 24477 24480 24483 24486 24489 24491 24494 24497 24500 24503 24506 24509 24511 24514 24516 24519 24522 24525 24528 24530 24533 24536 24538 24541 24544 24546 24549 24552 24555 24558 24561 24564 24567 24570 24572 24575 24577 24579 24582 24585 24588 24591 24594 24597 24600 24603 24606 24609 24612 24614 24617 24620 24623 24626 24629 24632 24635 24638 24641 24644 24647 24650 24652 24655 24658 24661 24663 24666 24669 24672 24675 24678 24681 24684 24687 24690 24693 24696 24699 24702 24705 24708 24711 24714 24717 24719 24722 24725 24728 24731 24733 24735 24737 24740 24743 24746 24749 24752 24755 24758 24760 24763 24766 24769 24772 24775 24778 24781 24784 24787 24790 24793 24796 24799 24801 24804 24807 24810 24813 24816 24819 24822 24825 24828 24831 24834 24837 24840 24843 24845 24848 24851 24854 24857 24860 24863 24866 24869 24872 24875 24878 24881 24884 24886 24889 24892 24895 24897 24900 24903 24905 24908 24911 24914 24916 24919 24922 24925 24928 24931 24934 24937 24940 24943 24946 24949 24952 24955 24958 24961 24963 24966 24969 24971 24974 24977 24980 24983 24986 24989 24992 24995 24998 25001 25004 25007 25010 25013 25016 25019 25022 25025 25027 25030 25033 25036 25039 25042 25045 25048 25051 25054 25057 25059 25062 25065 25068 25071 25074 25077 25080 25083 25085 25088 25091 25094 25097 25100 25103 25106 25109 25111 25114 25117 25119 25122 25124 25127 25129 25132 25135 25138 25141 25144 25147 25149 25152 25155 25158 25161 25164 25167 25170 25173 25176 25179 25182 25185 25188 25191 25194 25197 25200 25203 25206 25209 25212 25214 25217 25220 25223 25226 25228 25231 25234 25237 25240 25243 25246 25249 25252 25255 25258 25260 25263 25266 25269 25272 25275 25278 25281 25284 25287 25290 25293 25296 25299 25302 25305 25308 25311 25314 25317 25320 25323 25326 25329 25331 25334 25337 25340 25343 25346 25348 25351 25354 25357 25360 25363 25365 25368 25370 25373 25376 25379 25382 25385 25388 25391 25394 25396 25399 25402 25405 25408 25410 25413 25416 25419 25421 25424 25427 25430 25433 25435 25438 25441 25443 25446 25449 25452 25455 25458 25461 25464 25467 25470 25473 25476 25479 25482 25485 25488 25491 25494 25497 25500 25502 25505 25507 25510 25513 25516 25518 25521 25524 25527 25530 25533 25536 25539 25542 25544 25547 25550 25553 25556 25558 25561 25564 25567 25570 25572 25575 25578 25581 25583 25585 25588 25591 25594 25597 25600 25603 25606 25609 25612 25614 25617 25620 25623 25626 25629 25632 25635 25638 25641 25644 25647 25650 25653 25656 25659 25662 25665 25668 25671 25674 25677 25680 25683 25686 25689 25692 25695 25698 25701 25704 25707 25710 25713 25716 25719 25722 25725 25728 25731 25734 25737 25740 25743 25746 25749 25752 25755 25758 25760 25763 25766 25769 25772 25774 25776 25779 25782 25785 25788 25791 25793 25796 25799 25802 25805 25808 25811 25813 25816 25818 25821 25824 25827 25830 25833 25836 25838 25841 25843 25846 25849 25851 25853 25856 25858 25861 25864 25867 25869 25872 25875 25877 25880 25883 25886 25889 25892 25895 25898 25900 25903 25906 25909 25912 25915 25918 25921 25924 25927 25930 25933 25936 25939 25942 25944 25947 25950 25953 25956 25958 25961 25964 25967 25970 25973 25976 25979 25982 25985 25988 25990 25993 25996 25999 26002 26004 26006 26009 26011 26014 26017 26020 26023 26025 26027 26030 26033 26036 26039 26042 26045 26047 26050 26052 26055 26058 26060 26063 26065 26068 26070 26073 26076 26079 26082 26085 26087 26089 26092 26095 26097 26100 26102 26104 26107 26109 26112 26115 26117 26119 26121 26124 26126 26129 26132 26134 26137 26140 26143 26146 26149 26151 26154 26157 26160 26163 26166 26169 26172 26175 26178 26181 26184 26187 26190 26193 26196 26199 26202 26204 26207 26210 26213 26216 26219 26221 26224 26227 26230 26233 26236 26239 26242 26245 26248 26251 26254 26257 26260 26263 26266 26269 26271 26274 26277 26280 26283 26286 26288 26291 26294 26297 26300 26303 26306 26309 26311 26313 26316 26319 26322 26325 26328 26331 26333 26335 26337 26340 26343 26346 26349 26352 26355 26358 26361 26363 26366 26369 26371 26374 26377 26380 26383 26386 26389 26392 26395 26398 26400 26403 26406 26409 26412 26415 26418 26421 26424 26427 26430 26432 26435 26437 26440 26443 26446 26449 26452 26455 26458 26461 26464 26467 26469 26472 26475 26478 26481 26484 26487 26490 26493 26496 26499 26502 26504 26507 26510 26513 26516 26519 26522 26525 26528 26531 26534 26537 26540 26543 26546 26549 26552 26555 26558 26561 26564 26567 26569 26572 26575 26577 26579 26582 26585 26588 26591 26594 26597 26600 26603 26605 26608 26611 26614 26616 26619 26622 26625 26628 26631 26634 26636 26639 26641 26644 26647 26650 26653 26656 26659 26662 26665 26667 26670 26673 26676 26679 26682 26685 26688 26691 26694 26697 26700 26703 26705 26708 26711 26714 26716 26719 26721 26724 26727 26730 26733 26736 26739 26742 26745 26748 26751 26753 26756 26759 26762 26765 26767 26770 26773 26776 26779 26782 26785 26788 26791 26793 26796 26799 26801 26804 26807 26810 26812 26815 26818 26820 26823 26825 26828 26831 26834 26837 26840 26843 26846 26849 26852 26855 26857 26860 26863 26866 26869 26872 26874 26877 26879 26882 26885 26888 26891 26893 26896 26899 26902 26905 26907 26910 26913 26916 26919 26921 26924 26927 26930 26933 26936 26939 26942 26945 26948 26951 26954 26957 26960 26963 26966 26969 26971 26974 26977 26979 26982 26985 26988 26991 26993 26996 26999 27002 27005 27007 27010 27013 27016 27019 27021 27024 27027 27030 27033 27036 27038 27041 27044 27046 27048 27051 27054 27056 27059 27062 27065 27068 27071 27074 27077 27079 27082 27085 27088 27091 27094 27097 27100 27103 27106 27109 27112 27115 27118 27121 27124 27126 27129 27132 27135 27138 27141 27143 27146 27149 27152 27155 27157 27160 27163 27166 27168 27171 27174 27177 27180 27183 27185 27188 27191 27194 27196 27199 27202 27204 27207 27210 27212 27215 27217 27220 27222 27225 27228 27231 27234 27237 27240 27243 27246 27249 27252 27255 27258 27261 27264 27267 27270 27273 27276 27279 27282 27285 27288 27291 27294 27297 27300 27303 27306 27309 27312 27315 27318 27321 27324 27327 27330 27332 27335 27337 27340 27343 27346 27349 27352 27354 27357 27360 27363 27365 27368 27371 27374 27377 27380 27383 27386 27389 27392 27395 27398 27401 27404 27407 27410 27413 27416 27419 27422 27425 27428 27431 27434 27437 27440 27442 27445 27448 27451 27453 27456 27459 27462 27465 27468 27471 27474 27476 27479 27482 27485 27488 27491 27494 27497 27500 27502 27505 27508 27511 27514 27517 27520 27523 27526 27528 27531 27534 27537 27540 27542 27545 27548 27551 27554 27557 27559 27562 27564 27567 27570 27573 27576 27579 27582 27585 27588 27591 27594 27597 27600 27603 27605 27608 27611 27613 27615 27618 27620 27623 27626 27629 27632 27635 27638 27641 27644 27647 27650 27653 27656 27659 27662 27665 27667 27670 27673 27676 27679 27682 27685 27688 27691 27694 27697 27700 27703 27706 27709 27712 27714 27717 27720 27723 27726 27728 27731 27734 27737 27739 27742 27744 27747 27750 27753 27756 27759 27762 27765 27768 27771 27774 27777 27780 27783 27786 27789 27792 27795 27798 27801 27804 27807 27810 27813 27816 27819 27822 27825 27828 27831 27833 27836 27839 27842 27845 27848 27850 27853 27856 27859 27862 27865 27867 27869 27871 27874 27877 27880 27883 27886 27888 27891 27894 27896 27899 27902 27905 27908 27911 27914 27917 27919 27922 27925 27928 27931 27934 27937 27940 27943 27945 27948 27951 27953 27956 27958 27961 27964 27967 27970 27973 27976 27978 27981 27984 27987 27990 27992 27995 27998 28001 28004 28007 28010 28013 28016 28019 28022 28025 28028 28031 28034 28037 28040 28043 28045 28047 28050 28053 28056 28059 28062 28065 28068 28071 28074 28077 28080 28083 28085 28088 28090 28093 28096 28098 28101 28104 28107 28110 28112 28115 28118 28120 28123 28126 28129 28131 28134 28137 28139 28141 28144 28147 28150 28153 28156 28159 28162 28165 28168 28171 28173 28176 28179 28182 28185 28188 28191 28194 28196 28199 28202 28205 28208 28210 28213 28215 28218 28221 28223 28226 28229 28232 28235 28238 28241 28243 28246 28249 28252 28255 28258 28260 28263 28266 28268 28271 28274 28277 28280 28283 28286 28289 28292 28295 28298 28301 28304 28307 28310 28313 28316 28319 28322 28325 28328 28331 28334 28337 28340 28343 28346 28349 28351 28354 28356 28359 28362 28365 28368 28371 28374 28377 28380 28383 28385 28388 28391 28393 28396 28399 28402 28405 28408 28411 28414 28417 28419 28422 28425 28428 28431 28434 28437 28439 28442 28445 28448 28450 28453 28456 28459 28462 28465 28468 28471 28474 28476 28478 28481 28484 28487 28490 28493 28496 28499 28502 28505 28508 28511 28514 28517 28520 28522 28525 28528 28531 28534 28537 28540 28543 28546 28549 28552 28555 28558 28561 28564 28567 28570 28573 28576 28579 28582 28585 28588 28591 28594 28597 28600 28602 28605 28608 28611 28614 28617 28619 28622 28625 28627 28630 28633 28636 28639 28642 28645 28648 28651 28653 28656 28659 28661 28664 28667 28670 28673 28676 28679 28682 28685 28687 28690 28693 28696 28699 28702 28705 28708 28711 28714 28716 28719 28721 28724 28727 28730 28733 28736 28739 28742 28745 28748 28751 28754 28757 28760 28763 28766 28769 28772 28775 28778 28780 28783 28786 28789 28791 28794 28797 28800 28803 28806 28809 28812 28815 28818 28821 28824 28827 28829 28832 28834 28837 28839 28842 28844 28847 28850 28853 28856 28859 28861 28864 28867 28869 28872 28875 28878 28881 28884 28887 28890 28892 28895 28898 28900 28903 28905 28908 28911 28914 28916 28919 28922 28925 28928 28931 28933 28936 28939 28942 28945 28948 28951 28954 28957 28960 28963 28966 28969 28972 28975 28978 28981 28984 28987 28990 28993 28996 28999 29002 29005 29008 29011 29014 29017 29020 29023 29026 29029 29032 29035 29038 29041 29044 29047 29050 29053 29056 29059 29062 29065 29068 29071 29074 29077 29080 29083 29086 29089 29092 29095 29098 29101 29104 29107 29110 29113 29115 29118 29121 29124 29127 29130 29133 29136 29138 29141 29144 29147 29150 29152 29155 29158 29161 29164 29166 29169 29172 29175 29178 29181 29183 29186 29189 29192 29195 29198 29201 29204 29207 29210 29213 29216 29219 29222 29225 29228 29231 29234 29237 29240 29242 29245 29248 29251 29254 29257 29260 29263 29266 29269 29272 29275 29278 29280 29283 29286 29289 29292 29294 29296 29299 29302 29304 29307 29310 29313 29316 29319 29322 29325 29328 29331 29334 29337 29339 29342 29345 29348 29350 29353 29356 29359 29362 29365 29368 29371 29374 29377 29380 29383 29386 29389 29392 29395 29398 29401 29404 29407 29410 29413 29416 29419 29422 29425 29428 29431 29434 29437 29440 29443 29446 29449 29452 29455 29457 29460 29463 29466 29469 29472 29475 29478 29481 29483 29486 29489 29492 29495 29498 29501 29504 29507 29510 29513 29515 29518 29521 29523 29526 29529 29532 29535 29538 29540 29543 29546 29549 29552 29555 29558 29561 29564 29567 29570 29573 29575 29577 29580 29583 29586 29589 29592 29595 29598 29601 29604 29607 29610 29613 29616 29619 29622 29625 29628 29631 29634 29637 29640 29643 29646 29649 
</DataArray>
<DataArray type="UInt32" Name="types" format="ascii">
5 5 5 5 5 3 5 5 5 5 3 5 5 5 5 5 5 3 5 3 5 5 5 5 5 5 5 5 5 5 5 5 5 5 5 5 3 5 5 5 5 5 5 5 5 3 5 5 5 5 5 5 5 5 5 5 3 5 5 5 5 5 5 5 5 5 5 5 5 5 5 5 5 3 3 5 5 5 5 5 3 5 3 5 5 5 5 5 3 5 5 5 3 5 5 3 5 5 5 3 5 3 5 5 5 5 3 5 5 3 5 5 5 5 5 5 5 5 5 5 3 5 5 3 5 5 5 5 3 5 5 5 5 3 5 5 5 5 3 5 5 3 5 5 3 5 5 5 3 5 5 5 5 5 5 3 5 5 5 5 5 5 3 5 5 5 5 5 5 5 5 5 3 5 3 5 5 5 5 5 5 5 3 5 5 5 5 3 5 5 5 5 3 3 5 5 5 5 5 5 5 5 3 5 5 5 5 3 5 3 5 5 5 5 5 3 5 5 5 5 5 5 5 5 5 5 5 5 5 5 5 5 5 5 5 5 3 5 5 5 5 5 3 5 5 5 5 5 5 5 5 5 5 5 5 5 3 5 5 5 3 5 3 5 5 5 3 5 5 5 5 5 5 5 5 3 3 5 5 5 5 5 5 5 5 5 5 5 5 3 5 3 5 5 5 5 5 5 5 5 3 5 5 3 5 5 5 5 3 5 5 5 3 5 5 5 3 5 5 3 5 5 5 5 3 5 5 5 5 5 5 5 5 3 5 5 5 3 5 3 5 5 3 5 5 5 3 5 5 3 5 5 5 5 5 5 5 5 5 5 5 5 5 5 5 5 5 3 5 5 5 5 3 5 5 3 5 5 5 5 5 5 5 5 5 3 5 5 5 3 5 5 5 5 5 5 5 5 5 5 5 5 5 5 5 5 5 5 5 5 5 5 5 5 5 5 5 5 5 5 5 3 5 5 5 5 5 5 5 3 5 5 5 5 3 5 5 5 5 5 5 5 3 5 5 5 5 5 5 5 5 5 5 5 5 5 5 5 5 5 5 5 5 3 5 3 5 5 5 5 5 5 5 5 3 5 3 5 5 5 5 3 5 3 5 5 3 3 5 5 3 3 5 5 5 5 5 5 5 5 5 5 3 5 5 5 5 5 5 5 5 5 5 5 5 5 3 5 3 5 5 5 5 5 5 5 3 5 5 5 5 5 5 5 5 5 5 5 5 3 5 3 5 5 5 5 3 5 5 3 5 5 5 5 5 5 5 5 5 5 3 5 5 5 5 5 3 5 3 5 5 3 3 5 5 5 3 3 5 5 5 5 3 5 5 3 5 5 3 3 3 3 3 5 3 5 3 5 5 3 5 3 5 5 3 3 5 5 5 5 3 5 3 3 5 5 5 3 5 5 5 5 5 3 5 5 5 5 5 5 5 5 5 5 5 3 5 3 5 3 5 5 5 5 5 3 5 5 5 5 5 5 3 5 5 5 5 5 3 5 5 5 5 5 5 5 5 5 5 5 3 5 5 5 5 5 5 5 3 3 5 5 5 5 5 5 5 5 5 5 5 5 3 5 5 5 3 5 5 5 5 5 5 5 5 5 5 5 5 5 5 5 5 5 5 5 5 5 5 5 5 3 3 5 5 5 5 5 5 3 5 5 5 5 5 5 5 5 5 5 5 5 5 5 5 5 5 5 5 5 5 5 5 5 3 5 3 5 5 5 5 5 5 3 5 5 5 5 5 5 5 5 5 5 3 5 5 5 5 5 3 5 5 3 5 5 5 5 5 5 5 5 5 5 5 3 5 5 5 5 5 3 5 5 5 3 5 5 5 3 5 5 5 5 5 5 5 5 5 5 3 5 5 5 5 5 5 5 5 5 5 5 5 5 5 5 5 3 5 5 5 3 5 5 5 5 5 3 5 5 5 5 5 5 5 5 5 5 5 3 5 5 5 5 5 5 5 5 3 5 5 5 5 5 5 5 5 5 5 5 5 5 5 5 5 5 5 5 3 5 5 5 5 5 5 3 5 5 5 5 5 5 5 5 5 5 5 5 5 5 5 5 5 5 5 5 5 5 5 5 5 3 5 5 5 5 5 5 5 5 5 5 5 5 5 5 5 5 5 3 5 3 5 5 5 5 5 3 3 5 5 5 5 5 5 5 5 3 5 5 5 5 5 5 3 5 5 5 5 5 5 5 5 5 5 5 5 5 5 5 5 5 5 5 5 3 5 5 5 5 5 5 3 5 5 3 5 5 5 5 5 5 5 5 3 5 3 5 5 3 5 5 5 3 5 5 5 5 5 5 5 5 5 5 5 5 5 5 5 5 5 5 5 5 5 5 5 5 5 5 5 5 5 5 5 5 5 5 3 5 5 5 3 5 5 5 5 3 5 5 5 5 5 5 3 5 5 5 5 3 5 5 5 5 3 5 5 5 5 3 5 5 3 5 5 5 5 5 5 3 5 3 5 5 3 5 5 5 3 5 5 5 5 5 5 5 5 5 3 5 5 5 5 5 5 5 5 3 5 5 5 5 5 5 5 5 5 5 5 5 5 5 5 5 5 5 5 5 5 5 5 5 5 5 5 5 5 5 5 5 5 5 3 5 5 5 5 3 5 5 5 5 5 5 5 5 5 5 5 5 5 5 5 5 3 5 5 3 3 5 5 5 5 5 3 5 5 5 3 3 3 5 3 5 3 3 5 5 5 5 3 5 5 5 5 5 5 5 5 5 5 3 5 5 5 5 3 5 5 3 5 5 5 5 3 5 5 5 5 5 5 5 5 5 5 5 5 3 5 5 5 5 5 5 5 5 5 5 5 5 3 5 5 5 5 5 5 5 5 5 3 5 3 5 3 5 5 5 5 5 5 5 5 5 5 5 5 5 5 5 5 5 5 5 5 5 5 5 5 5 3 5 5 5 3 5 5 5 5 5 5 5 5 3 5 5 5 5 5 5 5 3 5 3 5 5 5 5 5 5 5 5 5 3 5 5 3 3 5 5 5 5 5 5 5 5 5 5 3 5 5 5 5 5 5 5 5 5 5 5 5 5 5 5 5 3 5 5 5 3 5 5 3 5 3 5 3 5 5 5 5 5 5 5 5 3 5 5 5 5 3 3 5 5 5 5 3 5 5 5 5 5 5 5 5 5 5 5 5 5 5 5 5 5 5 5 5 5 5 5 5 5 5 5 5 3 5 3 5 5 5 5 3 5 5 5 5 5 5 5 5 5 5 5 5 3 3 5 5 5 5 5 5 5 5 5 5 5 5 5 3 5 5 5 5 5 5 5 5 5 5 3 5 5 5 5 5 5 5 5 5 5 3 5 5 5 5 3 5 5 5 5 5 5 5 5 5 3 5 5 5 3 5 5 5 5 5 5 5 5 5 5 5 5 5 5 5 5 5 5 5 5 5 5 5 5 5 5 5 5 5 5 5 5 3 5 5 5 5 5 5 5 5 5 3 5 5 5 3 3 5 3 5 5 3 5 5 5 5 5 5 5 5 3 5 5 3 3 3 3 5 5 5 5 3 3 3 5 5 5 3 5 5 5 5 5 3 5 5 5 5 5 5 5 5 3 5 3 5 5 5 5 5 5 5 5 5 5 3 5 3 5 5 5 5 5 5 5 5 5 5 5 5 5 5 5 5 5 3 5 5 5 5 5 5 5 5 5 5 5 5 5 5 5 5 3 5 5 5 5 5 5 5 5 3 5 5 5 3 5 5 5 5 3 5 5 5 5 5 5 5 5 5 3 5 5 5 3 5 5 3 5 5 5 5 5 5 5 3 5 5 5 5 5 5 5 5 5 5 5 5 5 3 5 5 5 5 5 5 5 5 5 3 5 5 3 5 5 5 5 5 5 5 5 5 3 5 5 5 3 5 5 5 5 5 3 5 5 3 5 5 3 5 5 3 5 5 5 5 5 5 5 5 5 5 5 5 5 5 5 5 5 5 5 5 5 5 5 3 5 5 5 5 5 5 5 5 5 5 3 5 5 3 5 3 5 5 5 5 5 5 3 5 3 5 5 5 5 5 5 5 5 5 5 5 5 5 5 5 5 5 3 5 5 5 5 5 5 3 5 5 5 3 5 5 5 5 5 5 5 5 3 5 5 5 5 5 5 5 5 3 5 5 5 5 5 5 5 5 5 5 5 3 5 5 5 3 5 5 5 5 3 5 5 5 5 5 5 5 5 3 5 5 5 3 5 5 5 3 5 5 5 5 5 5 5 5 5 5 3 5 3 5 5 3 5 5 5 5 5 5 5 5 5 3 5 3 5 5 5 3 3 5 5 5 3 5 5 5 5 5 5 5 5 5 5 5 5 3 5 5 5 3 5 5 5 5 5 5 3 5 5 5 5 5 5 5 5 5 5 3 5 3 5 5 5 5 5 5 3 5 5 5 5 5 5 5 3 5 5 5 5 5 5 5 3 5 5 5 3 5 5 3 5 5 5 5 5 5 3 5 5 5 5 5 3 5 5 5 5 5 5 3 5 5 5 5 5 5 5 5 3 5 3 5 5 5 5 5 5 5 3 5 5 5 3 5 5 5 5 5 5 5 5 5 5 5 5 5 5 5 5 5 5 5 5 5 5 5 5 5 5 5 5 5 5 5 3 5 3 5 5 5 5 5 5 5 5 5 5 5 5 5 5 3 5 5 5 5 5 5 5 5 5 5 5 5 5 5 5 3 5 5 3 5 5 5 5 5 5 5 5 5 5 5 5 3 5 5 5 5 5 5 5 5 5 5 5 5 5 5 5 5 5 5 5 3 5 5 5 5 5 5 5 5 5 5 5 5 5 5 5 5 5 5 5 5 5 5 5 5 5 5 5 5 5 5 5 5 5 5 5 5 5 5 5 5 5 5 5 5 5 5 5 5 5 5 5 5 5 5 3 5 5 5 5 5 5 5 5 5 5 3 5 5 3 5 5 3 5 5 5 5 5 5 5 3 5 5 3 5 5 5 5 5 5 5 5 5 3 5 3 5 5 5 5 5 5 5 3 5 5 3 5 5 5 3 5 5 5 5 3 3 5 5 5 3 5 5 5 3 3 5 5 5 3 5 3 5 3 5 5 5 5 5 5 3 5 5 5 5 5 5 5 5 5 5 5 5 5 5 5 5 5 5 5 3 5 5 5 3 5 5 5 5 5 5 5 5 5 5 5 5 3 5 5 5 5 3 5 3 5 5 5 5 5 5 3 3 5 5 5 5 5 5 5 5 5 5 5 3 5 5 5 5 3 5 5 3 5 5 5 5 5 5 5 5 3 5 5 3 5 5 5 5 5 5 5 5 5 5 5 5 5 5 5 5 5 5 5 5 5 5 5 5 3 5 5 5 5 5 5 5 5 5 5 5 5 5 3 5 5 3 5 5 5 3 5 5 5 3 3 5 5 5 5 5 5 3 5 5 5 5 3 3 3 3 5 5 5 3 5 5 3 5 5 5 3 5 5 5 5 5 5 5 5 3 5 5 3 5 5 5 5 5 5 3 5 5 5 5 5 3 5 5 5 5 5 5 5 5 5 5 5 5 5 5 5 5 5 3 5 5 5 5 5 5 5 3 5 5 5 5 5 5 5 5 5 5 5 5 5 3 5 5 5 5 5 5 5 5 5 5 3 5 5 3 5 5 5 3 5 3 5 3 5 5 5 5 5 5 5 3 5 3 5 3 5 5 3 5 3 5 5 3 3 5 5 3 3 5 5 5 5 5 5 5 5 5 5 5 5 5 5 5 3 3 5 5 5 3 3 3 5 5 5 5 5 5 3 5 3 3 5 5 5 5 3 5 5 5 3 5 5 5 3 5 3 5 5 5 3 5 5 5 5 5 5 5 5 5 5 5 5 5 5 5 3 3 5 5 5 5 3 5 5 3 5 5 3 5 5 5 5 5 5 3 5 5 5 3 5 3 5 5 3 5 5 5 5 3 5 5 3 3 5 5 5 5 5 5 5 5 5 3 5 5 5 5 5 5 5 3 3 5 5 3 5 5 5 5 3 5 5 5 5 5 3 5 5 5 5 3 5 5 5 3 5 5 5 5 5 5 5 3 5 5 5 5 3 5 5 5 5 3 5 5 5 5 5 5 5 5 5 5 5 5 5 5 5 5 5 5 3 5 3 5 5 5 5 5 5 5 5 5 5 5 3 5 5 5 5 5 5 5 5 5 5 5 5 5 5 5 5 3 5 3 5 5 3 3 5 5 5 5 5 5 5 3 5 3 3 5 3 5 5 5 5 3 5 3 5 3 3 3 5 5 3 5 5 5 3 5 5 5 5 5 5 5 5 5 5 5 5 3 5 5 5 5 5 5 5 5 5 5 5 5 5 5 5 5 3 5 3 3 5 5 5 5 3 5 5 5 5 5 5 5 5 5 5 5 5 5 5 5 5 5 5 5 5 5 5 5 5 5 5 5 5 5 5 5 5 5 5 5 5 5 5 5 5 5 5 5 5 3 5 5 5 5 5 3 5 3 5 5 5 3 5 5 5 5 5 3 5 5 5 5 5 3 5 3 5 5 3 5 5 3 5 5 5 5 5 5 5 5 5 5 5 5 5 5 3 5 3 5 5 5 5 5 5 5 5 5 5 3 5 5 5 5 5 5 5 5 5 5 5 5 5 5 5 5 5 5 5 5 5 5 5 5 5 5 5 5 5 5 5 5 5 5 5 5 5 5 5 5 5 5 5 5 5 5 5 5 5 5 5 5 5 5 5 5 5 5 5 5 5 5 5 5 5 5 5 5 5 5 5 5 3 3 3 5 3 5 5 5 5 3 5 5 5 5 5 5 3 5 5 5 5 5 5 5 3 5 5 5 5 3 5 3 5 5 5 5 5 5 5 5 5 5 5 5 5 5 5 5 5 5 5 5 3 5 3 5 3 5 5 5 3 5 3 5 5 5 5 3 5 5 5 3 5 5 5 5 5 5 3 5 5 5 5 5 5 5 5 5 5 5 5 3 5 5 3 5 5 3 5 5 5 5 3 5 5 3 5 5 3 5 3 5 5 5 3 5 3 5 5 3 3 5 5 3 5 5 3 3 5 5 3 5 3 5 5 5 3 5 3 5 5 3 5 5 5 5 5 5 5 5 5 5 5 5 5 5 5 5 5 5 5 5 5 3 5 5 5 5 5 5 5 3 5 5 5 5 5 5 5 5 5 5 5 5 5 5 5 5 5 5 5 5 5 3 5 5 3 5 5 5 5 5 5 5 5 3 5 5 5 5 3 3 5 5 3 5 3 5 5 5 5 3 5 5 5 3 5 5 5 5 3 5 5 5 5 5 3 3 5 3 3 5 5 3 5 3 5 5 5 5 5 3 5 5 5 5 5 3 5 3 5 3 5 5 3 5 3 5 5 5 5 3 5 5 5 5 5 3 5 3 5 5 5 5 5 5 5 5 5 5 5 3 5 3 5 5 5 5 5 5 5 5 5 3 5 5 5 5 5 3 5 5 5 5 3 5 5 3 3 5 5 3 5 5 5 5 5 5 5 5 5 5 5 3 5 5 5 5 5 5 5 5 5 5 5 5 3 5 5 5 5 5 3 5 5 5 5 5 5 5 3 5 5 5 5 5 5 5 5 3 5 5 5 5 3 5 5 5 5 5 5 3 5 5 5 5 3 5 5 5 3 3 3 5 5 5 5 5 5 5 5 5 5 3 5 3 5 5 3 5 5 5 5 5 5 5 3 5 5 3 5 3 5 5 5 5 5 5 5 3 5 5 5 3 5 5 5 5 5 5 5 5 5 5 5 5 3 5 5 5 5 5 5 5 5 5 5 5 5 5 5 5 5 5 5 5 5 5 5 5 5 5 5 5 3 3 5 5 3 5 5 5 5 5 3 5 5 5 3 5 5 5 5 5 5 5 5 5 3 5 5 5 5 5 5 5 5 5 5 5 5 5 5 3 5 5 5 5 5 5 5 5 5 5 5 5 3 5 5 5 5 5 5 5 3 5 5 5 5 5 5 5 5 5 5 5 5 5 5 5 5 5 5 5 5 5 5 5 5 5 5 5 5 5 5 5 5 5 5 5 5 5 5 5 5 5 5 5 5 5 5 5 5 5 5 3 5 5 5 3 5 3 5 5 5 5 5 5 5 5 3 5 5 5 5 5 5 5 5 3 3 5 5 5 5 5 5 5 5 5 5 3 3 3 5 5 5 3 5 5 5 5 3 5 5 5 5 5 5 5 5 5 5 5 5 3 5 5 5 5 5 5 5 5 3 3 5 5 3 5 5 5 5 5 5 5 5 5 5 5 5 5 3 5 5 5 5 5 3 5 5 5 5 3 5 5 5 5 3 5 5 3 5 5 5 3 5 5 5 5 5 5 5 5 3 5 5 5 3 5 5 5 3 3 5 5 3 5 5 3 5 5 3 5 3 5 5 5 5 5 5 5 5 5 5 5 5 3 5 5 5 5 5 5 5 5 3 5 5 3 5 5 5 5 3 5 5 5 5 5 5 5 5 5 3 5 5 5 5 5 5 5 5 3 5 5 5 3 5 5 5 3 5 5 5 3 5 5 5 5 5 5 5 5 5 5 5 3 5 5 5 3 5 5 5 5 5 5 5 3 5 5 5 5 5 3 5 5 5 3 5 5 5 5 5 5 5 5 5 5 5 5 3 5 5 3 5 3 5 5 5 5 5 5 5 5 5 5 3 3 5 5 5 5 5 3 5 3 3 5 3 5 3 5 5 5 5 5 5 5 5 5 5 5 5 5 5 5 5 5 5 5 5 5 5 3 5 5 5 5 5 5 5 5 3 5 5 5 5 3 5 5 5 5 5 5 5 5 5 3 5 3 5 5 5 5 5 5 5 5 5 5 5 5 3 5 5 5 5 5 5 5 5 5 3 5 3 5 5 3 5 5 3 5 5 3 5 5 5 5 3 5 5 5 5 5 5 5 5 5 5 5 5 5 5 5 5 5 5 5 5 5 3 5 5 3 5 5 3 3 5 5 5 5 3 5 5 3 5 5 5 5 5 5 5 3 5 5 5 5 5 5 3 5 5 5 3 5 3 3 5 5 5 5 5 5 5 3 5 5 5 5 5 5 5 3 5 5 5 5 5 5 5 5 5 5 5 5 5 5 5 5 3 5 5 5 5 3 5 5 5 5 5 5 5 5 5 5 5 5 5 5 5 5 5 5 3 3 3 5 3 5 3 5 5 5 5 3 5 5 5 5 5 5 5 3 5 5 5 5 5 5 5 3 5 5 3 5 5 5 5 5 5 5 5 3 5 5 5 3 5 5 5 5 5 3 5 5 3 5 5 5 5 3 5 5 3 5 3 5 5 5 5 5 5 5 5 5 5 5 5 3 5 5 5 5 5 3 5 5 5 5 5 5 5 3 5 5 5 3 5 5 5 5 3 5 5 5 3 5 5 5 5 5 3 5 5 5 5 5 5 5 5 5 5 5 5 3 5 5 5 5 5 5 3 5 5 3 5 3 5 5 3 5 5 5 5 5 5 5 5 5 5 5 5 5 5 3 5 5 3 5 3 5 5 5 5 5 3 5 5 5 5 5 5 5 5 5 5 5 5 5 5 5 5 5 5 5 5 5 5 3 3 5 5 5 5 5 5 3 5 5 3 5 5 5 5 3 5 3 5 3 3 5 5 5 5 5 3 5 5 3 5 5 5 5 5 3 5 3 5 5 3 5 3 5 5 5 5 5 5 5 5 5 5 5 5 5 5 5 5 5 5 5 5 5 5 5 5 5 5 5 5 5 5 5 5 5 5 5 5 5 3 5 3 5 3 5 5 5 3 5 5 5 5 5 5 3 5 5 5 5 5 5 5 5 5 5 5 5 5 5 5 5 5 5 5 5 3 5 5 5 5 5 5 5 5 5 5 5 5 5 3 3 5 5 5 5 5 5 5 5 5 5 5 3 5 5 5 3 5 5 5 5 5 5 5 5 5 5 5 5 5 5 5 5 5 5 5 3 5 3 5 5 5 5 5 5 5 5 5 5 5 5 5 3 5 5 5 5 5 5 5 5 5 5 3 5 5 3 5 5 5 5 5 5 5 5 5 5 5 5 5 5 5 5 5 5 5 5 5 5 5 5 3 5 5 5 5 5 5 5 5 5 5 5 5 5 5 5 5 5 5 5 5 5 5 5 5 5 3 5 5 5 5 3 5 5 5 5 5 5 3 5 5 5 5 5 5 5 5 5 5 3 5 5 5 5 5 3 5 5 3 5 5 5 5 5 5 5 5 5 5 5 5 5 5 3 5 5 5 5 3 5 3 5 5 3 3 5 5 3 5 5 3 5 5 5 5 5 5 5 5 5 5 5 5 5 5 5 5 3 5 5 5 5 3 5 5 5 3 5 5 5 3 5 5 5 5 5 5 5 3 5 5 5 3 5 5 5 5 5 5 5 5 5 5 5 5 5 5 5 5 5 5 5 5 5 5 5 5 5 5 5 5 3 5 5 5 5 5 5 5 5 5 5 5 3 5 5 5 5 3 5 5 5 5 5 5 5 5 5 5 5 3 5 5 5 5 5 5 5 5 5 5 5 5 5 5 5 5 5 5 5 5 5 5 5 5 5 5 5 5 5 5 5 5 5 5 5 5 5 5 5 3 5 3 5 5 5 5 5 3 5 5 5 3 5 5 5 5 5 3 5 5 5 5 5 5 5 5 5 3 5 5 5 3 5 5 5 5 5 5 5 5 5 5 5 5 5 5 5 5 5 5 5 5 5 5 5 5 5 5 5 5 5 5 5 5 5 5 5 5 3 5 5 5 5 5 5 5 5 3 5 5 5 5 5 5 5 5 5 5 5 5 5 3 5 5 5 5 5 5 3 5 5 5 5 5 5 5 5 5 5 5 5 5 3 5 5 5 5 5 5 5 5 5 5 5 5 5 5 5 5 5 5 5 5 5 5 3 5 5 5 5 5 5 5 5 5 5 3 3 5 5 5 5 5 5 5 5 5 5 5 5 5 5 5 5 5 3 3 5 5 5 5 5 5 3 5 5 5 5 5 5 5 5 5 5 5 5 5 3 5 5 5 5 5 5 5 5 5 5 5 5 5 5 5 5 5 5 5 5 5 5 5 5 5 5 5 3 5 5 3 5 5 5 5 5 5 5 5 5 5 5 5 5 5 5 5 5 3 5 3 5 5 5 5 5 5 5 5 5 5 5 3 3 5 5 5 3 3 5 5 5 5 3 5 5 3 5 5 5 5 5 5 5 5 5 5 5 5 5 5 5 5 5 5 5 5 5 5 5 5 5 5 5 5 5 5 5 5 5 5 5 5 5 5 5 5 5 5 5 5 5 5 5 5 5 5 5 5 5 5 5 5 5 5 3 5 5 5 5 5 5 5 5 5 5 5 5 3 5 5 3 5 5 3 5 5 5 5 5 3 5 5 5 5 3 5 5 5 5 5 5 5 5 5 5 5 5 5 5 3 5 5 5 5 5 3 3 5 5 5 5 3 5 5 5 5 5 3 5 5 5 5 5 5 5 5 5 5 5 5 5 5 5 5 5 5 5 5 5 5 5 5 5 5 5 5 5 5 5 5 5 5 5 5 5 5 5 5 5 5 5 5 5 5 5 5 5 5 5 5 5 5 5 5 5 5 5 3 5 5 5 5 5 5 5 5 5 5 5 5 5 5 5 5 5 5 5 3 5 5 5 5 3 5 5 3 3 5 5 5 5 5 5 5 5 5 5 5 5 5 5 5 5 5 5 5 5 5 5 5 3 5 3 5 5 5 5 5 5 5 5 5 5 5 5 5 5 5 3 5 5 5 5 5 5 5 5 5 5 5 3 5 5 5 5 5 5 5 5 5 5 5 5 5 5 5 5 3 5 5 3 5 5 5 5 5 3 5 5 5 3 5 5 3 5 5 5 5 5 5 5 5 5 5 5 5 5 5 5 5 5 5 5 5 3 5 5 5 5 5 3 5 5 5 3 5 5 5 5 3 3 3 5 5 5 5 5 3 5 3 5 5 5 3 3 5 5 5 3 5 5 5 3 5 3 5 5 5 5 5 5 5 5 5 5 5 5 5 5 5 5 5 5 5 5 5 5 5 3 5 3 5 5 5 5 5 5 5 5 5 5 5 5 5 5 5 5 5 5 5 5 5 5 5 5 5 5 5 5 5 5 5 5 5 3 5 3 5 5 5 5 5 5 5 5 5 5 5 5 5 5 5 5 5 5 5 5 5 5 3 5 5 5 5 5 5 3 5 5 5 5 5 5 5 5 3 5 5 5 5 5 5 5 5 5 5 5 5 5 5 3 5 5 5 5 3 5 5 5 5 5 5 5 5 5 5 5 5 5 5 3 5 5 5 5 5 5 5 5 5 3 5 5 5 5 5 3 5 5 5 5 5 5 5 5 5 5 3 5 3 5 5 5 5 3 5 5 5 5 5 5 5 5 5 5 5 5 5 5 5 5 5 5 3 5 5 5 3 5 5 5 5 5 3 3 5 5 3 5 5 5 5 5 3 5 5 5 5 5 3 5 5 5 5 5 5 5 5 5 5 5 5 5 5 5 5 5 5 3 5 5 5 5 5 5 3 5 5 5 5 5 5 5 5 5 5 5 5 5 5 5 5 5 5 5 5 5 5 5 5 5 5 5 5 5 5 5 3 5 5 5 5 5 5 5 5 5 5 5 5 5 5 5 5 5 5 3 5 5 5 5 5 5 5 5 5 5 5 5 5 5 3 5 5 5 5 5 5 5 5 5 5 3 5 5 3 3 5 5 3 5 5 5 5 5 5 3 5 5 5 5 3 5 5 5 3 3 5 5 5 3 3 5 5 3 3 5 3 5 5 3 5 5 3 5 5 3 5 5 3 5 5 5 5 3 3 5 5 5 5 5 3 5 5 5 3 5 3 5 5 3 3 5 5 5 5 5 5 5 3 5 5 5 5 5 5 5 5 5 5 5 5 5 5 3 5 5 5 5 3 5 5 5 5 3 5 5 5 5 3 5 5 5 5 5 5 5 3 5 5 5 3 5 5 5 3 5 5 5 5 5 5 5 3 5 5 3 5 5 3 5 5 5 5 5 5 5 5 3 5 3 5 5 5 3 5 5 5 5 5 5 5 5 5 3 5 5 5 3 5 5 5 3 5 5 3 5 5 5 5 5 3 5 5 5 5 5 5 5 5 5 5 5 5 5 5 5 5 5 5 5 5 5 3 5 5 5 5 3 5 3 5 3 5 5 5 5 5 5 5 5 5 5 5 5 5 5 5 5 5 5 5 5 5 5 5 5 5 5 5 5 5 5 5 5 3 5 5 5 5 5 5 5 5 5 5 5 3 5 5 5 5 5 5 5 5 5 5 5 3 5 5 5 5 5 5 5 5 5 5 5 5 5 5 5 3 5 5 5 5 5 3 5 5 3 5 5 5 5 5 5 5 5 5 5 5 5 5 5 5 5 5 5 5 5 5 5 5 5 5 5 5 5 5 5 5 5 5 5 5 5 5 5 5 5 5 5 5 5 5 5 5 3 5 5 5 5 5 5 5 5 5 5 5 5 5 5 5 5 5 5 5 5 5 5 5 3 5 5 5 5 5 5 5 3 5 5 5 5 5 5 5 5 3 5 5 5 5 5 5 5 3 5 5 3 5 5 5 5 5 3 5 5 5 5 5 5 5 5 5 3 5 5 5 5 5 5 5 5 5 5 5 5 5 5 5 5 5 5 5 5 5 5 5 5 5 5 5 5 5 5 5 3 5 5 3 5 5 3 5 3 5 5 3 5 5 5 3 5 5 3 5 5 5 3 5 5 5 5 5 5 5 5 5 5 5 5 5 5 3 5 3 5 5 5 5 5 5 5 5 5 5 5 5 5 3 5 5 5 5 5 5 3 5 5 5 5 5 5 5 5 5 5 5 5 5 5 5 5 5 3 5 5 5 3 5 5 5 5 5 5 5 5 5 5 5 5 5 5 5 5 5 5 5 5 5 5 5 5 5 5 3 5 5 5 5 5 3 5 3 5 5 3 5 5 5 3 5 3 5 5 3 5 5 5 5 3 5 5 5 3 5 3 5 5 5 3 5 3 5 5 5 5 3 5 5 3 5 3 5 5 3 5 5 5 3 3 5 5 5 5 5 3 3 5 5 5 5 5 3 3 3 5 5 3 5 5 5 3 5 5 5 5 3 5 5 3 5 5 5 5 5 5 5 5 3 5 3 5 5 5 5 5 5 5 5 5 5 5 5 3 5 5 5 5 5 5 5 5 5 5 5 5 5 5 5 5 5 5 5 5 5 5 5 5 5 5 5 3 3 5 5 3 3 3 5 5 5 5 5 3 5 3 5 5 5 5 5 3 5 5 5 5 5 5 5 5 3 5 5 5 5 5 5 5 5 5 5 3 5 5 3 5 5 5 5 5 5 3 5 5 5 3 5 5 3 5 5 3 3 5 5 3 5 5 5 5 5 5 5 5 5 5 5 5 5 5 5 5 5 3 5 5 5 5 5 5 3 5 5 3 5 5 3 5 5 5 5 5 5 5 5 5 5 5 5 5 5 5 5 5 3 3 5 5 5 5 3 5 5 5 5 3 5 5 5 5 3 5 5 5 5 5 5 5 3 5 3 5 5 3 5 5 3 5 5 5 5 5 5 5 5 5 5 5 5 5 5 5 5 5 5 5 5 5 5 5 5 3 5 5 5 5 5 5 5 3 5 5 3 5 3 5 3 5 5 5 5 5 5 5 5 5 5 5 5 5 5 5 5 5 5 5 5 5 5 5 5 3 5 5 5 5 5 5 5 5 5 5 5 5 5 3 5 3 5 5 5 5 5 5 5 5 5 5 5 5 5 5 5 5 5 5 5 3 5 3 3 5 5 5 3 5 5 5 3 5 5 5 3 5 5 5 5 5 5 5 5 5 5 5 5 3 3 3 5 5 5 5 5 5 5 3 5 5 5 5 5 5 3 5 5 5 5 5 5 5 3 5 5 5 5 3 5 5 5 5 5 5 5 3 3 5 5 5 5 5 5 3 5 5 5 5 5 5 5 5 5 5 3 5 5 5 5 5 5 3 5 5 5 5 5 5 5 5 5 5 5 5 5 5 5 5 5 5 5 5 5 5 3 5 5 5 5 3 3 5 5 5 3 5 5 3 5 5 5 5 5 5 5 5 5 5 5 5 5 5 5 5 5 5 5 5 5 5 3 5 5 5 5 3 5 5 5 5 5 5 5 3 5 5 5 5 5 5 5 3 5 5 5 3 5 5 5 5 5 5 5 5 5 5 5 5 5 5 5 5 5 5 5 5 5 5 3 3 5 5 5 3 3 5 5 3 3 3 5 5 5 5 5 5 5 5 5 5 5 5 5 5 5 5 5 5 5 5 3 3 5 5 3 5 5 3 5 5 5 5 5 5 5 3 5 5 5 5 5 5 5 5 5 5 5 5 5 5 5 5 5 5 5 5 5 5 3 5 5 5 3 5 5 5 3 5 5 5 3 5 5 5 5 5 5 5 5 5 5 5 5 5 5 5 5 5 5 5 5 5 3 5 5 5 5 5 5 5 5 5 3 5 3 5 3 5 5 5 5 5 5 5 5 5 5 5 3 5 5 5 5 3 5 3 5 3 5 5 5 3 5 5 5 3 5 5 5 5 5 3 5 5 5 5 3 5 5 5 5 5 5 5 3 5 3 5 5 5 5 3 5 5 5 5 3 5 5 5 5 5 5 5 5 5 3 5 5 5 5 3 5 5 5 5 5 3 3 3 5 5 5 5 5 3 5 3 5 5 5 5 5 3 5 3 5 5 5 3 5 5 5 3 5 5 5 3 5 3 5 5 3 5 3 5 5 5 5 5 5 3 5 5 5 5 3 5 5 5 5 5 5 3 5 3 5 5 3 5 5 5 5 5 5 5 5 3 5 5 3 5 5 5 5 5 3 5 5 5 5 5 5 5 5 5 5 5 5 5 5 3 5 3 5 5 3 5 5 5 5 5 5 5 3 5 5 5 5 3 5 5 5 5 5 5 5 5 5 5 3 5 5 5 3 5 5 5 5 5 5 5 3 5 3 5 5 5 5 5 5 3 5 3 5 5 5 5 3 5 5 3 5 5 5 5 5 5 5 3 5 5 5 5 5 3 5 3 5 5 5 5 5 5 5 5 5 5 5 5 5 5 5 5 5 5 5 5 5 5 3 3 3 5 3 5 5 3 5 5 3 5 5 5 5 5 5 5 3 5 5 5 5 5 5 5 5 5 5 5 3 5 5 3 3 5 5 5 3 5 5 5 5 5 5 5 3 5 5 5 5 5 5 5 5 5 5 5 5 5 5 5 5 5 5 5 5 5 5 5 5 5 5 5 5 5 5 5 5 5 5 5 5 5 5 5 5 5 5 3 5 5 5 5 3 5 5 5 5 5 5 5 5 5 5 5 5 5 5 5 5 5 5 5 3 5 3 5 5 3 5 5 5 5 5 5 5 3 5 5 5 5 5 5 5 5 5 3 3 5 5 3 5 3 5 5 5 5 5 5 5 5 5 5 3 5 5 5 5 5 5 5 5 5 5 5 5 5 5 5 5 5 5 5 5 3 5 5 5 5 5 5 3 5 5 5 3 5 5 5 5 5 5 5 5 5 3 3 5 5 5 5 5 5 5 3 5 5 5 3 5 3 5 5 5 5 5 5 5 5 5 5 5 5 5 5 5 3 5 5 5 3 5 5 5 5 5 5 5 5 5 5 5 5 5 3 5 3 5 5 5 5 5 5 5 5 5 5 5 5 5 5 5 5 5 3 5 5 5 5 5 5 5 5 5 5 5 5 5 5 5 5 5 5 5 5 5 5 5 5 5 5 5 5 5 5 5 5 5 5 5 5 5 5 5 5 5 5 5 5 5 5 5 5 5 5 5 5 5 5 5 5 5 5 5 5 5 3 5 5 3 5 5 5 5 5 5 5 3 5 5 5 5 5 5 5 5 5 5 5 5 5 5 5 5 5 5 3 5 5 5 5 5 5 5 3 5 5 5 5 5 5 3 5 5 5 5 3 5 5 3 3 5 5 5 5 5 5 5 5 5 5 5 3 5 5 5 5 5 5 5 5 3 5 5 5 5 5 5 5 5 5 3 5 5 5 5 5 5 5 3 5 5 5 5 3 5 5 5 5 3 5 5 3 3 5 5 5 5 5 3 5 5 5 3 5 5 5 5 5 3 5 3 5 5 5 5 5 5 3 5 5 5 3 5 5 5 3 5 5 5 5 5 5 5 3 5 5 5 3 5 5 5 5 5 5 5 5 5 5 5 5 5 5 5 5 3 5 5 5 5 3 5 5 5 3 5 3 5 3 5 3 5 5 3 5 3 5 3 5 5 5 5 5 5 5 5 5 5 5 5 5 5 5 5 5 5 5 5 5 5 5 5 5 5 5 3 5 3 5 5 5 3 5 5 5 5 5 5 5 5 5 3 3 3 5 5 3 5 5 3 5 3 5 5 5 5 5 5 5 3 5 5 5 5 5 5 3 3 5 5 3 5 5 3 5 3 5 3 3 5 5 5 5 5 3 3 5 5 5 3 5 5 5 5 5 3 5 5 5 5 5 5 5 5 5 5 5 5 5 5 3 5 5 3 5 5 3 5 5 3 5 5 5 5 5 3 5 5 5 3 5 5 5 3 5 5 5 3 3 5 5 3 5 5 5 5 5 5 3 5 5 5 5 5 3 5 5 5 5 5 5 5 5 5 5 5 5 5 5 5 5 5 5 5 5 5 3 5 5 5 5 5 5 3 3 3 5 3 5 3 5 5 5 5 5 5 5 5 5 3 5 5 5 5 5 3 5 5 5 3 5 5 5 5 3 5 5 3 5 5 5 5 5 5 5 5 5 5 5 5 5 5 5 5 5 5 5 5 5 5 5 5 5 5 5 5 5 5 5 5 5 3 3 3 5 3 5 5 5 3 5 5 5 5 5 5 5 3 5 5 5 5 5 5 5 5 5 5 5 5 5 5 5 5 5 5 5 5 5 5 5 5 5 5 5 5 5 5 5 5 5 5 5 3 5 5 5 3 5 5 5 5 5 5 5 5 5 5 5 5 3 5 5 5 5 3 5 5 5 5 5 3 5 5 5 5 5 3 5 5 5 3 5 3 5 5 5 3 3 5 3 3 5 3 5 5 5 5 5 3 5 3 5 5 5 5 5 5 3 5 5 5 5 3 5 5 5 3 5 5 5 5 5 3 5 5 5 3 5 5 5 5 5 3 5 5 5 5 5 3 5 5 5 5 5 5 5 5 5 5 3 3 5 5 5 5 5 5 5 5 5 3 5 5 5 5 5 5 5 5 5 5 5 5 5 3 5 3 5 5 5 5 5 5 5 5 5 5 5 5 5 5 3 5 5 5 5 5 3 5 5 5 5 5 5 5 5 5 5 5 5 5 5 5 5 5 3 5 5 5 5 5 5 5 5 5 5 5 3 5 5 5 5 5 5 3 5 5 3 5 5 5 5 5 5 5 5 5 5 5 3 5 5 5 5 5 3 5 5 5 5 5 5 5 5 5 5 5 5 5 5 5 5 5 5 5 5 5 5 5 5 5 5 5 5 5 5 5 5 5 5 5 5 5 5 5 5 5 5 5 5 5 5 5 5 5 5 5 5 5 5 5 5 5 5 5 5 5 5 5 5 5 5 5 5 5 5 5 5 5 3 5 5 3 5 5 5 3 5 5 5 5 5 5 5 5 5 5 5 5 5 5 5 5 5 5 3 5 3 5 3 5 5 5 3 5 5 5 3 5 3 3 5 5 5 3 5 5 3 5 5 5 5 5 5 5 5 5 5 3 5 5 5 5 5 5 5 5 5 5 5 5 3 5 5 3 5 5 5 5 5 5 5 5 3 5 5 5 5 5 5 5 3 5 5 3 5 5 5 5 5 5 5 5 5 5 5 5 5 5 3 5 5 5 5 5 5 5 5 3 5 5 5 5 5 5 3 5 5 5 3 5 5 5 5 5 5 3 5 5 5 5 5 5 5 5 3 5 5 5 5 5 5 5 5 5 5 5 5 5 5 5 5 5 3 5 5 3 5 5 5 5 5 5 5 5 3 5 5 5 5 3 5 5 5 5 5 3 5 5 5 5 5 5 5 5 5 5 5 5 3 5 5 5 5 5 5 5 5 5 3 5 5 5 5 5 5 5 5 5 5 5 5 5 5 5 5 5 5 5 5 5 5 5 5 5 5 5 5 5 3 5 5 5 5 5 5 3 3 3 5 5 5 5 3 5 5 5 3 5 5 5 5 5 5 5 5 5 5 5 5 5 5 5 5 5 5 5 5 5 5 5 3 5 5 5 3 5 5 5 5 5 5 5 5 5 5 5 5 5 5 3 5 5 5 5 5 5 3 5 3 5 5 5 5 3 5 5 3 5 5 3 5 5 5 5 5 5 5 5 3 5 3 3 5 5 5 5 5 5 5 5 5 5 5 3 5 5 5 5 5 5 5 5 5 5 5 5 3 5 5 5 3 5 5 5 5 5 5 5 5 5 5 5 5 5 5 5 5 5 5 3 5 5 5 5 3 3 3 5 5 5 5 5 5 5 3 5 5 5 5 5 5 5 5 5 5 5 5 5 3 5 5 5 5 5 5 5 5 5 5 5 5 5 5 3 5 5 5 5 5 5 5 5 5 5 5 5 5 3 5 5 5 3 5 5 3 5 5 5 3 5 5 5 5 5 5 5 5 5 5 5 5 5 5 5 3 5 5 3 5 5 5 5 5 5 5 5 5 5 5 5 5 5 5 5 5 5 3 5 5 5 5 5 5 5 5 5 5 3 5 5 5 5 5 5 5 5 3 5 5 5 5 5 5 5 5 3 5 5 3 5 3 5 3 5 5 5 5 5 5 3 5 5 5 5 5 5 5 5 5 5 5 5 5 5 5 5 5 5 5 5 5 3 5 5 5 5 3 5 5 5 5 5 5 5 5 5 5 3 5 5 5 5 5 5 5 5 5 5 5 5 5 5 5 5 5 5 5 5 5 5 5 3 5 5 5 5 5 3 5 5 5 5 5 3 5 3 5 5 5 5 5 5 5 5 3 5 5 5 5 3 5 5 5 3 5 5 5 5 3 5 5 3 5 5 5 5 5 5 5 5 5 5 5 5 5 5 5 5 5 5 5 3 5 3 5 5 5 3 5 5 5 5 5 5 5 5 3 5 5 5 5 3 5 5 5 5 3 5 5 5 3 3 5 5 5 5 5 5 5 5 5 3 5 5 5 5 5 5 5 5 5 5 5 5 5 5 5 5 5 5 5 5 5 5 5 5 5 5 5 5 5 5 5 5 5 5 5 5 5 5 5 5 5 5 5 5 5 5 5 5 3 5 5 5 5 3 3 5 5 5 5 5 3 5 5 5 5 5 5 3 5 3 5 5 5 5 5 5 3 5 3 5 5 3 3 5 3 5 5 5 3 5 5 3 5 5 5 5 5 5 5 3 5 5 5 5 5 5 5 5 5 5 5 5 5 5 3 5 5 5 5 3 5 5 5 5 5 5 5 5 5 5 3 5 5 5 5 3 3 5 3 5 5 5 5 3 3 5 5 5 5 5 5 3 5 3 5 5 3 5 3 5 3 5 5 5 5 5 3 3 5 5 3 5 3 3 5 3 5 5 3 3 3 5 3 5 5 3 5 5 5 5 5 3 5 5 5 5 5 5 5 5 5 5 5 5 5 5 5 5 5 3 5 5 5 5 5 3 5 5 5 5 5 5 5 5 5 5 5 5 5 5 5 5 3 5 5 5 5 5 3 5 5 5 5 5 5 5 3 3 5 5 5 5 5 5 3 3 3 5 5 5 5 5 5 5 5 3 5 5 3 5 5 5 5 5 5 5 5 5 3 5 5 5 5 5 5 5 5 5 5 3 5 3 5 5 5 5 5 5 5 5 5 5 3 5 5 5 5 5 5 5 5 5 5 5 3 5 5 5 5 5 5 5 5 5 5 5 5 5 5 5 5 5 5 5 5 5 3 5 5 3 3 5 5 5 5 5 5 5 5 3 5 5 5 3 5 5 5 5 5 5 3 5 3 5 5 5 5 5 5 5 5 3 5 5 5 5 5 5 5 5 5 5 5 5 3 5 5 5 3 5 3 5 5 5 5 5 5 5 5 5 5 3 5 5 5 5 3 5 5 5 5 5 5 5 5 3 5 5 3 5 5 5 3 5 5 3 5 3 5 5 5 5 5 5 5 5 5 5 3 5 5 5 5 5 3 5 3 5 5 5 5 3 5 5 5 5 3 5 5 5 5 3 5 5 5 5 5 5 5 5 5 5 5 5 5 5 5 5 3 5 5 3 5 5 5 5 3 5 5 5 5 3 5 5 5 5 3 5 5 5 5 5 3 5 5 3 3 5 5 3 5 5 5 5 5 5 5 3 5 5 5 5 5 5 5 5 5 5 5 5 5 5 5 3 5 5 5 5 5 3 5 5 5 5 3 5 5 5 3 5 5 5 5 5 3 5 5 5 3 5 5 3 5 5 3 5 3 5 3 5 5 5 5 5 5 5 5 5 5 5 5 5 5 5 5 5 5 5 5 5 5 5 5 5 5 5 5 5 5 5 5 5 5 5 5 3 5 3 5 5 5 5 5 3 5 5 5 3 5 5 5 5 5 5 5 5 5 5 5 5 5 5 5 5 5 5 5 5 5 5 5 5 5 3 5 5 5 3 5 5 5 5 5 5 5 3 5 5 5 5 5 5 5 5 3 5 5 5 5 5 5 5 5 3 5 5 5 5 3 5 5 5 5 5 3 5 3 5 5 5 5 5 5 5 5 5 5 5 5 5 3 5 5 3 3 5 3 5 5 5 5 5 5 5 5 5 5 5 5 5 5 5 3 5 5 5 5 5 5 5 5 5 5 5 5 5 5 5 3 5 5 5 5 3 5 5 5 3 5 3 5 5 5 5 5 5 5 5 5 5 5 5 5 5 5 5 5 5 5 5 5 5 5 5 5 5 5 5 5 3 5 5 5 5 5 3 5 5 5 5 5 3 3 3 5 5 5 5 5 3 5 5 3 5 5 5 5 5 5 5 3 5 5 5 5 5 5 5 5 3 5 5 3 5 3 5 5 5 5 5 5 3 5 5 5 5 3 5 5 5 5 5 5 5 5 5 5 5 5 5 5 5 5 5 3 3 5 5 5 5 5 5 5 5 5 5 5 5 3 5 3 5 5 3 5 5 5 5 3 5 5 3 5 5 5 3 5 5 3 3 5 5 5 5 5 5 5 5 5 5 3 5 5 5 5 5 5 5 3 5 5 5 5 3 5 3 5 5 3 5 5 5 5 5 5 3 5 5 5 5 5 3 5 5 3 5 5 5 5 5 5 5 5 5 5 5 5 5 5 5 5 5 5 5 5 5 5 5 5 5 5 5 3 5 3 5 5 5 5 5 5 5 5 5 3 5 5 3 5 5 5 5 5 5 5 5 3 5 5 5 5 5 5 3 5 5 5 3 5 5 5 5 5 5 5 5 3 3 5 5 5 5 5 5 5 5 5 5 5 5 5 5 3 5 5 5 5 5 5 5 5 5 5 5 5 5 5 5 5 5 5 5 5 5 5 5 5 5 5 3 5 5 5 5 5 3 5 5 3 5 5 5 5 5 5 5 5 3 5 5 3 5 5 5 5 5 5 5 5 3 5 5 5 5 5 5 5 5 5 3 5 3 5 5 5 5 5 5 5 5 5 5 5 5 5 5 5 5 5 5 5 3 5 5 5 3 5 5 5 5 5 5 5 5 5 5 5 5 3 5 3 5 3 5 3 5 5 5 5 5 3 5 5 3 5 5 5 5 5 5 5 3 5 5 3 5 3 5 5 5 3 5 5 5 5 5 3 5 5 5 5 5 5 5 5 5 5 5 5 5 5 5 5 5 5 5 5 5 5 5 5 5 5 5 5 5 5 5 5 5 5 5 5 5 5 5 5 5 5 5 5 5 5 5 5 5 5 5 5 5 5 5 5 5 5 5 5 3 5 5 5 5 5 5 5 3 5 5 5 5 3 5 5 5 5 3 5 5 5 5 5 3 5 5 5 5 5 5 5 5 5 5 5 5 5 5 5 5 5 5 5 3 5 5 5 5 5 5 5 5 5 5 5 5 3 5 5 5 5 3 3 5 5 3 5 5 5 5 5 5 5 5 5 5 5 3 5 5 5 3 5 5 5 5 5 5 5 5 5 5 5 5 5 5 5 5 5 5 5 5 5 5 5 5 5 5 5 5 5 5 5 5 5 5 5 3 5 5 5 5 5 5 5 5 3 5 5 5 5 5 5 5 5 5 5 3 5 5 3 5 5 5 5 5 3 5 5 5 5 5 5 5 5 5 5 5 3 3 5 5 5 5 5 5 5 5 5 5 5 5 5 5 5 5 5 5 5 5 5 5 5 5 
</DataArray>
</Cells>
<PointData Scalars="" Vectors="displacement," Tensors="">
<DataArray type="Float64" Name="displacement" NumberOfComponents="3" format="ascii">
0.024997791623860753 5.1367045746522865e-07 0 0.023837651319347196 0.00011044050607395001 0 0.024558011058546797 0.00011617907797284258 0 0.024997791623860753 5.1367045746522865e-07 0 0.024558011058546797 0.00011617907797284258 0 0.024999113601676694 1.025845594397965e-07 0 0.024997791623860753 5.1367045746522865e-07 0 0.023837651319347196 0.00011044050607395001 0 0.021848486480571954 -2.7305880272507792e-07 0 0.023837651319347196 0.00011044050607395001 0 0.023219694957471664 -0.00014811670994621169 0 0.021848486480571954 -2.7305880272507792e-07 0 0.023837651319347196 0.00011044050607395001 0 0.023219694957471664 -0.00014811670994621169 0 0.024278406455866992 -3.0564806480667622e-05 0 0.022514782800803698 -1.844543146043531e-06 0 0.023408689793257238 7.2512512665881453e-05 0 0.022348792258795033 -3.7047622068785493e-06 0 0.021818622259347938 5.793709790692747e-05 0 0.02256187148483595 0.00017953765852582327 0 0.024278406455866992 -3.0564806480667622e-05 0 0.024558011058546797 0.00011617907797284258 0 0.024744167718133505 3.1282854094062378e-05 0 0.023837651319347196 0.00011044050607395001 0 0.024278406455866992 -3.0564806480667622e-05 0 0.024558011058546797 0.00011617907797284258 0 0.024558011058546797 0.00011617907797284258 0 0.024999113601676694 1.025845594397965e-07 0 0.024744167718133505 3.1282854094062378e-05 0 0.024849446535017021 2.561444633606975e-05 0 0.024176318096150375 0.00010372712177207389 0 0.024998749441273036 8.5203296979236651e-07 0 0.023602529365130021 0.00026693088118773977 0 0.024235479324824602 9.6094812940247649e-05 0 0.024235479324824602 9.6094812940247649e-05 0 0.024523330191675165 -0.00025669513547508664 0 0.024862696703313449 5.7867345583972422e-05 0 0.02499924705214435 1.6107331056379682e-09 0 0.024235479324824602 9.6094812940247649e-05 0 0.024862696703313449 5.7867345583972422e-05 0 0.024998749441273036 8.5203296979236651e-07 0 0.02499924705214435 1.6107331056379682e-09 0 0.024235479324824602 9.6094812940247649e-05 0 0.024235479324824602 9.6094812940247649e-05 0 0.023356706038003227 -0.00030881034248792639 0 0.024523330191675165 -0.00025669513547508664 0 0.023356706038003227 -0.00030881034248792639 0 0.02271568728882627 -0.00059630980874515564 0 0.022831492917996118 -0.00018935229435109572 0 0.023394216344614093 -0.0003355464565844116 0 0.02362343939174583 -0.00041058299714846882 0 0.02256187148483595 0.00017953765852582327 0 0.023602529365130021 0.00026693088118773977 0 0.02312964485694962 -7.2586590281709484e-05 0 0.023408689793257238 7.2512512665881453e-05 0 0.024176318096150375 0.00010372712177207389 0 0.024235479324824602 9.6094812940247649e-05 0 0.023356706038003227 -0.00030881034248792639 0 0.02312964485694962 -7.2586590281709484e-05 0 0.023602529365130021 0.00026693088118773977 0 0.024235479324824602 9.6094812940247649e-05 0 0.02312964485694962 -7.2586590281709484e-05 0 0.023356706038003227 -0.00030881034248792639 0 0.02312964485694962 -7.2586590281709484e-05 0 0.022891162194290198 -0.00016964056207041192 0 0.022348792258795033 -3.7047622068785493e-06 0 0.02256187148483595 0.00017953765852582327 0 0.02312964485694962 -7.2586590281709484e-05 0 0.022348792258795033 -3.7047622068785493e-06 0 0.02312964485694962 -7.2586590281709484e-05 0 0.02252571317120405 -9.3076908999512368e-05 0 0.02312964485694962 -7.2586590281709484e-05 0 0.02252571317120405 -9.3076908999512368e-05 0 0.022891162194290198 -0.00016964056207041192 0 0.02252571317120405 -9.3076908999512368e-05 0 0.022891162194290198 -0.00016964056207041192 0 0.02232168367266623 -0.00013248008893661218 0 0.022891162194290198 -0.00016964056207041192 0 0.02232168367266623 -0.00013248008893661218 0 0.022722372158803936 -0.00012816344925783513 0 0.02232168367266623 -0.00013248008893661218 0 0.021574855480276784 -9.4158289467961145e-05 0 0.021965993644713334 -5.1531834128071165e-05 0 0.02252571317120405 -9.3076908999512368e-05 0 0.02232168367266623 -0.00013248008893661218 0 0.021965993644713334 -5.1531834128071165e-05 0 0.022891162194290198 -0.00016964056207041192 0 0.022831492917996118 -0.00018935229435109572 0 0.022722372158803936 -0.00012816344925783513 0 0.023356706038003227 -0.00030881034248792639 0 0.022891162194290198 -0.00016964056207041192 0 0.022831492917996118 -0.00018935229435109572 0 0.022831492917996118 -0.00018935229435109572 0 0.02260832072824084 -8.8740612122947877e-05 0 0.022548329125097175 -0.00019484566941359616 0 0.022831492917996118 -0.00018935229435109572 0 0.022722372158803936 -0.00012816344925783513 0 0.02260832072824084 -8.8740612122947877e-05 0 0.022722372158803936 -0.00012816344925783513 0 0.02260832072824084 -8.8740612122947877e-05 0 0.022626085339584656 -8.3638812511859105e-05 0 0.02260832072824084 -8.8740612122947877e-05 0 0.022626085339584656 -8.3638812511859105e-05 0 0.022577189900017385 -6.5705286431174266e-05 0 0.02268131556736842 -8.3521476786614735e-05 0 0.022408278317956585 -0.00022523532650601676 0 0.022722372158803936 -0.00012816344925783513 0 0.022626085339584656 -8.3638812511859105e-05 0 0.022527826720929088 -6.8687049137867388e-05 0 0.022626085339584656 -8.3638812511859105e-05 0 0.022566180558889912 -0.00011162905209656484 0 0.022527826720929088 -6.8687049137867388e-05 0 0.022626085339584656 -8.3638812511859105e-05 0 0.022566180558889912 -0.00011162905209656484 0 0.022577189900017385 -6.5705286431174266e-05 0 0.02232168367266623 -0.00013248008893661218 0 0.021902025901616228 -0.00022109014582154452 0 0.021574855480276784 -9.4158289467961145e-05 0 0.02232168367266623 -0.00013248008893661218 0 0.022722372158803936 -0.00012816344925783513 0 0.022361232702003964 -0.00025655900572813065 0 0.02232168367266623 -0.00013248008893661218 0 0.022361232702003964 -0.00025655900572813065 0 0.021902025901616228 -0.00022109014582154452 0 0.022361232702003964 -0.00025655900572813065 0 0.021902025901616228 -0.00022109014582154452 0 0.021979278572248729 -0.00045865551048506316 0 0.022566180558889912 -0.00011162905209656484 0 0.022527826720929088 -6.8687049137867388e-05 0 0.022342706374734095 -0.00017215418876279746 0 0.022408278317956585 -0.00022523532650601676 0 0.022515477463737506 -7.9716214614438112e-05 0 0.021902025901616228 -0.00022109014582154452 0 0.021190954555957629 -0.00029283643690647344 0 0.021979278572248729 -0.00045865551048506316 0 0.021902025901616228 -0.00022109014582154452 0 0.021190954555957629 -0.00029283643690647344 0 0.021574855480276784 -9.4158289467961145e-05 0 0.021190954555957629 -0.00029283643690647344 0 0.020694013496933044 -1.6182601680771113e-05 0 0.019506790076979093 -0.00025683082109162887 0 0.021574855480276784 -9.4158289467961145e-05 0 0.020694013496933044 -1.6182601680771113e-05 0 0.02145865002085659 -1.4811495919540048e-05 0 0.021190954555957629 -0.00029283643690647344 0 0.021574855480276784 -9.4158289467961145e-05 0 0.020694013496933044 -1.6182601680771113e-05 0 0.019450609719907676 8.9159145936631211e-07 0 0.020694013496933044 -1.6182601680771113e-05 0 0.019506790076979093 -0.00025683082109162887 0 0.019450609719907676 8.9159145936631211e-07 0 0.020694013496933044 -1.6182601680771113e-05 0 0.021513293455646926 -2.9627772779660232e-05 0 0.023219694957471664 -0.00014811670994621169 0 0.021848486480571954 -2.7305880272507792e-07 0 0.021513293455646926 -2.9627772779660232e-05 0 0.019450609719907676 8.9159145936631211e-07 0 0.021848486480571954 -2.7305880272507792e-07 0 0.021513293455646926 -2.9627772779660232e-05 0 0.020694013496933044 -1.6182601680771113e-05 0 0.021513293455646926 -2.9627772779660232e-05 0 0.02145865002085659 -1.4811495919540048e-05 0 0.022514782800803698 -1.844543146043531e-06 0 0.02168986467216337 -4.5374881377085671e-05 0 0.021818622259347938 5.793709790692747e-05 0 0.021965993644713334 -5.1531834128071165e-05 0 0.02145865002085659 -1.4811495919540048e-05 0 0.021818622259347938 5.793709790692747e-05 0 0.021513293455646926 -2.9627772779660232e-05 0 0.02145865002085659 -1.4811495919540048e-05 0 0.022348792258795033 -3.7047622068785493e-06 0 0.021818622259347938 5.793709790692747e-05 0 0.021965993644713334 -5.1531834128071165e-05 0 0.022348792258795033 -3.7047622068785493e-06 0 0.02252571317120405 -9.3076908999512368e-05 0 0.021965993644713334 -5.1531834128071165e-05 0 0.021574855480276784 -9.4158289467961145e-05 0 0.021965993644713334 -5.1531834128071165e-05 0 0.02145865002085659 -1.4811495919540048e-05 0 0.024998733344335229 -3.8287619708093768e-08 0 0.024996496649906122 1.2626295196770325e-07 0 0.024999901653997604 9.7909410139354428e-08 0 0.024998733344335229 -3.8287619708093768e-08 0 0.024999901653997604 9.7909410139354428e-08 0 0.025000033372931156 -4.8937928707266993e-08 0 0.02447129535524949 -0.00020118045270523918 0 0.024527094767157299 -0.00018929690965731219 0 0.024453182779782409 -0.00021949024220112016 0 0.02447129535524949 -0.00020118045270523918 0 0.024398485172549604 -0.00020169982290574415 0 0.024453182779782409 -0.00021949024220112016 0 0.02447129535524949 -0.00020118045270523918 0 0.024470145430668985 -0.00018632811806040272 0 0.024467686048655624 -0.00017957706141289028 0 0.02447129535524949 -0.00020118045270523918 0 0.024527094767157299 -0.00018929690965731219 0 0.024470145430668985 -0.00018632811806040272 0 0.024527094767157299 -0.00018929690965731219 0 0.02450770129164714 -0.00014183618936958279 0 0.024470145430668985 -0.00018632811806040272 0 0.024527094767157299 -0.00018929690965731219 0 0.024665264946632834 -0.00013501422570813771 0 0.024453182779782409 -0.00021949024220112016 0 0.024527094767157299 -0.00018929690965731219 0 0.024646960394958603 -0.0001209146840814497 0 0.02450770129164714 -0.00014183618936958279 0 0.024527094767157299 -0.00018929690965731219 0 0.024646960394958603 -0.0001209146840814497 0 0.024665264946632834 -0.00013501422570813771 0 0.024646960394958603 -0.0001209146840814497 0 0.02457244492345086 -1.271907052529739e-05 0 0.0249991047660796 1.4839766941326499e-07 0 0.024761465755598188 -2.2307666077756229e-05 0 0.024999953822106239 1.6015353017683257e-08 0 0.024761465755598188 -2.2307666077756229e-05 0 0.024852629615631901 -8.2859338556836558e-06 0 0.024646960394958603 -0.0001209146840814497 0 0.02457244492345086 -1.271907052529739e-05 0 0.02450770129164714 -0.00014183618936958279 0 0.02457244492345086 -1.271907052529739e-05 0 0.02450770129164714 -0.00014183618936958279 0 0.024441779804705851 -8.4595623377290148e-05 0 0.02450770129164714 -0.00014183618936958279 0 0.024441779804705851 -8.4595623377290148e-05 0 0.024440639630422901 -0.00014706085868038997 0 0.024996496649906122 1.2626295196770325e-07 0 0.024991884776353404 -1.3630540983449502e-06 0 0.024996187113139112 6.4205417524917344e-07 0 0.024441779804705851 -8.4595623377290148e-05 0 0.024440639630422901 -0.00014706085868038997 0 0.024370081709207549 -0.00012021901654036441 0 0.024852629615631901 -8.2859338556836558e-06 0 0.024032746358798394 -0.00012877363821396759 0 0.02441209324947749 -0.00017659394432537704 0 0.024440639630422901 -0.00014706085868038997 0 0.024370081709207549 -0.00012021901654036441 0 0.023072514335899474 -0.00046390906815866825 0 0.024032746358798394 -0.00012877363821396759 0 0.02450770129164714 -0.00014183618936958279 0 0.024440639630422901 -0.00014706085868038997 0 0.024470145430668985 -0.00018632811806040272 0 0.02441209324947749 -0.00017659394432537704 0 0.024440639630422901 -0.00014706085868038997 0 0.024470145430668985 -0.00018632811806040272 0 0.024470145430668985 -0.00018632811806040272 0 0.024447876993838213 -0.00018934884564367378 0 0.024467686048655624 -0.00017957706141289028 0 0.02441209324947749 -0.00017659394432537704 0 0.024470145430668985 -0.00018632811806040272 0 0.024447876993838213 -0.00018934884564367378 0 0.021844833306966484 -0.00071134720007926065 0 0.021713839772780762 -0.00048680299773453973 0 0.021932137196051853 -0.00044970346100116408 0 0.023072514335899474 -0.00046390906815866825 0 0.023112016569919298 -0.0003067469895947649 0 0.02499924705214435 1.6107331056379682e-09 0 0.024999901653997604 9.7909410139354428e-08 0 0.024862696703313449 5.7867345583972422e-05 0 0.021844833306966484 -0.00071134720007926065 0 0.022066779476014181 -0.0006646724935375904 0 0.021932137196051853 -0.00044970346100116408 0 0.022066779476014181 -0.0006646724935375904 0 0.022205368137800285 -0.00047880380228553377 0 0.021932137196051853 -0.00044970346100116408 0 0.021983783627201246 -0.00047015120827760765 0 0.023621744554559804 -0.00040420973973867937 0 0.022066779476014181 -0.0006646724935375904 0 0.022205368137800285 -0.00047880380228553377 0 0.022445964832375841 -0.0007713368252228155 0 0.022066779476014181 -0.0006646724935375904 0 0.022205377199058188 -0.00085688340991458569 0 0.022445964832375841 -0.0007713368252228155 0 0.023487159154449815 -0.00048894373161580769 0 0.023621744554559804 -0.00040420973973867937 0 0.022066779476014181 -0.0006646724935375904 0 0.022205377199058188 -0.00085688340991458569 0 0.021978462378810997 -0.00093636225970902104 0 0.021844833306966484 -0.00071134720007926065 0 0.022066779476014181 -0.0006646724935375904 0 0.021978462378810997 -0.00093636225970902104 0 0.02499847035630156 -1.8862137347018202e-05 0 0.024996187113139112 6.4205417524917344e-07 0 0.024975271111175774 -5.3669319734720566e-07 0 0.024032746358798394 -0.00012877363821396759 0 0.025066144363831196 -9.2838756844809204e-05 0 0.02496924292571058 -3.4743038425141056e-05 0 0.02499847035630156 -1.8862137347018202e-05 0 0.024975271111175774 -5.3669319734720566e-07 0 0.023487159154449815 -0.00048894373161580769 0 0.024032746358798394 -0.00012877363821396759 0 0.024996496649906122 1.2626295196770325e-07 0 0.024996187113139112 6.4205417524917344e-07 0 0.024999901653997604 9.7909410139354428e-08 0 0.024999901653997604 9.7909410139354428e-08 0 0.024975271111175774 -5.3669319734720566e-07 0 0.024862696703313449 5.7867345583972422e-05 0 0.02496924292571058 -3.4743038425141056e-05 0 0.024975271111175774 -5.3669319734720566e-07 0 0.024862696703313449 5.7867345583972422e-05 0 0.024996187113139112 6.4205417524917344e-07 0 0.024999901653997604 9.7909410139354428e-08 0 0.024975271111175774 -5.3669319734720566e-07 0 0.025180633394830454 1.2629486234404398e-05 0 0.023621744554559804 -0.00040420973973867937 0 0.02496924292571058 -3.4743038425141056e-05 0 0.024862696703313449 5.7867345583972422e-05 0 0.024898890415137809 -4.6343233055225231e-05 0 0.024523330191675165 -0.00025669513547508664 0 0.024862696703313449 5.7867345583972422e-05 0 0.024950443628398381 -0.00017366482616570892 0 0.02362343939174583 -0.00041058299714846882 0 0.023621744554559804 -0.00040420973973867937 0 0.022174036971042341 -0.00043119044274350974 0 0.022382183062432896 -0.0007053419341348276 0 0.022451776616599296 -0.00044213709611102159 0 0.02271568728882627 -0.00059630980874515564 0 0.022831492917996118 -0.00018935229435109572 0 0.022451776616599296 -0.00044213709611102159 0 0.02271568728882627 -0.00059630980874515564 0 0.022382183062432896 -0.0007053419341348276 0 0.022451776616599296 -0.00044213709611102159 0 0.022831492917996118 -0.00018935229435109572 0 0.022451776616599296 -0.00044213709611102159 0 0.022548329125097175 -0.00019484566941359616 0 0.022174036971042341 -0.00043119044274350974 0 0.022451776616599296 -0.00044213709611102159 0 0.022250187403161783 -0.00023586291823604646 0 0.022451776616599296 -0.00044213709611102159 0 0.022548329125097175 -0.00019484566941359616 0 0.022250187403161783 -0.00023586291823604646 0 0.022548329125097175 -0.00019484566941359616 0 0.02238834346583414 -0.00011470234584036259 0 0.022250187403161783 -0.00023586291823604646 0 0.02260832072824084 -8.8740612122947877e-05 0 0.022548329125097175 -0.00019484566941359616 0 0.02238834346583414 -0.00011470234584036259 0 0.02260832072824084 -8.8740612122947877e-05 0 0.022401959479855939 3.2757638010844533e-06 0 0.02238834346583414 -0.00011470234584036259 0 0.02260832072824084 -8.8740612122947877e-05 0 0.022577189900017385 -6.5705286431174266e-05 0 0.022401959479855939 3.2757638010844533e-06 0 0.01796850322563532 -0.00098476872089148237 0 0.017633640672476653 -0.0010684713561249135 0 0.013415883399435766 -0.0018895643530346346 0 0.012784689353706245 -0.0021646164767233022 0 0.012845585736930124 -0.0016061890308640275 0 0.022401959479855939 3.2757638010844533e-06 0 0.02238834346583414 -0.00011470234584036259 0 0.022106074195722445 -3.6215679326000473e-05 0 0.017633640672476653 -0.0010684713561249135 0 0.016971016377723205 -0.0012197188793161683 0 0.012784689353706245 -0.0021646164767233022 0 0.012224578889599132 -0.0023286421579224504 0 0.012170191478658408 -0.0017976951097878741 0 0.012224578889599132 -0.0023286421579224504 0 0.011770372648818575 -0.0020604901636065093 0 0.012170191478658408 -0.0017976951097878741 0 0.012224578889599132 -0.0023286421579224504 0 0.011833992424240289 -0.0023729351065595898 0 0.011770372648818575 -0.0020604901636065093 0 0.022106074195722445 -3.6215679326000473e-05 0 0.021785497339663312 -0.00014939200940754165 0 0.021876894113988851 -0.00015892919480070753 0 0.016971016377723205 -0.0012197188793161683 0 0.017764398562967222 -0.0012350369597847642 0 0.022106074195722445 -3.6215679326000473e-05 0 0.021947033082018511 -0.00020580787324435266 0 0.021876894113988851 -0.00015892919480070753 0 0.02238834346583414 -0.00011470234584036259 0 0.022106074195722445 -3.6215679326000473e-05 0 0.022250187403161783 -0.00023586291823604646 0 0.022106074195722445 -3.6215679326000473e-05 0 0.021947033082018511 -0.00020580787324435266 0 0.022250187403161783 -0.00023586291823604646 0 0.022174036971042341 -0.00043119044274350974 0 0.021947033082018511 -0.00020580787324435266 0 0.022250187403161783 -0.00023586291823604646 0 0.021983783627201246 -0.00047015120827760765 0 0.02202911583623 -0.00022225918839877289 0 0.021947033082018511 -0.00020580787324435266 0 0.021932137196051853 -0.00044970346100116408 0 0.021851890405171878 -0.00025135447605380181 0 0.022205368137800285 -0.00047880380228553377 0 0.021947033082018511 -0.00020580787324435266 0 0.021932137196051853 -0.00044970346100116408 0 0.021932137196051853 -0.00044970346100116408 0 0.021751592762658995 -0.00031252144678399377 0 0.021851890405171878 -0.00025135447605380181 0 0.021713839772780762 -0.00048680299773453973 0 0.021932137196051853 -0.00044970346100116408 0 0.021751592762658995 -0.00031252144678399377 0 0.023112016569919298 -0.0003067469895947649 0 0.022482615054044808 -0.00058585013668853371 0 0.021713839772780762 -0.00048680299773453973 0 0.021751592762658995 -0.00031252144678399377 0 0.021599605295114486 -0.00027544649202445058 0 0.024447876993838213 -0.00018934884564367378 0 0.024453711405249861 -0.00018803595027477041 0 0.024467686048655624 -0.00017957706141289028 0 0.022482615054044808 -0.00058585013668853371 0 0.017764398562967222 -0.0012350369597847642 0 0.02038017562191206 -0.000880809475802989 0 0.020618628507881195 -0.0020043430955871836 0 0.018460677096600386 -0.0018234309467507666 0 0.021751592762658995 -0.00031252144678399377 0 0.021599605295114486 -0.00027544649202445058 0 0.021813173623799535 -0.00015853500307284294 0 0.015512783308469022 -0.0020868694377608075 0 0.017764398562967222 -0.0012350369597847642 0 0.021751592762658995 -0.00031252144678399377 0 0.021851890405171878 -0.00025135447605380181 0 0.021813173623799535 -0.00015853500307284294 0 0.021851890405171878 -0.00025135447605380181 0 0.021813173623799535 -0.00015853500307284294 0 0.021876894113988851 -0.00015892919480070753 0 0.021947033082018511 -0.00020580787324435266 0 0.021851890405171878 -0.00025135447605380181 0 0.021876894113988851 -0.00015892919480070753 0 0.017764398562967222 -0.0012350369597847642 0 0.020895508410824264 -0.0010502957175097455 0 0.011833992424240289 -0.0023729351065595898 0 0.011770372648818575 -0.0020604901636065093 0 0.011615926373635342 -0.0021298325006077778 0 0.011615926373635342 -0.0021298325006077778 0 0.011518082158285555 -0.0020882835859133836 0 0.01140840148945149 -0.0018745499810537327 0 0.011770372648818575 -0.0020604901636065093 0 0.011615926373635342 -0.0021298325006077778 0 0.01140840148945149 -0.0018745499810537327 0 0.011623190818974968 -0.0022549270842163547 0 0.011833992424240289 -0.0023729351065595898 0 0.011615926373635342 -0.0021298325006077778 0 0.011623190818974968 -0.0022549270842163547 0 0.011615926373635342 -0.0021298325006077778 0 0.011518082158285555 -0.0020882835859133836 0 0.011623190818974968 -0.0022549270842163547 0 0.011518082158285555 -0.0020882835859133836 0 0.011540991792167809 -0.0022002906665932755 0 0.015512783308469022 -0.0020868694377608075 0 0.017466822710970026 -0.0031581061977767411 0 0.011518082158285555 -0.0020882835859133836 0 0.011477549093563395 -0.0020661627699307883 0 0.011540991792167809 -0.0022002906665932755 0 0.02266761059043549 -0.0019712412103939192 0 0.022699391773683304 -0.0012282522224024899 0 0.023349956797611201 -0.0010982778704291118 0 0.022699391773683304 -0.0012282522224024899 0 0.022376933942065923 -0.00034811174408335148 0 0.023349956797611201 -0.0010982778704291118 0 0.022699391773683304 -0.0012282522224024899 0 0.022157640062125693 -0.0011620973247906735 0 0.022376933942065923 -0.00034811174408335148 0 0.02266761059043549 -0.0019712412103939192 0 0.022699391773683304 -0.0012282522224024899 0 0.022268198657542974 -0.0016863433059009535 0 0.022699391773683304 -0.0012282522224024899 0 0.022157640062125693 -0.0011620973247906735 0 0.022268198657542974 -0.0016863433059009535 0 0.017466822710970026 -0.0031581061977767411 0 0.020100839922720118 -0.0034884501408411969 0 0.02038017562191206 -0.000880809475802989 0 0.021490234950223168 -0.0011368576359882586 0 0.022376933942065923 -0.00034811174408335148 0 0.020618628507881195 -0.0020043430955871836 0 0.022652513081183521 -0.0021033857242990983 0 0.022268198657542974 -0.0016863433059009535 0 0.020618628507881195 -0.0020043430955871836 0 0.022268198657542974 -0.0016863433059009535 0 0.021636989934738397 -0.0014920537851575697 0 0.022157640062125693 -0.0011620973247906735 0 0.022268198657542974 -0.0016863433059009535 0 0.021636989934738397 -0.0014920537851575697 0 0.020618628507881195 -0.0020043430955871836 0 0.021636989934738397 -0.0014920537851575697 0 0.021490234950223168 -0.0011368576359882586 0 0.02038017562191206 -0.000880809475802989 0 0.020618628507881195 -0.0020043430955871836 0 0.021490234950223168 -0.0011368576359882586 0 0.022157640062125693 -0.0011620973247906735 0 0.021490234950223168 -0.0011368576359882586 0 0.022376933942065923 -0.00034811174408335148 0 0.022157640062125693 -0.0011620973247906735 0 0.021636989934738397 -0.0014920537851575697 0 0.021490234950223168 -0.0011368576359882586 0 0.024453711405249861 -0.00018803595027477041 0 0.024467686048655624 -0.00017957706141289028 0 0.024469552333084156 -0.00013855898546179848 0 0.022482615054044808 -0.00058585013668853371 0 0.023403398204220917 -0.00026015942656306426 0 0.02447129535524949 -0.00020118045270523918 0 0.024467686048655624 -0.00017957706141289028 0 0.024469552333084156 -0.00013855898546179848 0 0.023403398204220917 -0.00026015942656306426 0 0.024080371969497416 -0.00016313832535683415 0 0.02447129535524949 -0.00020118045270523918 0 0.024398485172549604 -0.00020169982290574415 0 0.024469552333084156 -0.00013855898546179848 0 0.024398485172549604 -0.00020169982290574415 0 0.024469552333084156 -0.00013855898546179848 0 0.024175810817534265 -0.00017800824627801188 0 0.022376933942065923 -0.00034811174408335148 0 0.023770099598907139 -0.00061606566565873002 0 0.023349956797611201 -0.0010982778704291118 0 0.010103997644034199 -0.00091448668798018589 0 0.010595221814981801 -0.00080162740411823666 0 0.010710828813292614 -0.0012355860870468 0 0.010103997644034199 -0.00091448668798018589 0 0.010595221814981801 -0.00080162740411823666 0 0.0098871047771509329 -0.00031681119890926516 0 0.010595221814981801 -0.00080162740411823666 0 0.010710828813292614 -0.0012355860870468 0 0.01121776216630342 -0.0012455126940050638 0 0.0087497253085875772 -0.00033684302091777042 0 0.010360079496937343 -3.7062796710822381e-05 0 0.0094186795714918566 0.00032823069385841099 0 0.0095896316613245675 -0.00052039603294699703 0 0.010725632448009031 -0.001159881871277261 0 0.010710828813292614 -0.0012355860870468 0 0.010324247631404444 -0.0015156756669423427 0 0.010838291889130932 -0.0015558396920895118 0 0.010710828813292614 -0.0012355860870468 0 0.010838291889130932 -0.0015558396920895118 0 0.01121776216630342 -0.0012455126940050638 0 0.010158057872335998 -0.0013087718606838228 0 0.010324247631404444 -0.0015156756669423427 0 0.010082613995738912 -0.001540558989041698 0 0.010103997644034199 -0.00091448668798018589 0 0.010710828813292614 -0.0012355860870468 0 0.010324247631404444 -0.0015156756669423427 0 0.010181142422756929 -0.0012026530193070624 0 0.010285404808688428 -0.0014521314330780957 0 0.010539765003791798 -0.0019430344698311253 0 0.010059867087826028 -0.0017501336024706847 0 0.010055301328456702 -0.0016399510825312856 0 0.010324247631404444 -0.0015156756669423427 0 0.010539765003791798 -0.0019430344698311253 0 0.010055301328456702 -0.0016399510825312856 0 0.011518082158285555 -0.0020882835859133836 0 0.011477549093563395 -0.0020661627699307883 0 0.011478083590908881 -0.0020029109707632616 0 0.011477549093563395 -0.0020661627699307883 0 0.011478083590908881 -0.0020029109707632616 0 0.011441648322903345 -0.0020348699125219186 0 0.011059288899113576 -0.0019588564280727649 0 0.010616710345368426 -0.0018341993628399403 0 0.011059288899113576 -0.0019588564280727649 0 0.011369774327006437 -0.0018961755485052371 0 0.011518082158285555 -0.0020882835859133836 0 0.011478083590908881 -0.0020029109707632616 0 0.01140840148945149 -0.0018745499810537327 0 0.010539765003791798 -0.0019430344698311253 0 0.010838291889130932 -0.0015558396920895118 0 0.01140840148945149 -0.0018745499810537327 0 0.010324247631404444 -0.0015156756669423427 0 0.010539765003791798 -0.0019430344698311253 0 0.010838291889130932 -0.0015558396920895118 0 0.01140840148945149 -0.0018745499810537327 0 0.011574734760712987 -0.0015185963831393643 0 0.01121776216630342 -0.0012455126940050638 0 0.010838291889130932 -0.0015558396920895118 0 0.01140840148945149 -0.0018745499810537327 0 0.01121776216630342 -0.0012455126940050638 0 0.011770372648818575 -0.0020604901636065093 0 0.01140840148945149 -0.0018745499810537327 0 0.011766865424246511 -0.0017866689042948963 0 0.01140840148945149 -0.0018745499810537327 0 0.011766865424246511 -0.0017866689042948963 0 0.011574734760712987 -0.0015185963831393643 0 0.010205047673719152 -0.0010921396607854431 0 0.011298876396696021 -0.00048050309785697178 0 0.011699661745764332 -0.0010166720548988111 0 0.011481613718651144 -0.0015044677310157501 0 0.010725632448009031 -0.001159881871277261 0 0.011574734760712987 -0.0015185963831393643 0 0.010205047673719152 -0.0010921396607854431 0 0.011699661745764332 -0.0010166720548988111 0 0.010205047673719152 -0.0010921396607854431 0 0.010360079496937343 -3.7062796710822381e-05 0 0.011298876396696021 -0.00048050309785697178 0 0.0087497253085875772 -0.00033684302091777042 0 0.010205047673719152 -0.0010921396607854431 0 0.010360079496937343 -3.7062796710822381e-05 0 0.010360079496937343 -3.7062796710822381e-05 0 0.011298876396696021 -0.00048050309785697178 0 0.011395409857815517 5.1919808768486734e-05 0 0.010987431347218968 -0.00027145642478604444 0 0.010665326483765053 0.00015046606647280421 0 0.011298876396696021 -0.00048050309785697178 0 0.012089317078572265 -0.00075556717576923354 0 0.011699661745764332 -0.0010166720548988111 0 0.012061731237867149 -0.00080598657839512852 0 0.010665326483765053 0.00015046606647280421 0 0.011802258420842952 -0.0007067924967736523 0 0.011810975696997874 -0.00024423603181624918 0 0.011194066304537814 -0.00026432099913731148 0 0.011298876396696021 -0.00048050309785697178 0 0.012089317078572265 -0.00075556717576923354 0 0.011375313286639203 -9.4444705952720888e-05 0 0.011802258420842952 -0.0007067924967736523 0 0.012292157676097952 -0.00050953361345507033 0 0.011810975696997874 -0.00024423603181624918 0 0.011802258420842952 -0.0007067924967736523 0 0.012292157676097952 -0.00050953361345507033 0 0.012439792337189811 -0.0011071911434802856 0 0.012089317078572265 -0.00075556717576923354 0 0.012439792337189811 -0.0011071911434802856 0 0.011966852653878127 -0.0013800107347472217 0 0.012061731237867149 -0.00080598657839512852 0 0.012350421472490021 -0.0010422973301334743 0 0.012089317078572265 -0.00075556717576923354 0 0.011699661745764332 -0.0010166720548988111 0 0.011966852653878127 -0.0013800107347472217 0 0.011574734760712987 -0.0015185963831393643 0 0.011699661745764332 -0.0010166720548988111 0 0.011966852653878127 -0.0013800107347472217 0 0.011766865424246511 -0.0017866689042948963 0 0.011966852653878127 -0.0013800107347472217 0 0.012170191478658408 -0.0017976951097878741 0 0.011766865424246511 -0.0017866689042948963 0 0.011574734760712987 -0.0015185963831393643 0 0.011966852653878127 -0.0013800107347472217 0 0.011770372648818575 -0.0020604901636065093 0 0.011766865424246511 -0.0017866689042948963 0 0.012170191478658408 -0.0017976951097878741 0 0.012439792337189811 -0.0011071911434802856 0 0.011966852653878127 -0.0013800107347472217 0 0.012170191478658408 -0.0017976951097878741 0 0.012439792337189811 -0.0011071911434802856 0 0.012845585736930124 -0.0016061890308640275 0 0.013021237015681161 -0.0011593026282513538 0 0.012439792337189811 -0.0011071911434802856 0 0.012170191478658408 -0.0017976951097878741 0 0.012845585736930124 -0.0016061890308640275 0 0.012784689353706245 -0.0021646164767233022 0 0.012170191478658408 -0.0017976951097878741 0 0.012845585736930124 -0.0016061890308640275 0 0.013415883399435766 -0.0018895643530346346 0 0.012845585736930124 -0.0016061890308640275 0 0.013286022568784252 -0.0015113841476491322 0 0.012845585736930124 -0.0016061890308640275 0 0.013021237015681161 -0.0011593026282513538 0 0.013286022568784252 -0.0015113841476491322 0 0.013021237015681161 -0.0011593026282513538 0 0.013051559677292273 -0.00085084580145543493 0 0.013275213646569289 -0.00092573659899626559 0 0.013051559677292273 -0.00085084580145543493 0 0.013270038906579719 -0.00072698088205126027 0 0.013275213646569289 -0.00092573659899626559 0 0.013021237015681161 -0.0011593026282513538 0 0.013051559677292273 -0.00085084580145543493 0 0.012761698874928597 -0.00078540447062407678 0 0.012292157676097952 -0.00050953361345507033 0 0.012439792337189811 -0.0011071911434802856 0 0.012761698874928597 -0.00078540447062407678 0 0.012439792337189811 -0.0011071911434802856 0 0.013021237015681161 -0.0011593026282513538 0 0.012761698874928597 -0.00078540447062407678 0 0.012292157676097952 -0.00050953361345507033 0 0.012761698874928597 -0.00078540447062407678 0 0.012873651519971293 -0.00027682929683274201 0 0.0085919818619804959 -0.0027261924085292604 0 0.0095928458169508464 -0.002772252294950487 0 0.0098536932445431376 -0.0033583432678753198 0 0.013051559677292273 -0.00085084580145543493 0 0.012873651519971293 -0.00027682929683274201 0 0.013270038906579719 -0.00072698088205126027 0 0.012873651519971293 -0.00027682929683274201 0 0.013270038906579719 -0.00072698088205126027 0 0.013453956960100939 -0.00061964667783039518 0 0.010664903965208271 -0.0015490330222834229 0 0.01198826413433508 -0.0013818268340587488 0 0.013051559677292273 -0.00085084580145543493 0 0.012761698874928597 -0.00078540447062407678 0 0.012873651519971293 -0.00027682929683274201 0 0.0085919818619804959 -0.0027261924085292604 0 0.0091596394376839904 -0.0023339922806005888 0 0.0095928458169508464 -0.002772252294950487 0 0.0085919818619804959 -0.0027261924085292604 0 0.0091596394376839904 -0.0023339922806005888 0 0.0087866406411382519 -0.0017397354180235165 0 0.0091596394376839904 -0.0023339922806005888 0 0.0087866406411382519 -0.0017397354180235165 0 0.0096645801951884772 -0.0020966650694356609 0 0.0085919818619804959 -0.0027261924085292604 0 0.0087866406411382519 -0.0017397354180235165 0 0.0072788837472013744 -0.0020778561632888467 0 0.010664903965208271 -0.0015490330222834229 0 0.0098093289010216765 -0.0010587390665139629 0 0.012292157676097952 -0.00050953361345507033 0 0.012873651519971293 -0.00027682929683274201 0 0.012150514371661066 0.00015918659610273593 0 0.0087866406411382519 -0.0017397354180235165 0 0.0088969245737546727 -0.00095614309233157003 0 0.007949134159991475 -0.00087739454140518325 0 0.0087866406411382519 -0.0017397354180235165 0 0.007949134159991475 -0.00087739454140518325 0 0.0072788837472013744 -0.0020778561632888467 0 0.0087866406411382519 -0.0017397354180235165 0 0.0096645801951884772 -0.0020966650694356609 0 0.0097762113636494525 -0.0010717509190852109 0 0.0087866406411382519 -0.0017397354180235165 0 0.0088969245737546727 -0.00095614309233157003 0 0.0097762113636494525 -0.0010717509190852109 0 0.0088969245737546727 -0.00095614309233157003 0 0.0090620608862037374 -0.00013613083402994592 0 0.007949134159991475 -0.00087739454140518325 0 0.0088969245737546727 -0.00095614309233157003 0 0.0090620608862037374 -0.00013613083402994592 0 0.0097762113636494525 -0.0010717509190852109 0 0.0090620608862037374 -0.00013613083402994592 0 0.0092102549168325085 0.00048504199874564816 0 0.0078106630400379545 0.00031238594399731943 0 0.0090620608862037374 -0.00013613083402994592 0 0.0078106630400379545 0.00031238594399731943 0 0.007949134159991475 -0.00087739454140518325 0 0.0078106630400379545 0.00031238594399731943 0 0.007949134159991475 -0.00087739454140518325 0 0.006521186778379956 -0.00058619419894140779 0 0.007949134159991475 -0.00087739454140518325 0 0.006521186778379956 -0.00058619419894140779 0 0.0070506735679773912 -0.0011684296650983029 0 0.0073844086469626686 0.00018541281443934074 0 0.00664949600750384 0.00017091721208647911 0 0.006953361657700604 0.00075640272708120209 0 0.0073844086469626686 0.00018541281443934074 0 0.00664949600750384 0.00017091721208647911 0 0.006521186778379956 -0.00058619419894140779 0 0.0075721624257073464 0.00024685644556497933 0 0.0065747593616043137 -0.00054740519198014884 0 0.00664949600750384 0.00017091721208647911 0 0.0061668519103425011 -0.00023655170106648196 0 0.0062117540581149155 0.00076248898616159777 0 0.00664949600750384 0.00017091721208647911 0 0.0061668519103425011 -0.00023655170106648196 0 0.006521186778379956 -0.00058619419894140779 0 0.0060571829916017637 0.00047664236621977997 0 0.0059306897900985901 0.00063368628220680475 0 0.0062117540581149155 0.00076248898616159777 0 0.0059057435628241022 -0.00010951199290436891 0 0.0062564570283192393 0.00083214022867706522 0 0.0061668519103425011 -0.00023655170106648196 0 0.0059627700841419218 -0.0013711031601218635 0 0.0064934995234563172 -0.0011175913204578771 0 0.0059057435628241022 -0.00010951199290436891 0 0.0083369758878919422 0.00029812395378044304 0 0.0060571829916017637 0.00047664236621977997 0 0.0060174184203199534 0.000221072788015287 0 0.0059157611507518922 0.0004511076065383269 0 0.0061668519103425011 -0.00023655170106648196 0 0.006521186778379956 -0.00058619419894140779 0 0.0064934995234563172 -0.0011175913204578771 0 0.006521186778379956 -0.00058619419894140779 0 0.0064934995234563172 -0.0011175913204578771 0 0.0070506735679773912 -0.0011684296650983029 0 0.0083369758878919422 0.00029812395378044304 0 0.0098093289010216765 -0.0010587390665139629 0 0.0059627700841419218 -0.0013711031601218635 0 0.0064934995234563172 -0.0011175913204578771 0 0.0072788837472013744 -0.0020778561632888467 0 0.011346451829981114 0.00059765221375051084 0 0.012150514371661066 0.00015918659610273593 0 0.011603356016236684 9.7228691603593322e-05 0 0.007949134159991475 -0.00087739454140518325 0 0.0070506735679773912 -0.0011684296650983029 0 0.0072788837472013744 -0.0020778561632888467 0 0.0064934995234563172 -0.0011175913204578771 0 0.0070506735679773912 -0.0011684296650983029 0 0.0072788837472013744 -0.0020778561632888467 0 0.012292157676097952 -0.00050953361345507033 0 0.012150514371661066 0.00015918659610273593 0 0.011810975696997874 -0.00024423603181624918 0 0.011603356016236684 9.7228691603593322e-05 0 0.011810975696997874 -0.00024423603181624918 0 0.011194066304537814 -0.00026432099913731148 0 0.012150514371661066 0.00015918659610273593 0 0.011603356016236684 9.7228691603593322e-05 0 0.011810975696997874 -0.00024423603181624918 0 0.011346451829981114 0.00059765221375051084 0 0.011603356016236684 9.7228691603593322e-05 0 0.011194066304537814 -0.00026432099913731148 0 0.0083369758878919422 0.00029812395378044304 0 0.010665326483765053 0.00015046606647280421 0 0.010665326483765053 0.00015046606647280421 0 0.0090662778047562315 0.0011147154513527051 0 0.0088140774235337133 0.00069296498047763074 0 0.0082257780685981267 0.0011718897650485655 0 0.0086196373994228883 0.0012227689322380697 0 0.0089478405576786484 0.0014472549077042124 0 0.0088140774235337133 0.00069296498047763074 0 0.0086196373994228883 0.0012227689322380697 0 0.010360079496937343 -3.7062796710822381e-05 0 0.011395409857815517 5.1919808768486734e-05 0 0.010113334795772507 0.00094738681829374693 0 0.010360079496937343 -3.7062796710822381e-05 0 0.010113334795772507 0.00094738681829374693 0 0.0094186795714918566 0.00032823069385841099 0 0.0082257780685981267 0.0011718897650485655 0 0.0081981619173483872 0.0015541111313299742 0 0.0077274391298063167 0.0016428243029467037 0 0.0082257780685981267 0.0011718897650485655 0 0.0081981619173483872 0.0015541111313299742 0 0.0084866245220252181 0.0014406031890982431 0 0.0082257780685981267 0.0011718897650485655 0 0.0084866245220252181 0.0014406031890982431 0 0.0086196373994228883 0.0012227689322380697 0 0.0081981619173483872 0.0015541111313299742 0 0.0084866245220252181 0.0014406031890982431 0 0.0085796042681054643 0.001639665687203965 0 0.0084866245220252181 0.0014406031890982431 0 0.008687107926493326 0.001430724180818032 0 0.0085796042681054643 0.001639665687203965 0 0.0084866245220252181 0.0014406031890982431 0 0.0086196373994228883 0.0012227689322380697 0 0.008687107926493326 0.001430724180818032 0 0.0089478405576786484 0.0014472549077042124 0 0.0086196373994228883 0.0012227689322380697 0 0.008687107926493326 0.001430724180818032 0 0.0089478405576786484 0.0014472549077042124 0 0.008687107926493326 0.001430724180818032 0 0.0085796042681054643 0.001639665687203965 0 0.0083369758878919422 0.00029812395378044304 0 0.0067941079807444732 0.0015164702206690083 0 0.0060174184203199534 0.000221072788015287 0 0.0058553039143074302 0.00030397447597655498 0 0.0059157611507518922 0.0004511076065383269 0 0.0067941079807444732 0.0015164702206690083 0 0.0056803420605430061 0.00140649807037312 0 0.0058553039143074302 0.00030397447597655498 0 0.0059157611507518922 0.0004511076065383269 0 0.0057723527498209862 0.00060947991219563642 0 0.0060571829916017637 0.00047664236621977997 0 0.0059157611507518922 0.0004511076065383269 0 0.0059306897900985901 0.00063368628220680475 0 0.0059157611507518922 0.0004511076065383269 0 0.0059306897900985901 0.00063368628220680475 0 0.0057723527498209862 0.00060947991219563642 0 0.0059306897900985901 0.00063368628220680475 0 0.0057723527498209862 0.00060947991219563642 0 0.0058620416340562295 0.00077148000145166372 0 0.0057817833961609708 0.0021863255859901568 0 0.0060141452381593588 0.002424194656285491 0 0.0060736877785272205 0.0022166951815894586 0 0.0057817833961609708 0.0021863255859901568 0 0.0060736877785272205 0.0022166951815894586 0 0.006141054374417745 0.0019451910497621453 0 0.0081981619173483872 0.0015541111313299742 0 0.0085796042681054643 0.001639665687203965 0 0.0080527122351496568 0.0018920485696541918 0 0.005709425361285869 0.0025731260749135127 0 0.0057817833961609708 0.0021863255859901568 0 0.0060141452381593588 0.002424194656285491 0 0.0067941079807444732 0.0015164702206690083 0 0.0070646416508673045 0.002192919416784591 0 0.0081981619173483872 0.0015541111313299742 0 0.0080527122351496568 0.0018920485696541918 0 0.0077274391298063167 0.0016428243029467037 0 0.0080527122351496568 0.0018920485696541918 0 0.0076289723633565423 0.002075991475563488 0 0.0077274391298063167 0.0016428243029467037 0 0.0070646416508673045 0.002192919416784591 0 0.0070158053339354981 0.0021635557675029429 0 0.0060141452381593588 0.002424194656285491 0 0.0060736877785272205 0.0022166951815894586 0 0.0063847282548792073 0.0023049576545783948 0 0.0063847282548792073 0.0023049576545783948 0 0.0065021079287520345 0.0019267275897185397 0 0.006141054374417745 0.0019451910497621453 0 0.0060736877785272205 0.0022166951815894586 0 0.0063847282548792073 0.0023049576545783948 0 0.006141054374417745 0.0019451910497621453 0 0.0076289723633565423 0.002075991475563488 0 0.0074205740083382451 0.0020024146250322708 0 0.0070444289924968331 0.0020535378537955276 0 0.0070158053339354981 0.0021635557675029429 0 0.0070723644525781783 0.0020705984456124982 0 0.0063847282548792073 0.0023049576545783948 0 0.0065021079287520345 0.0019267275897185397 0 0.0070444289924968331 0.0020535378537955276 0 0.0074205740083382451 0.0020024146250322708 0 0.0076702412385560156 0.0016955216722279597 0 0.0087342335913152807 0.001731274130942374 0 0.0076289723633565423 0.002075991475563488 0 0.0074205740083382451 0.0020024146250322708 0 0.0077274391298063167 0.0016428243029467037 0 0.0075127096377658933 0.0019979741178485786 0 0.0082595249011717421 0.001639548533238484 0 0.0076702412385560156 0.0016955216722279597 0 0.0078200732659684472 0.001194056779156714 0 0.0087342335913152807 0.001731274130942374 0 0.0078200732659684472 0.001194056779156714 0 0.0087342335913152807 0.001731274130942374 0 0.0085254876384545115 0.00074758728959897357 0 0.010113334795772507 0.00094738681829374693 0 0.0087342335913152807 0.001731274130942374 0 0.0085254876384545115 0.00074758728959897357 0 0.0090662778047562315 0.0011147154513527051 0 0.0082595249011717421 0.001639548533238484 0 0.010113334795772507 0.00094738681829374693 0 0.0094186795714918566 0.00032823069385841099 0 0.0085254876384545115 0.00074758728959897357 0 0.0087497253085875772 -0.00033684302091777042 0 0.0094186795714918566 0.00032823069385841099 0 0.0085254876384545115 0.00074758728959897357 0 0.0095896316613245675 -0.00052039603294699703 0 0.0091015933011139773 -4.9199216179719939e-05 0 0.0087497253085875772 -0.00033684302091777042 0 0.0085254876384545115 0.00074758728959897357 0 0.0074935444456009489 0.00049762757876862 0 0.0078200732659684472 0.001194056779156714 0 0.0085254876384545115 0.00074758728959897357 0 0.0074935444456009489 0.00049762757876862 0 0.019450609719907676 8.9159145936631211e-07 0 0.016247621173253995 -3.5592666645997126e-06 0 0.019506790076979093 -0.00025683082109162887 0 0.014747968887188522 -0.00050965611071393708 0 0.015068335892712469 -0.00061809765322180939 0 0.01473089097796219 -0.00071686161205144691 0 0.016977403778381892 -0.00063195527742371433 0 0.017580416055904904 -0.00082820011774248912 0 0.014747968887188522 -0.00050965611071393708 0 0.014636150716933818 -0.00065872301107549182 0 0.01473089097796219 -0.00071686161205144691 0 0.014747968887188522 -0.00050965611071393708 0 0.014636150716933818 -0.00065872301107549182 0 0.014580171790318759 -0.00034251709530468171 0 0.014747968887188522 -0.00050965611071393708 0 0.014580171790318759 -0.00034251709530468171 0 0.014769847838681382 -0.00019558323614816378 0 0.014747968887188522 -0.00050965611071393708 0 0.014769847838681382 -0.00019558323614816378 0 0.015068335892712469 -0.00061809765322180939 0 0.016247621173253995 -3.5592666645997126e-06 0 0.018755008820610406 -0.00080301319189053579 0 0.019506790076979093 -0.00025683082109162887 0 0.014769847838681382 -0.00019558323614816378 0 0.015192073596251736 -4.7755430571893582e-05 0 0.015068335892712469 -0.00061809765322180939 0 0.015192073596251736 -4.7755430571893582e-05 0 0.016241210922170058 -1.5140723759473969e-06 0 0.015068335892712469 -0.00061809765322180939 0 0.015192073596251736 -4.7755430571893582e-05 0 0.016241210922170058 -1.5140723759473969e-06 0 0.015094981289170056 8.7998632331926481e-07 0 0.016243750145190389 -2.1923382052527864e-07 0 0.016977403778381892 -0.00063195527742371433 0 0.021190954555957629 -0.00029283643690647344 0 0.019506790076979093 -0.00025683082109162887 0 0.020437777461082152 -0.00097585216743633079 0 0.018755008820610406 -0.00080301319189053579 0 0.019506790076979093 -0.00025683082109162887 0 0.020437777461082152 -0.00097585216743633079 0 0.014636150716933818 -0.00065872301107549182 0 0.01473089097796219 -0.00071686161205144691 0 0.014651522224132787 -0.00074608859738846617 0 0.017580416055904904 -0.00082820011774248912 0 0.018173382477324942 -0.00079360431434552633 0 0.021190954555957629 -0.00029283643690647344 0 0.020437777461082152 -0.00097585216743633079 0 0.021532964629368725 -0.00086552686910614559 0 0.022515477463737506 -7.9716214614438112e-05 0 0.018173382477324942 -0.00079360431434552633 0 0.021190954555957629 -0.00029283643690647344 0 0.021979278572248729 -0.00045865551048506316 0 0.021532964629368725 -0.00086552686910614559 0 0.022566180558889912 -0.00011162905209656484 0 0.022342706374734095 -0.00017215418876279746 0 0.022491591865613635 -0.00024911416204346603 0 0.018173382477324942 -0.00079360431434552633 0 0.018268602521193784 -0.00089612728222335692 0 0.022342706374734095 -0.00017215418876279746 0 0.022152416883281949 -0.00042701754840045636 0 0.022491591865613635 -0.00024911416204346603 0 0.014115908572843042 -0.0011386041500831242 0 0.014519470504051571 -0.001214240942964943 0 0.014352147782740578 -0.00083403689274451766 0 0.014115908572843042 -0.0011386041500831242 0 0.014519470504051571 -0.001214240942964943 0 0.014003569761706859 -0.0015485892668689076 0 0.013812018703350512 -0.0010972367630097297 0 0.018173382477324942 -0.00079360431434552633 0 0.013415883399435766 -0.0018895643530346346 0 0.013286022568784252 -0.0015113841476491322 0 0.014003569761706859 -0.0015485892668689076 0 0.022566180558889912 -0.00011162905209656484 0 0.022577189900017385 -6.5705286431174266e-05 0 0.022491591865613635 -0.00024911416204346603 0 0.01796850322563532 -0.00098476872089148237 0 0.018268602521193784 -0.00089612728222335692 0 0.014115908572843042 -0.0011386041500831242 0 0.014003569761706859 -0.0015485892668689076 0 0.013570215032393178 -0.0011971959097178261 0 0.014115908572843042 -0.0011386041500831242 0 0.013570215032393178 -0.0011971959097178261 0 0.013990775965583182 -0.00079349712537310827 0 0.013021237015681161 -0.0011593026282513538 0 0.013286022568784252 -0.0015113841476491322 0 0.013570215032393178 -0.0011971959097178261 0 0.013286022568784252 -0.0015113841476491322 0 0.014003569761706859 -0.0015485892668689076 0 0.013570215032393178 -0.0011971959097178261 0 0.013021237015681161 -0.0011593026282513538 0 0.013570215032393178 -0.0011971959097178261 0 0.013275213646569289 -0.00092573659899626559 0 0.013431665935689341 -0.00075924804252516331 0 0.013275213646569289 -0.00092573659899626559 0 0.013505109299579264 -0.00090090981282086159 0 0.013270038906579719 -0.00072698088205126027 0 0.013431665935689341 -0.00075924804252516331 0 0.013275213646569289 -0.00092573659899626559 0 0.013570215032393178 -0.0011971959097178261 0 0.013275213646569289 -0.00092573659899626559 0 0.013505109299579264 -0.00090090981282086159 0 0.013570215032393178 -0.0011971959097178261 0 0.013505109299579264 -0.00090090981282086159 0 0.013687720060932419 -0.00083302009481330799 0 0.013505109299579264 -0.00090090981282086159 0 0.013566921276396306 -0.00074707517073644141 0 0.013687720060932419 -0.00083302009481330799 0 0.013431665935689341 -0.00075924804252516331 0 0.013505109299579264 -0.00090090981282086159 0 0.013566921276396306 -0.00074707517073644141 0 0.013431665935689341 -0.00075924804252516331 0 0.013566921276396306 -0.00074707517073644141 0 0.013506093370418906 -0.00062982933174599563 0 0.013570215032393178 -0.0011971959097178261 0 0.013687720060932419 -0.00083302009481330799 0 0.013990775965583182 -0.00079349712537310827 0 0.013566921276396306 -0.00074707517073644141 0 0.013687720060932419 -0.00083302009481330799 0 0.013696222332328888 -0.00061322765725115524 0 0.013687720060932419 -0.00083302009481330799 0 0.013990775965583182 -0.00079349712537310827 0 0.013696222332328888 -0.00061322765725115524 0 0.013990775965583182 -0.00079349712537310827 0 0.013696222332328888 -0.00061322765725115524 0 0.013942800541870836 -0.00032682252798258896 0 0.0098536932445431376 -0.0033583432678753198 0 0.010110370444962054 -0.0025761968543766894 0 0.010969971140280222 -0.002692828431467011 0 0.01198826413433508 -0.0013818268340587488 0 0.012361966892774535 -0.0016064678856151286 0 0.013696222332328888 -0.00061322765725115524 0 0.013451935531723384 -0.00060016774614590881 0 0.013942800541870836 -0.00032682252798258896 0 0.013696222332328888 -0.00061322765725115524 0 0.013506093370418906 -0.00062982933174599563 0 0.013451935531723384 -0.00060016774614590881 0 0.013566921276396306 -0.00074707517073644141 0 0.013696222332328888 -0.00061322765725115524 0 0.013506093370418906 -0.00062982933174599563 0 0.013431665935689341 -0.00075924804252516331 0 0.013506093370418906 -0.00062982933174599563 0 0.01344842025999704 -0.00060221654970208554 0 0.012222484453398297 -0.0014074502994021107 0 0.01198826413433508 -0.0013818268340587488 0 0.0095928458169508464 -0.002772252294950487 0 0.0098536932445431376 -0.0033583432678753198 0 0.010110370444962054 -0.0025761968543766894 0 0.013270038906579719 -0.00072698088205126027 0 0.013431665935689341 -0.00075924804252516331 0 0.01344842025999704 -0.00060221654970208554 0 0.013307582848192041 -0.0006547283340365181 0 0.01198826413433508 -0.0013818268340587488 0 0.014636150716933818 -0.00065872301107549182 0 0.014352147782740578 -0.00083403689274451766 0 0.014325818662538762 -0.00048108791848022509 0 0.014636150716933818 -0.00065872301107549182 0 0.014519470504051571 -0.001214240942964943 0 0.014352147782740578 -0.00083403689274451766 0 0.013990775965583182 -0.00079349712537310827 0 0.014352147782740578 -0.00083403689274451766 0 0.014325818662538762 -0.00048108791848022509 0 0.014115908572843042 -0.0011386041500831242 0 0.013990775965583182 -0.00079349712537310827 0 0.014352147782740578 -0.00083403689274451766 0 0.013990775965583182 -0.00079349712537310827 0 0.014325818662538762 -0.00048108791848022509 0 0.013942800541870836 -0.00032682252798258896 0 0.014580171790318759 -0.00034251709530468171 0 0.014325818662538762 -0.00048108791848022509 0 0.014351647159058388 -0.0001484502078102407 0 0.014636150716933818 -0.00065872301107549182 0 0.014580171790318759 -0.00034251709530468171 0 0.014325818662538762 -0.00048108791848022509 0 0.014580171790318759 -0.00034251709530468171 0 0.014351647159058388 -0.0001484502078102407 0 0.014613504447501346 -5.9450439809787881e-05 0 0.014325818662538762 -0.00048108791848022509 0 0.014351647159058388 -0.0001484502078102407 0 0.013942800541870836 -0.00032682252798258896 0 0.013244163795248662 -0.0010669522175327905 0 0.012361966892774535 -0.0016064678856151286 0 0.012102089282493801 -0.0020128739138755504 0 0.010969971140280222 -0.002692828431467011 0 0.011035246326528929 -0.0013044955648676543 0 0.012102089282493801 -0.0020128739138755504 0 0.011035246326528929 -0.0013044955648676543 0 0.012258523821451234 -0.00061093969694503024 0 0.012102089282493801 -0.0020128739138755504 0 0.012258523821451234 -0.00061093969694503024 0 0.013265700200698706 -0.0012852844767456452 0 0.013244163795248662 -0.0010669522175327905 0 0.013919569702464855 -0.00066600100599611392 0 0.0091596394376839904 -0.0023339922806005888 0 0.0095928458169508464 -0.002772252294950487 0 0.0096645801951884772 -0.0020966650694356609 0 0.0095928458169508464 -0.002772252294950487 0 0.0096645801951884772 -0.0020966650694356609 0 0.010110370444962054 -0.0025761968543766894 0 0.0096645801951884772 -0.0020966650694356609 0 0.010110370444962054 -0.0025761968543766894 0 0.010368818407543331 -0.001930505965592243 0 0.010110370444962054 -0.0025761968543766894 0 0.010969971140280222 -0.002692828431467011 0 0.010368818407543331 -0.001930505965592243 0 0.010969971140280222 -0.002692828431467011 0 0.010368818407543331 -0.001930505965592243 0 0.011035246326528929 -0.0013044955648676543 0 0.010368818407543331 -0.001930505965592243 0 0.011035246326528929 -0.0013044955648676543 0 0.0097762113636494525 -0.0010717509190852109 0 0.0096645801951884772 -0.0020966650694356609 0 0.010368818407543331 -0.001930505965592243 0 0.0097762113636494525 -0.0010717509190852109 0 0.0090620608862037374 -0.00013613083402994592 0 0.0097762113636494525 -0.0010717509190852109 0 0.010049520323976616 -1.3771112741340707e-05 0 0.0097762113636494525 -0.0010717509190852109 0 0.01050813450332533 -0.00063202771922945926 0 0.010049520323976616 -1.3771112741340707e-05 0 0.011035246326528929 -0.0013044955648676543 0 0.0097762113636494525 -0.0010717509190852109 0 0.01050813450332533 -0.00063202771922945926 0 0.011035246326528929 -0.0013044955648676543 0 0.01050813450332533 -0.00063202771922945926 0 0.011170078844468953 -0.00013887327823886822 0 0.01050813450332533 -0.00063202771922945926 0 0.010049520323976616 -1.3771112741340707e-05 0 0.011170078844468953 -0.00013887327823886822 0 0.010049520323976616 -1.3771112741340707e-05 0 0.011170078844468953 -0.00013887327823886822 0 0.010577977189913717 0.00058225319726105983 0 0.011170078844468953 -0.00013887327823886822 0 0.011432222123130801 0.00086945309711529721 0 0.010577977189913717 0.00058225319726105983 0 0.010049520323976616 -1.3771112741340707e-05 0 0.010577977189913717 0.00058225319726105983 0 0.0097952952183063685 0.0008623898401056686 0 0.0090620608862037374 -0.00013613083402994592 0 0.0092102549168325085 0.00048504199874564816 0 0.010049520323976616 -1.3771112741340707e-05 0 0.0092102549168325085 0.00048504199874564816 0 0.010049520323976616 -1.3771112741340707e-05 0 0.0097952952183063685 0.0008623898401056686 0 0.011035246326528929 -0.0013044955648676543 0 0.012258523821451234 -0.00061093969694503024 0 0.011170078844468953 -0.00013887327823886822 0 0.011170078844468953 -0.00013887327823886822 0 0.011966209745924009 0.00023334564577196426 0 0.011432222123130801 0.00086945309711529721 0 0.012258523821451234 -0.00061093969694503024 0 0.011170078844468953 -0.00013887327823886822 0 0.011966209745924009 0.00023334564577196426 0 0.012258523821451234 -0.00061093969694503024 0 0.011966209745924009 0.00023334564577196426 0 0.012912737321796423 0.00038396310193450107 0 0.011966209745924009 0.00023334564577196426 0 0.012912737321796423 0.00038396310193450107 0 0.012216947794064582 0.00083055525154582537 0 0.012912737321796423 0.00038396310193450107 0 0.013961911687200271 0.00022163429314276707 0 0.013508999681269286 0.00088892605706852423 0 0.012912737321796423 0.00038396310193450107 0 0.013961911687200271 0.00022163429314276707 0 0.01341208376890362 -0.00027878079428192789 0 0.013961911687200271 0.00022163429314276707 0 0.014655058809903298 -2.9660394945727913e-05 0 0.01403986105166055 0.00059206782589297125 0 0.013961911687200271 0.00022163429314276707 0 0.013508999681269286 0.00088892605706852423 0 0.01403986105166055 0.00059206782589297125 0 0.013961911687200271 0.00022163429314276707 0 0.014444608573800298 -0.00023565896663320713 0 0.01341208376890362 -0.00027878079428192789 0 0.012258523821451234 -0.00061093969694503024 0 0.012912737321796423 0.00038396310193450107 0 0.01341208376890362 -0.00027878079428192789 0 0.014444608573800298 -0.00023565896663320713 0 0.01341208376890362 -0.00027878079428192789 0 0.013265700200698706 -0.0012852844767456452 0 0.012258523821451234 -0.00061093969694503024 0 0.01341208376890362 -0.00027878079428192789 0 0.013265700200698706 -0.0012852844767456452 0 0.014444608573800298 -0.00023565896663320713 0 0.014613504447501346 -5.9450439809787881e-05 0 0.014730386177541596 -3.069669197553522e-05 0 0.014405864728133015 -0.00029060309761629348 0 0.013919569702464855 -0.00066600100599611392 0 0.014769847838681382 -0.00019558323614816378 0 0.014613504447501346 -5.9450439809787881e-05 0 0.014730386177541596 -3.069669197553522e-05 0 0.014580171790318759 -0.00034251709530468171 0 0.014769847838681382 -0.00019558323614816378 0 0.014613504447501346 -5.9450439809787881e-05 0 0.015192073596251736 -4.7755430571893582e-05 0 0.015094981289170056 8.7998632331926481e-07 0 0.014730386177541596 -3.069669197553522e-05 0 0.014769847838681382 -0.00019558323614816378 0 0.015192073596251736 -4.7755430571893582e-05 0 0.014730386177541596 -3.069669197553522e-05 0 0.014444608573800298 -0.00023565896663320713 0 0.014730386177541596 -3.069669197553522e-05 0 0.014548241042989756 -5.5436059827639226e-06 0 0.015094981289170056 8.7998632331926481e-07 0 0.014730386177541596 -3.069669197553522e-05 0 0.014548241042989756 -5.5436059827639226e-06 0 0.015094981289170056 8.7998632331926481e-07 0 0.014548241042989756 -5.5436059827639226e-06 0 0.013949263428757248 -7.8842492505481408e-07 0 0.013946625688415861 1.532348269667802e-07 0 0.01340618851124906 2.7114036924020795e-05 0 0.014548241042989756 -5.5436059827639226e-06 0 0.013949263428757248 -7.8842492505481408e-07 0 0.014655058809903298 -2.9660394945727913e-05 0 0.014444608573800298 -0.00023565896663320713 0 0.014548241042989756 -5.5436059827639226e-06 0 0.014655058809903298 -2.9660394945727913e-05 0 0.01225133490014591 -0.00013682355924027448 0 0.011775813255375075 5.7047295598735042e-05 0 0.011415251243348619 0.0001730995394266624 0 0.013961911687200271 0.00022163429314276707 0 0.014444608573800298 -0.00023565896663320713 0 0.014655058809903298 -2.9660394945727913e-05 0 0.01340618851124906 2.7114036924020795e-05 0 0.012872885522932129 0.00052173055399710718 0 0.014655058809903298 -2.9660394945727913e-05 0 0.01430244238157421 0.00083929663364238672 0 0.01403986105166055 0.00059206782589297125 0 0.01225133490014591 -0.00013682355924027448 0 0.01206817141917021 1.1589643444120407e-05 0 0.011775813255375075 5.7047295598735042e-05 0 0.013945517771085577 -9.8462071594207654e-07 0 0.01225133490014591 -0.00013682355924027448 0 0.012505777386518278 4.9094506259031983e-07 0 0.01225133490014591 -0.00013682355924027448 0 0.01206817141917021 1.1589643444120407e-05 0 0.012505777386518278 4.9094506259031983e-07 0 0.012505777386518278 4.9094506259031983e-07 0 0.011799933373280089 9.4248897468665556e-05 0 0.011064444158527741 -2.2650881807234062e-07 0 0.01206817141917021 1.1589643444120407e-05 0 0.012505777386518278 4.9094506259031983e-07 0 0.011799933373280089 9.4248897468665556e-05 0 0.011799933373280089 9.4248897468665556e-05 0 0.011775813255375075 5.7047295598735042e-05 0 0.011607580885190344 0.00011129372955007331 0 0.011667403163407669 9.6896032603803746e-05 0 0.011519543215714027 0.00024104527923674363 0 0.011775813255375075 5.7047295598735042e-05 0 0.011607580885190344 0.00011129372955007331 0 0.011515039082258979 0.00011857325558302747 0 0.01206817141917021 1.1589643444120407e-05 0 0.011799933373280089 9.4248897468665556e-05 0 0.011775813255375075 5.7047295598735042e-05 0 0.011775813255375075 5.7047295598735042e-05 0 0.011515039082258979 0.00011857325558302747 0 0.011479682269763649 0.00013251329647975674 0 0.011775813255375075 5.7047295598735042e-05 0 0.011415251243348619 0.0001730995394266624 0 0.01118624595134126 0.00048544050085188803 0 0.011799933373280089 9.4248897468665556e-05 0 0.011607580885190344 0.00011129372955007331 0 0.011331127430669365 9.2065221726597525e-05 0 0.011331127430669365 9.2065221726597525e-05 0 0.011515039082258979 0.00011857325558302747 0 0.011359840323884327 5.4513993723726174e-05 0 0.011607580885190344 0.00011129372955007331 0 0.011331127430669365 9.2065221726597525e-05 0 0.011515039082258979 0.00011857325558302747 0 0.011515039082258979 0.00011857325558302747 0 0.011359840323884327 5.4513993723726174e-05 0 0.011479682269763649 0.00013251329647975674 0 0.011331127430669365 9.2065221726597525e-05 0 0.011359840323884327 5.4513993723726174e-05 0 0.010843199583126236 -2.0749474096344289e-05 0 0.011799933373280089 9.4248897468665556e-05 0 0.011331127430669365 9.2065221726597525e-05 0 0.011064444158527741 -2.2650881807234062e-07 0 0.011331127430669365 9.2065221726597525e-05 0 0.011064444158527741 -2.2650881807234062e-07 0 0.010843199583126236 -2.0749474096344289e-05 0 0.012912737321796423 0.00038396310193450107 0 0.012773085336813187 0.001175921576323851 0 0.013508999681269286 0.00088892605706852423 0 0.012773085336813187 0.001175921576323851 0 0.013508999681269286 0.00088892605706852423 0 0.013220480101331533 0.001460609423780401 0 0.013508999681269286 0.00088892605706852423 0 0.013562002408528366 0.0012939590182372014 0 0.013220480101331533 0.001460609423780401 0 0.013508999681269286 0.00088892605706852423 0 0.013562002408528366 0.0012939590182372014 0 0.01382466294758497 0.001025264194928004 0 0.013562002408528366 0.0012939590182372014 0 0.0137766442322921 0.0013090458234476165 0 0.01382466294758497 0.001025264194928004 0 0.013508999681269286 0.00088892605706852423 0 0.01382466294758497 0.001025264194928004 0 0.01403986105166055 0.00059206782589297125 0 0.01430244238157421 0.00083929663364238672 0 0.01382466294758497 0.001025264194928004 0 0.01403986105166055 0.00059206782589297125 0 0.01430244238157421 0.00083929663364238672 0 0.0137766442322921 0.0013090458234476165 0 0.01382466294758497 0.001025264194928004 0 0.01430244238157421 0.00083929663364238672 0 0.0137766442322921 0.0013090458234476165 0 0.013626437749328047 0.0018390873709034498 0 0.012872885522932129 0.00052173055399710718 0 0.012078396679966533 0.001199140767345911 0 0.011479682269763649 0.00013251329647975674 0 0.011511530565414979 -6.0200662336681513e-05 0 0.011773367511815224 -0.00016157125676009127 0 0.011519543215714027 0.00024104527923674363 0 0.010054338470471425 0.00033436239293981696 0 0.01118624595134126 0.00048544050085188803 0 0.010865202181985481 0.00066485376788022086 0 0.010728732150009636 0.00099586968425137098 0 0.011415251243348619 0.0001730995394266624 0 0.01118624595134126 0.00048544050085188803 0 0.010865202181985481 0.00066485376788022086 0 0.011359840323884327 5.4513993723726174e-05 0 0.011479682269763649 0.00013251329647975674 0 0.011511530565414979 -6.0200662336681513e-05 0 0.0137766442322921 0.0013090458234476165 0 0.013626437749328047 0.0018390873709034498 0 0.01350825528488022 0.0016220376605844129 0 0.013562002408528366 0.0012939590182372014 0 0.0137766442322921 0.0013090458234476165 0 0.01350825528488022 0.0016220376605844129 0 0.013562002408528366 0.0012939590182372014 0 0.013220480101331533 0.001460609423780401 0 0.01350825528488022 0.0016220376605844129 0 0.013220480101331533 0.001460609423780401 0 0.01350825528488022 0.0016220376605844129 0 0.013253201314632927 0.0018176624651490615 0 0.013626437749328047 0.0018390873709034498 0 0.01350825528488022 0.0016220376605844129 0 0.013253201314632927 0.0018176624651490615 0 0.012078396679966533 0.001199140767345911 0 0.01195326791356041 0.0015804955677309704 0 0.013626437749328047 0.0018390873709034498 0 0.013253201314632927 0.0018176624651490615 0 0.013147597614008921 0.0024087784305835028 0 0.012078396679966533 0.001199140767345911 0 0.010742645247102842 0.00082665959287101106 0 0.013253201314632927 0.0018176624651490615 0 0.01276198395836003 0.0017685231805990185 0 0.013147597614008921 0.0024087784305835028 0 0.012773085336813187 0.001175921576323851 0 0.013220480101331533 0.001460609423780401 0 0.01276198395836003 0.0017685231805990185 0 0.013220480101331533 0.001460609423780401 0 0.013253201314632927 0.0018176624651490615 0 0.01276198395836003 0.0017685231805990185 0 0.010298510155802862 0.00092407050626664127 0 0.010387560204533379 0.00062969051155489406 0 0.01046352748614927 0.00064421241228914902 0 0.01195326791356041 0.0015804955677309704 0 0.011086975747529178 0.0021052411239026424 0 0.010298510155802862 0.00092407050626664127 0 0.010387560204533379 0.00062969051155489406 0 0.010039976975326008 0.0010193224502785053 0 0.0091924690754362267 0.0002871641728525828 0 0.010742645247102842 0.00082665959287101106 0 0.010865202181985481 0.00066485376788022086 0 0.010668335055340572 0.00098408725184320409 0 0.010728732150009636 0.00099586968425137098 0 0.01194021163614631 0.0010013457558282737 0 0.011411397113113422 0.00161895283684125 0 0.011578218242519084 0.0016513134001312107 0 0.010742645247102842 0.00082665959287101106 0 0.010054338470471425 0.00033436239293981696 0 0.01195326791356041 0.0015804955677309704 0 0.010742645247102842 0.00082665959287101106 0 0.0075111993986596674 -0.00068897736573331507 0 0.0075945439234936275 -0.00095789925302973574 0 0.00765922419955287 -0.00059454621544154519 0 0.0096148162010987019 0.00065752440413290101 0 0.0099542100435066356 5.9714452031139304e-05 0 0.01007083778245565 8.25291662073004e-05 0 0.0091924690754362267 0.0002871641728525828 0 0.010054338470471425 0.00033436239293981696 0 0.010054338470471425 0.00033436239293981696 0 0.0096983215327880682 -0.00065963128522373183 0 0.0075945439234936275 -0.00095789925302973574 0 0.00765922419955287 -0.00059454621544154519 0 0.0081620116782888177 -0.00099925112912640753 0 0.011511530565414979 -6.0200662336681513e-05 0 0.011773367511815224 -0.00016157125676009127 0 0.011414710967774898 -0.00031183207794614856 0 0.011359840323884327 5.4513993723726174e-05 0 0.011511530565414979 -6.0200662336681513e-05 0 0.011414710967774898 -0.00031183207794614856 0 0.0079741508124461895 -0.00040779194631164646 0 0.00765922419955287 -0.00059454621544154519 0 0.0074592898990506517 -0.00073285014863492409 0 0.0079741508124461895 -0.00040779194631164646 0 0.00765922419955287 -0.00059454621544154519 0 0.0081620116782888177 -0.00099925112912640753 0 0.00765922419955287 -0.00059454621544154519 0 0.0075637848725317244 -0.00063888774377751981 0 0.0074592898990506517 -0.00073285014863492409 0 0.0075111993986596674 -0.00068897736573331507 0 0.0075637848725317244 -0.00063888774377751981 0 0.007620670427098776 -0.00064872525453200274 0 0.0075111993986596674 -0.00068897736573331507 0 0.00765922419955287 -0.00059454621544154519 0 0.0075637848725317244 -0.00063888774377751981 0 0.011064444158527741 -2.2650881807234062e-07 0 0.010042750727815415 -0.00038214787788653658 0 0.0096235113277169937 -5.7244290559017255e-07 0 0.011064444158527741 -2.2650881807234062e-07 0 0.010042750727815415 -0.00038214787788653658 0 0.010843199583126236 -2.0749474096344289e-05 0 0.010056998891383756 -0.00044204475359862854 0 0.0096983215327880682 -0.00065963128522373183 0 0.010042750727815415 -0.00038214787788653658 0 0.010843199583126236 -2.0749474096344289e-05 0 0.011414710967774898 -0.00031183207794614856 0 0.010042750727815415 -0.00038214787788653658 0 0.0081620116782888177 -0.00099925112912640753 0 0.0089510502478402244 -0.00018911740705120642 0 0.011359840323884327 5.4513993723726174e-05 0 0.010843199583126236 -2.0749474096344289e-05 0 0.011414710967774898 -0.00031183207794614856 0 0.0079741508124461895 -0.00040779194631164646 0 0.0081620116782888177 -0.00099925112912640753 0 0.0089510502478402244 -0.00018911740705120642 0 0.0079741508124461895 -0.00040779194631164646 0 0.0089510502478402244 -0.00018911740705120642 0 0.0085375300807398365 6.4534505969043019e-05 0 0.0089510502478402244 -0.00018911740705120642 0 0.0096235113277169937 -5.7244290559017255e-07 0 0.0085375300807398365 6.4534505969043019e-05 0 0.010042750727815415 -0.00038214787788653658 0 0.0089510502478402244 -0.00018911740705120642 0 0.0096235113277169937 -5.7244290559017255e-07 0 0.0096235113277169937 -5.7244290559017255e-07 0 0.0081823857400682987 4.7480144016388666e-07 0 0.0085375300807398365 6.4534505969043019e-05 0 0.0081823857400682987 4.7480144016388666e-07 0 0.007960162195360207 9.9854698666403225e-05 0 0.0085375300807398365 6.4534505969043019e-05 0 0.0081823857400682987 4.7480144016388666e-07 0 0.007960162195360207 9.9854698666403225e-05 0 0.0073789054625072155 0.0001102302332342633 0 0.007960162195360207 9.9854698666403225e-05 0 0.0085375300807398365 6.4534505969043019e-05 0 0.0078009732563730687 0.00021205830325170312 0 0.007960162195360207 9.9854698666403225e-05 0 0.0078009732563730687 0.00021205830325170312 0 0.0073789054625072155 0.0001102302332342633 0 0.0079741508124461895 -0.00040779194631164646 0 0.0085375300807398365 6.4534505969043019e-05 0 0.0078009732563730687 0.00021205830325170312 0 0.007885085844111836 -0.00045118144568779937 0 0.0074012051223079217 -0.00043511380934878628 0 0.0079741508124461895 -0.00040779194631164646 0 0.0074592898990506517 -0.00073285014863492409 0 0.0069738516712787024 -0.00106513337432774 0 0.0073283688830083809 -0.00082546743310808648 0 0.0077468135184681408 -0.00047628078954393868 0 0.0075637848725317244 -0.00063888774377751981 0 0.0074592898990506517 -0.00073285014863492409 0 0.007620670427098776 -0.00064872525453200274 0 0.0074592898990506517 -0.00073285014863492409 0 0.0072735597012953575 -0.0010096611965070216 0 0.0073745143239344292 -0.00090002465391282995 0 0.0074592898990506517 -0.00073285014863492409 0 0.0073745143239344292 -0.00090002465391282995 0 0.0073544322574002731 -0.00094334028165155026 0 0.0072735597012953575 -0.0010096611965070216 0 0.0072549972966486935 -0.0011762054611519363 0 0.0073745143239344292 -0.00090002465391282995 0 0.0072735597012953575 -0.0010096611965070216 0 0.0072549972966486935 -0.0011762054611519363 0 0.0070357330326237125 -0.0013959350341945791 0 0.0072735597012953575 -0.0010096611965070216 0 0.0069738516712787024 -0.00106513337432774 0 0.0070357330326237125 -0.0013959350341945791 0 0.0074592898990506517 -0.00073285014863492409 0 0.0072735597012953575 -0.0010096611965070216 0 0.0069738516712787024 -0.00106513337432774 0 0.0074012051223079217 -0.00043511380934878628 0 0.0068188523304230668 -0.00074086028577664462 0 0.0070357330326237125 -0.0013959350341945791 0 0.0067185621994617535 -0.001838678949314411 0 0.0068715094465677798 -0.00170808969855603 0 0.0069738516712787024 -0.00106513337432774 0 0.0070357330326237125 -0.0013959350341945791 0 0.0068715094465677798 -0.00170808969855603 0 0.0071793239530261108 -0.0014040818588713286 0 0.0070357330326237125 -0.0013959350341945791 0 0.0067185621994617535 -0.001838678949314411 0 0.0072549972966486935 -0.0011762054611519363 0 0.0071793239530261108 -0.0014040818588713286 0 0.0070357330326237125 -0.0013959350341945791 0 0.0067185621994617535 -0.001838678949314411 0 0.0068715094465677798 -0.00170808969855603 0 0.0064690587109986373 -0.0014122626650674534 0 0.0067185621994617535 -0.001838678949314411 0 0.0059894847826868214 -0.0018235531144318981 0 0.0064690587109986373 -0.0014122626650674534 0 0.0067594107279388312 8.4767658607192448e-05 0 0.0073789054625072155 0.0001102302332342633 0 0.0061069064368885441 5.4680380000291587e-05 0 0.0067414748436834815 1.4592154722173774e-07 0 0.0073789054625072155 0.0001102302332342633 0 0.0061069064368885441 5.4680380000291587e-05 0 0.0081823857400682987 4.7480144016388666e-07 0 0.0067414748436834815 1.4592154722173774e-07 0 0.0073789054625072155 0.0001102302332342633 0 0.0078009732563730687 0.00021205830325170312 0 0.0067594107279388312 8.4767658607192448e-05 0 0.0073789054625072155 0.0001102302332342633 0 0.0036722803620663487 -0.0018767477957490589 0 0.0035043638597171047 -0.0019846363944618253 0 0.0038638754814117999 -0.0023804753031432075 0 0.0036722803620663487 -0.0018767477957490589 0 0.0040122923885767799 -0.0022768743257218526 0 0.0038638754814117999 -0.0023804753031432075 0 0.0039673762222311336 -0.0022711922033338862 0 0.0053741035112214956 -0.0019384380592768905 0 0.0043799458238024114 -0.0025388456407942871 0 0.004831744977623142 -0.002772422987743604 0 0.0049161934111545021 -0.0031789906628777059 0 0.0033902669295126225 -0.0020058359167701564 0 0.00470829360860699 -0.0014894761819857257 0 0.0043799458238024114 -0.0025388456407942871 0 0.004831744977623142 -0.002772422987743604 0 0.0048423265421489595 -0.0023801193342628865 0 0.0032514023718303369 -0.0020802938770154524 0 0.0034208816628227973 -0.0019242293255410546 0 0.003057131764609661 -0.0017919177612362106 0 0.0032514023718303369 -0.0020802938770154524 0 0.0034208816628227973 -0.0019242293255410546 0 0.0034236929146873275 -0.0021599013854470459 0 0.0043799458238024114 -0.0025388456407942871 0 0.0038047471305521145 -0.0019210207353183215 0 0.0044173649146364551 -0.0019755763822946765 0 0.0039673762222311336 -0.0022711922033338862 0 0.0035712190713876567 -0.0016969496059071232 0 0.0035043638597171047 -0.0019846363944618253 0 0.0033418466751508071 -0.0015084946059772239 0 0.0031758530518765748 -0.0016045376273536565 0 0.0034208816628227973 -0.0019242293255410546 0 0.003057131764609661 -0.0017919177612362106 0 0.0031758530518765748 -0.0016045376273536565 0 0.0033902669295126225 -0.0020058359167701564 0 0.0032058021389167997 -0.0016234175246578966 0 0.0036722803620663487 -0.0018767477957490589 0 0.0035043638597171047 -0.0019846363944618253 0 0.0033418466751508071 -0.0015084946059772239 0 0.0043799458238024114 -0.0025388456407942871 0 0.0044173649146364551 -0.0019755763822946765 0 0.0046248114462453249 -0.0022135546031262819 0 0.0048423265421489595 -0.0023801193342628865 0 0.0046248114462453249 -0.0022135546031262819 0 0.0048738299025489771 -0.0019463706257864142 0 0.0043799458238024114 -0.0025388456407942871 0 0.0048423265421489595 -0.0023801193342628865 0 0.0046248114462453249 -0.0022135546031262819 0 0.0044173649146364551 -0.0019755763822946765 0 0.0046248114462453249 -0.0022135546031262819 0 0.0048738299025489771 -0.0019463706257864142 0 0.0048423265421489595 -0.0023801193342628865 0 0.0048738299025489771 -0.0019463706257864142 0 0.0053382530927945952 -0.001771850198097395 0 0.0053382530927945952 -0.001771850198097395 0 0.0059894847826868214 -0.0018235531144318981 0 0.0053900088891309155 -0.0024702920447408545 0 0.0048423265421489595 -0.0023801193342628865 0 0.0053382530927945952 -0.001771850198097395 0 0.0053900088891309155 -0.0024702920447408545 0 0.0059894847826868214 -0.0018235531144318981 0 0.0059311275794944511 -0.002598201232053374 0 0.0053900088891309155 -0.0024702920447408545 0 0.0067185621994617535 -0.001838678949314411 0 0.0059894847826868214 -0.0018235531144318981 0 0.0059311275794944511 -0.002598201232053374 0 0.0067296212568354668 -0.0019057536609227775 0 0.006706433156201062 -0.0020290304353041545 0 0.0071793239530261108 -0.0014040818588713286 0 0.0067185621994617535 -0.001838678949314411 0 0.0074469476060490068 -0.0015668021217387232 0 0.0071793239530261108 -0.0014040818588713286 0 0.0074469476060490068 -0.0015668021217387232 0 0.0074561555795113338 -0.0011750963711124238 0 0.0074469476060490068 -0.0015668021217387232 0 0.0077640380541907535 -0.0013135168160205159 0 0.0074561555795113338 -0.0011750963711124238 0 0.004831744977623142 -0.002772422987743604 0 0.0048423265421489595 -0.0023801193342628865 0 0.005183602004099311 -0.0029889418433104416 0 0.0048423265421489595 -0.0023801193342628865 0 0.0053900088891309155 -0.0024702920447408545 0 0.0052544525386903239 -0.0030788024986668104 0 0.0049173214101696575 -0.0025895857574782517 0 0.0061044094808555402 -0.0020663676599349565 0 0.0059311275794944511 -0.002598201232053374 0 0.0053900088891309155 -0.0024702920447408545 0 0.0052544525386903239 -0.0030788024986668104 0 0.006706433156201062 -0.0020290304353041545 0 0.0061044094808555402 -0.0020663676599349565 0 0.004831744977623142 -0.002772422987743604 0 0.005183602004099311 -0.0029889418433104416 0 0.0049161934111545021 -0.0031789906628777059 0 0.006135232848225639 -0.00087620988988071661 0 0.0063231534290996705 -0.0013980014516260899 0 0.0059620940351795219 -0.00099811650101940311 0 0.0061044094808555402 -0.0020663676599349565 0 0.0073956206444180583 -0.00099047779544795601 0 0.0053741035112214956 -0.0019384380592768905 0 0.0073573490886819455 -0.00077358680737941163 0 0.0065240338326023875 -0.0014965666141251287 0 0.006508059287518948 -0.0015069020986839691 0 0.0065492841478673675 -0.0015372199244113624 0 0.006135232848225639 -0.00087620988988071661 0 0.0063231534290996705 -0.0013980014516260899 0 0.0065372188353449183 -0.001365496102294307 0 0.0065240338326023875 -0.0014965666141251287 0 0.0065623164601408077 -0.0015348404251465167 0 0.0065492841478673675 -0.0015372199244113624 0 0.0061044094808555402 -0.0020663676599349565 0 0.0053741035112214956 -0.0019384380592768905 0 0.0074048811816954099 -0.00013485169877835521 0 0.00470829360860699 -0.0014894761819857257 0 0.0074561555795113338 -0.0011750963711124238 0 0.0073745143239344292 -0.00090002465391282995 0 0.0075264455307818209 -0.0008707077611259629 0 0.0077640380541907535 -0.0013135168160205159 0 0.0074561555795113338 -0.0011750963711124238 0 0.0075264455307818209 -0.0008707077611259629 0 0.0072549972966486935 -0.0011762054611519363 0 0.0071793239530261108 -0.0014040818588713286 0 0.0074561555795113338 -0.0011750963711124238 0 0.0072549972966486935 -0.0011762054611519363 0 0.0074561555795113338 -0.0011750963711124238 0 0.0073745143239344292 -0.00090002465391282995 0 0.0074009585102837935 -0.00093183546516546008 0 0.0073956206444180583 -0.00099047779544795601 0 0.0073745143239344292 -0.00090002465391282995 0 0.007334444670801383 -0.00090949725152318476 0 0.0073544322574002731 -0.00094334028165155026 0 0.0077829173251607944 -0.00056008479411942319 0 0.0077878168880186121 -0.00072454184448986691 0 0.0076702911207275409 -0.00057675445144023097 0 0.0073956206444180583 -0.00099047779544795601 0 0.0073573490886819455 -0.00077358680737941163 0 0.0077829173251607944 -0.00056008479411942319 0 0.0077878168880186121 -0.00072454184448986691 0 0.0078692664425733961 -0.00071259906771695928 0 0.0084946208872057338 -8.401078577038515e-05 0 0.0083021893273762925 0.00015879789239528567 0 0.0082575061344284714 -0.00011842009527926849 0 0.0085694308774265371 0.00013974041013699822 0 0.0073573490886819455 -0.00077358680737941163 0 0.0085694308774265371 0.00013974041013699822 0 0.0096954554951487106 0.0012724934057742215 0 0.0085694308774265371 0.00013974041013699822 0 0.0077468135184681408 -0.00047628078954393868 0 0.0073956206444180583 -0.00099047779544795601 0 0.0077468135184681408 -0.00047628078954393868 0 0.0096954554951487106 0.0012724934057742215 0 0.0081142418980708706 0.0020509675303978163 0 0.0083082727671260972 0.0013460566838069362 0 0.0088557013378455837 0.00071471234389150354 0 0.0065702801272723805 0.00038103865750311878 0 0.0074048811816954099 -0.00013485169877835521 0 0.0073573490886819455 -0.00077358680737941163 0 0.0080471939935498615 0.00012157384356636873 0 0.0083021893273762925 0.00015879789239528567 0 0.0082575061344284714 -0.00011842009527926849 0 0.0074048811816954099 -0.00013485169877835521 0 0.0096954554951487106 0.0012724934057742215 0 0.0083082727671260972 0.0013460566838069362 0 0.0059990136044532957 0.0010060670575104099 0 0.0065702801272723805 0.00038103865750311878 0 0.0052793028858766841 0.00023141651213787578 0 0.0039546055306948031 -0.00070002324569484915 0 0.004303522399240204 -0.0010823327675789792 0 0.0074048811816954099 -0.00013485169877835521 0 0.0044105241406940656 0.0004728709855466429 0 0.00618241586366188 -0.00080565471070280688 0 0.0052793028858766841 0.00023141651213787578 0 0.004303522399240204 -0.0010823327675789792 0 0.0044105241406940656 0.0004728709855466429 0 0.0081142418980708706 0.0020509675303978163 0 0.0036673529696485607 -0.0022131939449774852 0 0.0034236929146873275 -0.0021599013854470459 0 0.0033459305424115063 -0.0024326719342487708 0 0.0034208816628227973 -0.0019242293255410546 0 0.0036673529696485607 -0.0022131939449774852 0 0.0034236929146873275 -0.0021599013854470459 0 0.00470829360860699 -0.0014894761819857257 0 0.002664096554599535 -0.00056308095372391168 0 0.0053741035112214956 -0.0019384380592768905 0 0.00470829360860699 -0.0014894761819857257 0 0.0032514023718303369 -0.0020802938770154524 0 0.0033459305424115063 -0.0024326719342487708 0 0.0029778473089835632 -0.0020904319701552571 0 0.0032514023718303369 -0.0020802938770154524 0 0.0034236929146873275 -0.0021599013854470459 0 0.0033459305424115063 -0.0024326719342487708 0 0.00063306163031538396 0.00017675253532119727 0 0.00095123072316150438 0.0001346511950814162 0 0.0013447546465195695 0.00030856030695982603 0 0.00074380758588300907 2.7026463127402725e-06 0 0.00095123072316150438 0.0001346511950814162 0 0.0011793300553235464 5.469869348272535e-05 0 0.0044105241406940656 0.0004728709855466429 0 0.002506520171550721 0.00093706268029447571 0 0.0053786116963638027 0.0017291154461709095 0 0.0044392552483434704 0.0011789350799307093 0 0.0042103181971016521 0.0015343989724780286 0 0.002664096554599535 -0.00056308095372391168 0 0.0016790179421699129 -0.00063734838724533458 0 0.002664096554599535 -0.00056308095372391168 0 0.0044105241406940656 0.0004728709855466429 0 0.00078787096935974328 1.05727237724698e-05 0 0.00063306163031538396 0.00017675253532119727 0 0.00095123072316150438 0.0001346511950814162 0 0.0094293652856523285 0.0031374797504431086 0 0.010308660065115825 0.0036354798803837386 0 0.0088534425544352455 0.0035098277869395691 0 0.0053786116963638027 0.0017291154461709095 0 0.005729396179339547 0.0013533223081919441 0 0.0044392552483434704 0.0011789350799307093 0 0.0081142418980708706 0.0020509675303978163 0 0.0066310497829202451 0.0023814399824503038 0 0.0099921555157145864 0.0031751197557526125 0 0.01038989960419842 0.0030213984434488317 0 0.0098292724394478132 0.0027019963944508365 0 0.0094293652856523285 0.0031374797504431086 0 0.0099921555157145864 0.0031751197557526125 0 0.0098292724394478132 0.0027019963944508365 0 0.0094293652856523285 0.0031374797504431086 0 0.0099921555157145864 0.0031751197557526125 0 0.010308660065115825 0.0036354798803837386 0 0.011600502194990803 0.003717101269484721 0 0.010325584524632869 0.0035866275681718431 0 0.010477853176454084 0.0034224797091520222 0 0.0099921555157145864 0.0031751197557526125 0 0.010308660065115825 0.0036354798803837386 0 0.010477853176454084 0.0034224797091520222 0 0.0081142418980708706 0.0020509675303978163 0 0.0086296699203592363 0.002182523424299383 0 0.010901192124902146 0.0031054216709514451 0 0.01038989960419842 0.0030213984434488317 0 0.010632714376515646 0.0025972798239781592 0 0.010477853176454084 0.0034224797091520222 0 0.010901192124902146 0.0031054216709514451 0 0.01038989960419842 0.0030213984434488317 0 0.0099921555157145864 0.0031751197557526125 0 0.010477853176454084 0.0034224797091520222 0 0.01038989960419842 0.0030213984434488317 0 0.010632714376515646 0.0025972798239781592 0 0.010175985230813946 0.0021393494921631427 0 0.0098292724394478132 0.0027019963944508365 0 0.01038989960419842 0.0030213984434488317 0 0.010632714376515646 0.0025972798239781592 0 0.0098292724394478132 0.0027019963944508365 0 0.010632714376515646 0.0025972798239781592 0 0.010175985230813946 0.0021393494921631427 0 0.011049986758392468 0.0019479802857297064 0 0.010175985230813946 0.0021393494921631427 0 0.0092741009952348914 0.0020610335716978495 0 0.0098292724394478132 0.0027019963944508365 0 0.0094293652856523285 0.0031374797504431086 0 0.0098292724394478132 0.0027019963944508365 0 0.0089154997079468924 0.0026691731012189529 0 0.0092741009952348914 0.0020610335716978495 0 0.0098292724394478132 0.0027019963944508365 0 0.0089154997079468924 0.0026691731012189529 0 0.0087526015893008395 -5.5510852587842071e-05 0 0.0085166860807887931 0.00022711624982233095 0 0.0085766889523196804 0.00023609235255111106 0 0.010298510155802862 0.00092407050626664127 0 0.0098834373905737818 0.0014338257787106345 0 0.010039976975326008 0.0010193224502785053 0 0.0091924690754362267 0.0002871641728525828 0 0.0085694308774265371 0.00013974041013699822 0 0.011600502194990803 0.003717101269484721 0 0.01219998136131603 0.0029965221901766858 0 0.011370226455372069 0.0027449978316000613 0 0.0091924690754362267 0.0002871641728525828 0 0.0077468135184681408 -0.00047628078954393868 0 0.0098834373905737818 0.0014338257787106345 0 0.0096949646950836351 0.0014064711792294187 0 0.010039976975326008 0.0010193224502785053 0 0.0096954554951487106 0.0012724934057742215 0 0.011086975747529178 0.0021052411239026424 0 0.011600502194990803 0.003717101269484721 0 0.010901192124902146 0.0031054216709514451 0 0.011370226455372069 0.0027449978316000613 0 0.011600502194990803 0.003717101269484721 0 0.010477853176454084 0.0034224797091520222 0 0.010901192124902146 0.0031054216709514451 0 0.010632714376515646 0.0025972798239781592 0 0.011370226455372069 0.0027449978316000613 0 0.011049986758392468 0.0019479802857297064 0 0.011370226455372069 0.0027449978316000613 0 0.011906354335790292 0.0021347936447637015 0 0.011049986758392468 0.0019479802857297064 0 0.010901192124902146 0.0031054216709514451 0 0.010632714376515646 0.0025972798239781592 0 0.011370226455372069 0.0027449978316000613 0 0.01195326791356041 0.0015804955677309704 0 0.012213530896723236 0.0022259871388536309 0 0.01219998136131603 0.0029965221901766858 0 0.011370226455372069 0.0027449978316000613 0 0.011906354335790292 0.0021347936447637015 0 0.012778852046861066 0.0023044561262778223 0 0.01219998136131603 0.0029965221901766858 0 0.011906354335790292 0.0021347936447637015 0 0.01276198395836003 0.0017685231805990185 0 0.013147597614008921 0.0024087784305835028 0 0.012132361490238757 0.0022206774228342549 0 0.012773085336813187 0.001175921576323851 0 0.01276198395836003 0.0017685231805990185 0 0.011985329814299894 0.0014974177636677146 0 0.01276198395836003 0.0017685231805990185 0 0.012132361490238757 0.0022206774228342549 0 0.011985329814299894 0.0014974177636677146 0 0.012132361490238757 0.0022206774228342549 0 0.011985329814299894 0.0014974177636677146 0 0.011049986758392468 0.0019479802857297064 0 0.012213530896723236 0.0022259871388536309 0 0.011072937349647963 0.0019636416818595548 0 0.011985329814299894 0.0014974177636677146 0 0.011049986758392468 0.0019479802857297064 0 0.011432222123130801 0.00086945309711529721 0 0.011966209745924009 0.00023334564577196426 0 0.011432222123130801 0.00086945309711529721 0 0.012216947794064582 0.00083055525154582537 0 0.011985329814299894 0.0014974177636677146 0 0.011432222123130801 0.00086945309711529721 0 0.012216947794064582 0.00083055525154582537 0 0.012912737321796423 0.00038396310193450107 0 0.012773085336813187 0.001175921576323851 0 0.012216947794064582 0.00083055525154582537 0 0.012773085336813187 0.001175921576323851 0 0.011985329814299894 0.0014974177636677146 0 0.012216947794064582 0.00083055525154582537 0 0.009819101938602694 0.0014618292369074216 0 0.0087908979856386477 0.00092871520301924485 0 0.0092741009952348914 0.0020610335716978495 0 0.0098672789474477402 0.0015636144086231829 0 0.0087818323589388177 0.0015321446775786887 0 0.010175985230813946 0.0021393494921631427 0 0.0092741009952348914 0.0020610335716978495 0 0.0098672789474477402 0.0015636144086231829 0 0.011049986758392468 0.0019479802857297064 0 0.011432222123130801 0.00086945309711529721 0 0.010471806839039538 0.0012922779818284422 0 0.010175985230813946 0.0021393494921631427 0 0.011049986758392468 0.0019479802857297064 0 0.010471806839039538 0.0012922779818284422 0 0.010175985230813946 0.0021393494921631427 0 0.0098672789474477402 0.0015636144086231829 0 0.010471806839039538 0.0012922779818284422 0 0.011432222123130801 0.00086945309711529721 0 0.010471806839039538 0.0012922779818284422 0 0.010577977189913717 0.00058225319726105983 0 0.010471806839039538 0.0012922779818284422 0 0.010577977189913717 0.00058225319726105983 0 0.0097952952183063685 0.0008623898401056686 0 0.0098672789474477402 0.0015636144086231829 0 0.0097952952183063685 0.0008623898401056686 0 0.0092054329141571817 0.0010259151057689193 0 0.0098672789474477402 0.0015636144086231829 0 0.010471806839039538 0.0012922779818284422 0 0.0097952952183063685 0.0008623898401056686 0 0.0092102549168325085 0.00048504199874564816 0 0.0097952952183063685 0.0008623898401056686 0 0.0089983004665358853 0.0011336675303978351 0 0.0092102549168325085 0.00048504199874564816 0 0.0078106630400379545 0.00031238594399731943 0 0.0089983004665358853 0.0011336675303978351 0 0.0097684166350672196 0.00086068846553170105 0 0.0087908979856386477 0.00092871520301924485 0 0.0098672789474477402 0.0015636144086231829 0 0.0086219818655672853 0.00045942412651536546 0 0.0087818323589388177 0.0015321446775786887 0 0.0086219818655672853 0.00045942412651536546 0 0.0087818323589388177 0.0015321446775786887 0 0.0079427163620052286 0.0014000414008612512 0 0.0087818323589388177 0.0015321446775786887 0 0.0079427163620052286 0.0014000414008612512 0 0.0082178572358122433 0.00208535479124459 0 0.0092741009952348914 0.0020610335716978495 0 0.0087818323589388177 0.0015321446775786887 0 0.0082178572358122433 0.00208535479124459 0 0.0086219818655672853 0.00045942412651536546 0 0.0079427163620052286 0.0014000414008612512 0 0.0072495761801333663 0.00082755402041214581 0 0.0070599127799949573 0.0016876510891214208 0 0.0079427163620052286 0.0014000414008612512 0 0.0082178572358122433 0.00208535479124459 0 0.0070599127799949573 0.0016876510891214208 0 0.0079427163620052286 0.0014000414008612512 0 0.0072495761801333663 0.00082755402041214581 0 0.0087908979856386477 0.00092871520301924485 0 0.0073061755334733365 0.0010259073640223788 0 0.0075721624257073464 0.00024685644556497933 0 0.0087908979856386477 0.00092871520301924485 0 0.0073844086469626686 0.00018541281443934074 0 0.0084052769744420528 0.00095707646023578889 0 0.0074461575022659772 0.001225888325910863 0 0.0074461575022659772 0.001225888325910863 0 0.006953361657700604 0.00075640272708120209 0 0.006648451062955407 0.0010679320926303313 0 0.0073844086469626686 0.00018541281443934074 0 0.0074461575022659772 0.001225888325910863 0 0.006953361657700604 0.00075640272708120209 0 0.00664949600750384 0.00017091721208647911 0 0.006953361657700604 0.00075640272708120209 0 0.0062117540581149155 0.00076248898616159777 0 0.006953361657700604 0.00075640272708120209 0 0.006648451062955407 0.0010679320926303313 0 0.0062117540581149155 0.00076248898616159777 0 0.0059306897900985901 0.00063368628220680475 0 0.0059475417899134651 0.00078338311907543117 0 0.0062117540581149155 0.00076248898616159777 0 0.006648451062955407 0.0010679320926303313 0 0.0061248193557304287 0.0010615014228612747 0 0.0064660360341371338 0.0015188944622993288 0 0.006648451062955407 0.0010679320926303313 0 0.0062117540581149155 0.00076248898616159777 0 0.0061248193557304287 0.0010615014228612747 0 0.0059475417899134651 0.00078338311907543117 0 0.0061248193557304287 0.0010615014228612747 0 0.0057975406449045728 0.0013290612447315699 0 0.0059475417899134651 0.00078338311907543117 0 0.0062117540581149155 0.00076248898616159777 0 0.0061248193557304287 0.0010615014228612747 0 0.0059609381238204789 0.0012364731298101133 0 0.0055633412165557112 0.0017426791390984424 0 0.0052101504386489047 0.0017231951202156157 0 0.0057975406449045728 0.0013290612447315699 0 0.0064660360341371338 0.0015188944622993288 0 0.0052101504386489047 0.0017231951202156157 0 0.006223582797586261 0.0013805711665802762 0 0.0053154427529919787 0.0016767871246890112 0 0.0061248193557304287 0.0010615014228612747 0 0.0057975406449045728 0.0013290612447315699 0 0.0064660360341371338 0.0015188944622993288 0 0.0059609381238204789 0.0012364731298101133 0 0.0055633412165557112 0.0017426791390984424 0 0.0061801033949418598 0.0017834841000397006 0 0.0070599127799949573 0.0016876510891214208 0 0.0072495761801333663 0.00082755402041214581 0 0.0059609381238204789 0.0012364731298101133 0 0.0073061755334733365 0.0010259073640223788 0 0.006223582797586261 0.0013805711665802762 0 0.0070599127799949573 0.0016876510891214208 0 0.0059609381238204789 0.0012364731298101133 0 0.0061801033949418598 0.0017834841000397006 0 0.0074461575022659772 0.001225888325910863 0 0.006648451062955407 0.0010679320926303313 0 0.0064660360341371338 0.0015188944622993288 0 0.0070599127799949573 0.0016876510891214208 0 0.0066055484121749358 0.0021752839751809829 0 0.0061801033949418598 0.0017834841000397006 0 0.0066055484121749358 0.0021752839751809829 0 0.0061801033949418598 0.0017834841000397006 0 0.0058816086756000247 0.0020690908503509017 0 0.0066055484121749358 0.0021752839751809829 0 0.0062492306507557415 0.0025094316541372542 0 0.0058816086756000247 0.0020690908503509017 0 0.0066055484121749358 0.0021752839751809829 0 0.0070145106020471342 0.0026365747522306558 0 0.0074256688171675808 0.0024001475781598169 0 0.0066055484121749358 0.0021752839751809829 0 0.0062492306507557415 0.0025094316541372542 0 0.0070145106020471342 0.0026365747522306558 0 0.0053001641219461515 0.0020576278541011004 0 0.0057213005157898955 0.0027224633992938489 0 0.0049541903654344768 0.0019029115974173402 0 0.0055183048831531677 0.0020002628116359365 0 0.0053001641219461515 0.0020576278541011004 0 0.0052166741652658645 0.0019035931568545095 0 0.0055633412165557112 0.0017426791390984424 0 0.0055183048831531677 0.0020002628116359365 0 0.0052166741652658645 0.0019035931568545095 0 0.0055633412165557112 0.0017426791390984424 0 0.0061801033949418598 0.0017834841000397006 0 0.0058816086756000247 0.0020690908503509017 0 0.0055633412165557112 0.0017426791390984424 0 0.0055183048831531677 0.0020002628116359365 0 0.0058816086756000247 0.0020690908503509017 0 0.0062492306507557415 0.0025094316541372542 0 0.0056770677009120073 0.0022775978690799856 0 0.0057213005157898955 0.0027224633992938489 0 0.0062492306507557415 0.0025094316541372542 0 0.0058816086756000247 0.0020690908503509017 0 0.0056770677009120073 0.0022775978690799856 0 0.0055183048831531677 0.0020002628116359365 0 0.0058816086756000247 0.0020690908503509017 0 0.0056770677009120073 0.0022775978690799856 0 0.0055183048831531677 0.0020002628116359365 0 0.0056770677009120073 0.0022775978690799856 0 0.0053001641219461515 0.0020576278541011004 0 0.0056770677009120073 0.0022775978690799856 0 0.0053001641219461515 0.0020576278541011004 0 0.0057213005157898955 0.0027224633992938489 0 0.0031266168971346461 0.0013329702356715163 0 0.0034437209141327391 0.0011373276805872316 0 0.0039369979763652111 0.0013121520143761032 0 0.0031266168971346461 0.0013329702356715163 0 0.0031663738789590324 0.0010575085522992506 0 0.0031979851943688548 0.0012011355604406957 0 0.0031266168971346461 0.0013329702356715163 0 0.0031663738789590324 0.0010575085522992506 0 0.0034437209141327391 0.0011373276805872316 0 0.0034437209141327391 0.0011373276805872316 0 0.0035850513365914961 0.00082075915856530857 0 0.0039369979763652111 0.0013121520143761032 0 0.0031663738789590324 0.0010575085522992506 0 0.0034437209141327391 0.0011373276805872316 0 0.0035850513365914961 0.00082075915856530857 0 0.0062492306507557415 0.0025094316541372542 0 0.0057213005157898955 0.0027224633992938489 0 0.00723071941218284 0.0032240493409129416 0 0.0031266168971346461 0.0013329702356715163 0 0.0031979851943688548 0.0012011355604406957 0 0.0033298798704909831 0.0010805345609054984 0 0.0031341521501119839 0.0010448489325304532 0 0.0027927323880077536 0.00096125775669449675 0 0.0045115126167488279 0.0020009346927223207 0 0.005305235522511084 0.002155205787844477 0 0.0031663738789590324 0.0010575085522992506 0 0.0031979851943688548 0.0012011355604406957 0 0.0032562998277819539 0.0013236570318546938 0 0.0031663738789590324 0.0010575085522992506 0 0.0021089761144730134 0.00057441103876481356 0 0.0026449770335627864 0.00035560178190259393 0 0.0062492306507557415 0.0025094316541372542 0 0.0070145106020471342 0.0026365747522306558 0 0.00723071941218284 0.0032240493409129416 0 0.0031979851943688548 0.0012011355604406957 0 0.0032562998277819539 0.0013236570318546938 0 0.0033298798704909831 0.0010805345609054984 0 0.00723071941218284 0.0032240493409129416 0 0.0088534425544352455 0.0035098277869395691 0 0.0081167213854516466 0.0029246421352248195 0 0.0032562998277819539 0.0013236570318546938 0 0.0033298798704909831 0.0010805345609054984 0 0.0042103181971016521 0.0015343989724780286 0 0.005305235522511084 0.002155205787844477 0 0.0066310497829202451 0.0023814399824503038 0 0.0070145106020471342 0.0026365747522306558 0 0.00723071941218284 0.0032240493409129416 0 0.0074893256536194561 0.0028194846788110444 0 0.00723071941218284 0.0032240493409129416 0 0.0074893256536194561 0.0028194846788110444 0 0.0081167213854516466 0.0029246421352248195 0 0.0033298798704909831 0.0010805345609054984 0 0.0044392552483434704 0.0011789350799307093 0 0.0042103181971016521 0.0015343989724780286 0 0.0094293652856523285 0.0031374797504431086 0 0.008837341078831322 0.0030616953433590952 0 0.0089154997079468924 0.0026691731012189529 0 0.008837341078831322 0.0030616953433590952 0 0.0081167213854516466 0.0029246421352248195 0 0.0089154997079468924 0.0026691731012189529 0 0.0094293652856523285 0.0031374797504431086 0 0.0088534425544352455 0.0035098277869395691 0 0.008837341078831322 0.0030616953433590952 0 0.0088534425544352455 0.0035098277869395691 0 0.008837341078831322 0.0030616953433590952 0 0.0081167213854516466 0.0029246421352248195 0 0.0081167213854516466 0.0029246421352248195 0 0.0089154997079468924 0.0026691731012189529 0 0.0082178572358122433 0.00208535479124459 0 0.0092741009952348914 0.0020610335716978495 0 0.0089154997079468924 0.0026691731012189529 0 0.0082178572358122433 0.00208535479124459 0 0.0070599127799949573 0.0016876510891214208 0 0.0082178572358122433 0.00208535479124459 0 0.0074256688171675808 0.0024001475781598169 0 0.0070599127799949573 0.0016876510891214208 0 0.0066055484121749358 0.0021752839751809829 0 0.0074256688171675808 0.0024001475781598169 0 0.0070145106020471342 0.0026365747522306558 0 0.0074893256536194561 0.0028194846788110444 0 0.0074256688171675808 0.0024001475781598169 0 0.0074893256536194561 0.0028194846788110444 0 0.0081167213854516466 0.0029246421352248195 0 0.0074256688171675808 0.0024001475781598169 0 0.0081167213854516466 0.0029246421352248195 0 0.0082178572358122433 0.00208535479124459 0 0.0074256688171675808 0.0024001475781598169 0 0.0064578197483054489 0.0015130924574474904 0 0.0063399288639601828 0.001688404288932245 0 0.0066959395959734925 0.0017663865747243224 0 0.0064578197483054489 0.0015130924574474904 0 0.0063399288639601828 0.001688404288932245 0 0.0061906498723360561 0.0014460079644536838 0 0.0065021079287520345 0.0019267275897185397 0 0.0066959395959734925 0.0017663865747243224 0 0.0070444289924968331 0.0020535378537955276 0 0.0063399288639601828 0.001688404288932245 0 0.0065021079287520345 0.0019267275897185397 0 0.0066959395959734925 0.0017663865747243224 0 0.006141054374417745 0.0019451910497621453 0 0.006101277815647798 0.0016180804457927391 0 0.0058762303419021746 0.0017277902340271634 0 0.0063399288639601828 0.001688404288932245 0 0.006141054374417745 0.0019451910497621453 0 0.006101277815647798 0.0016180804457927391 0 0.0063399288639601828 0.001688404288932245 0 0.0065021079287520345 0.0019267275897185397 0 0.006141054374417745 0.0019451910497621453 0 0.0063399288639601828 0.001688404288932245 0 0.006101277815647798 0.0016180804457927391 0 0.0061906498723360561 0.0014460079644536838 0 0.006101277815647798 0.0016180804457927391 0 0.0058762303419021746 0.0017277902340271634 0 0.005972426651892516 0.0013693730412167348 0 0.005836310940843273 0.00095797364321025848 0 0.0057684152003552062 0.00089346170263318472 0 0.0058506938772593413 0.0010780986243238229 0 0.0058382148216018668 0.0013012321781904709 0 0.0059127585589024744 0.0012173294075819322 0 0.005836310940843273 0.00095797364321025848 0 0.0057684152003552062 0.00089346170263318472 0 0.005861652845626124 0.00088851114486974926 0 0.0056803420605430061 0.00140649807037312 0 0.0058382148216018668 0.0013012321781904709 0 0.0057817833961609708 0.0021863255859901568 0 0.006141054374417745 0.0019451910497621453 0 0.0058762303419021746 0.0017277902340271634 0 0.0057723527498209862 0.00060947991219563642 0 0.0057684152003552062 0.00089346170263318472 0 0.0058620416340562295 0.00077148000145166372 0 0.0057684152003552062 0.00089346170263318472 0 0.0058620416340562295 0.00077148000145166372 0 0.005861652845626124 0.00088851114486974926 0 0.0059306897900985901 0.00063368628220680475 0 0.0059475417899134651 0.00078338311907543117 0 0.0058620416340562295 0.00077148000145166372 0 0.0059475417899134651 0.00078338311907543117 0 0.0058620416340562295 0.00077148000145166372 0 0.005861652845626124 0.00088851114486974926 0 0.0059475417899134651 0.00078338311907543117 0 0.0057975406449045728 0.0013290612447315699 0 0.0052101504386489047 0.0017231951202156157 0 0.0058964615817647566 0.00083143598113121951 0 0.0053443017236953225 0.0014908756964225308 0 0.0059475417899134651 0.00078338311907543117 0 0.0052101504386489047 0.0017231951202156157 0 0.0048369071335736353 0.0019689024291327127 0 0.0059475417899134651 0.00078338311907543117 0 0.005861652845626124 0.00088851114486974926 0 0.0058808761716028597 0.0010264784196791885 0 0.005836310940843273 0.00095797364321025848 0 0.005861652845626124 0.00088851114486974926 0 0.0058808761716028597 0.0010264784196791885 0 0.0052101504386489047 0.0017231951202156157 0 0.0052166741652658645 0.0019035931568545095 0 0.0048369071335736353 0.0019689024291327127 0 0.0055633412165557112 0.0017426791390984424 0 0.0052101504386489047 0.0017231951202156157 0 0.0052166741652658645 0.0019035931568545095 0 0.0057213005157898955 0.0027224633992938489 0 0.0047627753802146578 0.0017610681891588795 0 0.0049541903654344768 0.0019029115974173402 0 0.0053001641219461515 0.0020576278541011004 0 0.0052166741652658645 0.0019035931568545095 0 0.0049541903654344768 0.0019029115974173402 0 0.0052166741652658645 0.0019035931568545095 0 0.0048369071335736353 0.0019689024291327127 0 0.0049541903654344768 0.0019029115974173402 0 0.0048369071335736353 0.0019689024291327127 0 0.0047627753802146578 0.0017610681891588795 0 0.0049541903654344768 0.0019029115974173402 0 0.0031266168971346461 0.0013329702356715163 0 0.0047627753802146578 0.0017610681891588795 0 0.0039369979763652111 0.0013121520143761032 0 0.0045115126167488279 0.0020009346927223207 0 0.0047730069217974879 0.0018354415843922615 0 0.0039369979763652111 0.0013121520143761032 0 0.004551247004179553 0.0011577542668120826 0 0.0041628678464116211 0.00069669154311994012 0 0.0035850513365914961 0.00082075915856530857 0 0.0039369979763652111 0.0013121520143761032 0 0.0041628678464116211 0.00069669154311994012 0 0.0047627753802146578 0.0017610681891588795 0 0.0039369979763652111 0.0013121520143761032 0 0.004551247004179553 0.0011577542668120826 0 0.0047627753802146578 0.0017610681891588795 0 0.004551247004179553 0.0011577542668120826 0 0.005115544699732558 0.0013210192705586728 0 0.0059384903636990416 0.0011569068449062251 0 0.0058506938772593413 0.0010780986243238229 0 0.0059907267681694786 0.001162652646075803 0 0.0059127585589024744 0.0012173294075819322 0 0.0059798933248923153 0.001153324200336664 0 0.004551247004179553 0.0011577542668120826 0 0.005115544699732558 0.0013210192705586728 0 0.0046261126710743861 0.00068482465140668695 0 0.0058808761716028597 0.0010264784196791885 0 0.0059384903636990416 0.0011569068449062251 0 0.0058506938772593413 0.0010780986243238229 0 0.0053443017236953225 0.0014908756964225308 0 0.0057910461857782567 0.0012713623641056084 0 0.0048369071335736353 0.0019689024291327127 0 0.0047627753802146578 0.0017610681891588795 0 0.005115544699732558 0.0013210192705586728 0 0.005836310940843273 0.00095797364321025848 0 0.0058808761716028597 0.0010264784196791885 0 0.0058506938772593413 0.0010780986243238229 0 0.006101277815647798 0.0016180804457927391 0 0.005972426651892516 0.0013693730412167348 0 0.0061906498723360561 0.0014460079644536838 0 0.005972426651892516 0.0013693730412167348 0 0.0061906498723360561 0.0014460079644536838 0 0.0060995305200251329 0.0012856525572214283 0 0.005972426651892516 0.0013693730412167348 0 0.0059907267681694786 0.001162652646075803 0 0.0060995305200251329 0.0012856525572214283 0 0.0059907267681694786 0.001162652646075803 0 0.0060995305200251329 0.0012856525572214283 0 0.0061175701912183009 0.0011888086925986613 0 0.0060995305200251329 0.0012856525572214283 0 0.0061175701912183009 0.0011888086925986613 0 0.0062292929245822632 0.001301150994408113 0 0.0061175701912183009 0.0011888086925986613 0 0.0062292929245822632 0.001301150994408113 0 0.0061372216530205829 0.001179276181919667 0 0.0064578197483054489 0.0015130924574474904 0 0.0061906498723360561 0.0014460079644536838 0 0.0062292929245822632 0.001301150994408113 0 0.0061906498723360561 0.0014460079644536838 0 0.0060995305200251329 0.0012856525572214283 0 0.0062292929245822632 0.001301150994408113 0 0.0038419417425050286 -0.0005016988328634893 0 0.0021446067052091362 0.00015972513431047934 0 0.002757343908629621 -0.0011812962117060391 0 0.0049950404571623332 0.00099684148383589956 0 0.0042818957256171566 -0.00011130019307651053 0 0.0038419417425050286 -0.0005016988328634893 0 0.0038521999776912879 0.00086418604807348798 0 0.0021446067052091362 0.00015972513431047934 0 0.0038419417425050286 -0.0005016988328634893 0 0.0038521999776912879 0.00086418604807348798 0 0.0050585646212381874 0.00028614538604035698 0 0.0061175701912183009 0.0011888086925986613 0 0.0060971455762895447 0.0011650576886965338 0 0.0060669741666168168 0.0011496611422260913 0 0.0061175701912183009 0.0011888086925986613 0 0.0060971455762895447 0.0011650576886965338 0 0.0061372216530205829 0.001179276181919667 0 0.0060971455762895447 0.0011650576886965338 0 0.0060669741666168168 0.0011496611422260913 0 0.0060387141261750727 0.0010980963195040955 0 0.0057910461857782567 0.0012713623641056084 0 0.0042818957256171566 -0.00011130019307651053 0 0.0059384903636990416 0.0011569068449062251 0 0.0059907267681694786 0.001162652646075803 0 0.0060387141261750727 0.0010980963195040955 0 0.0059907267681694786 0.001162652646075803 0 0.0060669741666168168 0.0011496611422260913 0 0.0060387141261750727 0.0010980963195040955 0 0.0059907267681694786 0.001162652646075803 0 0.0061175701912183009 0.0011888086925986613 0 0.0060669741666168168 0.0011496611422260913 0 0.0042818957256171566 -0.00011130019307651053 0 0.0027220082625724236 -0.00085116739050857882 0 0.0023203338593869092 -0.0009376945530250307 0 0.0021539177078776367 -0.0013602813949570101 0 0.002757343908629621 -0.0011812962117060391 0 0.0023203338593869092 -0.0009376945530250307 0 0.0018496767181816135 -0.0016953140066299525 0 0.0021539177078776367 -0.0013602813949570101 0 0.0049740016105779706 0.00013650852965979245 0 0.0041521393627766958 -5.9440894307614603e-05 0 0.0045263682982217435 -0.0010564624882069325 0 0.0042818957256171566 -0.00011130019307651053 0 0.0031708201404248761 -0.0014103482476917769 0 0.0060340156783724765 -0.00034951721381617747 0 0.0049740016105779706 0.00013650852965979245 0 0.0045263682982217435 -0.0010564624882069325 0 0.005115544699732558 0.0013210192705586728 0 0.0060340156783724765 -0.00034951721381617747 0 0.0049740016105779706 0.00013650852965979245 0 0.005115544699732558 0.0013210192705586728 0 0.0046261126710743861 0.00068482465140668695 0 0.0049740016105779706 0.00013650852965979245 0 0.0046261126710743861 0.00068482465140668695 0 0.0049740016105779706 0.00013650852965979245 0 0.0041521393627766958 -5.9440894307614603e-05 0 0.004551247004179553 0.0011577542668120826 0 0.0046261126710743861 0.00068482465140668695 0 0.0041628678464116211 0.00069669154311994012 0 0.0046261126710743861 0.00068482465140668695 0 0.0041628678464116211 0.00069669154311994012 0 0.0041521393627766958 -5.9440894307614603e-05 0 0.0035850513365914961 0.00082075915856530857 0 0.0041628678464116211 0.00069669154311994012 0 0.003500746595824813 0.00013791717725156704 0 0.0041628678464116211 0.00069669154311994012 0 0.0041521393627766958 -5.9440894307614603e-05 0 0.003500746595824813 0.00013791717725156704 0 0.0041521393627766958 -5.9440894307614603e-05 0 0.0034666923750812486 -0.00056879188038079433 0 0.003500746595824813 0.00013791717725156704 0 0.0041521393627766958 -5.9440894307614603e-05 0 0.0034666923750812486 -0.00056879188038079433 0 0.0045263682982217435 -0.0010564624882069325 0 0.0031708201404248761 -0.0014103482476917769 0 0.0027582548974474101 -0.0015418700158140461 0 0.0020576168354339295 -0.0016016396553142438 0 0.0018496767181816135 -0.0016953140066299525 0 0.0026834444473891744 -0.0015758095393426732 0 0.0034666923750812486 -0.00056879188038079433 0 0.0045263682982217435 -0.0010564624882069325 0 0.0026834444473891744 -0.0015758095393426732 0 0.0020576168354339295 -0.0016016396553142438 0 0.0017221836406602104 -0.0018912513320073969 0 0.0013961074318349417 -0.0016231007657050724 0 0.0020576168354339295 -0.0016016396553142438 0 0.0017221836406602104 -0.0018912513320073969 0 0.0018496767181816135 -0.0016953140066299525 0 0.0017221836406602104 -0.0018912513320073969 0 0.0014819819285301014 -0.0021247660724422264 0 0.0013961074318349417 -0.0016231007657050724 0 0.0018496767181816135 -0.0016953140066299525 0 0.0021539177078776367 -0.0013602813949570101 0 0.0019908349631026783 -0.001703777535128246 0 0.0017221836406602104 -0.0018912513320073969 0 0.0018496767181816135 -0.0016953140066299525 0 0.0019908349631026783 -0.001703777535128246 0 0.0021539177078776367 -0.0013602813949570101 0 0.0019908349631026783 -0.001703777535128246 0 0.002757343908629621 -0.0011812962117060391 0 0.0023113228750793256 -0.0018285306648939603 0 0.0019908349631026783 -0.001703777535128246 0 0.002757343908629621 -0.0011812962117060391 0 0.0023113228750793256 -0.0018285306648939603 0 0.0028845903929356738 -0.0017256222590009409 0 0.002757343908629621 -0.0011812962117060391 0 0.0017221836406602104 -0.0018912513320073969 0 0.0019908349631026783 -0.001703777535128246 0 0.0019690349580185366 -0.0020651882726068159 0 0.0023113228750793256 -0.0018285306648939603 0 0.0019908349631026783 -0.001703777535128246 0 0.0019690349580185366 -0.0020651882726068159 0 0.0017221836406602104 -0.0018912513320073969 0 0.0019690349580185366 -0.0020651882726068159 0 0.0014819819285301014 -0.0021247660724422264 0 0.0014819819285301014 -0.0021247660724422264 0 0.00014714674097130012 -0.0024131780398900849 0 0.00084129275125542299 -0.0018972517797885722 0 0.0019690349580185366 -0.0020651882726068159 0 0.0025915353898124513 -0.0022519092287208516 0 0.0026179955529779669 -0.0025533238462894067 0 0.0019690349580185366 -0.0020651882726068159 0 0.0014819819285301014 -0.0021247660724422264 0 0.0026179955529779669 -0.0025533238462894067 0 0.0018249555123993162 -0.0022636775939400841 0 0.00021253940677054515 -0.0027176810086743265 0 0.0023113228750793256 -0.0018285306648939603 0 0.0025915353898124513 -0.0022519092287208516 0 0.0028845903929356738 -0.0017256222590009409 0 0.0023113228750793256 -0.0018285306648939603 0 0.0019690349580185366 -0.0020651882726068159 0 0.0025915353898124513 -0.0022519092287208516 0 0.0030910586900127113 -0.0020960466665916511 0 0.0036590492741597285 -0.002043060464033462 0 0.0028845903929356738 -0.0017256222590009409 0 0.00021253940677054515 -0.0027176810086743265 0 -5.2690313200821417e-05 -0.0027735759076746255 0 0.0025915353898124513 -0.0022519092287208516 0 0.0030910586900127113 -0.0020960466665916511 0 0.0028845903929356738 -0.0017256222590009409 0 0.0032797445620653394 -0.0024268812584010385 0 0.0027223125740394342 -0.0029095447026530512 0 0.0042849761901108145 -0.0028472130236545253 0 -0.0034528903529539665 -0.0027506518462882515 0 -0.0040982629158268641 -0.0024807501182282882 0 -0.004430458761164398 -0.0027650958204906333 0 0.0030910586900127113 -0.0020960466665916511 0 0.0032797445620653394 -0.0024268812584010385 0 0.0036590492741597285 -0.002043060464033462 0 0.0025915353898124513 -0.0022519092287208516 0 0.0030910586900127113 -0.0020960466665916511 0 0.0032797445620653394 -0.0024268812584010385 0 0.00088711084102485478 -0.0027027255890302317 0 0.00021253940677054515 -0.0027176810086743265 0 0.0025915353898124513 -0.0022519092287208516 0 0.0032797445620653394 -0.0024268812584010385 0 0.0027223125740394342 -0.0029095447026530512 0 -0.0040982629158268641 -0.0024807501182282882 0 -0.0044427541980830631 -0.0023765104493808581 0 -0.004430458761164398 -0.0027650958204906333 0 0.0032797445620653394 -0.0024268812584010385 0 0.0036590492741597285 -0.002043060464033462 0 0.0042849761901108145 -0.0028472130236545253 0 0.0036590492741597285 -0.002043060464033462 0 0.003583506125324609 -0.0014533043940676733 0 0.0042350287787266405 -0.0017964931789159061 0 0.003583506125324609 -0.0014533043940676733 0 0.004380865183491376 -0.0012811329882085659 0 0.0042350287787266405 -0.0017964931789159061 0 0.0036590492741597285 -0.002043060464033462 0 0.003583506125324609 -0.0014533043940676733 0 0.0028845903929356738 -0.0017256222590009409 0 0.003583506125324609 -0.0014533043940676733 0 0.0028845903929356738 -0.0017256222590009409 0 0.002757343908629621 -0.0011812962117060391 0 0.0038419417425050286 -0.0005016988328634893 0 0.003583506125324609 -0.0014533043940676733 0 0.002757343908629621 -0.0011812962117060391 0 0.0038419417425050286 -0.0005016988328634893 0 0.003583506125324609 -0.0014533043940676733 0 0.004380865183491376 -0.0012811329882085659 0 0.0017301472043970601 -0.00028699507282884247 0 0.0022445146636851372 -0.00091934419122193867 0 0.0014654241693551353 -0.00089042091955007698 0 0.0017301472043970601 -0.00028699507282884247 0 0.0022022934582976755 -8.1946837360514564e-05 0 0.0022445146636851372 -0.00091934419122193867 0 0.002664096554599535 -0.00056308095372391168 0 0.0021434721425210206 -0.0015769353680716817 0 0.00074380758588300907 2.7026463127402725e-06 0 0.0013230286678154531 -0.00023434108234676737 0 0.0014654241693551353 -0.00089042091955007698 0 0.0017301472043970601 -0.00028699507282884247 0 0.0013230286678154531 -0.00023434108234676737 0 0.0014654241693551353 -0.00089042091955007698 0 0.00074380758588300907 2.7026463127402725e-06 0 0.0013230286678154531 -0.00023434108234676737 0 0.0011793300553235464 5.469869348272535e-05 0 0.0017301472043970601 -0.00028699507282884247 0 0.0013230286678154531 -0.00023434108234676737 0 0.0014768774696679702 1.7026977030406581e-05 0 0.0013230286678154531 -0.00023434108234676737 0 0.0014768774696679702 1.7026977030406581e-05 0 0.0011793300553235464 5.469869348272535e-05 0 0.00095123072316150438 0.0001346511950814162 0 0.0011793300553235464 5.469869348272535e-05 0 0.0013447546465195695 0.00030856030695982603 0 0.0014768774696679702 1.7026977030406581e-05 0 0.0013447546465195695 0.00030856030695982603 0 0.0017687695863202752 0.00014487260205138324 0 0.0014768774696679702 1.7026977030406581e-05 0 0.0011793300553235464 5.469869348272535e-05 0 0.0013447546465195695 0.00030856030695982603 0 0.0027927323880077536 0.00096125775669449675 0 0.002506520171550721 0.00093706268029447571 0 0.0021089761144730134 0.00057441103876481356 0 0.0013447546465195695 0.00030856030695982603 0 0.0017687695863202752 0.00014487260205138324 0 0.0017301472043970601 -0.00028699507282884247 0 0.0014768774696679702 1.7026977030406581e-05 0 0.0017687695863202752 0.00014487260205138324 0 0.0017301472043970601 -0.00028699507282884247 0 0.0017687695863202752 0.00014487260205138324 0 0.0022022934582976755 -8.1946837360514564e-05 0 0.0021089761144730134 0.00057441103876481356 0 0.0017687695863202752 0.00014487260205138324 0 0.0022022934582976755 -8.1946837360514564e-05 0 0.0021089761144730134 0.00057441103876481356 0 0.0026449770335627864 0.00035560178190259393 0 0.0022022934582976755 -8.1946837360514564e-05 0 0.0026449770335627864 0.00035560178190259393 0 0.0022022934582976755 -8.1946837360514564e-05 0 0.0027691178129779681 -0.0003407853458136341 0 0.0031663738789590324 0.0010575085522992506 0 0.0035850513365914961 0.00082075915856530857 0 0.0031107764309263614 0.00042515402775842285 0 0.0035850513365914961 0.00082075915856530857 0 0.0031107764309263614 0.00042515402775842285 0 0.003500746595824813 0.00013791717725156704 0 0.0031663738789590324 0.0010575085522992506 0 0.0026449770335627864 0.00035560178190259393 0 0.0031107764309263614 0.00042515402775842285 0 0.0031107764309263614 0.00042515402775842285 0 0.003500746595824813 0.00013791717725156704 0 0.0027691178129779681 -0.0003407853458136341 0 0.0026449770335627864 0.00035560178190259393 0 0.0031107764309263614 0.00042515402775842285 0 0.0027691178129779681 -0.0003407853458136341 0 0.0034666923750812486 -0.00056879188038079433 0 0.0027691178129779681 -0.0003407853458136341 0 0.0026834444473891744 -0.0015758095393426732 0 0.0034666923750812486 -0.00056879188038079433 0 0.003500746595824813 0.00013791717725156704 0 0.0027691178129779681 -0.0003407853458136341 0 0.0027691178129779681 -0.0003407853458136341 0 0.0022445146636851372 -0.00091934419122193867 0 0.0026834444473891744 -0.0015758095393426732 0 0.0022022934582976755 -8.1946837360514564e-05 0 0.0027691178129779681 -0.0003407853458136341 0 0.0022445146636851372 -0.00091934419122193867 0 0.0022445146636851372 -0.00091934419122193867 0 0.0026834444473891744 -0.0015758095393426732 0 0.0024534951448160688 -0.0016074215181933632 0 0.0020576168354339295 -0.0016016396553142438 0 0.0026834444473891744 -0.0015758095393426732 0 0.0024331010795355956 -0.0015127660270604709 0 0.0026834444473891744 -0.0015758095393426732 0 0.0024331010795355956 -0.0015127660270604709 0 0.0024534951448160688 -0.0016074215181933632 0 0.0024534951448160688 -0.0016074215181933632 0 0.003057131764609661 -0.0017919177612362106 0 0.002897363047491581 -0.0014845154768157913 0 0.0024436457410902251 -0.0015692427870412765 0 0.0021434721425210206 -0.0015769353680716817 0 0.0022445146636851372 -0.00091934419122193867 0 0.0024534951448160688 -0.0016074215181933632 0 0.0014654241693551353 -0.00089042091955007698 0 0.0024534951448160688 -0.0016074215181933632 0 0.0029778473089835632 -0.0020904319701552571 0 0.003057131764609661 -0.0017919177612362106 0 0.0032514023718303369 -0.0020802938770154524 0 0.0029778473089835632 -0.0020904319701552571 0 0.003057131764609661 -0.0017919177612362106 0 0.003057131764609661 -0.0017919177612362106 0 0.0031758530518765748 -0.0016045376273536565 0 0.002897363047491581 -0.0014845154768157913 0 0.0031758530518765748 -0.0016045376273536565 0 0.002897363047491581 -0.0014845154768157913 0 0.0031752473965836379 -0.0012407514177105628 0 0.0033418466751508071 -0.0015084946059772239 0 0.0031758530518765748 -0.0016045376273536565 0 0.0031752473965836379 -0.0012407514177105628 0 0.0035712190713876567 -0.0016969496059071232 0 0.0032050442744484056 -0.0012720466737084926 0 0.0031752473965836379 -0.0012407514177105628 0 0.0028983664231383086 -0.00090561710234852641 0 0.003370984354114601 -0.0008112650079997631 0 0.0031752473965836379 -0.0012407514177105628 0 0.003370984354114601 -0.0008112650079997631 0 0.0037292786248568971 -0.0012339311797692903 0 0.0028983664231383086 -0.00090561710234852641 0 0.0026202745536278134 -0.001231758178310431 0 0.0025624110178486797 -0.00071792272243241919 0 0.0031752473965836379 -0.0012407514177105628 0 0.0028983664231383086 -0.00090561710234852641 0 0.0026202745536278134 -0.001231758178310431 0 0.0024534951448160688 -0.0016074215181933632 0 0.002897363047491581 -0.0014845154768157913 0 0.0026202745536278134 -0.001231758178310431 0 0.002897363047491581 -0.0014845154768157913 0 0.0031752473965836379 -0.0012407514177105628 0 0.0026202745536278134 -0.001231758178310431 0 0.0024331010795355956 -0.0015127660270604709 0 0.0026202745536278134 -0.001231758178310431 0 0.0022879798298312271 -0.0011336769868152945 0 0.0024331010795355956 -0.0015127660270604709 0 0.0024534951448160688 -0.0016074215181933632 0 0.0026202745536278134 -0.001231758178310431 0 0.0020576168354339295 -0.0016016396553142438 0 0.0024331010795355956 -0.0015127660270604709 0 0.0022879798298312271 -0.0011336769868152945 0 0.0026202745536278134 -0.001231758178310431 0 0.0022879798298312271 -0.0011336769868152945 0 0.0025624110178486797 -0.00071792272243241919 0 0.0025624110178486797 -0.00071792272243241919 0 0.0022603200460667027 -0.00061878748457226489 0 0.0025522544186398401 -0.00028512959509982051 0 0.0022879798298312271 -0.0011336769868152945 0 0.0025624110178486797 -0.00071792272243241919 0 0.0022603200460667027 -0.00061878748457226489 0 0.0022603200460667027 -0.00061878748457226489 0 0.0020688192230365657 -0.00029549727844201357 0 0.0019067006297341393 -0.00069627334471115607 0 0.0022879798298312271 -0.0011336769868152945 0 0.0022603200460667027 -0.00061878748457226489 0 0.0019067006297341393 -0.00069627334471115607 0 0.0022603200460667027 -0.00061878748457226489 0 0.0020688192230365657 -0.00029549727844201357 0 0.0023111754871974867 -0.00020593245147271949 0 0.0022603200460667027 -0.00061878748457226489 0 0.0023111754871974867 -0.00020593245147271949 0 0.0025522544186398401 -0.00028512959509982051 0 0.0025522544186398401 -0.00028512959509982051 0 0.0030557582378180422 -0.00011284669014928707 0 0.0025681538897450494 -2.9408192947784336e-06 0 0.0025522544186398401 -0.00028512959509982051 0 0.0030557582378180422 -0.00011284669014928707 0 0.0029864310728111767 -0.00049923503207735781 0 0.0030557582378180422 -0.00011284669014928707 0 0.0029864310728111767 -0.00049923503207735781 0 0.0037513668725754914 -0.00031462877743788849 0 0.0028983664231383086 -0.00090561710234852641 0 0.0029864310728111767 -0.00049923503207735781 0 0.003370984354114601 -0.0008112650079997631 0 0.0029864310728111767 -0.00049923503207735781 0 0.003370984354114601 -0.0008112650079997631 0 0.0037513668725754914 -0.00031462877743788849 0 0.0028983664231383086 -0.00090561710234852641 0 0.0025624110178486797 -0.00071792272243241919 0 0.0029864310728111767 -0.00049923503207735781 0 0.0025624110178486797 -0.00071792272243241919 0 0.0025522544186398401 -0.00028512959509982051 0 0.0029864310728111767 -0.00049923503207735781 0 -0.0037655644558905908 -0.0011306278915603665 0 -0.0043548672919538883 -0.0015616012183328999 0 -0.0045629134819285136 -0.00086818677540447344 0 -0.0037655644558905908 -0.0011306278915603665 0 -0.0043548672919538883 -0.0015616012183328999 0 -0.0040977993306837088 -0.0020073948934734823 0 0.00021253940677054515 -0.0027176810086743265 0 -0.002486843082775522 -0.00089251700853632736 0 -0.0034528903529539665 -0.0027506518462882515 0 -0.0037655644558905908 -0.0011306278915603665 0 -0.0040977993306837088 -0.0020073948934734823 0 0.00014714674097130012 -0.0024131780398900849 0 -0.00071547320777001831 -0.00085061245529397954 0 0.00038263549293350487 -0.0014719400172641887 0 -0.0043548672919538883 -0.0015616012183328999 0 -0.0040977993306837088 -0.0020073948934734823 0 -0.0045244395310749955 -0.002043779772840734 0 -0.0040977993306837088 -0.0020073948934734823 0 -0.0040982629158268641 -0.0024807501182282882 0 -0.0044427541980830631 -0.0023765104493808581 0 -0.0034528903529539665 -0.0027506518462882515 0 -0.0040977993306837088 -0.0020073948934734823 0 -0.0040982629158268641 -0.0024807501182282882 0 -0.0040977993306837088 -0.0020073948934734823 0 -0.0044427541980830631 -0.0023765104493808581 0 -0.0045244395310749955 -0.002043779772840734 0 0.00014714674097130012 -0.0024131780398900849 0 0.00038263549293350487 -0.0014719400172641887 0 0.00084129275125542299 -0.0018972517797885722 0 0.00038263549293350487 -0.0014719400172641887 0 0.00084129275125542299 -0.0018972517797885722 0 0.0013961074318349417 -0.0016231007657050724 0 0.0014819819285301014 -0.0021247660724422264 0 0.00084129275125542299 -0.0018972517797885722 0 0.0013961074318349417 -0.0016231007657050724 0 0.00038263549293350487 -0.0014719400172641887 0 0.00066864206718119106 -0.000885349684001217 0 0.0013961074318349417 -0.0016231007657050724 0 -0.00071547320777001831 -0.00085061245529397954 0 0.00066864206718119106 -0.000885349684001217 0 0.00045325441629156057 0.00018150710433604403 0 -0.00071547320777001831 -0.00085061245529397954 0 0.00038263549293350487 -0.0014719400172641887 0 0.00066864206718119106 -0.000885349684001217 0 0.00066864206718119106 -0.000885349684001217 0 0.0017348795089666622 -0.0011308235731382487 0 0.0013961074318349417 -0.0016231007657050724 0 0.00066864206718119106 -0.000885349684001217 0 0.0017348795089666622 -0.0011308235731382487 0 0.00045325441629156057 0.00018150710433604403 0 0.0020576168354339295 -0.0016016396553142438 0 0.0017348795089666622 -0.0011308235731382487 0 0.0013961074318349417 -0.0016231007657050724 0 0.0020576168354339295 -0.0016016396553142438 0 0.0022879798298312271 -0.0011336769868152945 0 0.0017348795089666622 -0.0011308235731382487 0 0.0022879798298312271 -0.0011336769868152945 0 0.0017348795089666622 -0.0011308235731382487 0 0.0019067006297341393 -0.00069627334471115607 0 0.0017808226261733008 -0.001025309605506909 0 0.0021115181379327175 -0.00033901655384522417 0 0.0032868648514230475 0.0017644301373652808 0 0.0024143207208477731 0.00019903013762131004 0 0.0013411968928689014 0.0018980610322849728 0 0.0029672841082386452 0.0011038711785869724 0 0.0021115181379327175 -0.00033901655384522417 0 0.0013411968928689014 0.0018980610322849728 0 0.00045325441629156057 0.00018150710433604403 0 -0.00018861225338930138 0.001861505332864293 0 0.0024143207208477731 0.00019903013762131004 0 0.0013411968928689014 0.0018980610322849728 0 0.00045325441629156057 0.00018150710433604403 0 0.0017348795089666622 -0.0011308235731382487 0 0.0024143207208477731 0.00019903013762131004 0 0.00045325441629156057 0.00018150710433604403 0 0.00045325441629156057 0.00018150710433604403 0 -0.00018861225338930138 0.001861505332864293 0 -0.0019433836773880056 0.00082071703004792031 0 -0.00018861225338930138 0.001861505332864293 0 -0.0019433836773880056 0.00082071703004792031 0 -0.0013918208631739563 0.0032843525840934207 0 -0.0029010251639862736 0.00083779778800302106 0 -0.0035842056097327426 0.003157458160103173 0 -0.002486843082775522 -0.00089251700853632736 0 -0.0029010251639862736 0.00083779778800302106 0 -0.0037655644558905908 -0.0011306278915603665 0 -0.0038837745424493662 0.00064925985836777791 0 -0.0045629134819285136 -0.00086818677540447344 0 -0.00071547320777001831 -0.00085061245529397954 0 0.00045325441629156057 0.00018150710433604403 0 -0.0019433836773880056 0.00082071703004792031 0 -0.0025762984906550525 0.004421060428633319 0 -0.0013918208631739563 0.0032843525840934207 0 -0.00089257119285359983 0.0050978398488226995 0 -0.0025762984906550525 0.004421060428633319 0 -0.00089257119285359983 0.0050978398488226995 0 -0.0044534208776293299 0.0061132780964652626 0 -0.0019433836773880056 0.00082071703004792031 0 -0.0013918208631739563 0.0032843525840934207 0 -0.00362074346837203 0.0031915267529770202 0 -0.0025762984906550525 0.004421060428633319 0 -0.0013918208631739563 0.0032843525840934207 0 -0.00362074346837203 0.0031915267529770202 0 -0.00018861225338930138 0.001861505332864293 0 -0.0013918208631739563 0.0032843525840934207 0 0.00018396909900836065 0.0031974578901782106 0 -0.0013918208631739563 0.0032843525840934207 0 0.00018396909900836065 0.0031974578901782106 0 -0.00089257119285359983 0.0050978398488226995 0 -0.0047208890496869584 0.001871230015838804 0 -0.0014482977431171972 0.00092195455461340165 0 -0.0085567476378542555 -0.0013887913348658144 0 -0.0048978428392745374 -0.0022312477376657323 0 -0.0056350036039169889 -0.00056717710712717668 0 0.00018396909900836065 0.0031974578901782106 0 -0.00089257119285359983 0.0050978398488226995 0 0.00184068363617712 0.0041019790962355035 0 0.0013411968928689014 0.0018980610322849728 0 0.00018396909900836065 0.0031974578901782106 0 0.00184068363617712 0.0041019790962355035 0 0.0013411968928689014 0.0018980610322849728 0 -0.00018861225338930138 0.001861505332864293 0 0.00018396909900836065 0.0031974578901782106 0 0.0032868648514230475 0.0017644301373652808 0 0.0013411968928689014 0.0018980610322849728 0 0.00184068363617712 0.0041019790962355035 0 0.0032868648514230475 0.0017644301373652808 0 0.00184068363617712 0.0041019790962355035 0 0.0041429553958926739 0.0034185655399100769 0 -0.0014482977431171972 0.00092195455461340165 0 0.0010400182081418035 0.00031174767224147724 0 -0.0048978428392745374 -0.0022312477376657323 0 -0.00317200237020932 -4.1848400627397267e-05 0 -0.0014000558446816411 -0.00078427220944295823 0 -0.0048978428392745374 -0.0022312477376657323 0 -0.00317200237020932 -4.1848400627397267e-05 0 -0.0056350036039169889 -0.00056717710712717668 0 -0.00317200237020932 -4.1848400627397267e-05 0 -0.0043668505986526295 0.00096350657307944462 0 -0.0056350036039169889 -0.00056717710712717668 0 -0.00317200237020932 -4.1848400627397267e-05 0 -0.0043668505986526295 0.00096350657307944462 0 -0.0030950558441352892 0.00093269461303264654 0 -0.0043668505986526295 0.00096350657307944462 0 -0.0030950558441352892 0.00093269461303264654 0 -0.0030115122952954734 0.0018420342600080912 0 -0.0043668505986526295 0.00096350657307944462 0 -0.0030115122952954734 0.0018420342600080912 0 -0.0041551670319385078 0.0021019690113771917 0 -0.0030115122952954734 0.0018420342600080912 0 -0.0032656911474651567 0.0028948415221812331 0 -0.002547807060972553 0.0025058595989371174 0 -0.0030115122952954734 0.0018420342600080912 0 -0.0032656911474651567 0.0028948415221812331 0 -0.0041551670319385078 0.0021019690113771917 0 -0.0041551670319385078 0.0021019690113771917 0 -0.0056054606837075329 0.001589633581846301 0 -0.0045468723078732594 0.0032185132652322022 0 -0.0032656911474651567 0.0028948415221812331 0 -0.0041551670319385078 0.0021019690113771917 0 -0.0045468723078732594 0.0032185132652322022 0 -0.0043668505986526295 0.00096350657307944462 0 -0.0041551670319385078 0.0021019690113771917 0 -0.0056054606837075329 0.001589633581846301 0 -0.0056054606837075329 0.001589633581846301 0 -0.0076166529936132332 -0.00043301331878409292 0 -0.0069581046523762933 0.0032573010144277218 0 -0.0056054606837075329 0.001589633581846301 0 -0.0045468723078732594 0.0032185132652322022 0 -0.0069581046523762933 0.0032573010144277218 0 -0.0056054606837075329 0.001589633581846301 0 -0.0056350036039169889 -0.00056717710712717668 0 -0.0076166529936132332 -0.00043301331878409292 0 -0.0043668505986526295 0.00096350657307944462 0 -0.0056054606837075329 0.001589633581846301 0 -0.0056350036039169889 -0.00056717710712717668 0 -0.0085567476378542555 -0.0013887913348658144 0 -0.0076166529936132332 -0.00043301331878409292 0 -0.0086656012739529126 0.00015485977364529667 0 -0.0085567476378542555 -0.0013887913348658144 0 -0.0056350036039169889 -0.00056717710712717668 0 -0.0076166529936132332 -0.00043301331878409292 0 -0.0086656012739529126 0.00015485977364529667 0 -0.0094881597159673699 0.00084623376246333851 0 -0.0078963289888668419 0.0014825046699244479 0 -0.0076166529936132332 -0.00043301331878409292 0 -0.0086656012739529126 0.00015485977364529667 0 -0.0078963289888668419 0.0014825046699244479 0 -0.0094881597159673699 0.00084623376246333851 0 -0.0078963289888668419 0.0014825046699244479 0 -0.0092660776848849657 0.0017716862523155866 0 -0.0076400310633624327 -0.00045048550377466644 0 -0.0074251420996309034 0.0026262725561640625 0 -0.0094881597159673699 0.00084623376246333851 0 -0.010897531862893117 0.00085998943402908938 0 -0.010056711230709919 0.0014418505834047771 0 -0.0094881597159673699 0.00084623376246333851 0 -0.0097183315951799021 -1.7410301569158233e-05 0 -0.010897531862893117 0.00085998943402908938 0 -0.0086656012739529126 0.00015485977364529667 0 -0.0094881597159673699 0.00084623376246333851 0 -0.0097183315951799021 -1.7410301569158233e-05 0 -0.0094881597159673699 0.00084623376246333851 0 -0.0092660776848849657 0.0017716862523155866 0 -0.010056711230709919 0.0014418505834047771 0 -0.0085567476378542555 -0.0013887913348658144 0 -0.0086656012739529126 0.00015485977364529667 0 -0.0097183315951799021 -1.7410301569158233e-05 0 -0.0085567476378542555 -0.0013887913348658144 0 -0.0097183315951799021 -1.7410301569158233e-05 0 -0.010875681407351123 -0.00072647986562320683 0 -0.0047208890496869584 0.001871230015838804 0 -0.0078088566941944219 0.002579099833389142 0 0.0020400827969763767 0.00044266788173447525 0 0.0027240386912317834 0.0010675189759883478 0 0.00055992951130394387 0.0005581506558179106 0 0.00095901221976014159 0.00070715888872622287 0 0.00055992951130394387 0.0005581506558179106 0 0.00082347821740626724 0.00096122366057928852 0 0.0018214988047979604 0.00084614812112781244 0 0.0006655627163104687 0.00063238071544739511 0 0.00095901221976014159 0.00070715888872622287 0 0.0011864120798743083 0.00092507598544415057 0 0.0014445415464052649 0.00073390581719673766 0 0.0027240386912317834 0.0010675189759883478 0 0.0030720438622085034 0.00041246639874437623 0 0.0040224815335191252 0.001000809087711659 0 0.0020400827969763767 0.00044266788173447525 0 0.0027240386912317834 0.0010675189759883478 0 0.0030720438622085034 0.00041246639874437623 0 0.0030557582378180422 -0.00011284669014928707 0 0.0030720438622085034 0.00041246639874437623 0 0.0036276134864604076 0.00024969523624888149 0 0.0030557582378180422 -0.00011284669014928707 0 0.0030720438622085034 0.00041246639874437623 0 0.0025681538897450494 -2.9408192947784336e-06 0 0.0025522544186398401 -0.00028512959509982051 0 0.0025681538897450494 -2.9408192947784336e-06 0 0.0024590026206642119 -2.7470687292046388e-05 0 0.0020400827969763767 0.00044266788173447525 0 0.0025681538897450494 -2.9408192947784336e-06 0 0.0011608740418285728 2.3975782893125234e-05 0 0.0020400827969763767 0.00044266788173447525 0 0.0030720438622085034 0.00041246639874437623 0 0.0025681538897450494 -2.9408192947784336e-06 0 0.0024064147687478154 -2.9108154325073774e-05 0 0.0019188190834836649 2.2231845235190532e-05 0 0.0023111754871974867 -0.00020593245147271949 0 0.0024590026206642119 -2.7470687292046388e-05 0 0.0022272123398628749 3.5141377533818831e-05 0 0.0019188190834836649 2.2231845235190532e-05 0 0.0010400182081418035 0.00031174767224147724 0 0.0023111754871974867 -0.00020593245147271949 0 0.0025522544186398401 -0.00028512959509982051 0 0.0024590026206642119 -2.7470687292046388e-05 0 0.0020688192230365657 -0.00029549727844201357 0 0.0023111754871974867 -0.00020593245147271949 0 0.0022272123398628749 3.5141377533818831e-05 0 0.0029672841082386452 0.0011038711785869724 0 0.0010400182081418035 0.00031174767224147724 0 -0.0048978428392745374 -0.0022312477376657323 0 -0.001126957229442225 -0.0030470578797483013 0 -0.0014000558446816411 -0.00078427220944295823 0 0.0011608740418285728 2.3975782893125234e-05 0 0.00060554933700457554 0.00035870648111398533 0 0.00055992951130394387 0.0005581506558179106 0 0.00060554933700457554 0.00035870648111398533 0 0.00055992951130394387 0.0005581506558179106 0 0.00043422472542825223 0.00061560059197183267 0 0.0010400182081418035 0.00031174767224147724 0 -5.5802546975830655e-05 -0.00024062279796812657 0 0.0020400827969763767 0.00044266788173447525 0 0.0011608740418285728 2.3975782893125234e-05 0 0.00055992951130394387 0.0005581506558179106 0 -0.001126957229442225 -0.0030470578797483013 0 -0.0014000558446816411 -0.00078427220944295823 0 0.00043422472542825223 0.00061560059197183267 0 0.00055992951130394387 0.0005581506558179106 0 0.00043422472542825223 0.00061560059197183267 0 0.00082347821740626724 0.00096122366057928852 0 -0.0014000558446816411 -0.00078427220944295823 0 0.00043422472542825223 0.00061560059197183267 0 -0.0012435523553747528 0.00039876373907718054 0 0.00043422472542825223 0.00061560059197183267 0 -0.00057124325328931447 0.00119111791986521 0 -0.0012435523553747528 0.00039876373907718054 0 0.00043422472542825223 0.00061560059197183267 0 -0.00057124325328931447 0.00119111791986521 0 0.00041306222551234909 0.001184082400084294 0 -0.00317200237020932 -4.1848400627397267e-05 0 -0.0014000558446816411 -0.00078427220944295823 0 -0.0012435523553747528 0.00039876373907718054 0 -0.00057124325328931447 0.00119111791986521 0 -0.0012435523553747528 0.00039876373907718054 0 -0.0019382792123302116 0.0010520983983012021 0 -0.00317200237020932 -4.1848400627397267e-05 0 -0.0012435523553747528 0.00039876373907718054 0 -0.0019382792123302116 0.0010520983983012021 0 -0.00317200237020932 -4.1848400627397267e-05 0 -0.0030950558441352892 0.00093269461303264654 0 -0.0019382792123302116 0.0010520983983012021 0 -0.0030115122952954734 0.0018420342600080912 0 -0.0019382792123302116 0.0010520983983012021 0 -0.0017926090885009474 0.0020938321872529479 0 -0.0030950558441352892 0.00093269461303264654 0 -0.0030115122952954734 0.0018420342600080912 0 -0.0019382792123302116 0.0010520983983012021 0 -0.00057124325328931447 0.00119111791986521 0 -0.0019382792123302116 0.0010520983983012021 0 -0.0017926090885009474 0.0020938321872529479 0 -0.00057124325328931447 0.00119111791986521 0 -0.0017926090885009474 0.0020938321872529479 0 -0.00060982405163784355 0.0021219415154061596 0 -0.0015161899242852577 0.0028022505354923372 0 -0.0017926090885009474 0.0020938321872529479 0 -0.00060982405163784355 0.0021219415154061596 0 -0.0015161899242852577 0.0028022505354923372 0 -0.0017926090885009474 0.0020938321872529479 0 -0.0021354069349004564 0.0031969200465215126 0 -0.0030115122952954734 0.0018420342600080912 0 -0.002547807060972553 0.0025058595989371174 0 -0.0017926090885009474 0.0020938321872529479 0 -0.0032656911474651567 0.0028948415221812331 0 -0.002547807060972553 0.0025058595989371174 0 -0.0021354069349004564 0.0031969200465215126 0 -0.002547807060972553 0.0025058595989371174 0 -0.0017926090885009474 0.0020938321872529479 0 -0.0021354069349004564 0.0031969200465215126 0 0.00041306222551234909 0.001184082400084294 0 -0.00060982405163784355 0.0021219415154061596 0 0.00070428431909952622 0.001599117063705018 0 -0.00060982405163784355 0.0021219415154061596 0 0.00070428431909952622 0.001599117063705018 0 -0.0015652385636977838 0.0038073831905581952 0 -0.00057124325328931447 0.00119111791986521 0 0.00041306222551234909 0.001184082400084294 0 -0.00060982405163784355 0.0021219415154061596 0 0.00070428431909952622 0.001599117063705018 0 0.00082347821740626724 0.00096122366057928852 0 0.0009328146936622893 0.0015898331091652484 0 0.00041306222551234909 0.001184082400084294 0 0.00070428431909952622 0.001599117063705018 0 0.00082347821740626724 0.00096122366057928852 0 0.00043422472542825223 0.00061560059197183267 0 0.00041306222551234909 0.001184082400084294 0 0.00082347821740626724 0.00096122366057928852 0 0.00095901221976014159 0.00070715888872622287 0 0.00082347821740626724 0.00096122366057928852 0 0.0011864120798743083 0.00092507598544415057 0 0.00082347821740626724 0.00096122366057928852 0 0.0011864120798743083 0.00092507598544415057 0 0.0011218714228591303 0.0012102859248527848 0 0.0011218714228591303 0.0012102859248527848 0 0.0012097091591246308 0.0016559775204630085 0 0.0009328146936622893 0.0015898331091652484 0 0.00082347821740626724 0.00096122366057928852 0 0.0011218714228591303 0.0012102859248527848 0 0.0009328146936622893 0.0015898331091652484 0 0.0011218714228591303 0.0012102859248527848 0 0.0013716013391632069 0.0012628282729746218 0 0.0012864806739705211 0.0010727540716934632 0 0.0011218714228591303 0.0012102859248527848 0 0.0013716013391632069 0.0012628282729746218 0 0.0012097091591246308 0.0016559775204630085 0 0.0013716013391632069 0.0012628282729746218 0 0.0016602733412368848 0.0014370008179501088 0 0.0012097091591246308 0.0016559775204630085 0 0.0013716013391632069 0.0012628282729746218 0 0.0016602733412368848 0.0014370008179501088 0 0.0014712915672732501 0.00088569274826322806 0 0.001616554737436016 0.001068283109829708 0 0.0014712915672732501 0.00088569274826322806 0 0.0016609496603605049 0.00090685308860861469 0 0.002104317143726902 0.0015760297560238892 0 0.0013005569383885199 0.00073382800871671047 0 0.0011864120798743083 0.00092507598544415057 0 0.0014712915672732501 0.00088569274826322806 0 0.0012864806739705211 0.0010727540716934632 0 0.0013716013391632069 0.0012628282729746218 0 0.0014712915672732501 0.00088569274826322806 0 0.0012864806739705211 0.0010727540716934632 0 0.0011864120798743083 0.00092507598544415057 0 0.0011218714228591303 0.0012102859248527848 0 0.0012864806739705211 0.0010727540716934632 0 0.0018214988047979604 0.00084614812112781244 0 0.0027433243133546323 0.00087235251408034151 0 0.0011864120798743083 0.00092507598544415057 0 0.0014712915672732501 0.00088569274826322806 0 0.0014445415464052649 0.00073390581719673766 0 0.0014712915672732501 0.00088569274826322806 0 0.0014445415464052649 0.00073390581719673766 0 0.0017321619241766205 0.00072791888477332473 0 0.0040224815335191252 0.001000809087711659 0 0.0042897404717254896 0.00033557668068197788 0 0.0050843423294152585 0.00096976376182251697 0 0.0014712915672732501 0.00088569274826322806 0 0.0017321619241766205 0.00072791888477332473 0 0.0016609496603605049 0.00090685308860861469 0 0.0027433243133546323 0.00087235251408034151 0 0.003356615618772311 0.0008389544215095388 0 0.0040224815335191252 0.001000809087711659 0 0.0042897404717254896 0.00033557668068197788 0 0.0036276134864604076 0.00024969523624888149 0 0.0030720438622085034 0.00041246639874437623 0 0.0040224815335191252 0.001000809087711659 0 0.0036276134864604076 0.00024969523624888149 0 0.0050843423294152585 0.00096976376182251697 0 0.0060785857685782861 0.00088490120511139879 0 0.0055637337816286537 5.7152164934998918e-05 0 0.0049250909183022563 0.0003128787307540083 0 0.0050843423294152585 0.00096976376182251697 0 0.0055637337816286537 5.7152164934998918e-05 0 0.0042897404717254896 0.00033557668068197788 0 0.0049250909183022563 0.0003128787307540083 0 0.0050843423294152585 0.00096976376182251697 0 0.0017321619241766205 0.00072791888477332473 0 0.0018330924936350971 0.00092076282705530737 0 0.0019637849427495521 0.00070024361310993058 0 0.003356615618772311 0.0008389544215095388 0 0.0042529980107539637 0.00085187603839632139 0 0.001616554737436016 0.001068283109829708 0 0.0018330924936350971 0.00092076282705530737 0 0.0018615735124528031 0.0011362240382052386 0 0.0017321619241766205 0.00072791888477332473 0 0.0018330924936350971 0.00092076282705530737 0 0.0016609496603605049 0.00090685308860861469 0 0.001616554737436016 0.001068283109829708 0 0.0018330924936350971 0.00092076282705530737 0 0.0016609496603605049 0.00090685308860861469 0 0.0018330924936350971 0.00092076282705530737 0 0.002025058492877613 0.00099996696357948175 0 0.0018615735124528031 0.0011362240382052386 0 8.2559408865210277e-05 -0.00094716183665979057 0 -0.00059148187425103152 -0.00033231844884467059 0 -0.0020271057935580743 -0.0026713799653064517 0 -0.00096942598513265719 -0.0022964493657523254 0 -0.0010058639323703086 -0.0035597777050178775 0 -0.0020271057935580743 -0.0026713799653064517 0 -0.00096942598513265719 -0.0022964493657523254 0 -0.001917380848234685 -0.0016009418718934418 0 0.002025058492877613 0.00099996696357948175 0 0.0020267738685383224 0.00084973606032925214 0 0.0021850344727091728 0.00085768886549300713 0 0.0020267738685383224 0.00084973606032925214 0 0.0021850344727091728 0.00085768886549300713 0 0.0020930152305620045 0.00076950961076707779 0 8.2559408865210277e-05 -0.00094716183665979057 0 0.00033227175463798825 -0.00062718946945187072 0 0.0018330924936350971 0.00092076282705530737 0 0.002025058492877613 0.00099996696357948175 0 0.0020267738685383224 0.00084973606032925214 0 0.0018330924936350971 0.00092076282705530737 0 0.0020267738685383224 0.00084973606032925214 0 0.0019637849427495521 0.00070024361310993058 0 0.00029696904553311901 -2.3423387015329251e-05 0 0.00099347086034974651 9.0597635692474894e-07 0 -2.4199573282990493e-05 -1.1377480382582054e-06 0 0.00029696904553311901 -2.3423387015329251e-05 0 0.00068762789476445394 6.3316276883737036e-05 0 0.00099347086034974651 9.0597635692474894e-07 0 -0.00039281370319662842 -0.001410384895661608 0 0.00033227175463798825 -0.00062718946945187072 0 0.00029696904553311901 -2.3423387015329251e-05 0 0.00034965546631872451 -0.00014705663529783318 0 0.00068762789476445394 6.3316276883737036e-05 0 0.00034965546631872451 -0.00014705663529783318 0 0.0007736161261310317 7.7611821938626969e-05 0 0.00068762789476445394 6.3316276883737036e-05 0 0.00033227175463798825 -0.00062718946945187072 0 0.00054725782980888534 -0.00013477481869257437 0 0.00089287780036326843 0.00010197612070423438 0 0.00068762789476445394 6.3316276883737036e-05 0 0.0011948991370853092 6.8897376721510677e-05 0 0.0007736161261310317 7.7611821938626969e-05 0 0.00089287780036326843 0.00010197612070423438 0 0.00068762789476445394 6.3316276883737036e-05 0 0.00068762789476445394 6.3316276883737036e-05 0 0.00099347086034974651 9.0597635692474894e-07 0 0.0011948991370853092 6.8897376721510677e-05 0 0.00089287780036326843 0.00010197612070423438 0 0.0011948991370853092 6.8897376721510677e-05 0 0.0024160687211800306 -1.3945084383001252e-06 0 0.00099347086034974651 9.0597635692474894e-07 0 0.0011948991370853092 6.8897376721510677e-05 0 0.0024160687211800306 -1.3945084383001252e-06 0 0.00063513507531521435 0.00033779878790994719 0 0.00089287780036326843 0.00010197612070423438 0 0.00064526356301392528 -0.00047447813380602639 0 0.00033227175463798825 -0.00062718946945187072 0 0.0035357954585208489 0.00019867934018460764 0 0.00089287780036326843 0.00010197612070423438 0 0.00064526356301392528 -0.00047447813380602639 0 0.0024160687211800306 -1.3945084383001252e-06 0 0.0035357954585208489 0.00019867934018460764 0 0.0060826732413454352 -2.9876692643183829e-05 0 0.0043064867767250506 -0.00061629294206969282 0 0.0037472202340798305 2.0071159837925043e-07 0 0.0045015794373477937 0.00016864037284649951 0 0.0043064867767250506 -0.00061629294206969282 0 0.0037472202340798305 2.0071159837925043e-07 0 0.0024210140915834929 -1.7270805951247946e-06 0 0.0035357954585208489 0.00019867934018460764 0 0.002416435780330154 -5.7842896127871478e-07 0 0.0037472202340798305 2.0071159837925043e-07 0 0.0024210140915834929 -1.7270805951247946e-06 0 0.0038592271709562902 7.1639344525803935e-07 0 0.0020267738685383224 0.00084973606032925214 0 0.0019637849427495521 0.00070024361310993058 0 0.0020930152305620045 0.00076950961076707779 0 0.0021965641057137982 0.00067071036349158962 0 0.0019637849427495521 0.00070024361310993058 0 0.0020930152305620045 0.00076950961076707779 0 0.0035357954585208489 0.00019867934018460764 0 0.0042529980107539637 0.00085187603839632139 0 0.0021850344727091728 0.00085768886549300713 0 0.0021965641057137982 0.00067071036349158962 0 0.0020930152305620045 0.00076950961076707779 0 0.006990816916447296 0.00078997079992820568 0 0.0064939548488015982 0.00027184882993137752 0 0.006993125812069431 -0.00021337010191524171 0 0.006990816916447296 0.00078997079992820568 0 0.0060785857685782861 0.00088490120511139879 0 0.0064939548488015982 0.00027184882993137752 0 0.0060785857685782861 0.00088490120511139879 0 0.0064939548488015982 0.00027184882993137752 0 0.0055637337816286537 5.7152164934998918e-05 0 0.0064939548488015982 0.00027184882993137752 0 0.0064074836883475112 -0.00057183645925993243 0 0.0055637337816286537 5.7152164934998918e-05 0 0.0064939548488015982 0.00027184882993137752 0 0.0064074836883475112 -0.00057183645925993243 0 0.006993125812069431 -0.00021337010191524171 0 0.0064074836883475112 -0.00057183645925993243 0 0.006993125812069431 -0.00021337010191524171 0 0.0069601552448120239 -0.0011516829962631089 0 0.0037472202340798305 2.0071159837925043e-07 0 0.0038592271709562902 7.1639344525803935e-07 0 0.0048289900728009883 0.00010750266199154978 0 0.0037472202340798305 2.0071159837925043e-07 0 0.0045015794373477937 0.00016864037284649951 0 0.0048289900728009883 0.00010750266199154978 0 0.0060826732413454352 -2.9876692643183829e-05 0 0.0061898434573196947 -0.00047004308987777499 0 0.0045015794373477937 0.00016864037284649951 0 0.0048289900728009883 0.00010750266199154978 0 0.0054985851311149308 9.0970057747678348e-05 0 0.0038592271709562902 7.1639344525803935e-07 0 0.0048289900728009883 0.00010750266199154978 0 0.0053007855338084754 9.1886686211001049e-08 0 0.0048289900728009883 0.00010750266199154978 0 0.0053007855338084754 9.1886686211001049e-08 0 0.0061069064368885441 5.4680380000291587e-05 0 0.0048289900728009883 0.00010750266199154978 0 0.0054985851311149308 9.0970057747678348e-05 0 0.0061069064368885441 5.4680380000291587e-05 0 0.0067594107279388312 8.4767658607192448e-05 0 0.0054985851311149308 9.0970057747678348e-05 0 0.0061069064368885441 5.4680380000291587e-05 0 0.0067414748436834815 1.4592154722173774e-07 0 0.0053007855338084754 9.1886686211001049e-08 0 0.0061069064368885441 5.4680380000291587e-05 0 0.0064074836883475112 -0.00057183645925993243 0 0.0064690587109986373 -0.0014122626650674534 0 0.0057549629634459035 -0.00085458810968592276 0 0.0064074836883475112 -0.00057183645925993243 0 0.0069601552448120239 -0.0011516829962631089 0 0.0064690587109986373 -0.0014122626650674534 0 0.0068188523304230668 -0.00074086028577664462 0 0.0061898434573196947 -0.00047004308987777499 0 0.0068715094465677798 -0.00170808969855603 0 0.0069601552448120239 -0.0011516829962631089 0 0.0064690587109986373 -0.0014122626650674534 0 0.0059894847826868214 -0.0018235531144318981 0 0.0064690587109986373 -0.0014122626650674534 0 0.0058053190495087337 -0.001414452706655124 0 0.0053382530927945952 -0.001771850198097395 0 0.0059894847826868214 -0.0018235531144318981 0 0.0058053190495087337 -0.001414452706655124 0 0.0058053190495087337 -0.001414452706655124 0 0.0057549629634459035 -0.00085458810968592276 0 0.0052237308633780212 -0.0011850606909741316 0 0.0064690587109986373 -0.0014122626650674534 0 0.0058053190495087337 -0.001414452706655124 0 0.0057549629634459035 -0.00085458810968592276 0 0.0052237308633780212 -0.0011850606909741316 0 0.0047815902220527326 -0.0015415864428033174 0 0.0045869362930320333 -0.0010288837183422227 0 0.0057549629634459035 -0.00085458810968592276 0 0.0052237308633780212 -0.0011850606909741316 0 0.0050266020938181249 -0.00060033017954253421 0 0.0052237308633780212 -0.0011850606909741316 0 0.0045869362930320333 -0.0010288837183422227 0 0.0050266020938181249 -0.00060033017954253421 0 0.0053382530927945952 -0.001771850198097395 0 0.0058053190495087337 -0.001414452706655124 0 0.0052237308633780212 -0.0011850606909741316 0 0.0053382530927945952 -0.001771850198097395 0 0.0052237308633780212 -0.0011850606909741316 0 0.0047815902220527326 -0.0015415864428033174 0 0.0048738299025489771 -0.0019463706257864142 0 0.0053382530927945952 -0.001771850198097395 0 0.0047815902220527326 -0.0015415864428033174 0 0.0041806281895834822 -0.0014954955155993333 0 0.0047815902220527326 -0.0015415864428033174 0 0.0045869362930320333 -0.0010288837183422227 0 0.0044173649146364551 -0.0019755763822946765 0 0.0048738299025489771 -0.0019463706257864142 0 0.0047815902220527326 -0.0015415864428033174 0 0.0044173649146364551 -0.0019755763822946765 0 0.0041806281895834822 -0.0014954955155993333 0 0.0047815902220527326 -0.0015415864428033174 0 0.0038047471305521145 -0.0019210207353183215 0 0.0041806281895834822 -0.0014954955155993333 0 0.0037292786248568971 -0.0012339311797692903 0 0.0038047471305521145 -0.0019210207353183215 0 0.0031752473965836379 -0.0012407514177105628 0 0.0037292786248568971 -0.0012339311797692903 0 0.0038047471305521145 -0.0019210207353183215 0 0.0044173649146364551 -0.0019755763822946765 0 0.0041806281895834822 -0.0014954955155993333 0 0.0041806281895834822 -0.0014954955155993333 0 0.0037292786248568971 -0.0012339311797692903 0 0.0039986320196736267 -0.00089955854683454342 0 0.003370984354114601 -0.0008112650079997631 0 0.0037292786248568971 -0.0012339311797692903 0 0.0039986320196736267 -0.00089955854683454342 0 0.0039986320196736267 -0.00089955854683454342 0 0.0045869362930320333 -0.0010288837183422227 0 0.0042848633227230261 -0.00053932435684047534 0 0.0041806281895834822 -0.0014954955155993333 0 0.0039986320196736267 -0.00089955854683454342 0 0.0045869362930320333 -0.0010288837183422227 0 0.0042848633227230261 -0.00053932435684047534 0 0.0046661232304775679 -0.00013884644734593322 0 0.0050266020938181249 -0.00060033017954253421 0 0.0045869362930320333 -0.0010288837183422227 0 0.0042848633227230261 -0.00053932435684047534 0 0.0050266020938181249 -0.00060033017954253421 0 0.0039986320196736267 -0.00089955854683454342 0 0.0042848633227230261 -0.00053932435684047534 0 0.0037513668725754914 -0.00031462877743788849 0 0.003370984354114601 -0.0008112650079997631 0 0.0039986320196736267 -0.00089955854683454342 0 0.0037513668725754914 -0.00031462877743788849 0 0.0042897404717254896 0.00033557668068197788 0 0.0036276134864604076 0.00024969523624888149 0 0.0037513668725754914 -0.00031462877743788849 0 0.0030557582378180422 -0.00011284669014928707 0 0.0036276134864604076 0.00024969523624888149 0 0.0037513668725754914 -0.00031462877743788849 0 0.0042897404717254896 0.00033557668068197788 0 0.0037513668725754914 -0.00031462877743788849 0 0.0046661232304775679 -0.00013884644734593322 0 0.0042848633227230261 -0.00053932435684047534 0 0.0037513668725754914 -0.00031462877743788849 0 0.0046661232304775679 -0.00013884644734593322 0 0.0042897404717254896 0.00033557668068197788 0 0.0049250909183022563 0.0003128787307540083 0 0.0046661232304775679 -0.00013884644734593322 0 0.0046661232304775679 -0.00013884644734593322 0 0.0055637337816286537 5.7152164934998918e-05 0 0.0050266020938181249 -0.00060033017954253421 0 0.0049250909183022563 0.0003128787307540083 0 0.0046661232304775679 -0.00013884644734593322 0 0.0055637337816286537 5.7152164934998918e-05 0 0.0064074836883475112 -0.00057183645925993243 0 0.0057549629634459035 -0.00085458810968592276 0 0.0055637337816286537 5.7152164934998918e-05 0 0.0057549629634459035 -0.00085458810968592276 0 0.0055637337816286537 5.7152164934998918e-05 0 0.0050266020938181249 -0.00060033017954253421 0 -0.0043121952180866889 0.0010270118837473628 0 -0.0050013803217206299 0.0012980499104864914 0 -0.0043098161317754926 0.0011051739974942717 0 -0.0042603490497512648 0.0014668283555237973 0 -0.0046251421588739709 0.0014826152484181036 0 -0.0043098161317754926 0.0011051739974942717 0 -0.0049431170221272344 0.0013533092498267949 0 -0.0046251421588739709 0.0014826152484181036 0 -0.0042603490497512648 0.0014668283555237973 0 -0.003917605198471806 0.0017958746173928131 0 -0.0037982349876737099 0.0012989906811838735 0 -0.0043098161317754926 0.0011051739974942717 0 -0.0042603490497512648 0.0014668283555237973 0 -0.0037982349876737099 0.0012989906811838735 0 -0.0043121952180866889 0.0010270118837473628 0 -0.0036393273673959742 0.00072749323401175383 0 -0.0043431683213596035 0.00096798746659373664 0 -0.0036073252044728568 0.00071463053643328902 0 -0.003934321906761136 0.00051995307708271258 0 -0.0043098161317754926 0.0011051739974942717 0 -0.0037982349876737099 0.0012989906811838735 0 -0.0036073252044728568 0.00071463053643328902 0 -0.0043431683213596035 0.00096798746659373664 0 -0.003934321906761136 0.00051995307708271258 0 -0.0047495152900781813 0.00046326747142959941 0 -0.0043431683213596035 0.00096798746659373664 0 -0.0052174857357397434 0.00080248110324436614 0 -0.0050341911143345752 0.0012314511818614987 0 -0.0043431683213596035 0.00096798746659373664 0 -0.0052174857357397434 0.00080248110324436614 0 -0.0047495152900781813 0.00046326747142959941 0 -0.0052174857357397434 0.00080248110324436614 0 -0.0055603796923604119 0.00045201799334201062 0 -0.0058428659607192256 0.00092748878339187575 0 -0.0052174857357397434 0.00080248110324436614 0 -0.0055603796923604119 0.00045201799334201062 0 -0.0047495152900781813 0.00046326747142959941 0 -0.0052174857357397434 0.00080248110324436614 0 -0.0054283962020162521 0.001125814603247252 0 -0.0058428659607192256 0.00092748878339187575 0 -0.0052174857357397434 0.00080248110324436614 0 -0.0054283962020162521 0.001125814603247252 0 -0.0050341911143345752 0.0012314511818614987 0 -0.0054283962020162521 0.001125814603247252 0 -0.0050341911143345752 0.0012314511818614987 0 -0.0056387860809616556 0.0015473816486035867 0 -0.0049431170221272344 0.0013533092498267949 0 -0.0048936513322464237 0.0015993642228785937 0 -0.0046251421588739709 0.0014826152484181036 0 -0.0048936513322464237 0.0015993642228785937 0 -0.0047235398562062237 0.0017075443077165455 0 -0.0046251421588739709 0.0014826152484181036 0 -0.0049431170221272344 0.0013533092498267949 0 -0.0048936513322464237 0.0015993642228785937 0 -0.0051556814406011698 0.0016803557933227034 0 -0.0048936513322464237 0.0015993642228785937 0 -0.0049092295401612527 0.0017704250265463955 0 -0.0047235398562062237 0.0017075443077165455 0 -0.0048936513322464237 0.0015993642228785937 0 -0.0049092295401612527 0.0017704250265463955 0 -0.0051556814406011698 0.0016803557933227034 0 -0.0049092295401612527 0.0017704250265463955 0 -0.0046721040596684003 0.0017783656942641339 0 -0.0047235398562062237 0.0017075443077165455 0 -0.0036393633088170562 0.0017601423249059044 0 -0.0038956844763276578 0.0016026376097547611 0 -0.0049431170221272344 0.0013533092498267949 0 -0.0051556814406011698 0.0016803557933227034 0 -0.0056387860809616556 0.0015473816486035867 0 -0.0051556814406011698 0.0016803557933227034 0 -0.0053947117734043128 0.0018318529700300451 0 -0.0056387860809616556 0.0015473816486035867 0 -0.0050013803217206299 0.0012980499104864914 0 -0.005609925428020808 0.0015423172583337145 0 -0.0038978700644119613 0.001770718313101259 0 -0.0062807011654774985 0.0019573385427102134 0 -0.006357139232940851 0.0019527315528533888 0 -0.00612833337944512 0.0019674253710654597 0 -0.0062774899967310361 0.0018741601502408869 0 -0.0051556814406011698 0.0016803557933227034 0 -0.0053947117734043128 0.0018318529700300451 0 -0.0051127891044089532 0.0020982053820713998 0 -0.0053947117734043128 0.0018318529700300451 0 -0.0051127891044089532 0.0020982053820713998 0 -0.0056827672492231395 0.0019942216108666784 0 -0.0049092295401612527 0.0017704250265463955 0 -0.0051556814406011698 0.0016803557933227034 0 -0.0051127891044089532 0.0020982053820713998 0 -0.0017985815488870164 0.0015324080752741238 0 -0.0015698048630110244 0.0015674437906360755 0 -0.0022029130437332444 0.0018362615143656788 0 -0.0038978700644119613 0.001770718313101259 0 0.00044592375634638231 0.0017182088544423456 0 -0.0025174242008208165 0.0019215262803540752 0 -0.0020400006500582032 0.0015326921658473246 0 -0.0021848886252699672 0.001514174793414864 0 -0.0025174242008208165 0.0019215262803540752 0 -0.0021848886252699672 0.001514174793414864 0 -0.0026320607915688325 0.0017271502172871898 0 -0.00011027696747405433 0.0017822845373153986 0 -6.5770095854179902e-05 0.0017623379766019548 0 -3.9398562435639984e-05 0.0017972213426410289 0 -0.0036393633088170562 0.0017601423249059044 0 -0.0038978700644119613 0.001770718313101259 0 0.00044592375634638231 0.0017182088544423456 0 0.0014337727188682564 0.0020876839397683329 0 0.00044592375634638231 0.0017182088544423456 0 -0.0022948182151704324 0.0016932806673751256 0 -0.0049092295401612527 0.0017704250265463955 0 -0.0046721040596684003 0.0017783656942641339 0 -0.0051127891044089532 0.0020982053820713998 0 -0.0022948182151704324 0.0016932806673751256 0 0.0014337727188682564 0.0020876839397683329 0 -0.0012974799650310247 0.0015068138265758933 0 -0.0010444100304060099 0.0015349510509760516 0 -0.0012059240451071413 0.0016334465059437261 0 -0.0036393633088170562 0.0017601423249059044 0 -0.0022948182151704324 0.0016932806673751256 0 -0.0022948182151704324 0.0016932806673751256 0 -0.0025755166601795923 0.0016179670152490944 0 -0.0046649828790513324 0.0018060987827590816 0 -0.0047235398562062237 0.0017075443077165455 0 -0.0044964202514256313 0.0017068283026800792 0 -0.0046467767792084461 0.0018363950536683762 0 -0.004536506350572584 0.0020165060907007559 0 -0.0044964202514256313 0.0017068283026800792 0 -0.004536506350572584 0.0020165060907007559 0 -0.0044964202514256313 0.0017068283026800792 0 -0.003917605198471806 0.0017958746173928131 0 -0.0042603490497512648 0.0014668283555237973 0 -0.0044964202514256313 0.0017068283026800792 0 -0.003917605198471806 0.0017958746173928131 0 -0.0036393633088170562 0.0017601423249059044 0 -0.0043232257017108821 0.001968598537545913 0 -0.0047235398562062237 0.0017075443077165455 0 -0.0044964202514256313 0.0017068283026800792 0 -0.0046251421588739709 0.0014826152484181036 0 -0.0042603490497512648 0.0014668283555237973 0 -0.0044964202514256313 0.0017068283026800792 0 -0.0046251421588739709 0.0014826152484181036 0 -0.0010444100304060099 0.0015349510509760516 0 -0.0012059240451071413 0.0016334465059437261 0 -0.00088485958219372475 0.0017247912793075288 0 -0.00098861128505459009 0.0013542587474816795 0 -0.0010444100304060099 0.0015349510509760516 0 -0.00081947414788448596 0.0014440122727769563 0 -0.0012974799650310247 0.0015068138265758933 0 -0.00098861128505459009 0.0013542587474816795 0 -0.0010444100304060099 0.0015349510509760516 0 -0.00081947414788448596 0.0014440122727769563 0 -0.00053313665828668279 0.0014276586858450986 0 -0.00088485958219372475 0.0017247912793075288 0 -0.0010444100304060099 0.0015349510509760516 0 -0.00081947414788448596 0.0014440122727769563 0 -0.00088485958219372475 0.0017247912793075288 0 -0.00053313665828668279 0.0014276586858450986 0 -0.00078336088193463468 0.001279344565392957 0 -0.00071939366722729374 0.0012954293918489511 0 -0.00081947414788448596 0.0014440122727769563 0 -0.00053313665828668279 0.0014276586858450986 0 -0.00071939366722729374 0.0012954293918489511 0 -0.00098861128505459009 0.0013542587474816795 0 -0.00081947414788448596 0.0014440122727769563 0 -0.00071939366722729374 0.0012954293918489511 0 -0.0025755166601795923 0.0016179670152490944 0 -0.0019193625588751835 0.0014386870089759594 0 -0.00012296606898656496 0.0014493074243491148 0 0.00016520794103025554 0.0012685145458562704 0 0.00020688953469589602 0.001577917638821864 0 -0.00053313665828668279 0.0014276586858450986 0 -0.00012296606898656496 0.0014493074243491148 0 0.00016033460494841004 0.0018672688909879723 0 -0.00053313665828668279 0.0014276586858450986 0 -0.00012296606898656496 0.0014493074243491148 0 -0.00078336088193463468 0.001279344565392957 0 -0.00012296606898656496 0.0014493074243491148 0 -0.00078336088193463468 0.001279344565392957 0 -0.0012057970609797362 0.001322010534746488 0 -0.00025027959610733868 0.001483232441037046 0 -0.00059480285787449948 0.0012755698514422392 0 0.00016520794103025554 0.0012685145458562704 0 -2.0862583221443902e-05 0.0011112164366575007 0 0.00018455599046583691 0.0010445941345221038 0 -0.00012296606898656496 0.0014493074243491148 0 0.00016520794103025554 0.0012685145458562704 0 -2.0862583221443902e-05 0.0011112164366575007 0 -0.00059480285787449948 0.0012755698514422392 0 -0.00095426797577402242 0.00099567603630186345 0 -0.0012057970609797362 0.001322010534746488 0 -0.0017436241545961833 0.0012809515836769828 0 -0.0018943342031042302 0.0010541863408686943 0 -2.0862583221443902e-05 0.0011112164366575007 0 5.064912629751311e-06 0.00090611765425396232 0 0.00018455599046583691 0.0010445941345221038 0 -0.00078336088193463468 0.001279344565392957 0 -0.0017436241545961833 0.0012809515836769828 0 -0.00071939366722729374 0.0012954293918489511 0 -0.00078336088193463468 0.001279344565392957 0 -0.0012057970609797362 0.001322010534746488 0 -0.0017436241545961833 0.0012809515836769828 0 -0.0017218118493297603 0.0012928582918395792 0 -0.0019193625588751835 0.0014386870089759594 0 -0.0017436241545961833 0.0012809515836769828 0 -0.0025315182229715769 0.00086544693014356652 0 -0.0031879443359847 0.0016569106712411854 0 -0.0017436241545961833 0.0012809515836769828 0 -0.0025315182229715769 0.00086544693014356652 0 -0.0018943342031042302 0.0010541863408686943 0 -0.0025315182229715769 0.00086544693014356652 0 -0.0018943342031042302 0.0010541863408686943 0 -0.0027224741838861189 0.00039254148737198548 0 5.064912629751311e-06 0.00090611765425396232 0 0.00018455599046583691 0.0010445941345221038 0 0.00015472868057097314 0.00089983596089130639 0 -0.0037982349876737099 0.0012989906811838735 0 -0.0031879443359847 0.0016569106712411854 0 -0.0035094113774271139 0.0011058483817122412 0 -0.003917605198471806 0.0017958746173928131 0 -0.0037982349876737099 0.0012989906811838735 0 -0.0031879443359847 0.0016569106712411854 0 -0.0025315182229715769 0.00086544693014356652 0 -0.0031879443359847 0.0016569106712411854 0 -0.0031967524793209017 0.00096921711144078312 0 -0.0031879443359847 0.0016569106712411854 0 -0.0031967524793209017 0.00096921711144078312 0 -0.0035094113774271139 0.0011058483817122412 0 -0.0031967524793209017 0.00096921711144078312 0 -0.0036073252044728568 0.00071463053643328902 0 -0.0030958798403057553 0.00054753141306823443 0 -0.0025315182229715769 0.00086544693014356652 0 -0.0031967524793209017 0.00096921711144078312 0 -0.0030958798403057553 0.00054753141306823443 0 -0.0037982349876737099 0.0012989906811838735 0 -0.0035094113774271139 0.0011058483817122412 0 -0.0036073252044728568 0.00071463053643328902 0 -0.0031967524793209017 0.00096921711144078312 0 -0.0035094113774271139 0.0011058483817122412 0 -0.0036073252044728568 0.00071463053643328902 0 -0.0031490077058994306 0.00055421679529746651 0 -0.0040261773057919505 0.00056865089884842231 0 -0.0036754747463486584 0.00020223316804605479 0 -0.0042114177031446843 0.00016647832123295963 0 -0.0041447358865398364 0.00063331683236753978 0 -0.0036754747463486584 0.00020223316804605479 0 -0.0030958798403057553 0.00054753141306823443 0 -0.0041447358865398364 0.00063331683236753978 0 -0.0036073252044728568 0.00071463053643328902 0 -0.0030958798403057553 0.00054753141306823443 0 -0.003934321906761136 0.00051995307708271258 0 -0.0036754747463486584 0.00020223316804605479 0 -0.0030958798403057553 0.00054753141306823443 0 -0.0031981035264709323 0.00020997677453063162 0 -0.0030958798403057553 0.00054753141306823443 0 -0.0031981035264709323 0.00020997677453063162 0 -0.0027224741838861189 0.00039254148737198548 0 -0.0036754747463486584 0.00020223316804605479 0 -0.0031981035264709323 0.00020997677453063162 0 -0.0034420779570642477 -6.6670525292567999e-05 0 -0.0031981035264709323 0.00020997677453063162 0 -0.0034420779570642477 -6.6670525292567999e-05 0 -0.00304236586979137 3.7455845813935397e-05 0 -0.0034420779570642477 -6.6670525292567999e-05 0 -0.00304236586979137 3.7455845813935397e-05 0 -0.0032991033153784537 -0.00026737975818134132 0 -0.0036754747463486584 0.00020223316804605479 0 -0.0034420779570642477 -6.6670525292567999e-05 0 -0.003918317940468965 -0.00011409826109852357 0 -0.0036754747463486584 0.00020223316804605479 0 -0.003918317940468965 -0.00011409826109852357 0 -0.0042114177031446843 0.00016647832123295963 0 5.064912629751311e-06 0.00090611765425396232 0 1.1557241614188807e-05 0.0006938623182415689 0 0.00016061259574434326 0.00076323744833019561 0 -0.0018943342031042302 0.0010541863408686943 0 -0.0024075900297842968 0.00025185653517910975 0 -0.0027224741838861189 0.00039254148737198548 0 -0.00095426797577402242 0.00099567603630186345 0 -0.0011133820287589418 0.00055383582161893546 0 -0.0025315182229715769 0.00086544693014356652 0 -0.0030958798403057553 0.00054753141306823443 0 -0.0027224741838861189 0.00039254148737198548 0 -0.0024075900297842968 0.00025185653517910975 0 -0.0027224741838861189 0.00039254148737198548 0 -0.0028409007046920625 2.4637128890637744e-05 0 -0.0031981035264709323 0.00020997677453063162 0 -0.0027224741838861189 0.00039254148737198548 0 -0.00304236586979137 3.7455845813935397e-05 0 -0.00304236586979137 3.7455845813935397e-05 0 -0.0030677503487640048 -0.00020377496307441304 0 -0.0032991033153784537 -0.00026737975818134132 0 -0.0030677503487640048 -0.00020377496307441304 0 -0.0028409007046920625 2.4637128890637744e-05 0 -0.0029648146851640007 -0.0003148795498392489 0 -0.0027224741838861189 0.00039254148737198548 0 -0.00304236586979137 3.7455845813935397e-05 0 -0.0028409007046920625 2.4637128890637744e-05 0 -0.00304236586979137 3.7455845813935397e-05 0 -0.0030677503487640048 -0.00020377496307441304 0 -0.0028409007046920625 2.4637128890637744e-05 0 -0.0024075900297842968 0.00025185653517910975 0 -0.0028409007046920625 2.4637128890637744e-05 0 -0.0029648146851640007 -0.0003148795498392489 0 1.1557241614188807e-05 0.0006938623182415689 0 1.4836311830912039e-05 0.00049629753234385046 0 8.4754168517624736e-05 0.00060075928471989206 0 -0.0011133820287589418 0.00055383582161893546 0 -0.0023674693329650337 -0.00025981317171984745 0 -0.0024075900297842968 0.00025185653517910975 0 -0.0027681661953777282 -0.00040806689108483754 0 -0.0029648146851640007 -0.0003148795498392489 0 -0.0023674693329650337 -0.00025981317171984745 0 -0.003672103410123982 -0.00025003876805351131 0 -0.0031315660509291135 -0.00036805818955165133 0 -0.0033456353672694323 -0.0004534665145219896 0 -0.0035715818375672971 -0.00051010728163449013 0 -0.0023674693329650337 -0.00025981317171984745 0 -0.0028712235419278012 -0.00018779895953409853 0 -0.0031315660509291135 -0.00036805818955165133 0 -0.0029648146851640007 -0.0003148795498392489 0 -0.0033456353672694323 -0.0004534665145219896 0 -0.0029648146851640007 -0.0003148795498392489 0 -0.0032165129484701895 -0.00036896888163198617 0 -0.0033456353672694323 -0.0004534665145219896 0 -0.0032165129484701895 -0.00036896888163198617 0 -0.0032991033153784537 -0.00026737975818134132 0 -0.0034480802198819361 -0.00049909629762568374 0 -0.0032165129484701895 -0.00036896888163198617 0 -0.0034480802198819361 -0.00049909629762568374 0 -0.0033456353672694323 -0.0004534665145219896 0 -0.0030677503487640048 -0.00020377496307441304 0 -0.0029648146851640007 -0.0003148795498392489 0 -0.0032165129484701895 -0.00036896888163198617 0 -0.0030677503487640048 -0.00020377496307441304 0 -0.0032165129484701895 -0.00036896888163198617 0 -0.0032991033153784537 -0.00026737975818134132 0 -0.0034480802198819361 -0.00049909629762568374 0 -0.0033456353672694323 -0.0004534665145219896 0 -0.0037022327557049901 -0.00054330074426087345 0 -0.0034480802198819361 -0.00049909629762568374 0 -0.0037022327557049901 -0.00054330074426087345 0 -0.0035922691440661795 -0.00057861933918920737 0 -0.0033456353672694323 -0.0004534665145219896 0 -0.0035715818375672971 -0.00051010728163449013 0 -0.0037022327557049901 -0.00054330074426087345 0 -0.003918317940468965 -0.00011409826109852357 0 -0.0036377205807636781 -0.00032611070305646722 0 -0.004051299717031949 -0.00046995672101091411 0 -0.0034420779570642477 -6.6670525292567999e-05 0 -0.003918317940468965 -0.00011409826109852357 0 -0.0036377205807636781 -0.00032611070305646722 0 -0.0032991033153784537 -0.00026737975818134132 0 -0.0034480802198819361 -0.00049909629762568374 0 -0.0036377205807636781 -0.00032611070305646722 0 -0.0034420779570642477 -6.6670525292567999e-05 0 -0.0032991033153784537 -0.00026737975818134132 0 -0.0036377205807636781 -0.00032611070305646722 0 -0.0034480802198819361 -0.00049909629762568374 0 -0.0036733887933514107 -0.00054917406846432789 0 -0.0035922691440661795 -0.00057861933918920737 0 -0.0034480802198819361 -0.00049909629762568374 0 -0.0036377205807636781 -0.00032611070305646722 0 -0.0036733887933514107 -0.00054917406846432789 0 -0.0036377205807636781 -0.00032611070305646722 0 -0.0036733887933514107 -0.00054917406846432789 0 -0.004051299717031949 -0.00046995672101091411 0 -0.0036733887933514107 -0.00054917406846432789 0 -0.004051299717031949 -0.00046995672101091411 0 -0.0037873035521746403 -0.00078199030375391252 0 -0.004051299717031949 -0.00046995672101091411 0 -0.0046653937416759224 -0.0004049714794885757 0 -0.0043951115492100673 -0.00082243838176633338 0 -0.0046653937416759224 -0.0004049714794885757 0 -0.0051904750303164784 -0.00057236681456732 0 -0.0043951115492100673 -0.00082243838176633338 0 -0.0046653937416759224 -0.0004049714794885757 0 -0.004529423112574967 -9.8790442918717878e-05 0 -0.0051270832863159303 -5.6551874248386244e-05 0 -0.004051299717031949 -0.00046995672101091411 0 -0.0046653937416759224 -0.0004049714794885757 0 -0.004529423112574967 -9.8790442918717878e-05 0 -0.003918317940468965 -0.00011409826109852357 0 -0.004051299717031949 -0.00046995672101091411 0 -0.004529423112574967 -9.8790442918717878e-05 0 -0.003918317940468965 -0.00011409826109852357 0 -0.004529423112574967 -9.8790442918717878e-05 0 -0.0042114177031446843 0.00016647832123295963 0 -0.004529423112574967 -9.8790442918717878e-05 0 -0.0042114177031446843 0.00016647832123295963 0 -0.0046113223908927706 0.00023710751823414526 0 -0.004529423112574967 -9.8790442918717878e-05 0 -0.0046113223908927706 0.00023710751823414526 0 -0.0051270832863159303 -5.6551874248386244e-05 0 -0.0040261773057919505 0.00056865089884842231 0 -0.0048354769553690434 0.000512697159778415 0 -0.0046113223908927706 0.00023710751823414526 0 -0.0041447358865398364 0.00063331683236753978 0 -0.0049074749039970719 0.00056190097098495883 0 -0.0042114177031446843 0.00016647832123295963 0 -0.0046113223908927706 0.00023710751823414526 0 -0.0041447358865398364 0.00063331683236753978 0 -0.0055603796923604119 0.00045201799334201062 0 -0.0051270832863159303 -5.6551874248386244e-05 0 -0.0058601589956378151 -6.6125686097903474e-05 0 -0.0055199912918209772 0.00046107484572391452 0 -0.0048354769553690434 0.000512697159778415 0 -0.0055603796923604119 0.00045201799334201062 0 -0.0049074749039970719 0.00056190097098495883 0 -0.0051270832863159303 -5.6551874248386244e-05 0 -0.0046113223908927706 0.00023710751823414526 0 -0.0049074749039970719 0.00056190097098495883 0 -0.0051270832863159303 -5.6551874248386244e-05 0 -0.0051270832863159303 -5.6551874248386244e-05 0 -0.0055564822587342994 -0.00038044061115574478 0 -0.0058601589956378151 -6.6125686097903474e-05 0 -0.0051270832863159303 -5.6551874248386244e-05 0 -0.0055564822587342994 -0.00038044061115574478 0 -0.0051904750303164784 -0.00057236681456732 0 -0.0046653937416759224 -0.0004049714794885757 0 -0.0051270832863159303 -5.6551874248386244e-05 0 -0.0051904750303164784 -0.00057236681456732 0 -0.0055564822587342994 -0.00038044061115574478 0 -0.0051904750303164784 -0.00057236681456732 0 -0.0055511439191521334 -0.00061070261947934767 0 -0.0055564822587342994 -0.00038044061115574478 0 -0.0061137472662369189 -0.00044592316160646484 0 -0.0055511439191521334 -0.00061070261947934767 0 -0.0061137472662369189 -0.00044592316160646484 0 -0.0067333161301275785 -0.00017506645475536022 0 -0.0058601589956378151 -6.6125686097903474e-05 0 -0.0095498903859008912 0.0021338686001691112 0 -0.0094204276394943259 0.0022973635979196732 0 -0.0055564822587342994 -0.00038044061115574478 0 -0.0061137472662369189 -0.00044592316160646484 0 -0.0058601589956378151 -6.6125686097903474e-05 0 -0.012986187715122222 0.0047071502098916269 0 -0.012850491393665677 0.0052016871016258024 0 -0.01328614465311362 0.0051942149358963153 0 -0.012986187715122222 0.0047071502098916269 0 -0.011885024997915007 0.0048117405700503317 0 -0.012850491393665677 0.0052016871016258024 0 -0.011885024997915007 0.0048117405700503317 0 -0.012224759573014745 0.005248509513179362 0 -0.012850491393665677 0.0052016871016258024 0 -0.011885024997915007 0.0048117405700503317 0 -0.011557137034040951 0.0052459676295996327 0 -0.012224759573014745 0.005248509513179362 0 -0.011885024997915007 0.0048117405700503317 0 -0.012242050004061578 0.0038097557289672335 0 -0.011003748892543522 0.0040920799113509107 0 -0.012986187715122222 0.0047071502098916269 0 -0.011885024997915007 0.0048117405700503317 0 -0.012242050004061578 0.0038097557289672335 0 -0.0095498903859008912 0.0021338686001691112 0 -0.0094914275559288518 0.001816855325841298 0 -0.012242050004061578 0.0038097557289672335 0 -0.011003748892543522 0.0040920799113509107 0 -0.010603715683740854 0.0021676376352476956 0 -0.0094914275559288518 0.001816855325841298 0 -0.0090044848973545814 0.0012030734072060992 0 -0.0067333161301275785 -0.00017506645475536022 0 -0.0068027437133215242 0.00030255904587610531 0 -0.0074723949136695274 0.00018107247172237202 0 -0.0067333161301275785 -0.00017506645475536022 0 -0.0068027437133215242 0.00030255904587610531 0 -0.0062063268503688681 0.00028775813399752092 0 -0.0067333161301275785 -0.00017506645475536022 0 -0.0062063268503688681 0.00028775813399752092 0 -0.0058601589956378151 -6.6125686097903474e-05 0 -0.0055603796923604119 0.00045201799334201062 0 -0.0062063268503688681 0.00028775813399752092 0 -0.0058601589956378151 -6.6125686097903474e-05 0 -0.0097183315951799021 -1.7410301569158233e-05 0 -0.010875681407351123 -0.00072647986562320683 0 -0.010897531862893117 0.00085998943402908938 0 -0.010875681407351123 -0.00072647986562320683 0 -0.010897531862893117 0.00085998943402908938 0 -0.011767790534971125 0.00032137910468869998 0 -0.010897531862893117 0.00085998943402908938 0 -0.011767790534971125 0.00032137910468869998 0 -0.012304919261286774 0.0013121310957729495 0 -0.011767790534971125 0.00032137910468869998 0 -0.012304919261286774 0.0013121310957729495 0 -0.012968452050673729 -0.00016620253552621176 0 -0.0044534208776293299 0.0061132780964652626 0 -0.0083254142129811168 0.0070548501639325903 0 -0.0068018071834649012 0.0035072410023343817 0 -0.0078088566941944219 0.002579099833389142 0 -0.0098866818969445165 0.0043257463947844006 0 -0.010875681407351123 -0.00072647986562320683 0 -0.011767790534971125 0.00032137910468869998 0 -0.012968452050673729 -0.00016620253552621176 0 -0.0086168925647305238 0.0052516779862527554 0 -0.010740487073200624 0.00517016269711778 0 -0.0093563121747745562 0.003866627406987315 0 -0.0098866818969445165 0.0043257463947844006 0 -0.010552468246940337 0.0052253480861976856 0 -0.0098866818969445165 0.0043257463947844006 0 -0.012810872467958553 0.0031747935078896765 0 -0.012304919261286774 0.0013121310957729495 0 -0.012968452050673729 -0.00016620253552621176 0 -0.01383740640133577 0.0017741338773735551 0 -0.010731578333134893 0.00515788476754875 0 -0.010740487073200624 0.00517016269711778 0 -0.011295899177923114 0.0053018241826727633 0 -0.011557137034040951 0.0052459676295996327 0 -0.010740487073200624 0.00517016269711778 0 -0.011295899177923114 0.0053018241826727633 0 -0.011885024997915007 0.0048117405700503317 0 -0.011557137034040951 0.0052459676295996327 0 -0.010740487073200624 0.00517016269711778 0 -0.010740487073200624 0.00517016269711778 0 -0.011003748892543522 0.0040920799113509107 0 -0.0093563121747745562 0.003866627406987315 0 -0.011885024997915007 0.0048117405700503317 0 -0.010740487073200624 0.00517016269711778 0 -0.011003748892543522 0.0040920799113509107 0 -0.011003748892543522 0.0040920799113509107 0 -0.010603715683740854 0.0021676376352476956 0 -0.0093563121747745562 0.003866627406987315 0 -0.010603715683740854 0.0021676376352476956 0 -0.0081300329969682967 0.0021551407822149099 0 -0.0093563121747745562 0.003866627406987315 0 -0.0081300329969682967 0.0021551407822149099 0 -0.0093563121747745562 0.003866627406987315 0 -0.0068018071834649012 0.0035072410023343817 0 -0.0086168925647305238 0.0052516779862527554 0 -0.0093563121747745562 0.003866627406987315 0 -0.0068018071834649012 0.0035072410023343817 0 -0.0098866818969445165 0.0043257463947844006 0 -0.0066347520160459968 0.0041968480198161873 0 -0.0081300329969682967 0.0021551407822149099 0 -0.0068018071834649012 0.0035072410023343817 0 -0.0056642715373261144 0.0019723334812691445 0 -0.0068018071834649012 0.0035072410023343817 0 -0.0056642715373261144 0.0019723334812691445 0 -0.00362074346837203 0.0031915267529770202 0 -0.0044534208776293299 0.0061132780964652626 0 -0.0068018071834649012 0.0035072410023343817 0 -0.00362074346837203 0.0031915267529770202 0 -0.0025762984906550525 0.004421060428633319 0 -0.0044534208776293299 0.0061132780964652626 0 -0.00362074346837203 0.0031915267529770202 0 -0.0038837745424493662 0.00064925985836777791 0 -0.0051998479840244085 -0.0002960763700647855 0 -0.0062573962272994979 0.00056204398133012233 0 -0.0038837745424493662 0.00064925985836777791 0 -0.0051998479840244085 -0.0002960763700647855 0 -0.0045629134819285136 -0.00086818677540447344 0 -0.0038837745424493662 0.00064925985836777791 0 -0.0056642715373261144 0.0019723334812691445 0 -0.0062573962272994979 0.00056204398133012233 0 -0.0038837745424493662 0.00064925985836777791 0 -0.0056642715373261144 0.0019723334812691445 0 -0.00362074346837203 0.0031915267529770202 0 -0.0081300329969682967 0.0021551407822149099 0 -0.0056642715373261144 0.0019723334812691445 0 -0.0062573962272994979 0.00056204398133012233 0 -0.0062573962272994979 0.00056204398133012233 0 -0.0069525288418394969 -1.0227009968732283e-05 0 -0.0062219202585961052 -0.00057640046282495547 0 -0.0051998479840244085 -0.0002960763700647855 0 -0.0062573962272994979 0.00056204398133012233 0 -0.0062219202585961052 -0.00057640046282495547 0 -0.00785013024914878 0.00043989724736795258 0 -0.0069525288418394969 -1.0227009968732283e-05 0 -0.0073872482604063457 -0.00035924908865282159 0 -0.0069525288418394969 -1.0227009968732283e-05 0 -0.0073872482604063457 -0.00035924908865282159 0 -0.0062219202585961052 -0.00057640046282495547 0 -0.00785013024914878 0.00043989724736795258 0 -0.0078238290779495522 0.00052935224415932825 0 -0.0073872482604063457 -0.00035924908865282159 0 -0.0062573962272994979 0.00056204398133012233 0 -0.00785013024914878 0.00043989724736795258 0 -0.0069525288418394969 -1.0227009968732283e-05 0 -0.0081300329969682967 0.0021551407822149099 0 -0.0062573962272994979 0.00056204398133012233 0 -0.00785013024914878 0.00043989724736795258 0 -0.0090044848973545814 0.0012030734072060992 0 -0.0079727452533392851 0.00047554977505956646 0 -0.010603715683740854 0.0021676376352476956 0 -0.0081300329969682967 0.0021551407822149099 0 -0.00785013024914878 0.00043989724736795258 0 -0.0074723949136695274 0.00018107247172237202 0 -0.00785013024914878 0.00043989724736795258 0 -0.0078238290779495522 0.00052935224415932825 0 -0.0078238290779495522 0.00052935224415932825 0 -0.0080959101522858172 -0.00082352784772737712 0 -0.0073872482604063457 -0.00035924908865282159 0 -0.0078762069375554709 0.00045087632401916481 0 -0.0080469575251391028 0.00032755900671895834 0 -0.0078238290779495522 0.00052935224415932825 0 -0.0079360866189335053 0.0014653607459986428 0 -0.0071139683331455953 0.0012482776791604261 0 -0.0080959101522858172 -0.00082352784772737712 0 -0.0079814044239975412 -0.0021043242587412284 0 -0.0073843478942494196 -0.0013599761727597075 0 -0.0080469575251391028 0.00032755900671895834 0 -0.005891332197815494 0.00025703721396417255 0 -0.0079360866189335053 0.0014653607459986428 0 -0.0080389820116427754 0.0022739628484310702 0 -0.0075183677585994677 0.0018187207101568073 0 -0.005891332197815494 0.00025703721396417255 0 -0.0058028493607985955 0.0019143111516125057 0 -0.0080389820116427754 0.0022739628484310702 0 -0.0075183677585994677 0.0018187207101568073 0 -0.0074464057994186672 0.0023517534619863132 0 -0.005891332197815494 0.00025703721396417255 0 -0.0049607308123332302 -0.0014811618465871907 0 -0.0036290482444435576 -0.00075954910597494886 0 -0.0034528519200510708 -0.00075804043862851066 0 -0.0035507257762166849 -0.00086121195337141216 0 -0.0079814044239975412 -0.0021043242587412284 0 -0.0073843478942494196 -0.0013599761727597075 0 -0.0066481305775945082 -0.0020770325563295787 0 -0.0073843478942494196 -0.0013599761727597075 0 -0.0066917954481624615 -0.0011588295325463194 0 -0.0066481305775945082 -0.0020770325563295787 0 -0.0073843478942494196 -0.0013599761727597075 0 -0.0073872482604063457 -0.00035924908865282159 0 -0.0066917954481624615 -0.0011588295325463194 0 -0.0073872482604063457 -0.00035924908865282159 0 -0.0062219202585961052 -0.00057640046282495547 0 -0.0066917954481624615 -0.0011588295325463194 0 -0.0080959101522858172 -0.00082352784772737712 0 -0.0073843478942494196 -0.0013599761727597075 0 -0.0073872482604063457 -0.00035924908865282159 0 -0.0062219202585961052 -0.00057640046282495547 0 -0.0058172786259601218 -0.0014162044760400224 0 -0.0053240939376280267 -0.00095664704043801701 0 -0.0062219202585961052 -0.00057640046282495547 0 -0.0058172786259601218 -0.0014162044760400224 0 -0.0066917954481624615 -0.0011588295325463194 0 -0.0049607308123332302 -0.0014811618465871907 0 -0.004647041139875031 -0.0019286437164386494 0 -0.0058172786259601218 -0.0014162044760400224 0 -0.0066917954481624615 -0.0011588295325463194 0 -0.0066481305775945082 -0.0020770325563295787 0 -0.0034528519200510708 -0.00075804043862851066 0 -0.0032993750696913176 -0.000758259536652507 0 -0.0033466961233786477 -0.00085413018355122807 0 -0.0058172786259601218 -0.0014162044760400224 0 -0.0066481305775945082 -0.0020770325563295787 0 -0.0051699033328676839 -0.0020832999116350177 0 -0.0058172786259601218 -0.0014162044760400224 0 -0.0051699033328676839 -0.0020832999116350177 0 -0.0048348568637515028 -0.0016169976331913661 0 -0.004647041139875031 -0.0019286437164386494 0 -0.0047731823950748469 -0.0018586059230625842 0 -0.004647041139875031 -0.0019286437164386494 0 -0.00057051009057128949 -0.0013820859110757651 0 -0.0048446279157542908 -0.0021098933928471722 0 -0.0048436676226112059 -0.0025627585714780693 0 -0.0051953116469148856 -0.0027905679639707273 0 -0.0048446279157542908 -0.0021098933928471722 0 -0.0044427541980830631 -0.0023765104493808581 0 -0.0048436676226112059 -0.0025627585714780693 0 -0.0048446279157542908 -0.0021098933928471722 0 -0.0044427541980830631 -0.0023765104493808581 0 -0.0045244395310749955 -0.002043779772840734 0 -0.0051035243080320364 -0.0021185177770440436 0 -0.0045244395310749955 -0.002043779772840734 0 -0.0048348568637515028 -0.0016169976331913661 0 -0.004647041139875031 -0.0019286437164386494 0 -0.004675807879779015 -0.0019867443795283332 0 -0.0043548672919538883 -0.0015616012183328999 0 -0.0045244395310749955 -0.002043779772840734 0 -0.0048348568637515028 -0.0016169976331913661 0 -0.0043548672919538883 -0.0015616012183328999 0 -0.0048348568637515028 -0.0016169976331913661 0 -0.0045629134819285136 -0.00086818677540447344 0 -0.0048348568637515028 -0.0016169976331913661 0 -0.0053240939376280267 -0.00095664704043801701 0 -0.0045629134819285136 -0.00086818677540447344 0 -0.0058172786259601218 -0.0014162044760400224 0 -0.0048348568637515028 -0.0016169976331913661 0 -0.0053240939376280267 -0.00095664704043801701 0 -0.0051998479840244085 -0.0002960763700647855 0 -0.0062219202585961052 -0.00057640046282495547 0 -0.0053240939376280267 -0.00095664704043801701 0 -0.0051998479840244085 -0.0002960763700647855 0 -0.0053240939376280267 -0.00095664704043801701 0 -0.0045629134819285136 -0.00086818677540447344 0 -0.0063294899154333192 0.0010628841935506788 0 -0.0058428659607192256 0.00092748878339187575 0 -0.0064942466694998258 0.00066961570636125045 0 -0.0063294899154333192 0.0010628841935506788 0 -0.0058428659607192256 0.00092748878339187575 0 -0.0060569781459766919 0.0013914082162454753 0 -0.0054283962020162521 0.001125814603247252 0 -0.0058428659607192256 0.00092748878339187575 0 -0.0056387860809616556 0.0015473816486035867 0 -0.0055603796923604119 0.00045201799334201062 0 -0.0062063268503688681 0.00028775813399752092 0 -0.0058428659607192256 0.00092748878339187575 0 -0.0062063268503688681 0.00028775813399752092 0 -0.0058428659607192256 0.00092748878339187575 0 -0.0064942466694998258 0.00066961570636125045 0 -0.0068027437133215242 0.00030255904587610531 0 -0.0062063268503688681 0.00028775813399752092 0 -0.0064942466694998258 0.00066961570636125045 0 -0.0068027437133215242 0.00030255904587610531 0 -0.0064942466694998258 0.00066961570636125045 0 -0.0071044478254884517 0.00057232478561012419 0 -0.0068027437133215242 0.00030255904587610531 0 -0.0074723949136695274 0.00018107247172237202 0 -0.0071044478254884517 0.00057232478561012419 0 -0.0074723949136695274 0.00018107247172237202 0 -0.0078238290779495522 0.00052935224415932825 0 -0.0071044478254884517 0.00057232478561012419 0 -0.0071044478254884517 0.00057232478561012419 0 -0.0066996165594797527 0.00097187632244327292 0 -0.0071139683331455953 0.0012482776791604261 0 -0.0078238290779495522 0.00052935224415932825 0 -0.0071044478254884517 0.00057232478561012419 0 -0.0071139683331455953 0.0012482776791604261 0 -0.0064942466694998258 0.00066961570636125045 0 -0.0071044478254884517 0.00057232478561012419 0 -0.0066996165594797527 0.00097187632244327292 0 -0.0063294899154333192 0.0010628841935506788 0 -0.0064942466694998258 0.00066961570636125045 0 -0.0066996165594797527 0.00097187632244327292 0 -0.0063294899154333192 0.0010628841935506788 0 -0.0066996165594797527 0.00097187632244327292 0 -0.0065241042461843864 0.0013473226410281823 0 -0.0065241042461843864 0.0013473226410281823 0 -0.0067631805369080247 0.0015402294889694087 0 -0.0071139683331455953 0.0012482776791604261 0 -0.0066996165594797527 0.00097187632244327292 0 -0.0065241042461843864 0.0013473226410281823 0 -0.0071139683331455953 0.0012482776791604261 0 -0.0065241042461843864 0.0013473226410281823 0 -0.0067631805369080247 0.0015402294889694087 0 -0.0063810493040782016 0.0018149752907265957 0 -0.0067631805369080247 0.0015402294889694087 0 -0.0070464610352609048 0.0017658909253051717 0 -0.0063810493040782016 0.0018149752907265957 0 -0.0065241042461843864 0.0013473226410281823 0 -0.0063810493040782016 0.0018149752907265957 0 -0.0061968376234029033 0.0016447850212142176 0 -0.0079360866189335053 0.0014653607459986428 0 -0.0071139683331455953 0.0012482776791604261 0 -0.0075183677585994677 0.0018187207101568073 0 -0.0067631805369080247 0.0015402294889694087 0 -0.0071139683331455953 0.0012482776791604261 0 -0.0070464610352609048 0.0017658909253051717 0 -0.0071139683331455953 0.0012482776791604261 0 -0.0075183677585994677 0.0018187207101568073 0 -0.0070464610352609048 0.0017658909253051717 0 -0.0058028493607985955 0.0019143111516125057 0 -0.0069287019191100222 0.0020067698583449783 0 -0.0070464610352609048 0.0017658909253051717 0 -0.0074464057994186672 0.0023517534619863132 0 -0.0063810493040782016 0.0018149752907265957 0 -0.0058028493607985955 0.0019143111516125057 0 -0.0053429107904923879 0.002181068558206233 0 -0.0075183677585994677 0.0018187207101568073 0 -0.0070464610352609048 0.0017658909253051717 0 -0.0074464057994186672 0.0023517534619863132 0 -0.0067069133542735533 0.0020378852808272262 0 -0.0063810493040782016 0.0018149752907265957 0 -0.0064439521838006589 0.0020628862577372386 0 -0.0061330836464412921 0.0019066585394202594 0 -0.0059533190105556157 0.0020235902444649674 0 -0.0064439521838006589 0.0020628862577372386 0 -0.0063810493040782016 0.0018149752907265957 0 -0.0061330836464412921 0.0019066585394202594 0 -0.0064439521838006589 0.0020628862577372386 0 -0.0059763840946210683 0.0019355134127329197 0 -0.0062807011654774985 0.0019573385427102134 0 -0.0061330836464412921 0.0019066585394202594 0 -0.0059409848661700435 0.0017111495340774716 0 -0.0056827672492231395 0.0019942216108666784 0 -0.0061330836464412921 0.0019066585394202594 0 -0.00612833337944512 0.0019674253710654597 0 -0.0059533190105556157 0.0020235902444649674 0 -0.0063810493040782016 0.0018149752907265957 0 -0.0061330836464412921 0.0019066585394202594 0 -0.0061968376234029033 0.0016447850212142176 0 -0.0061330836464412921 0.0019066585394202594 0 -0.0061968376234029033 0.0016447850212142176 0 -0.0059409848661700435 0.0017111495340774716 0 -0.0061968376234029033 0.0016447850212142176 0 -0.0059409848661700435 0.0017111495340774716 0 -0.0060569781459766919 0.0013914082162454753 0 -0.0065241042461843864 0.0013473226410281823 0 -0.0061968376234029033 0.0016447850212142176 0 -0.0060569781459766919 0.0013914082162454753 0 -0.0063294899154333192 0.0010628841935506788 0 -0.0065241042461843864 0.0013473226410281823 0 -0.0060569781459766919 0.0013914082162454753 0 -0.0058428659607192256 0.00092748878339187575 0 -0.0060569781459766919 0.0013914082162454753 0 -0.0056387860809616556 0.0015473816486035867 0 -0.0059409848661700435 0.0017111495340774716 0 -0.0060569781459766919 0.0013914082162454753 0 -0.0056387860809616556 0.0015473816486035867 0 -0.0053947117734043128 0.0018318529700300451 0 -0.0056387860809616556 0.0015473816486035867 0 -0.0056827672492231395 0.0019942216108666784 0 -0.0059409848661700435 0.0017111495340774716 0 -0.0056387860809616556 0.0015473816486035867 0 -0.0056827672492231395 0.0019942216108666784 0 -0.00612833337944512 0.0019674253710654597 0 -0.00610279744582168 0.0018252833502635558 0 -0.0059533190105556157 0.0020235902444649674 0 0.00032702069350309715 0.00096900694602361157 0 -0.0021465136533879597 0.0013358681894008926 0 -0.0058825397846736715 0.001069756155724995 0 -0.0021465136533879597 0.0013358681894008926 0 -0.00610279744582168 0.0018252833502635558 0 -0.0060731205979868193 0.0014451659702630776 0 -0.0062774899967310361 0.0018741601502408869 0 0.0039988107404183796 0.001771385853303358 0 0.0043367679970769818 0.0017075687300422498 0 0.0039095688245908066 0.0019842018232667231 0 -0.004541681023525126 0.00056034736724117908 0 -0.0045789921469478832 0.00049636412710137902 0 -0.0040893489534624882 0.00034387066949523375 0 -0.00612833337944512 0.0019674253710654597 0 -0.00610279744582168 0.0018252833502635558 0 -0.0062774899967310361 0.0018741601502408869 0 0.0041319297380363667 0.0016621465801279984 0 0.0039988107404183796 0.001771385853303358 0 0.0039220395161083674 0.0016298984201622523 0 0.0041319297380363667 0.0016621465801279984 0 0.0039988107404183796 0.001771385853303358 0 0.0043367679970769818 0.0017075687300422498 0 0.0041319297380363667 0.0016621465801279984 0 0.0042465698632205623 0.0016094927813911294 0 0.0043367679970769818 0.0017075687300422498 0 0.0042465698632205623 0.0016094927813911294 0 0.0043109456946418302 0.0015161619630040173 0 0.0043367679970769818 0.0017075687300422498 0 0.0041319297380363667 0.0016621465801279984 0 0.0042465698632205623 0.0016094927813911294 0 0.0041955165968879226 0.0014951120719380543 0 0.0042465698632205623 0.0016094927813911294 0 0.0043109456946418302 0.0015161619630040173 0 0.0041955165968879226 0.0014951120719380543 0 0.0041319297380363667 0.0016621465801279984 0 0.0041955165968879226 0.0014951120719380543 0 0.0040365554835975594 0.0014816331230948639 0 0.0041319297380363667 0.0016621465801279984 0 0.0040365554835975594 0.0014816331230948639 0 0.0039220395161083674 0.0016298984201622523 0 -0.0045086494040011164 0.00046045985201307178 0 -0.0045789921469478832 0.00049636412710137902 0 -0.0043731355757563282 0.00053479186754505669 0 0.00032702069350309715 0.00096900694602361157 0 -0.00018078655473201404 0.00079922821994536056 0 0.0043367679970769818 0.0017075687300422498 0 0.004790517493251779 0.0013839250620951977 0 0.0044779388809370012 0.0014151551763032556 0 -0.0045086494040011164 0.00046045985201307178 0 -0.004541681023525126 0.00056034736724117908 0 -0.0045064463668015474 0.0001995772169731732 0 0.0043109456946418302 0.0015161619630040173 0 0.0043367679970769818 0.0017075687300422498 0 0.0044779388809370012 0.0014151551763032556 0 -0.0045086494040011164 0.00046045985201307178 0 -0.004541681023525126 0.00056034736724117908 0 -0.0045789921469478832 0.00049636412710137902 0 -0.0057711584727757675 0.001660143541784957 0 -0.0059533190105556157 0.0020235902444649674 0 -0.0050672562753679264 0.0014185657442850846 0 -0.0057711584727757675 0.001660143541784957 0 -0.0060731205979868193 0.0014451659702630776 0 -0.0050672562753679264 0.0014185657442850846 0 -0.00610279744582168 0.0018252833502635558 0 -0.0060731205979868193 0.0014451659702630776 0 -0.0059719695678471379 0.0017333494580801479 0 -0.0057711584727757675 0.001660143541784957 0 -0.0060731205979868193 0.0014451659702630776 0 -0.0059719695678471379 0.0017333494580801479 0 -0.00610279744582168 0.0018252833502635558 0 -0.0059719695678471379 0.0017333494580801479 0 -0.0059533190105556157 0.0020235902444649674 0 -0.0057711584727757675 0.001660143541784957 0 -0.0059719695678471379 0.0017333494580801479 0 -0.0059533190105556157 0.0020235902444649674 0 -0.0059510445113783702 0.0020579167064348129 0 -0.0053429107904923879 0.002181068558206233 0 -0.0059533190105556157 0.0020235902444649674 0 -0.0045177431213879625 0.002302988513960783 0 -0.0050672562753679264 0.0014185657442850846 0 -0.0045177431213879625 0.002302988513960783 0 -0.0039263216513896878 0.001545485897166034 0 -0.0044085197566161444 0.0011803541759558851 0 -0.0045177431213879625 0.002302988513960783 0 -0.0050672562753679264 0.0014185657442850846 0 -0.0044085197566161444 0.0011803541759558851 0 -0.0033238206429990129 0.0024003800768743816 0 -0.0045177431213879625 0.002302988513960783 0 -0.0039263216513896878 0.001545485897166034 0 -0.0033238206429990129 0.0024003800768743816 0 -0.0039263216513896878 0.001545485897166034 0 -0.0023160664643534362 0.0016973209617013856 0 -0.0039263216513896878 0.001545485897166034 0 -0.0037903192650208545 0.00077517673008195532 0 -0.0031172830322684459 0.0010441948113741404 0 -0.0039263216513896878 0.001545485897166034 0 -0.0037903192650208545 0.00077517673008195532 0 -0.0044085197566161444 0.0011803541759558851 0 -0.0037903192650208545 0.00077517673008195532 0 -0.0043731355757563282 0.00053479186754505669 0 -0.0039792934293596382 0.00031915214901839117 0 -0.0037903192650208545 0.00077517673008195532 0 -0.0032804272665087272 0.00028451509961806363 0 -0.0039792934293596382 0.00031915214901839117 0 -0.0037903192650208545 0.00077517673008195532 0 -0.0032804272665087272 0.00028451509961806363 0 -0.0031172830322684459 0.0010441948113741404 0 -0.0058825397846736715 0.001069756155724995 0 -0.0041921241777709371 0.00048296767600650522 0 -0.0060731205979868193 0.0014451659702630776 0 -0.0050672562753679264 0.0014185657442850846 0 -0.0043731355757563282 0.00053479186754505669 0 -0.0050672562753679264 0.0014185657442850846 0 -0.0044085197566161444 0.0011803541759558851 0 -0.0043731355757563282 0.00053479186754505669 0 -0.0037903192650208545 0.00077517673008195532 0 -0.0044085197566161444 0.0011803541759558851 0 -0.0043731355757563282 0.00053479186754505669 0 -0.0045086494040011164 0.00046045985201307178 0 -0.0043731355757563282 0.00053479186754505669 0 -0.0045064463668015474 0.0001995772169731732 0 -0.00018078655473201404 0.00079922821994536056 0 0.0026147152330725713 0.00085760249590719363 0 -0.0045064463668015474 0.0001995772169731732 0 -0.0039792934293596382 0.00031915214901839117 0 -0.003748605619866808 -6.1615860791872865e-05 0 0.004790517493251779 0.0013839250620951977 0 0.0051836978061144696 0.0010570853366018184 0 0.0048465029976666194 0.0011316670702276649 0 -0.0043731355757563282 0.00053479186754505669 0 -0.0045064463668015474 0.0001995772169731732 0 -0.0039792934293596382 0.00031915214901839117 0 0.004790517493251779 0.0013839250620951977 0 0.0048465029976666194 0.0011316670702276649 0 0.004646926772603005 0.0012454643283259935 0 -0.0045064463668015474 0.0001995772169731732 0 -0.003748605619866808 -6.1615860791872865e-05 0 -0.0035086661500152022 -0.00079219666922702254 0 -0.0032804272665087272 0.00028451509961806363 0 -0.003748605619866808 -6.1615860791872865e-05 0 -0.0031723447990871247 -9.3340609799664564e-05 0 -0.0032804272665087272 0.00028451509961806363 0 -0.0039792934293596382 0.00031915214901839117 0 -0.003748605619866808 -6.1615860791872865e-05 0 -0.003748605619866808 -6.1615860791872865e-05 0 -0.0031723447990871247 -9.3340609799664564e-05 0 -0.0035086661500152022 -0.00079219666922702254 0 0.006246481146607385 0.0015185709310462866 0 0.006163861049494403 0.0011215970634862755 0 0.0055614699476346577 0.0010976338466089891 0 0.0026147152330725713 0.00085760249590719363 0 0.0056344344469444014 0.0012409731296846838 0 0.006246481146607385 0.0015185709310462866 0 0.006163861049494403 0.0011215970634862755 0 0.0065854873220676765 0.0011923508523262469 0 0.006163861049494403 0.0011215970634862755 0 0.0065854873220676765 0.0011923508523262469 0 0.0064199973036683112 0.00097732073585854299 0 0.006499677349494826 0.0012169291367052496 0 0.0066249545656241905 0.0011976139299389229 0 0.0065854873220676765 0.0011923508523262469 0 0.0026147152330725713 0.00085760249590719363 0 0.005697079323061717 0.00019161296072326537 0 0.0046535743265818585 0.0010832847392033083 0 0.0046236045755787747 0.00084613022921753434 0 0.0049566231994173831 0.00084552227255135976 0 0.0051836978061144696 0.0010570853366018184 0 0.0048465029976666194 0.0011316670702276649 0 0.0049566231994173831 0.00084552227255135976 0 0.0048465029976666194 0.0011316670702276649 0 0.0046535743265818585 0.0010832847392033083 0 0.004646926772603005 0.0012454643283259935 0 0.0048465029976666194 0.0011316670702276649 0 0.0046535743265818585 0.0010832847392033083 0 0.0049566231994173831 0.00084552227255135976 0 0.0046535743265818585 0.0010832847392033083 0 0.00441156397199431 0.001001607445227702 0 0.0044549805574666057 0.0012183845349415692 0 0.0046535743265818585 0.0010832847392033083 0 0.00441156397199431 0.001001607445227702 0 0.0046236045755787747 0.00084613022921753434 0 0.00441156397199431 0.001001607445227702 0 0.0043450920200525092 0.00078825928693990546 0 0.0046236045755787747 0.00084613022921753434 0 0.00441156397199431 0.001001607445227702 0 0.0041337335782583046 0.000968772900870852 0 0.0043450920200525092 0.00078825928693990546 0 0.0041337335782583046 0.000968772900870852 0 0.0042617296355880593 0.001164946305688544 0 0.0040498603742569125 0.0012965080174991163 0 0.00441156397199431 0.001001607445227702 0 0.0041337335782583046 0.000968772900870852 0 0.0042617296355880593 0.001164946305688544 0 0.00441156397199431 0.001001607445227702 0 0.0042617296355880593 0.001164946305688544 0 0.0044549805574666057 0.0012183845349415692 0 0.0042617296355880593 0.001164946305688544 0 0.0042943263946799972 0.0013465170726755025 0 0.0044549805574666057 0.0012183845349415692 0 0.0042617296355880593 0.001164946305688544 0 0.0040498603742569125 0.0012965080174991163 0 0.0042943263946799972 0.0013465170726755025 0 0.0041955165968879226 0.0014951120719380543 0 0.0040498603742569125 0.0012965080174991163 0 0.0040365554835975594 0.0014816331230948639 0 0.0041955165968879226 0.0014951120719380543 0 0.0040498603742569125 0.0012965080174991163 0 0.0042943263946799972 0.0013465170726755025 0 0.0043109456946418302 0.0015161619630040173 0 0.0041955165968879226 0.0014951120719380543 0 0.0042943263946799972 0.0013465170726755025 0 0.0043109456946418302 0.0015161619630040173 0 0.0042943263946799972 0.0013465170726755025 0 0.0044779388809370012 0.0014151551763032556 0 0.004790517493251779 0.0013839250620951977 0 0.0044779388809370012 0.0014151551763032556 0 0.004646926772603005 0.0012454643283259935 0 0.0046535743265818585 0.0010832847392033083 0 0.004646926772603005 0.0012454643283259935 0 0.0044549805574666057 0.0012183845349415692 0 0.0044779388809370012 0.0014151551763032556 0 0.004646926772603005 0.0012454643283259935 0 0.0044549805574666057 0.0012183845349415692 0 0.0042943263946799972 0.0013465170726755025 0 0.0044779388809370012 0.0014151551763032556 0 0.0044549805574666057 0.0012183845349415692 0 0.0038419417425050286 -0.0005016988328634893 0 0.004380865183491376 -0.0012811329882085659 0 0.0048878605879817483 -0.0006041437961241008 0 0.004380865183491376 -0.0012811329882085659 0 0.0050565390763077532 -0.0011473667275294181 0 0.0048878605879817483 -0.0006041437961241008 0 0.005488723803087724 -0.00081348178935642746 0 0.0050565390763077532 -0.0011473667275294181 0 0.0048878605879817483 -0.0006041437961241008 0 0.005488723803087724 -0.00081348178935642746 0 0.0050565390763077532 -0.0011473667275294181 0 0.0054696766327234402 -0.0013334593078292635 0 0.0050565390763077532 -0.0011473667275294181 0 0.0054696766327234402 -0.0013334593078292635 0 0.0050422810932409176 -0.0017351834904654458 0 0.0054696766327234402 -0.0013334593078292635 0 0.0054839963970538955 -0.0016327651689421875 0 0.0050422810932409176 -0.0017351834904654458 0 0.0054839963970538955 -0.0016327651689421875 0 0.0050422810932409176 -0.0017351834904654458 0 0.0055195947531261778 -0.0019376509512403065 0 0.004380865183491376 -0.0012811329882085659 0 0.0050565390763077532 -0.0011473667275294181 0 0.0050422810932409176 -0.0017351834904654458 0 0.004380865183491376 -0.0012811329882085659 0 0.0050422810932409176 -0.0017351834904654458 0 0.0042350287787266405 -0.0017964931789159061 0 0.0050422810932409176 -0.0017351834904654458 0 0.0042350287787266405 -0.0017964931789159061 0 0.0045979951487170817 -0.0022562955686294614 0 -0.004430458761164398 -0.0027650958204906333 0 -0.0048436676226112059 -0.0025627585714780693 0 -0.0051953116469148856 -0.0027905679639707273 0 -5.2690313200821417e-05 -0.0027735759076746255 0 -0.00057051009057128949 -0.0013820859110757651 0 0.0036590492741597285 -0.002043060464033462 0 0.0042350287787266405 -0.0017964931789159061 0 0.0045979951487170817 -0.0022562955686294614 0 0.0036590492741597285 -0.002043060464033462 0 0.0045979951487170817 -0.0022562955686294614 0 0.0042849761901108145 -0.0028472130236545253 0 0.0045979951487170817 -0.0022562955686294614 0 0.0042849761901108145 -0.0028472130236545253 0 0.0051732990576238633 -0.0025577351285447055 0 0.0042849761901108145 -0.0028472130236545253 0 0.0051732990576238633 -0.0025577351285447055 0 0.0056430751264769001 -0.0027176066564628459 0 -0.0044427541980830631 -0.0023765104493808581 0 -0.004430458761164398 -0.0027650958204906333 0 -0.0048436676226112059 -0.0025627585714780693 0 0.0045979951487170817 -0.0022562955686294614 0 0.0051732990576238633 -0.0025577351285447055 0 0.0051024006561318459 -0.0021352653627876978 0 0.0050422810932409176 -0.0017351834904654458 0 0.0045979951487170817 -0.0022562955686294614 0 0.0051024006561318459 -0.0021352653627876978 0 0.0051732990576238633 -0.0025577351285447055 0 0.0051024006561318459 -0.0021352653627876978 0 0.0055195947531261778 -0.0019376509512403065 0 0.0050422810932409176 -0.0017351834904654458 0 0.0051024006561318459 -0.0021352653627876978 0 0.0055195947531261778 -0.0019376509512403065 0 -0.00057051009057128949 -0.0013820859110757651 0 0.0038499370109287292 -0.00095244158311937651 0 0.0051732990576238633 -0.0025577351285447055 0 0.0055195947531261778 -0.0019376509512403065 0 0.0063052631237669994 -0.0017252441880533482 0 -0.0034528519200510708 -0.00075804043862851066 0 -0.0033466961233786477 -0.00085413018355122807 0 -0.0035507257762166849 -0.00086121195337141216 0 0.0051732990576238633 -0.0025577351285447055 0 0.0056430751264769001 -0.0027176066564628459 0 0.006085101773061592 -0.0018066842680133405 0 0.0055163063086488629 -0.0020587612613954024 0 0.0038499370109287292 -0.00095244158311937651 0 -0.00057051009057128949 -0.0013820859110757651 0 -0.0017956754095156758 0.00026486340448775666 0 0.0012484264859768536 -0.00022655114957431866 0 0.00074631791390078201 -0.0011846746756640121 0 -0.00088100768925100973 -0.00040203808185224776 0 0.0038499370109287292 -0.00095244158311937651 0 0.0055515624407663213 -0.00027326418000821049 0 0.0062588052815957451 -0.0016669054402436239 0 0.0062111130178536872 -0.00068539093381789315 0 0.0068831089976094514 -0.00033661437626724111 0 0.0055195947531261778 -0.0019376509512403065 0 0.0063052631237669994 -0.0017252441880533482 0 0.0059018250977979515 -0.0015254811830035147 0 0.0038499370109287292 -0.00095244158311937651 0 0.0050505170189463124 -0.0014423696304688958 0 0.0054839963970538955 -0.0016327651689421875 0 0.0055195947531261778 -0.0019376509512403065 0 0.0059018250977979515 -0.0015254811830035147 0 0.0054696766327234402 -0.0013334593078292635 0 0.0054839963970538955 -0.0016327651689421875 0 0.0059018250977979515 -0.0015254811830035147 0 0.0054696766327234402 -0.0013334593078292635 0 0.0059018250977979515 -0.0015254811830035147 0 0.0058660457491971725 -0.0010845307690281261 0 0.0062588052815957451 -0.0016669054402436239 0 0.0059018250977979515 -0.0015254811830035147 0 0.0058660457491971725 -0.0010845307690281261 0 0.005488723803087724 -0.00081348178935642746 0 0.0058660457491971725 -0.0010845307690281261 0 0.0062111130178536872 -0.00068539093381789315 0 0.0062588052815957451 -0.0016669054402436239 0 0.0058660457491971725 -0.0010845307690281261 0 0.0062111130178536872 -0.00068539093381789315 0 0.005488723803087724 -0.00081348178935642746 0 0.0054696766327234402 -0.0013334593078292635 0 0.0058660457491971725 -0.0010845307690281261 0 0.0037911954543914752 -0.00090379044234349963 0 0.0047281649444710118 -0.00015915607116700779 0 0.0042313521077174216 -0.0001868776008342805 0 0.0038499370109287292 -0.00095244158311937651 0 0.0023785655971490772 -7.4314428596251135e-05 0 0.00083711993333197149 0.0010068218505783118 0 0.00037322463443267069 0.00096678244936442405 0 0.0007301232508566118 -0.0010316621128929999 0 0.002393176504674039 0.00026547738033555154 0 0.00083711993333197149 0.0010068218505783118 0 0.0007301232508566118 -0.0010316621128929999 0 0.0038499370109287292 -0.00095244158311937651 0 -0.0017956754095156758 0.00026486340448775666 0 -0.0017956754095156758 0.00026486340448775666 0 -0.0031347958535117302 0.00063111289893417371 0 -0.0017956754095156758 0.00026486340448775666 0 -0.0022833207480567877 0.0011633731584072115 0 -0.003856686873370597 0.0016623677090656173 0 -0.0022833207480567877 0.0011633731584072115 0 -0.0039263216513896878 0.001545485897166034 0 -0.0023721625205332226 0.0016616805063495699 0 -0.0031172830322684459 0.0010441948113741404 0 -0.0033238206429990129 0.0024003800768743816 0 -0.0023160664643534362 0.0016973209617013856 0 -0.0023555673852946042 0.0019256436782240126 0 -0.0021143356772812876 0.0003635604979313624 0 -0.0027519103269346475 0.00030750845836750455 0 -0.0028184808264092196 0.00070002196099678584 0 -0.0036290482444435576 -0.00075954910597494886 0 -0.0035507257762166849 -0.00086121195337141216 0 -0.0036100059338392866 -0.0008332258130653627 0 -0.005891332197815494 0.00025703721396417255 0 -0.0031347958535117302 0.00063111289893417371 0 -0.0022833207480567877 0.0011633731584072115 0 -0.0031347958535117302 0.00063111289893417371 0 -0.0058028493607985955 0.0019143111516125057 0 -0.0031347958535117302 0.00063111289893417371 0 -0.0044902017813384393 0.0014584365638458012 0 -0.0056945378370053734 0.0013274276870094081 0 -0.0043564521445873085 0.0006840593134839661 0 -0.0023721625205332226 0.0016616805063495699 0 -0.0027236778743297244 0.00072179576291398688 0 -0.0021394178027066522 0.00019452315759755612 0 -0.0023721625205332226 0.0016616805063495699 0 -0.0031172830322684459 0.0010441948113741404 0 -0.0027236778743297244 0.00072179576291398688 0 -0.0022833207480567877 0.0011633731584072115 0 0.0023785655971490772 -7.4314428596251135e-05 0 -0.0032804272665087272 0.00028451509961806363 0 -0.0027236778743297244 0.00072179576291398688 0 -0.0021394178027066522 0.00019452315759755612 0 -0.0032804272665087272 0.00028451509961806363 0 -0.0031172830322684459 0.0010441948113741404 0 -0.0027236778743297244 0.00072179576291398688 0 -0.0031723447990871247 -9.3340609799664564e-05 0 -0.0035086661500152022 -0.00079219666922702254 0 -0.0021394178027066522 0.00019452315759755612 0 -0.0032804272665087272 0.00028451509961806363 0 -0.0031723447990871247 -9.3340609799664564e-05 0 -0.0021394178027066522 0.00019452315759755612 0 0.006499677349494826 0.0012169291367052496 0 0.0067263090463248743 0.0012491045128924477 0 0.0068135413585149922 0.0014297190285343694 0 0.0026147152330725713 0.00085760249590719363 0 0.0023785655971490772 -7.4314428596251135e-05 0 0.0066249545656241905 0.0011976139299389229 0 0.0067315218466798008 0.0011042982387657883 0 0.0067263090463248743 0.0012491045128924477 0 0.006499677349494826 0.0012169291367052496 0 0.0066249545656241905 0.0011976139299389229 0 0.0067263090463248743 0.0012491045128924477 0 0.0066249545656241905 0.0011976139299389229 0 0.0065854873220676765 0.0011923508523262469 0 0.0067315218466798008 0.0011042982387657883 0 0.0065854873220676765 0.0011923508523262469 0 0.0067315218466798008 0.0011042982387657883 0 0.006681523764777624 0.0010291494531030638 0 0.0067315218466798008 0.0011042982387657883 0 0.0068502385391607488 0.0010556829926576632 0 0.0067263090463248743 0.0012491045128924477 0 0.0067315218466798008 0.0011042982387657883 0 0.0068502385391607488 0.0010556829926576632 0 0.0068136631558229225 0.0010504504667985801 0 0.0068502385391607488 0.0010556829926576632 0 0.0067263090463248743 0.0012491045128924477 0 0.0068850713466223198 0.0012433509975615872 0 0.0068502385391607488 0.0010556829926576632 0 0.007001079359345859 0.0007379126040590149 0 0.0069594718071896711 0.00080625651117549428 0 0.006699599702802336 0.0011891399980716829 0 0.0059567428405256804 0.00079256559756526177 0 0.0070517767433841754 0.0006524206323471136 0 0.0069594718071896711 0.00080625651117549428 0 0.0067711557397391311 0.00064768627311200661 0 0.0059567428405256804 0.00079256559756526177 0 0.006040593443763868 0.00075133653799041168 0 0.0068502385391607488 0.0010556829926576632 0 0.0069594718071896711 0.00080625651117549428 0 0.0068345730125063163 0.0010204761000368091 0 0.0069594718071896711 0.00080625651117549428 0 0.0068345730125063163 0.0010204761000368091 0 0.0067677744566460238 0.00087204011549273347 0 0.0068502385391607488 0.0010556829926576632 0 0.0068345730125063163 0.0010204761000368091 0 0.0068136631558229225 0.0010504504667985801 0 0.0068345730125063163 0.0010204761000368091 0 0.0066499227040363916 0.0010133273372634579 0 0.0067677744566460238 0.00087204011549273347 0 0.0066499227040363916 0.0010133273372634579 0 0.0067677744566460238 0.00087204011549273347 0 0.0065947181275416069 0.00080782077170603859 0 0.0067711557397391311 0.00064768627311200661 0 0.006709066700076453 0.00032454644252205697 0 0.0064466819448846455 0.00054612110614900267 0 0.0067677744566460238 0.00087204011549273347 0 0.0067711557397391311 0.00064768627311200661 0 0.0065947181275416069 0.00080782077170603859 0 0.0070517767433841754 0.0006524206323471136 0 0.0067711557397391311 0.00064768627311200661 0 0.006709066700076453 0.00032454644252205697 0 0.0069594718071896711 0.00080625651117549428 0 0.0067677744566460238 0.00087204011549273347 0 0.0067711557397391311 0.00064768627311200661 0 0.0070517767433841754 0.0006524206323471136 0 0.006709066700076453 0.00032454644252205697 0 0.0068831089976094514 -0.00033661437626724111 0 0.0059567428405256804 0.00079256559756526177 0 0.0055515624407663213 -0.00027326418000821049 0 0.0067263090463248743 0.0012491045128924477 0 0.0068850713466223198 0.0012433509975615872 0 0.0068135413585149922 0.0014297190285343694 0 0.0059567428405256804 0.00079256559756526177 0 0.0023785655971490772 -7.4314428596251135e-05 0 0.0046291962392015487 0.00049393194424903592 0 0.0047281649444710118 -0.00015915607116700779 0 0.0042313521077174216 -0.0001868776008342805 0 0.0062111130178536872 -0.00068539093381789315 0 0.0068831089976094514 -0.00033661437626724111 0 0.0063091158299449536 5.0049969722418482e-05 0 0.006709066700076453 0.00032454644252205697 0 0.0068831089976094514 -0.00033661437626724111 0 0.0063091158299449536 5.0049969722418482e-05 0 0.0062111130178536872 -0.00068539093381789315 0 0.0063091158299449536 5.0049969722418482e-05 0 0.0056232938400935326 -0.00011778865946248961 0 0.005488723803087724 -0.00081348178935642746 0 0.0062111130178536872 -0.00068539093381789315 0 0.0056232938400935326 -0.00011778865946248961 0 0.0063091158299449536 5.0049969722418482e-05 0 0.0064466819448846455 0.00054612110614900267 0 0.0059782818540028634 0.00056597469502183166 0 0.0063091158299449536 5.0049969722418482e-05 0 0.0059782818540028634 0.00056597469502183166 0 0.0056232938400935326 -0.00011778865946248961 0 0.006709066700076453 0.00032454644252205697 0 0.0063091158299449536 5.0049969722418482e-05 0 0.0064466819448846455 0.00054612110614900267 0 0.0064466819448846455 0.00054612110614900267 0 0.0065947181275416069 0.00080782077170603859 0 0.006353039551526044 0.00092388217245531815 0 0.0067711557397391311 0.00064768627311200661 0 0.0064466819448846455 0.00054612110614900267 0 0.0065947181275416069 0.00080782077170603859 0 0.0066499227040363916 0.0010133273372634579 0 0.006353039551526044 0.00092388217245531815 0 0.0063503309215994256 0.0011668114126174233 0 0.0066499227040363916 0.0010133273372634579 0 0.0065947181275416069 0.00080782077170603859 0 0.006353039551526044 0.00092388217245531815 0 0.006353039551526044 0.00092388217245531815 0 0.0058876729205368881 0.0011604504204938905 0 0.0063503309215994256 0.0011668114126174233 0 0.006353039551526044 0.00092388217245531815 0 0.0059782818540028634 0.00056597469502183166 0 0.0058876729205368881 0.0011604504204938905 0 0.0064466819448846455 0.00054612110614900267 0 0.006353039551526044 0.00092388217245531815 0 0.0059782818540028634 0.00056597469502183166 0 0.0059782818540028634 0.00056597469502183166 0 0.0058876729205368881 0.0011604504204938905 0 0.0050585646212381874 0.00028614538604035698 0 0.0060971455762895447 0.0011650576886965338 0 0.0058876729205368881 0.0011604504204938905 0 0.0061372216530205829 0.001179276181919667 0 0.0049950404571623332 0.00099684148383589956 0 0.0057083053884806568 0.0011666071720183239 0 0.0038521999776912879 0.00086418604807348798 0 0.0058876729205368881 0.0011604504204938905 0 0.0050585646212381874 0.00028614538604035698 0 0.0059782818540028634 0.00056597469502183166 0 0.0050585646212381874 0.00028614538604035698 0 0.0056232938400935326 -0.00011778865946248961 0 0.0050585646212381874 0.00028614538604035698 0 0.0056232938400935326 -0.00011778865946248961 0 0.0048878605879817483 -0.0006041437961241008 0 0.005488723803087724 -0.00081348178935642746 0 0.0056232938400935326 -0.00011778865946248961 0 0.0048878605879817483 -0.0006041437961241008 0 0.0038419417425050286 -0.0005016988328634893 0 0.0050585646212381874 0.00028614538604035698 0 0.0048878605879817483 -0.0006041437961241008 0 0.0064578197483054489 0.0015130924574474904 0 0.0064807696302473673 0.0013450430626179238 0 0.0067378163533053995 0.0016253469972314794 0 0.0064578197483054489 0.0015130924574474904 0 0.0062292929245822632 0.001301150994408113 0 0.0064807696302473673 0.0013450430626179238 0 0.0058876729205368881 0.0011604504204938905 0 0.0061372216530205829 0.001179276181919667 0 0.0063503309215994256 0.0011668114126174233 0 0.0062292929245822632 0.001301150994408113 0 0.0064807696302473673 0.0013450430626179238 0 0.0061372216530205829 0.001179276181919667 0 0.0064807696302473673 0.0013450430626179238 0 0.0061372216530205829 0.001179276181919667 0 0.0063503309215994256 0.0011668114126174233 0 0.0064807696302473673 0.0013450430626179238 0 0.0063503309215994256 0.0011668114126174233 0 0.0068154116649519437 0.0011451089312383357 0 0.0066499227040363916 0.0010133273372634579 0 0.0063503309215994256 0.0011668114126174233 0 0.0068154116649519437 0.0011451089312383357 0 0.0064807696302473673 0.0013450430626179238 0 0.0069487300458046068 0.0015687631932774244 0 0.0067378163533053995 0.0016253469972314794 0 0.0064807696302473673 0.0013450430626179238 0 0.0068154116649519437 0.0011451089312383357 0 0.0069487300458046068 0.0015687631932774244 0 0.0068046751015092598 0.00092754415615224379 0 0.0068154116649519437 0.0011451089312383357 0 0.0067583822903862769 0.0010050155181493704 0 0.0068046751015092598 0.00092754415615224379 0 0.0068154116649519437 0.0011451089312383357 0 0.006964473124886442 0.00086361237272589283 0 0.0068447176221943708 0.0011746429615632071 0 0.0069639035436271386 0.0011795076726296362 0 0.0068345730125063163 0.0010204761000368091 0 0.0066499227040363916 0.0010133273372634579 0 0.0068154116649519437 0.0011451089312383357 0 0.0068345730125063163 0.0010204761000368091 0 0.0068154116649519437 0.0011451089312383357 0 0.0068136631558229225 0.0010504504667985801 0 0.0068154116649519437 0.0011451089312383357 0 0.0067583822903862769 0.0010050155181493704 0 0.0068136631558229225 0.0010504504667985801 0 0.006681523764777624 0.0010291494531030638 0 0.0065926239959992914 -0.00013564305137905473 0 0.0064680539833494154 0.00054445139471180962 0 0.0067315218466798008 0.0011042982387657883 0 0.0068136631558229225 0.0010504504667985801 0 0.006681523764777624 0.0010291494531030638 0 0.0067583822903862769 0.0010050155181493704 0 0.0068136631558229225 0.0010504504667985801 0 0.006681523764777624 0.0010291494531030638 0 0.0065854873220676765 0.0011923508523262469 0 0.006681523764777624 0.0010291494531030638 0 0.0064199973036683112 0.00097732073585854299 0 0.0067583822903862769 0.0010050155181493704 0 0.006681523764777624 0.0010291494531030638 0 0.006676146702829555 0.00089828524846413736 0 0.0067469108171523146 0.00094123424640382128 0 0.0063773945040293207 0.00052843787035308722 0 0.0068046751015092598 0.00092754415615224379 0 0.0067583822903862769 0.0010050155181493704 0 0.006676146702829555 0.00089828524846413736 0 0.0068046751015092598 0.00092754415615224379 0 0.006676146702829555 0.00089828524846413736 0 0.0068189300920954961 0.00070331063711317793 0 0.006676146702829555 0.00089828524846413736 0 0.0068189300920954961 0.00070331063711317793 0 0.0066483235380111888 0.00051861470703889426 0 0.0063773945040293207 0.00052843787035308722 0 0.0084614233366948153 -0.00065511451071285161 0 0.0068189300920954961 0.00070331063711317793 0 0.0066483235380111888 0.00051861470703889426 0 0.0068757309409156007 0.00039468797936149648 0 0.0068189300920954961 0.00070331063711317793 0 0.0070525950831244657 0.00058246691992158922 0 0.0068757309409156007 0.00039468797936149648 0 0.0068046751015092598 0.00092754415615224379 0 0.0068189300920954961 0.00070331063711317793 0 0.006964473124886442 0.00086361237272589283 0 0.0068189300920954961 0.00070331063711317793 0 0.006964473124886442 0.00086361237272589283 0 0.0070525950831244657 0.00058246691992158922 0 0.0069639035436271386 0.0011795076726296362 0 0.0069811744138081394 0.0014344084911116581 0 0.0069487300458046068 0.0015687631932774244 0 0.0069420832160942674 0.0017414714375927635 0 0.0067378163533053995 0.0016253469972314794 0 0.0069420832160942674 0.0017414714375927635 0 0.007002543132767481 0.0018883210024233587 0 0.0067378163533053995 0.0016253469972314794 0 0.0069487300458046068 0.0015687631932774244 0 0.0069420832160942674 0.0017414714375927635 0 0.0071239532146989346 0.0019023236628190668 0 0.0071239532146989346 0.0019023236628190668 0 0.007002543132767481 0.0018883210024233587 0 0.0071907816292413303 0.0019684903698278812 0 0.0069420832160942674 0.0017414714375927635 0 0.0071239532146989346 0.0019023236628190668 0 0.007002543132767481 0.0018883210024233587 0 0.007002543132767481 0.0018883210024233587 0 0.0066959395959734925 0.0017663865747243224 0 0.0067378163533053995 0.0016253469972314794 0 0.007002543132767481 0.0018883210024233587 0 0.0072116994141467258 0.0020048879882735853 0 0.0070444289924968331 0.0020535378537955276 0 0.007002543132767481 0.0018883210024233587 0 0.0066959395959734925 0.0017663865747243224 0 0.0070444289924968331 0.0020535378537955276 0 0.0064578197483054489 0.0015130924574474904 0 0.0066959395959734925 0.0017663865747243224 0 0.0067378163533053995 0.0016253469972314794 0 0.0048790997554009367 0.00013353395150058446 0 0.0057192672145722906 0.00011025465386839213 0 0.0059283646373151609 -6.6522563808901934e-05 0 0.005772863319511443 1.1161318476155031e-05 0 0.0060813698621308429 3.9267030311352205e-05 0 0.0043453731679890849 0.00030744348501247584 0 0.0048041289859671807 0.00058655905953359079 0 0.0052191606720369136 0.00013734164064769635 0 0.0059283646373151609 -6.6522563808901934e-05 0 0.005772863319511443 1.1161318476155031e-05 0 0.0057867346079732221 -0.00015415177406244004 0 0.0048790997554009367 0.00013353395150058446 0 0.005610234558805661 0.00044997318080820261 0 0.0043453731679890849 0.00030744348501247584 0 0.0041731132693695432 0.00063559768453897954 0 0.0038801418774144975 0.00039375857250085333 0 0.005772863319511443 1.1161318476155031e-05 0 0.0057867346079732221 -0.00015415177406244004 0 0.0054945846176727327 1.7674941371427181e-05 0 0.0079324041597851076 -3.6278357495529708e-05 0 0.005610234558805661 0.00044997318080820261 0 0.0043453731679890849 0.00030744348501247584 0 0.0041731132693695432 0.00063559768453897954 0 0.0044583147029039231 0.00062359615339890634 0 0.0041337335782583046 0.000968772900870852 0 0.0041731132693695432 0.00063559768453897954 0 0.0043450920200525092 0.00078825928693990546 0 0.0041337335782583046 0.000968772900870852 0 0.0041731132693695432 0.00063559768453897954 0 0.0039318667868749099 0.00076986436449370333 0 0.0041731132693695432 0.00063559768453897954 0 0.0043450920200525092 0.00078825928693990546 0 0.0044583147029039231 0.00062359615339890634 0 0.0043450920200525092 0.00078825928693990546 0 0.0044583147029039231 0.00062359615339890634 0 0.0046236045755787747 0.00084613022921753434 0 0.0043453731679890849 0.00030744348501247584 0 0.0044583147029039231 0.00062359615339890634 0 0.0048041289859671807 0.00058655905953359079 0 0.0044583147029039231 0.00062359615339890634 0 0.0048041289859671807 0.00058655905953359079 0 0.0046236045755787747 0.00084613022921753434 0 0.0047133734483995101 0.00052430226831969582 0 0.0056344344469444014 0.0012409731296846838 0 0.0048041289859671807 0.00058655905953359079 0 0.0046236045755787747 0.00084613022921753434 0 0.0049566231994173831 0.00084552227255135976 0 0.0055614699476346577 0.0010976338466089891 0 0.0055775934254500845 0.00057760848349970801 0 0.0061344685552932069 0.0007306803697312848 0 0.0048041289859671807 0.00058655905953359079 0 0.0055775934254500845 0.00057760848349970801 0 0.0052191606720369136 0.00013734164064769635 0 0.0048041289859671807 0.00058655905953359079 0 0.0055614699476346577 0.0010976338466089891 0 0.0055775934254500845 0.00057760848349970801 0 0.0055775934254500845 0.00057760848349970801 0 0.0061344685552932069 0.0007306803697312848 0 0.0064435759240095035 0.00017630593260080664 0 0.006163861049494403 0.0011215970634862755 0 0.0064199973036683112 0.00097732073585854299 0 0.0061344685552932069 0.0007306803697312848 0 0.006681523764777624 0.0010291494531030638 0 0.0064199973036683112 0.00097732073585854299 0 0.0064680539833494154 0.00054445139471180962 0 0.006163861049494403 0.0011215970634862755 0 0.0055614699476346577 0.0010976338466089891 0 0.0061344685552932069 0.0007306803697312848 0 0.0061344685552932069 0.0007306803697312848 0 0.0064680539833494154 0.00054445139471180962 0 0.0064435759240095035 0.00017630593260080664 0 0.0064199973036683112 0.00097732073585854299 0 0.0061344685552932069 0.0007306803697312848 0 0.0064680539833494154 0.00054445139471180962 0 0.0055775934254500845 0.00057760848349970801 0 0.0064435759240095035 0.00017630593260080664 0 0.0052191606720369136 0.00013734164064769635 0 0.0064435759240095035 0.00017630593260080664 0 0.0063324758738889809 -1.9477993670689934e-05 0 0.0060813698621308429 3.9267030311352205e-05 0 0.0065926239959992914 -0.00013564305137905473 0 0.0064680539833494154 0.00054445139471180962 0 0.0064435759240095035 0.00017630593260080664 0 0.0063709418210155643 0.00015405111806956917 0 0.0057192672145722906 0.00011025465386839213 0 0.0065926239959992914 -0.00013564305137905473 0 0.0064435759240095035 0.00017630593260080664 0 0.0063324758738889809 -1.9477993670689934e-05 0 0.0060813698621308429 3.9267030311352205e-05 0 0.0060602956179386623 -0.00015993661619899665 0 0.0062946113761495996 -0.00021201824034817692 0 0.0063324758738889809 -1.9477993670689934e-05 0 0.0060813698621308429 3.9267030311352205e-05 0 0.0062946113761495996 -0.00021201824034817692 0 0.0059283646373151609 -6.6522563808901934e-05 0 0.0060813698621308429 3.9267030311352205e-05 0 0.0060602956179386623 -0.00015993661619899665 0 0.0060602956179386623 -0.00015993661619899665 0 0.0061302700774327912 -0.00037758672484421114 0 0.0062946113761495996 -0.00021201824034817692 0 0.0065926239959992914 -0.00013564305137905473 0 0.0065615751541589105 -0.0006169034656253727 0 0.0062946113761495996 -0.00021201824034817692 0 0.0065926239959992914 -0.00013564305137905473 0 0.0063324758738889809 -1.9477993670689934e-05 0 0.0062946113761495996 -0.00021201824034817692 0 0.010887877599025366 -0.00083003536507637757 0 0.010269080242539402 -0.00041823428048916886 0 0.010291157451620726 -0.0010752484720427337 0 0.0065615751541589105 -0.0006169034656253727 0 0.0061302700774327912 -0.00037758672484421114 0 0.0062946113761495996 -0.00021201824034817692 0 0.0084614233366948153 -0.00065511451071285161 0 0.0081991226082436721 -0.00039498080684549787 0 0.010269080242539402 -0.00041823428048916886 0 0.0097231550670012958 -0.00057746388252721608 0 0.010291157451620726 -0.0010752484720427337 0 0.0059283646373151609 -6.6522563808901934e-05 0 0.0060602956179386623 -0.00015993661619899665 0 0.0057867346079732221 -0.00015415177406244004 0 0.0081991226082436721 -0.00039498080684549787 0 0.0079324041597851076 -3.6278357495529708e-05 0 0.010269080242539402 -0.00041823428048916886 0 0.0097231550670012958 -0.00057746388252721608 0 0.0095745188618463952 0.00014688389549392892 0 0.0060602956179386623 -0.00015993661619899665 0 0.0061302700774327912 -0.00037758672484421114 0 0.0057867346079732221 -0.00015415177406244004 0 0.0089276380046683784 -0.00041131296645260831 0 0.0095745188618463952 0.00014688389549392892 0 0.008511474760182729 0.001014392325144069 0 0.0097231550670012958 -0.00057746388252721608 0 0.0089276380046683784 -0.00041131296645260831 0 0.0095745188618463952 0.00014688389549392892 0 0.0097231550670012958 -0.00057746388252721608 0 0.0089276380046683784 -0.00041131296645260831 0 0.0091842376277783896 -0.0009404737107413945 0 0.0089276380046683784 -0.00041131296645260831 0 0.0080151624084759 -0.00042030116971754155 0 0.0084104022060734751 -0.00091240279319147928 0 0.0089276380046683784 -0.00041131296645260831 0 0.0084104022060734751 -0.00091240279319147928 0 0.0091842376277783896 -0.0009404737107413945 0 0.0075911936110323527 -0.00055764726842102389 0 0.0084104022060734751 -0.00091240279319147928 0 0.0080510992026145492 -0.0012340362410592812 0 0.0080151624084759 -0.00042030116971754155 0 0.0075911936110323527 -0.00055764726842102389 0 0.0084104022060734751 -0.00091240279319147928 0 0.007915557556762506 -0.00045515145506418153 0 0.0064114599513178825 -0.00076700621224221294 0 0.0089276380046683784 -0.00041131296645260831 0 0.0080151624084759 -0.00042030116971754155 0 0.008511474760182729 0.001014392325144069 0 0.0047602627951604838 0.00017023642403462752 0 0.0034939817993030363 0.00067769513017462008 0 0.0032564231621510049 -0.00095433453022617106 0 0.0075911936110323527 -0.00055764726842102389 0 0.0069008056463408032 -0.00071105314658447937 0 0.0072934140188456809 -0.0011126569462858069 0 0.0064114599513178825 -0.00076700621224221294 0 0.0050477854523029919 -0.00088475293436224018 0 0.0080151624084759 -0.00042030116971754155 0 0.0051293314812305667 -0.0010606235900988518 0 0.0061390105549890507 0.001213320385708456 0 0.0051293314812305667 -0.0010606235900988518 0 0.0047602627951604838 0.00017023642403462752 0 0.0061390105549890507 0.001213320385708456 0 0.0051293314812305667 -0.0010606235900988518 0 0.0047602627951604838 0.00017023642403462752 0 0.0032564231621510049 -0.00095433453022617106 0 0.0047602627951604838 0.00017023642403462752 0 0.0034939817993030363 0.00067769513017462008 0 0.0061390105549890507 0.001213320385708456 0 0.0034939817993030363 0.00067769513017462008 0 0.0036529729709771984 0.00067263903668247124 0 0.003518194750526673 0.00086267185247457928 0 0.0035359059658275089 0.00072088735892914999 0 0.0050444945717280209 0.00095017128673231561 0 0.0032261323543453743 0.00084821694142133742 0 0.0035297572028921585 0.00063128142111450322 0 0.0034803679347626846 0.00087236799430486715 0 0.0036529729709771984 0.00067263903668247124 0 0.003518194750526673 0.00086267185247457928 0 0.0037769208095894654 0.00079804525326428427 0 0.003417588582910538 0.00082523157219005375 0 0.0033882872416342506 0.00080836561433601881 0 0.003518194750526673 0.00086267185247457928 0 0.0029751286526839183 0.00099684815235619758 0 0.0030277990658357334 0.00080258260695416416 0 0.0034939817993030363 0.00067769513017462008 0 0.003518194750526673 0.00086267185247457928 0 0.0030277990658357334 0.00080258260695416416 0 0.005610234558805661 0.00044997318080820261 0 0.0033882872416342506 0.00080836561433601881 0 0.0036529729709771984 0.00067263903668247124 0 0.0040826309590948542 0.00064169261380818518 0 0.0037769208095894654 0.00079804525326428427 0 0.0080151624084759 -0.00042030116971754155 0 0.0061390105549890507 0.001213320385708456 0 0.008511474760182729 0.001014392325144069 0 0.0050444945717280209 0.00095017128673231561 0 0.005610234558805661 0.00044997318080820261 0 0.0038801418774144975 0.00039375857250085333 0 0.0035297572028921585 0.00063128142111450322 0 0.0037016101806701075 0.00078724322937639957 0 0.0035297572028921585 0.00063128142111450322 0 0.0034803679347626846 0.00087236799430486715 0 0.0037016101806701075 0.00078724322937639957 0 0.0038801418774144975 0.00039375857250085333 0 0.0037016101806701075 0.00078724322937639957 0 0.0039318667868749099 0.00076986436449370333 0 0.0041731132693695432 0.00063559768453897954 0 0.0038801418774144975 0.00039375857250085333 0 0.0039318667868749099 0.00076986436449370333 0 0.0041337335782583046 0.000968772900870852 0 0.0039318667868749099 0.00076986436449370333 0 0.003806247278920909 0.0010623032816448519 0 0.0041337335782583046 0.000968772900870852 0 0.0040498603742569125 0.0012965080174991163 0 0.003806247278920909 0.0010623032816448519 0 0.0037016101806701075 0.00078724322937639957 0 0.0039318667868749099 0.00076986436449370333 0 0.003806247278920909 0.0010623032816448519 0 0.0040498603742569125 0.0012965080174991163 0 0.003806247278920909 0.0010623032816448519 0 0.0037466825742031602 0.0013315287860369228 0 0.0037466825742031602 0.0013315287860369228 0 0.0038926506697127003 0.0014571417540364187 0 0.0037248130877673945 0.0015589016825718637 0 0.0040498603742569125 0.0012965080174991163 0 0.0037466825742031602 0.0013315287860369228 0 0.0038926506697127003 0.0014571417540364187 0 0.0040498603742569125 0.0012965080174991163 0 0.0040365554835975594 0.0014816331230948639 0 0.0038926506697127003 0.0014571417540364187 0 0.0035349279594729575 0.0014567080913320219 0 0.0035551293147691862 0.0012282872540115761 0 0.0033323146675415419 0.0013332425501731025 0 0.0037466825742031602 0.0013315287860369228 0 0.0035349279594729575 0.0014567080913320219 0 0.0037248130877673945 0.0015589016825718637 0 0.0037466825742031602 0.0013315287860369228 0 0.0035349279594729575 0.0014567080913320219 0 0.0035551293147691862 0.0012282872540115761 0 0.003806247278920909 0.0010623032816448519 0 0.0037466825742031602 0.0013315287860369228 0 0.0035551293147691862 0.0012282872540115761 0 0.0035551293147691862 0.0012282872540115761 0 0.0035811140416172598 0.0010162797869706908 0 0.0033823745234885065 0.0010751545092513471 0 0.003806247278920909 0.0010623032816448519 0 0.0035551293147691862 0.0012282872540115761 0 0.0035811140416172598 0.0010162797869706908 0 0.0037016101806701075 0.00078724322937639957 0 0.003806247278920909 0.0010623032816448519 0 0.0035811140416172598 0.0010162797869706908 0 0.0034803679347626846 0.00087236799430486715 0 0.0037016101806701075 0.00078724322937639957 0 0.0035811140416172598 0.0010162797869706908 0 0.0034803679347626846 0.00087236799430486715 0 0.0035811140416172598 0.0010162797869706908 0 0.0033823745234885065 0.0010751545092513471 0 0.0032261323543453743 0.00084821694142133742 0 0.0034803679347626846 0.00087236799430486715 0 0.0033823745234885065 0.0010751545092513471 0 0.0032261323543453743 0.00084821694142133742 0 0.0033823745234885065 0.0010751545092513471 0 0.0031329376697504631 0.0011930368102735691 0 0.0032261323543453743 0.00084821694142133742 0 0.0031329376697504631 0.0011930368102735691 0 0.0029751286526839183 0.00099684815235619758 0 0.003417588582910538 0.00082523157219005375 0 0.0030058732963402076 0.00099883899701647062 0 0.0031329376697504631 0.0011930368102735691 0 0.0029153627260608359 0.001393343085211508 0 0.0029751286526839183 0.00099684815235619758 0 0.0031329376697504631 0.0011930368102735691 0 0.0031549824404383461 0.0014406982544261061 0 0.0029153627260608359 0.001393343085211508 0 0.0033823745234885065 0.0010751545092513471 0 0.0031329376697504631 0.0011930368102735691 0 0.0033323146675415419 0.0013332425501731025 0 0.0035551293147691862 0.0012282872540115761 0 0.0033823745234885065 0.0010751545092513471 0 0.0033323146675415419 0.0013332425501731025 0 0.0031329376697504631 0.0011930368102735691 0 0.0031549824404383461 0.0014406982544261061 0 0.0033323146675415419 0.0013332425501731025 0 0.0031549824404383461 0.0014406982544261061 0 0.0033323146675415419 0.0013332425501731025 0 0.0033125280117010832 0.0015731598321145016 0 0.0035349279594729575 0.0014567080913320219 0 0.0033323146675415419 0.0013332425501731025 0 0.0033125280117010832 0.0015731598321145016 0 0.0031549824404383461 0.0014406982544261061 0 0.0033125280117010832 0.0015731598321145016 0 0.0030852699939810007 0.0016909896475055762 0 0.0033125280117010832 0.0015731598321145016 0 0.0030852699939810007 0.0016909896475055762 0 0.0033317235646123551 0.001772365826020632 0 0.0033125280117010832 0.0015731598321145016 0 0.0033317235646123551 0.001772365826020632 0 0.0035215528918204455 0.0016897108836659766 0 0.0030932478170783806 0.0018470700130239564 0 0.0025754768206767628 0.00117947008863598 0 0.0031549824404383461 0.0014406982544261061 0 0.0030852699939810007 0.0016909896475055762 0 0.0029153627260608359 0.001393343085211508 0 0.0027099866723770908 0.0017285346998780874 0 0.0021115176279255916 0.0015897631690446798 0 0.0022751423793425313 0.0010536596941618775 0 0.0014337727188682564 0.0020876839397683329 0 0.00043943251757136675 0.0020174116426087932 0 0.0027099866723770908 0.0017285346998780874 0 0.0031459175293297526 0.0024784574547173509 0 0.0019810525933355622 0.0023608104601295669 0 0.0030932478170783806 0.0018470700130239564 0 0.0014337727188682564 0.0020876839397683329 0 0.0030852699939810007 0.0016909896475055762 0 0.0033317235646123551 0.001772365826020632 0 0.003254330742941573 0.0020223494076066916 0 0.0033317235646123551 0.001772365826020632 0 0.003254330742941573 0.0020223494076066916 0 0.0034919096705822894 0.001884352152504301 0 0.0036393860347879083 0.0020905620389238843 0 0.0034919096705822894 0.001884352152504301 0 0.0037518297478639131 0.0018056468144853201 0 0.0036393860347879083 0.0020905620389238843 0 0.003254330742941573 0.0020223494076066916 0 0.0034919096705822894 0.001884352152504301 0 0.0033317235646123551 0.001772365826020632 0 0.0034919096705822894 0.001884352152504301 0 0.0035215528918204455 0.0016897108836659766 0 0.0034919096705822894 0.001884352152504301 0 0.0037518297478639131 0.0018056468144853201 0 0.0035215528918204455 0.0016897108836659766 0 0.00044592375634638231 0.0017182088544423456 0 -0.0021465136533879597 0.0013358681894008926 0 0.0036393860347879083 0.0020905620389238843 0 0.0039095688245908066 0.0019842018232667231 0 0.0037518297478639131 0.0018056468144853201 0 -0.0038978700644119613 0.001770718313101259 0 -0.0021465136533879597 0.0013358681894008926 0 0.0039988107404183796 0.001771385853303358 0 0.0039095688245908066 0.0019842018232667231 0 0.0037518297478639131 0.0018056468144853201 0 0.0037518297478639131 0.0018056468144853201 0 0.0039220395161083674 0.0016298984201622523 0 0.0037248130877673945 0.0015589016825718637 0 0.0039988107404183796 0.001771385853303358 0 0.0037518297478639131 0.0018056468144853201 0 0.0039220395161083674 0.0016298984201622523 0 0.0040365554835975594 0.0014816331230948639 0 0.0038926506697127003 0.0014571417540364187 0 0.0039220395161083674 0.0016298984201622523 0 0.0038926506697127003 0.0014571417540364187 0 0.0039220395161083674 0.0016298984201622523 0 0.0037248130877673945 0.0015589016825718637 0 0.0035349279594729575 0.0014567080913320219 0 0.0037248130877673945 0.0015589016825718637 0 0.0035215528918204455 0.0016897108836659766 0 0.0035349279594729575 0.0014567080913320219 0 0.0033125280117010832 0.0015731598321145016 0 0.0035215528918204455 0.0016897108836659766 0 0.0037518297478639131 0.0018056468144853201 0 0.0037248130877673945 0.0015589016825718637 0 0.0035215528918204455 0.0016897108836659766 0 0.00055890701463410988 0.0015345333698689359 0 0.00016033460494841004 0.0018672688909879723 0 0.0013775831504268595 0.0015156739995539502 0 0.00055890701463410988 0.0015345333698689359 0 0.00029644542058390483 0.0015716721686721807 0 0.00048705192771770784 0.0011001019184260243 0 0.00055890701463410988 0.0015345333698689359 0 0.0013775831504268595 0.0015156739995539502 0 0.00048705192771770784 0.0011001019184260243 0 0.00055890701463410988 0.0015345333698689359 0 0.00029644542058390483 0.0015716721686721807 0 0.00016033460494841004 0.0018672688909879723 0 0.00029644542058390483 0.0015716721686721807 0 0.00020688953469589602 0.001577917638821864 0 0.00022365502625773284 0.0015793929500202469 0 0.00029644542058390483 0.0015716721686721807 0 0.00048705192771770784 0.0011001019184260243 0 0.00022365502625773284 0.0015793929500202469 0 0.00029644542058390483 0.0015716721686721807 0 0.00020688953469589602 0.001577917638821864 0 0.00016033460494841004 0.0018672688909879723 0 -0.00012296606898656496 0.0014493074243491148 0 0.00020688953469589602 0.001577917638821864 0 0.00016033460494841004 0.0018672688909879723 0 0.00016033460494841004 0.0018672688909879723 0 0.0019810525933355622 0.0023608104601295669 0 0.0013775831504268595 0.0015156739995539502 0 0.00023778596799427928 0.0018987657192782602 0 0.00043943251757136675 0.0020174116426087932 0 -0.00053313665828668279 0.0014276586858450986 0 0.00016033460494841004 0.0018672688909879723 0 -0.00088485958219372475 0.0017247912793075288 0 0.0027099866723770908 0.0017285346998780874 0 0.0019810525933355622 0.0023608104601295669 0 0.0021115176279255916 0.0015897631690446798 0 0.0019810525933355622 0.0023608104601295669 0 0.0021115176279255916 0.0015897631690446798 0 0.0013775831504268595 0.0015156739995539502 0 0.0021115176279255916 0.0015897631690446798 0 0.0013775831504268595 0.0015156739995539502 0 0.0019110846015832684 0.0011829216965504269 0 0.0013775831504268595 0.0015156739995539502 0 0.0019110846015832684 0.0011829216965504269 0 0.00048705192771770784 0.0011001019184260243 0 0.0021881474834784271 0.0008781889933804659 0 0.0019110846015832684 0.0011829216965504269 0 0.00048705192771770784 0.0011001019184260243 0 0.0021092161795248396 0.00089082909094334573 0 0.0014592738506564115 0.0011090768045701489 0 0.0021881474834784271 0.0008781889933804659 0 0.0023845355013349607 0.00093507940902231841 0 0.0023924471264176825 0.0010683790683550624 0 0.0021115176279255916 0.0015897631690446798 0 0.0022751423793425313 0.0010536596941618775 0 0.0019110846015832684 0.0011829216965504269 0 0.0021881474834784271 0.0008781889933804659 0 0.0022751423793425313 0.0010536596941618775 0 0.0019110846015832684 0.0011829216965504269 0 0.0025754768206767628 0.00117947008863598 0 0.0025068039587470446 0.00095172061113786826 0 0.0021881474834784271 0.0008781889933804659 0 0.0022751423793425313 0.0010536596941618775 0 0.002520192293913794 0.00093149205026419961 0 0.0029153627260608359 0.001393343085211508 0 0.002520192293913794 0.00093149205026419961 0 0.0029751286526839183 0.00099684815235619758 0 0.002520192293913794 0.00093149205026419961 0 0.0029751286526839183 0.00099684815235619758 0 0.0030277990658357334 0.00080258260695416416 0 0.0021881474834784271 0.0008781889933804659 0 0.002520192293913794 0.00093149205026419961 0 0.0023845355013349607 0.00093507940902231841 0 0.002520192293913794 0.00093149205026419961 0 0.0023845355013349607 0.00093507940902231841 0 0.0026015590321102249 0.00082577745566198891 0 0.0023845355013349607 0.00093507940902231841 0 0.0024033763507859507 0.00084354897295820159 0 0.0026015590321102249 0.00082577745566198891 0 0.0024033763507859507 0.00084354897295820159 0 0.0023924471264176825 0.0010683790683550624 0 0.0022598166637707471 0.00084007303050860648 0 0.0023845355013349607 0.00093507940902231841 0 0.0024033763507859507 0.00084354897295820159 0 0.0023924471264176825 0.0010683790683550624 0 0.0014592738506564115 0.0011090768045701489 0 0.0010748946481851198 0.0014321774835781992 0 0.0023924471264176825 0.0010683790683550624 0 0.0022598166637707471 0.00084007303050860648 0 0.0019114843384383435 0.0013554456609981393 0 0.0022598166637707471 0.00084007303050860648 0 0.0023542355514354183 0.00066249354154552815 0 0.0023828395917425064 0.00057379720342773128 0 0.0022598166637707471 0.00084007303050860648 0 0.0023828395917425064 0.00057379720342773128 0 0.0018881489686095694 0.00084661578248641713 0 0.0024033763507859507 0.00084354897295820159 0 0.0023542355514354183 0.00066249354154552815 0 0.002521252631569792 0.00061785996277367665 0 0.0024033763507859507 0.00084354897295820159 0 0.0022598166637707471 0.00084007303050860648 0 0.0023542355514354183 0.00066249354154552815 0 0.0023312282529018803 0.00040242156113050803 0 0.002521252631569792 0.00061785996277367665 0 0.0026352404044631466 4.4009371439561405e-05 0 0.0023542355514354183 0.00066249354154552815 0 0.0023312282529018803 0.00040242156113050803 0 0.0023828395917425064 0.00057379720342773128 0 0.0023542355514354183 0.00066249354154552815 0 0.0023312282529018803 0.00040242156113050803 0 0.002521252631569792 0.00061785996277367665 0 0.0024891434135348818 0.00045803716078461409 0 0.0026062690496697202 3.4199567847469562e-05 0 0.0023828395917425064 0.00057379720342773128 0 0.0033879077913728847 7.0208124165438621e-05 0 0.002550433655935234 0.0001400134578166852 0 0.0023312282529018803 0.00040242156113050803 0 0.0023828395917425064 0.00057379720342773128 0 0.0021156584339714706 -3.5987253033903401e-07 0 0.002520192293913794 0.00093149205026419961 0 0.0030277990658357334 0.00080258260695416416 0 0.0026015590321102249 0.00082577745566198891 0 0.0030277990658357334 0.00080258260695416416 0 0.0026015590321102249 0.00082577745566198891 0 0.0028594876771004763 0.00064047095552886802 0 0.0024033763507859507 0.00084354897295820159 0 0.0026015590321102249 0.00082577745566198891 0 0.002521252631569792 0.00061785996277367665 0 0.0026015590321102249 0.00082577745566198891 0 0.002521252631569792 0.00061785996277367665 0 0.0028594876771004763 0.00064047095552886802 0 0.002521252631569792 0.00061785996277367665 0 0.0028594876771004763 0.00064047095552886802 0 0.0026352404044631466 4.4009371439561405e-05 0 0.0034939817993030363 0.00067769513017462008 0 0.0028594876771004763 0.00064047095552886802 0 0.0026352404044631466 4.4009371439561405e-05 0 0.0034939817993030363 0.00067769513017462008 0 0.0030277990658357334 0.00080258260695416416 0 0.0028594876771004763 0.00064047095552886802 0 0.0034939817993030363 0.00067769513017462008 0 0.0026352404044631466 4.4009371439561405e-05 0 0.0032564231621510049 -0.00095433453022617106 0 0.0026352404044631466 4.4009371439561405e-05 0 0.0032564231621510049 -0.00095433453022617106 0 0.0023213704014233326 -0.00089176774997701584 0 0.0050477854523029919 -0.00088475293436224018 0 0.0044170561006238321 -0.00055423509854334442 0 0.0026352404044631466 4.4009371439561405e-05 0 0.0021156584339714706 -3.5987253033903401e-07 0 0.0023213704014233326 -0.00089176774997701584 0 0.0023312282529018803 0.00040242156113050803 0 0.0026352404044631466 4.4009371439561405e-05 0 0.0021156584339714706 -3.5987253033903401e-07 0 0.0033879077913728847 7.0208124165438621e-05 0 0.0038965655610499438 -0.00044276982441332301 0 0.0037223257075394383 -0.00058402470500416599 0 0.0026062690496697202 3.4199567847469562e-05 0 0.0044170561006238321 -0.00055423509854334442 0 0.0033879077913728847 7.0208124165438621e-05 0 0.0037223257075394383 -0.00058402470500416599 0 0.002550433655935234 0.0001400134578166852 0 0.0037223257075394383 -0.00058402470500416599 0 0.0045269562488196415 -0.001674165714697309 0 0.0035488457478636917 -0.0017504540503767074 0 0.0037223257075394383 -0.00058402470500416599 0 0.0054997617404992805 -0.0013763572682989303 0 0.0045269562488196415 -0.001674165714697309 0 0.0058308574354061313 -6.1640783610650556e-05 0 0.0054997617404992805 -0.0013763572682989303 0 0.0066302352297199618 -0.0018888314050349961 0 0.0044170561006238321 -0.00055423509854334442 0 0.0039923310698698842 -0.00048412469153387942 0 0.0058308574354061313 -6.1640783610650556e-05 0 0.0037223257075394383 -0.00058402470500416599 0 0.0054997617404992805 -0.0013763572682989303 0 0.0054997617404992805 -0.0013763572682989303 0 0.0055383338530130425 -0.0023823749550673117 0 0.0066302352297199618 -0.0018888314050349961 0 0.0055383338530130425 -0.0023823749550673117 0 0.0064045854304787221 -0.0027401062814511878 0 0.0066302352297199618 -0.0018888314050349961 0 0.0054997617404992805 -0.0013763572682989303 0 0.0055383338530130425 -0.0023823749550673117 0 0.0045269562488196415 -0.001674165714697309 0 0.0045269562488196415 -0.001674165714697309 0 0.0043281586640359308 -0.0025235834707256007 0 0.0035488457478636917 -0.0017504540503767074 0 0.0055383338530130425 -0.0023823749550673117 0 0.0045269562488196415 -0.001674165714697309 0 0.0043281586640359308 -0.0025235834707256007 0 0.0055383338530130425 -0.0023823749550673117 0 0.0043281586640359308 -0.0025235834707256007 0 0.0050699329638650486 -0.0039571061152821937 0 0.0043281586640359308 -0.0025235834707256007 0 0.0050699329638650486 -0.0039571061152821937 0 0.00334162053339777 -0.0031074030192810584 0 0.005714083221004149 -0.0024792721013074475 0 0.0069386686200969298 -0.0041026148806364007 0 0.0055383338530130425 -0.0023823749550673117 0 0.0064142909918104007 -0.0033729536204437586 0 0.0064045854304787221 -0.0027401062814511878 0 0.0055383338530130425 -0.0023823749550673117 0 0.0050699329638650486 -0.0039571061152821937 0 0.0075466874800178977 -0.004876032524458165 0 0.0050699329638650486 -0.0039571061152821937 0 0.0073670122366305832 -0.0049637874244330034 0 0.0075466874800178977 -0.004876032524458165 0 0.0072456842534352897 -0.00501023184941095 0 0.0060163906107233919 -0.0054646567399938952 0 0.0050699329638650486 -0.0039571061152821937 0 0.0045404462667423479 -0.005821138443913112 0 0.0032355509856080464 -0.0047996590549506269 0 0.0050699329638650486 -0.0039571061152821937 0 0.0073670122366305832 -0.0049637874244330034 0 0.0045404462667423479 -0.005821138443913112 0 0.0068879661557056885 -0.0032823326308139768 0 0.0070474250579857459 -0.0036091197814165838 0 0.0075490608349118504 -0.00362178607725081 0 0.0070340776896686778 -0.0028049120218865326 0 0.0075085804699194418 -0.0035857667087574757 0 0.0068879661557056885 -0.0032823326308139768 0 0.0071455055874074221 -0.0029493730059352579 0 0.0075490608349118504 -0.00362178607725081 0 0.0069508495615480254 -0.0027007953780310901 0 0.0080352111217989308 -0.0031132507069791507 0 0.0075490608349118504 -0.00362178607725081 0 0.0064142909918104007 -0.0033729536204437586 0 0.0068879661557056885 -0.0032823326308139768 0 0.0064045854304787221 -0.0027401062814511878 0 0.0073670122366305832 -0.0049637874244330034 0 0.0075466874800178977 -0.004876032524458165 0 0.0086244102571293654 -0.0057983530806654127 0 0.0068420022112571661 -0.0035848156461731565 0 0.0068879661557056885 -0.0032823326308139768 0 0.0070474250579857459 -0.0036091197814165838 0 0.0064142909918104007 -0.0033729536204437586 0 0.0068420022112571661 -0.0035848156461731565 0 0.0068879661557056885 -0.0032823326308139768 0 0.0064045854304787221 -0.0027401062814511878 0 0.0071455055874074221 -0.0029493730059352579 0 0.0066302352297199618 -0.0018888314050349961 0 0.0068879661557056885 -0.0032823326308139768 0 0.0064045854304787221 -0.0027401062814511878 0 0.0071455055874074221 -0.0029493730059352579 0 0.0069508495615480254 -0.0027007953780310901 0 0.006969962464573781 -0.0020215967887238714 0 0.0078544465201883587 -0.0020712133596405696 0 0.0066377217704734204 -0.0013928545227129305 0 0.0072934140188456809 -0.0011126569462858069 0 0.0072973976213000667 -0.001696556393120234 0 0.006673092980710023 -0.001398767723924161 0 0.0075778342655743241 -0.001929456429363075 0 0.006969962464573781 -0.0020215967887238714 0 0.0066377217704734204 -0.0013928545227129305 0 0.0078544465201883587 -0.0020712133596405696 0 0.0070340776896686778 -0.0028049120218865326 0 0.0066973091792842387 -0.0017895440982443112 0 0.0069508495615480254 -0.0027007953780310901 0 0.006969962464573781 -0.0020215967887238714 0 0.0063959778522014836 -0.0016139090137002592 0 0.006969962464573781 -0.0020215967887238714 0 0.0063959778522014836 -0.0016139090137002592 0 0.0066377217704734204 -0.0013928545227129305 0 0.0044170561006238321 -0.00055423509854334442 0 0.0066973091792842387 -0.0017895440982443112 0 0.0069008056463408032 -0.00071105314658447937 0 0.0060655704048170654 -0.00084706402702965067 0 0.0066377217704734204 -0.0013928545227129305 0 0.0060655704048170654 -0.00084706402702965067 0 0.0063959778522014836 -0.0016139090137002592 0 0.0066377217704734204 -0.0013928545227129305 0 0.0069008056463408032 -0.00071105314658447937 0 0.0066377217704734204 -0.0013928545227129305 0 0.0072934140188456809 -0.0011126569462858069 0 0.0075911936110323527 -0.00055764726842102389 0 0.0072934140188456809 -0.0011126569462858069 0 0.0080510992026145492 -0.0012340362410592812 0 0.0072973976213000667 -0.001696556393120234 0 0.0080510992026145492 -0.0012340362410592812 0 0.0080061187872570074 -0.0020677985440882896 0 0.0072934140188456809 -0.0011126569462858069 0 0.0072973976213000667 -0.001696556393120234 0 0.0080510992026145492 -0.0012340362410592812 0 0.0084104022060734751 -0.00091240279319147928 0 0.0080510992026145492 -0.0012340362410592812 0 0.0090965875948886884 -0.0015290896212721925 0 0.0084104022060734751 -0.00091240279319147928 0 0.0090965875948886884 -0.0015290896212721925 0 0.0091842376277783896 -0.0009404737107413945 0 0.0080510992026145492 -0.0012340362410592812 0 0.0090965875948886884 -0.0015290896212721925 0 0.0081600504307590138 -0.0020455842682618893 0 0.0079829639290145017 -0.0012611051292869457 0 0.0083792501206526489 -0.0020640759615406287 0 0.0090965875948886884 -0.0015290896212721925 0 0.0091107854827297569 -0.0023650229574829875 0 0.0081600504307590138 -0.0020455842682618893 0 0.0092464217853508029 -0.0020233925053028531 0 0.0083792501206526489 -0.0020640759615406287 0 0.009444272110710519 -0.0018591307299397038 0 0.0084232429050844597 -0.0013255861082309165 0 0.0083426808000144504 -0.0023984115019757618 0 0.0078544465201883587 -0.0020712133596405696 0 0.0088159394230764767 -0.0026859711154143561 0 0.0080352111217989308 -0.0031132507069791507 0 0.0069508495615480254 -0.0027007953780310901 0 0.0078544465201883587 -0.0020712133596405696 0 0.0080352111217989308 -0.0031132507069791507 0 0.0075778342655743241 -0.001929456429363075 0 0.0083792501206526489 -0.0020640759615406287 0 0.0083792501206526489 -0.0020640759615406287 0 0.0085220826691474929 -0.0030417199772746623 0 0.0088159394230764767 -0.0026859711154143561 0 0.0080352111217989308 -0.0031132507069791507 0 0.0086447860659754506 -0.0037320166448104233 0 0.0080352111217989308 -0.0031132507069791507 0 0.0080698340374483635 -0.0039510602720493494 0 0.0075490608349118504 -0.00362178607725081 0 0.0080352111217989308 -0.0031132507069791507 0 0.0080698340374483635 -0.0039510602720493494 0 0.0086447860659754506 -0.0037320166448104233 0 0.0085220826691474929 -0.0030417199772746623 0 0.0083485478122411524 -0.0040254200084809824 0 0.0080698340374483635 -0.0039510602720493494 0 0.0086447860659754506 -0.0037320166448104233 0 0.0084381361122557331 -0.004470478292203396 0 0.0080698340374483635 -0.0039510602720493494 0 0.0079798290715797499 -0.0043884432773139198 0 0.0076168979068151352 -0.0041781631288078779 0 0.0080698340374483635 -0.0039510602720493494 0 0.0079798290715797499 -0.0043884432773139198 0 0.0084381361122557331 -0.004470478292203396 0 0.009444272110710519 -0.0018591307299397038 0 0.0083426808000144504 -0.0023984115019757618 0 0.0095248177380497616 -0.0025998646361434312 0 0.0083426808000144504 -0.0023984115019757618 0 0.0095248177380497616 -0.0025998646361434312 0 0.0089321642432010125 -0.00312953391947978 0 0.0083426808000144504 -0.0023984115019757618 0 0.0089321642432010125 -0.00312953391947978 0 0.0082449762572406448 -0.0035820908529105612 0 0.0095248177380497616 -0.0025998646361434312 0 0.0089321642432010125 -0.00312953391947978 0 0.0095827651726706747 -0.0034088919298146301 0 0.0089321642432010125 -0.00312953391947978 0 0.0095827651726706747 -0.0034088919298146301 0 0.0088751667166393974 -0.0040419534854106353 0 0.0095827651726706747 -0.0034088919298146301 0 0.0088751667166393974 -0.0040419534854106353 0 0.0096003514704899092 -0.0045838858815349546 0 0.0089321642432010125 -0.00312953391947978 0 0.0088751667166393974 -0.0040419534854106353 0 0.0082449762572406448 -0.0035820908529105612 0 0.0088751667166393974 -0.0040419534854106353 0 0.0083209001972865352 -0.004776489121818858 0 0.0087083618770254657 -0.0047943815255696897 0 0.0088751667166393974 -0.0040419534854106353 0 0.0096003514704899092 -0.0045838858815349546 0 0.0087083618770254657 -0.0047943815255696897 0 0.011702901464570578 -0.004348301192530951 0 0.011375675470752133 -0.0045136230565547787 0 0.0079798290715797499 -0.0043884432773139198 0 0.0081856043110031217 -0.0046223030740928555 0 0.0080476852696155596 -0.0047000574191816483 0 0.0079798290715797499 -0.0043884432773139198 0 0.0081856043110031217 -0.0046223030740928555 0 0.0084381361122557331 -0.004470478292203396 0 0.0081856043110031217 -0.0046223030740928555 0 0.0083209001972865352 -0.004776489121818858 0 0.0081513111039397401 -0.0047416430574057462 0 0.0083485478122411524 -0.0040254200084809824 0 0.0083177080587349128 -0.0047258985295636673 0 0.0088751667166393974 -0.0040419534854106353 0 0.0082449762572406448 -0.0035820908529105612 0 0.0083209001972865352 -0.004776489121818858 0 0.0081856043110031217 -0.0046223030740928555 0 0.0084381361122557331 -0.004470478292203396 0 0.0083209001972865352 -0.004776489121818858 0 0.0080476852696155596 -0.0047000574191816483 0 0.0081650481404806838 -0.0047370335750664119 0 0.0083590242961349183 -0.0047731890544104967 0 0.0081856043110031217 -0.0046223030740928555 0 0.0081513111039397401 -0.0047416430574057462 0 0.0080476852696155596 -0.0047000574191816483 0 0.0081513111039397401 -0.0047416430574057462 0 0.0080476852696155596 -0.0047000574191816483 0 0.0081650481404806838 -0.0047370335750664119 0 0.0081513111039397401 -0.0047416430574057462 0 0.0081650481404806838 -0.0047370335750664119 0 0.0081729190848249169 -0.0046772607818949515 0 0.0082864003167050435 -0.0052953766566365386 0 0.0083160795637174031 -0.004795467324439656 0 0.0080476852696155596 -0.0047000574191816483 0 0.0076361206449509196 -0.0046178413759373708 0 0.0083590242961349183 -0.0047731890544104967 0 0.008967781174311313 -0.0060867309146802962 0 0.00921174826414407 -0.0052648573997902386 0 0.0083590242961349183 -0.0047731890544104967 0 0.0079798290715797499 -0.0043884432773139198 0 0.0080476852696155596 -0.0047000574191816483 0 0.0076361206449509196 -0.0046178413759373708 0 0.008967781174311313 -0.0060867309146802962 0 0.0093766412721159841 -0.0057878326866210696 0 0.0087702316518422137 -0.006138046691723264 0 0.0093766412721159841 -0.0057878326866210696 0 0.010051061839547525 -0.0058193178095631397 0 0.0087702316518422137 -0.006138046691723264 0 0.008967781174311313 -0.0060867309146802962 0 0.0093766412721159841 -0.0057878326866210696 0 0.00921174826414407 -0.0052648573997902386 0 0.0093766412721159841 -0.0057878326866210696 0 0.00921174826414407 -0.0052648573997902386 0 0.009973368215758777 -0.0051630424186144873 0 0.00921174826414407 -0.0052648573997902386 0 0.009973368215758777 -0.0051630424186144873 0 0.0094718219024990131 -0.0043225731879537434 0 0.009973368215758777 -0.0051630424186144873 0 0.010855081136176828 -0.0050270616506052209 0 0.010051061839547525 -0.0058193178095631397 0 0.0076499764457199229 -0.0073472610135535384 0 0.0075369395078423761 -0.0068248286089254194 0 0.0080811109216827031 -0.0068221613183639526 0 0.011012638159237002 -0.0041860051583709314 0 0.0087510571688088467 -0.0066649774988212238 0 0.0093766412721159841 -0.0057878326866210696 0 0.009973368215758777 -0.0051630424186144873 0 0.010051061839547525 -0.0058193178095631397 0 0.011012638159237002 -0.0041860051583709314 0 0.0097198757692520503 -0.0045802031429937069 0 0.012618067266992536 -0.0021348339765041588 0 0.012385377341501413 -0.0021214833419144243 0 0.012744179973554919 -0.0023982767825365889 0 0.0076499764457199229 -0.0073472610135535384 0 0.0075369395078423761 -0.0068248286089254194 0 0.0070102419678766386 -0.0068274647139776263 0 0.0075369395078423761 -0.0068248286089254194 0 0.0074526927211992508 -0.0061372576393720017 0 0.0070102419678766386 -0.0068274647139776263 0 0.0075369395078423761 -0.0068248286089254194 0 0.0080811109216827031 -0.0068221613183639526 0 0.0074526927211992508 -0.0061372576393720017 0 0.0080811109216827031 -0.0068221613183639526 0 0.0080022991052409124 -0.0059909533459771317 0 0.0087702316518422137 -0.006138046691723264 0 0.0080811109216827031 -0.0068221613183639526 0 0.0080022991052409124 -0.0059909533459771317 0 0.0074526927211992508 -0.0061372576393720017 0 0.0087510571688088467 -0.0066649774988212238 0 0.0090065533891332834 -0.0059903844769791607 0 0.0080022991052409124 -0.0059909533459771317 0 0.0074526927211992508 -0.0061372576393720017 0 0.0076772292347062378 -0.0054993038080550357 0 0.0080022991052409124 -0.0059909533459771317 0 0.0076772292347062378 -0.0054993038080550357 0 0.0086244102571293654 -0.0057983530806654127 0 0.0072335680286470779 -0.0052420605435609903 0 0.0074526927211992508 -0.0061372576393720017 0 0.0068513857587939875 -0.0059695122674133386 0 0.0072335680286470779 -0.0052420605435609903 0 0.0074526927211992508 -0.0061372576393720017 0 0.0076772292347062378 -0.0054993038080550357 0 0.0073670122366305832 -0.0049637874244330034 0 0.0076772292347062378 -0.0054993038080550357 0 0.0086244102571293654 -0.0057983530806654127 0 0.0073670122366305832 -0.0049637874244330034 0 0.0072335680286470779 -0.0052420605435609903 0 0.0076772292347062378 -0.0054993038080550357 0 0.0068420022112571661 -0.0035848156461731565 0 0.0070373833770540194 -0.0040544782785777835 0 0.0070474250579857459 -0.0036091197814165838 0 0.0069386686200969298 -0.0041026148806364007 0 0.0078218657080481833 -0.0049456156519738113 0 0.0064142909918104007 -0.0033729536204437586 0 0.0068420022112571661 -0.0035848156461731565 0 0.0070373833770540194 -0.0040544782785777835 0 0.0070373833770540194 -0.0040544782785777835 0 0.0075490608349118504 -0.00362178607725081 0 0.0076168979068151352 -0.0041781631288078779 0 0.0080698340374483635 -0.0039510602720493494 0 0.0075490608349118504 -0.00362178607725081 0 0.0076168979068151352 -0.0041781631288078779 0 0.0070373833770540194 -0.0040544782785777835 0 0.0070474250579857459 -0.0036091197814165838 0 0.0075490608349118504 -0.00362178607725081 0 0.0076361206449509196 -0.0046178413759373708 0 0.0070373833770540194 -0.0040544782785777835 0 0.0076168979068151352 -0.0041781631288078779 0 0.0079798290715797499 -0.0043884432773139198 0 0.0076361206449509196 -0.0046178413759373708 0 0.0076168979068151352 -0.0041781631288078779 0 0.008967781174311313 -0.0060867309146802962 0 0.0086244102571293654 -0.0057983530806654127 0 0.0087702316518422137 -0.006138046691723264 0 0.0082864003167050435 -0.0052953766566365386 0 0.0078218657080481833 -0.0049456156519738113 0 0.0080022991052409124 -0.0059909533459771317 0 0.0086244102571293654 -0.0057983530806654127 0 0.0087702316518422137 -0.006138046691723264 0 0.0098253081686203118 -0.00046754917642069505 0 0.008822390776442068 -0.00081903620477287691 0 0.0097249218536674138 -0.0011972177348154175 0 0.008879708838969675 4.6145317856564013e-05 0 0.0098253081686203118 -0.00046754917642069505 0 0.008822390776442068 -0.00081903620477287691 0 0.0091787780842955795 -0.000122918260695047 0 0.0091015933011139773 -4.9199216179719939e-05 0 0.008879708838969675 4.6145317856564013e-05 0 0.008822390776442068 -0.00081903620477287691 0 0.0078672732057541907 0.00072774685578518407 0 0.010272372872655403 -0.0020734159592637113 0 0.010430118115780242 -0.0020565787431378445 0 0.01045223402223913 -0.0020399550245872498 0 0.0095407431645801333 -0.0013502462571470053 0 0.0092225265036547655 -0.00069938005386926808 0 0.010272372872655403 -0.0020734159592637113 0 0.010430118115780242 -0.0020565787431378445 0 0.010420960977524388 -0.0020526437757302312 0 0.010272372872655403 -0.0020734159592637113 0 0.010420960977524388 -0.0020526437757302312 0 0.010402175246821252 -0.0019998076992146759 0 0.008879708838969675 4.6145317856564013e-05 0 0.0078672732057541907 0.00072774685578518407 0 0.0088363920198589064 0.00089401577285614839 0 0.010430118115780242 -0.0020565787431378445 0 0.01045223402223913 -0.0020399550245872498 0 0.010479658244364155 -0.0020335875065693836 0 0.0078672732057541907 0.00072774685578518407 0 0.0088363920198589064 0.00089401577285614839 0 0.007882835724362448 0.0013299363196732259 0 0.008879708838969675 4.6145317856564013e-05 0 0.0095809704519115198 -0.0003979601972029355 0 0.0088363920198589064 0.00089401577285614839 0 0.0091015933011139773 -4.9199216179719939e-05 0 0.007982843812466783 0.0012002836169663072 0 0.0078200732659684472 0.001194056779156714 0 0.0074935444456009489 0.00049762757876862 0 0.0072440528756397031 0.0015425941173212816 0 0.0076702412385560156 0.0016955216722279597 0 0.0078200732659684472 0.001194056779156714 0 0.0072440528756397031 0.0015425941173212816 0 0.0076702412385560156 0.0016955216722279597 0 0.0072440528756397031 0.0015425941173212816 0 0.0073874651047848641 0.0018782239139323487 0 0.0088363920198589064 0.00089401577285614839 0 0.0074543268450937943 0.0019686419026127542 0 0.0076354014137466134 0.0017505253418326598 0 0.0072440528756397031 0.0015425941173212816 0 0.0073874651047848641 0.0018782239139323487 0 0.0074543268450937943 0.0019686419026127542 0 0.007982843812466783 0.0012002836169663072 0 0.0075964992920544419 0.0018246486703981974 0 0.0073874651047848641 0.0018782239139323487 0 0.0072884609265048781 0.0019955112395788998 0 0.0074543268450937943 0.0019686419026127542 0 0.0074205740083382451 0.0020024146250322708 0 0.0073874651047848641 0.0018782239139323487 0 0.0072884609265048781 0.0019955112395788998 0 0.0074205740083382451 0.0020024146250322708 0 0.0076702412385560156 0.0016955216722279597 0 0.0073874651047848641 0.0018782239139323487 0 0.0074205740083382451 0.0020024146250322708 0 0.0072884609265048781 0.0019955112395788998 0 0.0070444289924968331 0.0020535378537955276 0 0.0072884609265048781 0.0019955112395788998 0 0.0072116994141467258 0.0020048879882735853 0 0.0074543268450937943 0.0019686419026127542 0 0.0072884609265048781 0.0019955112395788998 0 0.0072116994141467258 0.0020048879882735853 0 0.0070444289924968331 0.0020535378537955276 0 0.0069811744138081394 0.0014344084911116581 0 0.008178131408846722 0.00029384057294530287 0 0.0071239532146989346 0.0019023236628190668 0 0.0071907816292413303 0.0019684903698278812 0 0.007240170756762615 0.0019733582713855145 0 0.007002543132767481 0.0018883210024233587 0 0.0072116994141467258 0.0020048879882735853 0 0.0071907816292413303 0.0019684903698278812 0 0.0072116994141467258 0.0020048879882735853 0 0.0071907816292413303 0.0019684903698278812 0 0.0072957548016101895 0.0019918905634627249 0 0.0072116994141467258 0.0020048879882735853 0 0.0074543268450937943 0.0019686419026127542 0 0.0072957548016101895 0.0019918905634627249 0 0.0071907816292413303 0.0019684903698278812 0 0.0072957548016101895 0.0019918905634627249 0 0.007240170756762615 0.0019733582713855145 0 0.0074543268450937943 0.0019686419026127542 0 0.0072957548016101895 0.0019918905634627249 0 0.007240170756762615 0.0019733582713855145 0 0.01045223402223913 -0.0020399550245872498 0 0.010459414846994929 -0.0020281175300783665 0 0.010475386086796606 -0.0020290475202708338 0 0.0078672732057541907 0.00072774685578518407 0 0.0072459878391424107 0.0020073945399722857 0 0.007882835724362448 0.0013299363196732259 0 0.0092225265036547655 -0.00069938005386926808 0 0.008178131408846722 0.00029384057294530287 0 0.0072459878391424107 0.0020073945399722857 0 0.0076354014137466134 0.0017505253418326598 0 0.007882835724362448 0.0013299363196732259 0 0.008178131408846722 0.00029384057294530287 0 0.007202671931032887 0.0015092785005964059 0 0.0074543268450937943 0.0019686419026127542 0 0.007240170756762615 0.0019733582713855145 0 0.0076354014137466134 0.0017505253418326598 0 0.0088363920198589064 0.00089401577285614839 0 0.0076354014137466134 0.0017505253418326598 0 0.007882835724362448 0.0013299363196732259 0 0.010475386086796606 -0.0020290475202708338 0 0.010515519929091346 -0.0020138120714554911 0 0.010495109651704587 -0.0020319893217555377 0 0.010515519929091346 -0.0020138120714554911 0 0.010495109651704587 -0.0020319893217555377 0 0.010540092582398845 -0.002028633870794536 0 0.010459414846994929 -0.0020281175300783665 0 0.010475386086796606 -0.0020290475202708338 0 0.010495109651704587 -0.0020319893217555377 0 0.0070525950831244657 0.00058246691992158922 0 0.007121361059858237 0.00026735162641573556 0 0.0068757309409156007 0.00039468797936149648 0 0.010459414846994929 -0.0020281175300783665 0 0.010495109651704587 -0.0020319893217555377 0 0.010504488177642433 -0.0020640503652350197 0 0.008178131408846722 0.00029384057294530287 0 0.0088845030699264051 -0.00097282370281650198 0 0.010495109651704587 -0.0020319893217555377 0 0.010504488177642433 -0.0020640503652350197 0 0.010540092582398845 -0.002028633870794536 0 0.010566690722822942 -0.002087120400670594 0 0.010504488177642433 -0.0020640503652350197 0 0.010597935465673987 -0.0020393001088277515 0 0.010504488177642433 -0.0020640503652350197 0 0.010540092582398845 -0.002028633870794536 0 0.010597935465673987 -0.0020393001088277515 0 0.0084614233366948153 -0.00065511451071285161 0 0.0088845030699264051 -0.00097282370281650198 0 0.010540092582398845 -0.002028633870794536 0 0.010654134502913528 -0.0019051704811835321 0 0.010597935465673987 -0.0020393001088277515 0 0.010515519929091346 -0.0020138120714554911 0 0.010540092582398845 -0.002028633870794536 0 0.010654134502913528 -0.0019051704811835321 0 0.010515519929091346 -0.0020138120714554911 0 0.010546506195283944 -0.0020064746048386126 0 0.010654134502913528 -0.0019051704811835321 0 0.010546506195283944 -0.0020064746048386126 0 0.010592976250113685 -0.0020203657259031766 0 0.010654134502913528 -0.0019051704811835321 0 0.010546506195283944 -0.0020064746048386126 0 0.010496153994703186 -0.0020418044798252624 0 0.010592976250113685 -0.0020203657259031766 0 0.010515519929091346 -0.0020138120714554911 0 0.010546506195283944 -0.0020064746048386126 0 0.010479658244364155 -0.0020335875065693836 0 0.010475386086796606 -0.0020290475202708338 0 0.010515519929091346 -0.0020138120714554911 0 0.010479658244364155 -0.0020335875065693836 0 0.01045223402223913 -0.0020399550245872498 0 0.010475386086796606 -0.0020290475202708338 0 0.010479658244364155 -0.0020335875065693836 0 0.010430118115780242 -0.0020565787431378445 0 0.010479658244364155 -0.0020335875065693836 0 0.010496153994703186 -0.0020418044798252624 0 0.010546506195283944 -0.0020064746048386126 0 0.010479658244364155 -0.0020335875065693836 0 0.010496153994703186 -0.0020418044798252624 0 0.010496153994703186 -0.0020418044798252624 0 0.010525588700436357 -0.0020466755783398257 0 0.010592976250113685 -0.0020203657259031766 0 0.010430118115780242 -0.0020565787431378445 0 0.010496153994703186 -0.0020418044798252624 0 0.010420960977524388 -0.0020526437757302312 0 0.010496153994703186 -0.0020418044798252624 0 0.010420960977524388 -0.0020526437757302312 0 0.010525588700436357 -0.0020466755783398257 0 0.010420960977524388 -0.0020526437757302312 0 0.010525588700436357 -0.0020466755783398257 0 0.010402175246821252 -0.0019998076992146759 0 0.010525588700436357 -0.0020466755783398257 0 0.010597396978280141 -0.0020517160297019847 0 0.010557857802797927 -0.002020296596652637 0 0.010525588700436357 -0.0020466755783398257 0 0.010597396978280141 -0.0020517160297019847 0 0.010592976250113685 -0.0020203657259031766 0 0.010597396978280141 -0.0020517160297019847 0 0.010600622676850363 -0.0020627920353413066 0 0.010621027558709672 -0.0020709943807770323 0 0.010597396978280141 -0.0020517160297019847 0 0.010592976250113685 -0.0020203657259031766 0 0.010600622676850363 -0.0020627920353413066 0 0.010592976250113685 -0.0020203657259031766 0 0.010600622676850363 -0.0020627920353413066 0 0.010577400047238743 -0.0019983832843612293 0 0.010600622676850363 -0.0020627920353413066 0 0.010488628631172957 -0.0020975511030782087 0 0.010577400047238743 -0.0019983832843612293 0 0.010600622676850363 -0.0020627920353413066 0 0.010488628631172957 -0.0020975511030782087 0 0.010591639817723033 -0.0021324490208384545 0 0.010488628631172957 -0.0020975511030782087 0 0.010529706824231853 -0.0022178183485762086 0 0.010591639817723033 -0.0021324490208384545 0 0.010488628631172957 -0.0020975511030782087 0 0.010337760471219338 -0.0022017756832107029 0 0.010529706824231853 -0.0022178183485762086 0 0.010488628631172957 -0.0020975511030782087 0 0.010255781448754208 -0.0019761381779701379 0 0.010337760471219338 -0.0022017756832107029 0 0.010488628631172957 -0.0020975511030782087 0 0.010404447235195888 -0.0018454126579290873 0 0.010255781448754208 -0.0019761381779701379 0 0.010488628631172957 -0.0020975511030782087 0 0.010404447235195888 -0.0018454126579290873 0 0.010577400047238743 -0.0019983832843612293 0 0.010404447235195888 -0.0018454126579290873 0 0.010255781448754208 -0.0019761381779701379 0 0.010067698088954739 -0.001622667032167447 0 0.010404447235195888 -0.0018454126579290873 0 0.010654134502913528 -0.0019051704811835321 0 0.010577400047238743 -0.0019983832843612293 0 0.010592976250113685 -0.0020203657259031766 0 0.010654134502913528 -0.0019051704811835321 0 0.010577400047238743 -0.0019983832843612293 0 0.010404447235195888 -0.0018454126579290873 0 0.010654134502913528 -0.0019051704811835321 0 0.010454580227989806 -0.0015556077387207589 0 0.010654134502913528 -0.0019051704811835321 0 0.010454580227989806 -0.0015556077387207589 0 0.010832914263339008 -0.0013600492942774478 0 0.010673205823632449 -0.001826016711439789 0 0.010737289097036733 -0.001818519511274959 0 0.010454580227989806 -0.0015556077387207589 0 0.010832914263339008 -0.0013600492942774478 0 0.010291157451620726 -0.0010752484720427337 0 0.0084614233366948153 -0.00065511451071285161 0 0.010737289097036733 -0.001818519511274959 0 0.010887877599025366 -0.00083003536507637757 0 0.010832914263339008 -0.0013600492942774478 0 0.010291157451620726 -0.0010752484720427337 0 0.010454580227989806 -0.0015556077387207589 0 0.010291157451620726 -0.0010752484720427337 0 0.010067698088954739 -0.001622667032167447 0 0.010404447235195888 -0.0018454126579290873 0 0.010454580227989806 -0.0015556077387207589 0 0.010067698088954739 -0.001622667032167447 0 0.0097231550670012958 -0.00057746388252721608 0 0.010291157451620726 -0.0010752484720427337 0 0.009680807709826442 -0.00116036046095505 0 0.010291157451620726 -0.0010752484720427337 0 0.010067698088954739 -0.001622667032167447 0 0.009680807709826442 -0.00116036046095505 0 0.0097231550670012958 -0.00057746388252721608 0 0.009680807709826442 -0.00116036046095505 0 0.0091842376277783896 -0.0009404737107413945 0 0.0090965875948886884 -0.0015290896212721925 0 0.009680807709826442 -0.00116036046095505 0 0.0091842376277783896 -0.0009404737107413945 0 0.0090965875948886884 -0.0015290896212721925 0 0.010067698088954739 -0.001622667032167447 0 0.009680807709826442 -0.00116036046095505 0 0.0090965875948886884 -0.0015290896212721925 0 0.0091107854827297569 -0.0023650229574829875 0 0.0098785194444710889 -0.0020145198477144444 0 0.0090965875948886884 -0.0015290896212721925 0 0.010067698088954739 -0.001622667032167447 0 0.0098785194444710889 -0.0020145198477144444 0 0.010255781448754208 -0.0019761381779701379 0 0.010067698088954739 -0.001622667032167447 0 0.0098785194444710889 -0.0020145198477144444 0 0.0098785194444710889 -0.0020145198477144444 0 0.010337760471219338 -0.0022017756832107029 0 0.010036396559746658 -0.0022113048188932591 0 0.010255781448754208 -0.0019761381779701379 0 0.0098785194444710889 -0.0020145198477144444 0 0.010337760471219338 -0.0022017756832107029 0 0.010337760471219338 -0.0022017756832107029 0 0.010036396559746658 -0.0022113048188932591 0 0.010318090924330775 -0.0023434888523932735 0 0.0092464217853508029 -0.0020233925053028531 0 0.010246277968024015 -0.0023730956668940946 0 0.0091107854827297569 -0.0023650229574829875 0 0.0098785194444710889 -0.0020145198477144444 0 0.010036396559746658 -0.0022113048188932591 0 0.0091107854827297569 -0.0023650229574829875 0 0.010036396559746658 -0.0022113048188932591 0 0.010318090924330775 -0.0023434888523932735 0 0.0095248177380497616 -0.0025998646361434312 0 0.010318090924330775 -0.0023434888523932735 0 0.010198554724916766 -0.0028056713143258323 0 0.009444272110710519 -0.0018591307299397038 0 0.0095248177380497616 -0.0025998646361434312 0 0.010318090924330775 -0.0023434888523932735 0 0.010337760471219338 -0.0022017756832107029 0 0.010318090924330775 -0.0023434888523932735 0 0.010503412025176358 -0.0022981734616386745 0 0.010318090924330775 -0.0023434888523932735 0 0.010503412025176358 -0.0022981734616386745 0 0.010708422618355062 -0.0023623891848312188 0 0.010318090924330775 -0.0023434888523932735 0 0.010708422618355062 -0.0023623891848312188 0 0.010198554724916766 -0.0028056713143258323 0 0.010746411142144734 -0.0030573072776035534 0 0.010198554724916766 -0.0028056713143258323 0 0.010285308670421451 -0.0036906190692757991 0 0.010708422618355062 -0.0023623891848312188 0 0.010746411142144734 -0.0030573072776035534 0 0.010198554724916766 -0.0028056713143258323 0 0.010708422618355062 -0.0023623891848312188 0 0.010746411142144734 -0.0030573072776035534 0 0.01276185854695356 -0.0038609386957605173 0 0.0095827651726706747 -0.0034088919298146301 0 0.010198554724916766 -0.0028056713143258323 0 0.010285308670421451 -0.0036906190692757991 0 0.0095248177380497616 -0.0025998646361434312 0 0.0095827651726706747 -0.0034088919298146301 0 0.010198554724916766 -0.0028056713143258323 0 0.0095827651726706747 -0.0034088919298146301 0 0.0096003514704899092 -0.0045838858815349546 0 0.010285308670421451 -0.0036906190692757991 0 0.01371341865809286 -0.0041331027753608932 0 0.013289911954484535 -0.0041117151005508473 0 0.013370110623844737 -0.0039329057527366243 0 0.0096003514704899092 -0.0045838858815349546 0 0.010285308670421451 -0.0036906190692757991 0 0.010733077828222169 -0.0044831186610054131 0 0.011702901464570578 -0.004348301192530951 0 0.012046276281282036 -0.0042705258109781352 0 0.013289911954484535 -0.0041117151005508473 0 0.013129141113779268 -0.0039275941199337005 0 0.013370110623844737 -0.0039329057527366243 0 0.010746411142144734 -0.0030573072776035534 0 0.010285308670421451 -0.0036906190692757991 0 0.011429231524148747 -0.0037193590045066947 0 0.012046276281282036 -0.0042705258109781352 0 0.012744493185103116 -0.0040133146314698101 0 0.010285308670421451 -0.0036906190692757991 0 0.010733077828222169 -0.0044831186610054131 0 0.011429231524148747 -0.0037193590045066947 0 0.010733077828222169 -0.0044831186610054131 0 0.011429231524148747 -0.0037193590045066947 0 0.012778558782851085 -0.003980790967584651 0 0.010746411142144734 -0.0030573072776035534 0 0.011429231524148747 -0.0037193590045066947 0 0.01276185854695356 -0.0038609386957605173 0 0.010521755010954585 -0.0021562780982364474 0 0.010463098346918769 -0.0021419278151722644 0 0.010545829234946656 -0.0021979760355519094 0 0.010521755010954585 -0.0021562780982364474 0 0.010548501809220861 -0.0021569776777666935 0 0.010558924653685188 -0.0021454030144296833 0 0.010521755010954585 -0.0021562780982364474 0 0.010463098346918769 -0.0021419278151722644 0 0.010548501809220861 -0.0021569776777666935 0 0.011429231524148747 -0.0037193590045066947 0 0.012778558782851085 -0.003980790967584651 0 0.01276185854695356 -0.0038609386957605173 0 0.012778558782851085 -0.003980790967584651 0 0.013367822538540075 -0.0039169603699605871 0 0.013129141113779268 -0.0039275941199337005 0 0.013289911954484535 -0.0041117151005508473 0 0.012778558782851085 -0.003980790967584651 0 0.013129141113779268 -0.0039275941199337005 0 0.010785317342777602 -0.0024588994278385169 0 0.011172613289367181 -0.0027247919783006352 0 0.010753801380626133 -0.003192487873873199 0 0.012778558782851085 -0.003980790967584651 0 0.01276185854695356 -0.0038609386957605173 0 0.013367822538540075 -0.0039169603699605871 0 0.010463098346918769 -0.0021419278151722644 0 0.010785317342777602 -0.0024588994278385169 0 0.010753801380626133 -0.003192487873873199 0 0.011717435002814205 -0.0030135619863289548 0 0.011298577869654852 -0.0038670365888562003 0 0.010785317342777602 -0.0024588994278385169 0 0.010638035311788398 -0.0022285675458739349 0 0.010748691207479046 -0.0021341196475501895 0 0.010785317342777602 -0.0024588994278385169 0 0.010748691207479046 -0.0021341196475501895 0 0.01088531484911384 -0.0022187182578740305 0 0.010463098346918769 -0.0021419278151722644 0 0.010785317342777602 -0.0024588994278385169 0 0.010638035311788398 -0.0022285675458739349 0 0.010463098346918769 -0.0021419278151722644 0 0.010638035311788398 -0.0022285675458739349 0 0.010548501809220861 -0.0021569776777666935 0 0.010638035311788398 -0.0022285675458739349 0 0.010621561334242913 -0.0021439625114718654 0 0.010748691207479046 -0.0021341196475501895 0 0.010638035311788398 -0.0022285675458739349 0 0.010548501809220861 -0.0021569776777666935 0 0.010621561334242913 -0.0021439625114718654 0 0.010621561334242913 -0.0021439625114718654 0 0.01064775830223998 -0.0020971465693217987 0 0.010558924653685188 -0.0021454030144296833 0 0.010548501809220861 -0.0021569776777666935 0 0.010621561334242913 -0.0021439625114718654 0 0.010558924653685188 -0.0021454030144296833 0 0.010621561334242913 -0.0021439625114718654 0 0.010748691207479046 -0.0021341196475501895 0 0.01064775830223998 -0.0020971465693217987 0 0.010748691207479046 -0.0021341196475501895 0 0.01074380733332312 -0.0020261202912587877 0 0.01064775830223998 -0.0020971465693217987 0 0.01074380733332312 -0.0020261202912587877 0 0.010658803807171663 -0.002065878484994755 0 0.01064775830223998 -0.0020971465693217987 0 0.01074380733332312 -0.0020261202912587877 0 0.010658803807171663 -0.002065878484994755 0 0.010722975583851643 -0.0020011774960852812 0 0.010658803807171663 -0.002065878484994755 0 0.010664189295986169 -0.0020554575411470943 0 0.010722975583851643 -0.0020011774960852812 0 0.010658803807171663 -0.002065878484994755 0 0.010664189295986169 -0.0020554575411470943 0 0.010608833364683967 -0.0021272435807244594 0 0.010658803807171663 -0.002065878484994755 0 0.010608833364683967 -0.0021272435807244594 0 0.010593560608395551 -0.0021305778240513504 0 0.010608833364683967 -0.0021272435807244594 0 0.010593560608395551 -0.0021305778240513504 0 0.010583343038743967 -0.0021739530186787228 0 0.010658803807171663 -0.002065878484994755 0 0.010593560608395551 -0.0021305778240513504 0 0.01064775830223998 -0.0020971465693217987 0 0.010593560608395551 -0.0021305778240513504 0 0.01064775830223998 -0.0020971465693217987 0 0.010558924653685188 -0.0021454030144296833 0 0.010521755010954585 -0.0021562780982364474 0 0.010558924653685188 -0.0021454030144296833 0 0.010545829234946656 -0.0021979760355519094 0 0.010779078983238851 -0.0024005798207900504 0 0.011717435002814205 -0.0030135619863289548 0 0.010558924653685188 -0.0021454030144296833 0 0.010545829234946656 -0.0021979760355519094 0 0.01056240415018447 -0.0022005462460646169 0 0.010708422618355062 -0.0023623891848312188 0 0.010463098346918769 -0.0021419278151722644 0 0.010545829234946656 -0.0021979760355519094 0 0.010593560608395551 -0.0021305778240513504 0 0.010558924653685188 -0.0021454030144296833 0 0.01056240415018447 -0.0022005462460646169 0 0.010708422618355062 -0.0023623891848312188 0 0.010545829234946656 -0.0021979760355519094 0 0.01056240415018447 -0.0022005462460646169 0 0.010708422618355062 -0.0023623891848312188 0 0.01056240415018447 -0.0022005462460646169 0 0.010572255826977087 -0.0022417122453589774 0 0.010608833364683967 -0.0021272435807244594 0 0.010583343038743967 -0.0021739530186787228 0 0.010572255826977087 -0.0022417122453589774 0 0.010583343038743967 -0.0021739530186787228 0 0.01056240415018447 -0.0022005462460646169 0 0.010572255826977087 -0.0022417122453589774 0 0.010593560608395551 -0.0021305778240513504 0 0.010583343038743967 -0.0021739530186787228 0 0.01056240415018447 -0.0022005462460646169 0 0.010608833364683967 -0.0021272435807244594 0 0.010572255826977087 -0.0022417122453589774 0 0.010580009086857618 -0.0021808949333116698 0 0.010572255826977087 -0.0022417122453589774 0 0.010580009086857618 -0.0021808949333116698 0 0.010529706824231853 -0.0022178183485762086 0 0.010503412025176358 -0.0022981734616386745 0 0.010572255826977087 -0.0022417122453589774 0 0.010529706824231853 -0.0022178183485762086 0 0.010503412025176358 -0.0022981734616386745 0 0.010708422618355062 -0.0023623891848312188 0 0.010572255826977087 -0.0022417122453589774 0 0.010337760471219338 -0.0022017756832107029 0 0.010503412025176358 -0.0022981734616386745 0 0.010529706824231853 -0.0022178183485762086 0 0.010580009086857618 -0.0021808949333116698 0 0.010529706824231853 -0.0022178183485762086 0 0.010591639817723033 -0.0021324490208384545 0 0.010591639817723033 -0.0021324490208384545 0 0.010621027558709672 -0.0020709943807770323 0 0.010642525080749605 -0.0020702235113322508 0 0.010600622676850363 -0.0020627920353413066 0 0.010591639817723033 -0.0021324490208384545 0 0.010621027558709672 -0.0020709943807770323 0 0.010664189295986169 -0.0020554575411470943 0 0.010608833364683967 -0.0021272435807244594 0 0.010642525080749605 -0.0020702235113322508 0 0.010664189295986169 -0.0020554575411470943 0 0.010642525080749605 -0.0020702235113322508 0 0.010684083990765354 -0.0020146431335501059 0 0.010608833364683967 -0.0021272435807244594 0 0.010591639817723033 -0.0021324490208384545 0 0.010642525080749605 -0.0020702235113322508 0 0.010608833364683967 -0.0021272435807244594 0 0.010580009086857618 -0.0021808949333116698 0 0.010591639817723033 -0.0021324490208384545 0 0.010635095862260533 -0.0020374731774453745 0 0.010557857802797927 -0.002020296596652637 0 0.010636129471576878 -0.0019775488146964535 0 0.010642525080749605 -0.0020702235113322508 0 0.010635095862260533 -0.0020374731774453745 0 0.010684083990765354 -0.0020146431335501059 0 0.010635095862260533 -0.0020374731774453745 0 0.010636129471576878 -0.0019775488146964535 0 0.010684083990765354 -0.0020146431335501059 0 0.010621027558709672 -0.0020709943807770323 0 0.010642525080749605 -0.0020702235113322508 0 0.010635095862260533 -0.0020374731774453745 0 0.010597396978280141 -0.0020517160297019847 0 0.010621027558709672 -0.0020709943807770323 0 0.010635095862260533 -0.0020374731774453745 0 0.010597396978280141 -0.0020517160297019847 0 0.010635095862260533 -0.0020374731774453745 0 0.010557857802797927 -0.002020296596652637 0 0.010525588700436357 -0.0020466755783398257 0 0.010557857802797927 -0.002020296596652637 0 0.010402175246821252 -0.0019998076992146759 0 0.010402175246821252 -0.0019998076992146759 0 0.010498153017438689 -0.0019489631084217756 0 0.010335647107312508 -0.0018506333933271497 0 0.010557857802797927 -0.002020296596652637 0 0.010402175246821252 -0.0019998076992146759 0 0.010498153017438689 -0.0019489631084217756 0 0.010557857802797927 -0.002020296596652637 0 0.010498153017438689 -0.0019489631084217756 0 0.010636129471576878 -0.0019775488146964535 0 0.010498153017438689 -0.0019489631084217756 0 0.010526724740346761 -0.0018649392065993471 0 0.010636129471576878 -0.0019775488146964535 0 0.010526724740346761 -0.0018649392065993471 0 0.010335647107312508 -0.0018506333933271497 0 0.010278471550031502 -0.0017216596227592688 0 0.010498153017438689 -0.0019489631084217756 0 0.010526724740346761 -0.0018649392065993471 0 0.010335647107312508 -0.0018506333933271497 0 0.010526724740346761 -0.0018649392065993471 0 0.010278471550031502 -0.0017216596227592688 0 0.010510910013980357 -0.0017250530198578253 0 0.010526724740346761 -0.0018649392065993471 0 0.010643962063952746 -0.0018353057860056162 0 0.010510910013980357 -0.0017250530198578253 0 0.010526724740346761 -0.0018649392065993471 0 0.010643962063952746 -0.0018353057860056162 0 0.010674731920535047 -0.0019045089406698541 0 0.010643962063952746 -0.0018353057860056162 0 0.010853542012451606 -0.0018237763613244129 0 0.010510910013980357 -0.0017250530198578253 0 0.010853542012451606 -0.0018237763613244129 0 0.010674731920535047 -0.0019045089406698541 0 0.010726566235957767 -0.0019544139739157015 0 0.010643962063952746 -0.0018353057860056162 0 0.010853542012451606 -0.0018237763613244129 0 0.010674731920535047 -0.0019045089406698541 0 0.010526724740346761 -0.0018649392065993471 0 0.010674731920535047 -0.0019045089406698541 0 0.010636129471576878 -0.0019775488146964535 0 0.010726566235957767 -0.0019544139739157015 0 0.010636129471576878 -0.0019775488146964535 0 0.010684083990765354 -0.0020146431335501059 0 0.010674731920535047 -0.0019045089406698541 0 0.010726566235957767 -0.0019544139739157015 0 0.010636129471576878 -0.0019775488146964535 0 0.010664189295986169 -0.0020554575411470943 0 0.010684083990765354 -0.0020146431335501059 0 0.010722975583851643 -0.0020011774960852812 0 0.010726566235957767 -0.0019544139739157015 0 0.010684083990765354 -0.0020146431335501059 0 0.010722975583851643 -0.0020011774960852812 0 0.01074380733332312 -0.0020261202912587877 0 0.010722975583851643 -0.0020011774960852812 0 0.01078649005407544 -0.0019369682993990928 0 0.010853542012451606 -0.0018237763613244129 0 0.010726566235957767 -0.0019544139739157015 0 0.01078649005407544 -0.0019369682993990928 0 0.010726566235957767 -0.0019544139739157015 0 0.010722975583851643 -0.0020011774960852812 0 0.01078649005407544 -0.0019369682993990928 0 0.010853542012451606 -0.0018237763613244129 0 0.01078649005407544 -0.0019369682993990928 0 0.010855140283502821 -0.0020005220984632838 0 0.01074380733332312 -0.0020261202912587877 0 0.01078649005407544 -0.0019369682993990928 0 0.010855140283502821 -0.0020005220984632838 0 0.010748691207479046 -0.0021341196475501895 0 0.01074380733332312 -0.0020261202912587877 0 0.010855140283502821 -0.0020005220984632838 0 0.010748691207479046 -0.0021341196475501895 0 0.010855140283502821 -0.0020005220984632838 0 0.01088531484911384 -0.0022187182578740305 0 0.010855140283502821 -0.0020005220984632838 0 0.01088531484911384 -0.0022187182578740305 0 0.011112189051105148 -0.0023339771868817675 0 0.010855140283502821 -0.0020005220984632838 0 0.011112189051105148 -0.0023339771868817675 0 0.011668738518134169 -0.0025853661815996298 0 0.010855140283502821 -0.0020005220984632838 0 0.011174637702336706 -0.0021930657898538131 0 0.011382790436164367 -0.0030783126273618618 0 0.010973735716416992 -0.0020800200095834002 0 0.011530027599168291 -0.0028471668086702908 0 0.010853542012451606 -0.0018237763613244129 0 0.011174637702336706 -0.0021930657898538131 0 0.011617982263669833 -0.00243262394281985 0 0.010853542012451606 -0.0018237763613244129 0 0.010855140283502821 -0.0020005220984632838 0 0.011174637702336706 -0.0021930657898538131 0 0.011174637702336706 -0.0021930657898538131 0 0.011382790436164367 -0.0030783126273618618 0 0.011617982263669833 -0.00243262394281985 0 0.010785317342777602 -0.0024588994278385169 0 0.01088531484911384 -0.0022187182578740305 0 0.011112189051105148 -0.0023339771868817675 0 0.010785317342777602 -0.0024588994278385169 0 0.011112189051105148 -0.0023339771868817675 0 0.011172613289367181 -0.0027247919783006352 0 0.011112189051105148 -0.0023339771868817675 0 0.011172613289367181 -0.0027247919783006352 0 0.011668738518134169 -0.0025853661815996298 0 0.011172613289367181 -0.0027247919783006352 0 0.011668738518134169 -0.0025853661815996298 0 0.011667676243647252 -0.003275204925677544 0 0.011172613289367181 -0.0027247919783006352 0 0.011667676243647252 -0.003275204925677544 0 0.010753801380626133 -0.003192487873873199 0 0.011382790436164367 -0.0030783126273618618 0 0.012570509639442074 -0.0037828031392694735 0 0.012143457592006994 -0.0046459151597937386 0 0.011668738518134169 -0.0025853661815996298 0 0.012491027798505997 -0.0036908353148007683 0 0.011667676243647252 -0.003275204925677544 0 0.011530027599168291 -0.0028471668086702908 0 0.012085054378005446 -0.0043451858641590825 0 0.011382790436164367 -0.0030783126273618618 0 0.012570509639442074 -0.0037828031392694735 0 0.012326530097895376 -0.0028403847165252645 0 0.012570509639442074 -0.0037828031392694735 0 0.012326530097895376 -0.0028403847165252645 0 0.012640206968047116 -0.0028133953172917179 0 0.011822961195745572 -0.0023162553981562546 0 0.011554087879611546 -0.0022661747402074432 0 0.010853542012451606 -0.0018237763613244129 0 0.010241268376005639 -0.0014371016689024676 0 0.010510910013980357 -0.0017250530198578253 0 0.010853542012451606 -0.0018237763613244129 0 0.012575585935469797 -0.0027982696689009511 0 0.011617982263669833 -0.00243262394281985 0 0.010869135192210326 -0.0017929194203300663 0 0.011554087879611546 -0.0022661747402074432 0 0.010241268376005639 -0.0014371016689024676 0 0.010510910013980357 -0.0017250530198578253 0 0.010268108877865764 -0.0016333441976338361 0 0.012326530097895376 -0.0028403847165252645 0 0.012575585935469797 -0.0027982696689009511 0 0.011617982263669833 -0.00243262394281985 0 0.011382790436164367 -0.0030783126273618618 0 0.012326530097895376 -0.0028403847165252645 0 0.011617982263669833 -0.00243262394281985 0 0.010278471550031502 -0.0017216596227592688 0 0.010510910013980357 -0.0017250530198578253 0 0.010268108877865764 -0.0016333441976338361 0 0.010241268376005639 -0.0014371016689024676 0 0.010097697951688604 -0.0016326750625814798 0 0.010059867087826028 -0.0017501336024706847 0 0.010278471550031502 -0.0017216596227592688 0 0.010268108877865764 -0.0016333441976338361 0 0.010097697951688604 -0.0016326750625814798 0 0.010241268376005639 -0.0014371016689024676 0 0.010268108877865764 -0.0016333441976338361 0 0.010097697951688604 -0.0016326750625814798 0 0.011554087879611546 -0.0022661747402074432 0 0.010616710345368426 -0.0018341993628399403 0 0.011384683029159917 -0.0020433739589416256 0 0.011441648322903345 -0.0020348699125219186 0 0.011437372134816635 -0.0021002446853999289 0 0.012570509639442074 -0.0037828031392694735 0 0.012640206968047116 -0.0028133953172917179 0 0.014680038861455127 -0.0046449213172396085 0 0.011554087879611546 -0.0022661747402074432 0 0.012587733596192347 -0.0035220169942581756 0 0.011477549093563395 -0.0020661627699307883 0 0.011441648322903345 -0.0020348699125219186 0 0.011437372134816635 -0.0021002446853999289 0 0.010097697951688604 -0.0016326750625814798 0 0.010059867087826028 -0.0017501336024706847 0 0.010055301328456702 -0.0016399510825312856 0 0.010097697951688604 -0.0016326750625814798 0 0.010055301328456702 -0.0016399510825312856 0 0.0099095184976742239 -0.0017023010694898163 0 0.010324247631404444 -0.0015156756669423427 0 0.010055301328456702 -0.0016399510825312856 0 0.010082613995738912 -0.001540558989041698 0 0.010055301328456702 -0.0016399510825312856 0 0.010082613995738912 -0.001540558989041698 0 0.0099095184976742239 -0.0017023010694898163 0 0.010278471550031502 -0.0017216596227592688 0 0.010097697951688604 -0.0016326750625814798 0 0.0099095184976742239 -0.0017023010694898163 0 0.010335647107312508 -0.0018506333933271497 0 0.010278471550031502 -0.0017216596227592688 0 0.0099095184976742239 -0.0017023010694898163 0 0.010402175246821252 -0.0019998076992146759 0 0.010335647107312508 -0.0018506333933271497 0 0.0099095184976742239 -0.0017023010694898163 0 0.010272372872655403 -0.0020734159592637113 0 0.010402175246821252 -0.0019998076992146759 0 0.0099095184976742239 -0.0017023010694898163 0 0.0095407431645801333 -0.0013502462571470053 0 0.009824710165400671 -0.0016344299370769119 0 0.008822390776442068 -0.00081903620477287691 0 0.0099095184976742239 -0.0017023010694898163 0 0.0097249218536674138 -0.0011972177348154175 0 0.010181142422756929 -0.0012026530193070624 0 0.0091015933011139773 -4.9199216179719939e-05 0 0.010158057872335998 -0.0013087718606838228 0 0.0098253081686203118 -0.00046754917642069505 0 0.0097249218536674138 -0.0011972177348154175 0 0.010158057872335998 -0.0013087718606838228 0 0.010082613995738912 -0.001540558989041698 0 0.0097249218536674138 -0.0011972177348154175 0 0.010082613995738912 -0.001540558989041698 0 0.0099095184976742239 -0.0017023010694898163 0 0.0097249218536674138 -0.0011972177348154175 0 0.022376933942065923 -0.00034811174408335148 0 0.023770099598907139 -0.00061606566565873002 0 0.024175810817534265 -0.00017800824627801188 0 0.023770099598907139 -0.00061606566565873002 0 0.024263629338679447 -0.0003574813159833257 0 0.024006097896802726 -0.0010042565786781599 0 0.023770099598907139 -0.00061606566565873002 0 0.024175810817534265 -0.00017800824627801188 0 0.024263629338679447 -0.0003574813159833257 0 0.024613688455946407 -0.00018348781965978758 0 0.024592279992015739 -0.00021333135410987571 0 0.024464787353981589 -0.00022214932175351399 0 0.025008284955551272 2.6664371718334242e-05 0 0.024197964578286549 -0.00026271489110477313 0 0.024263629338679447 -0.0003574813159833257 0 0.023914474464307021 -0.00038507296234523239 0 0.024464787353981589 -0.00022214932175351399 0 0.024263629338679447 -0.0003574813159833257 0 0.024120876573409212 -3.2190866262925834e-05 0 0.023914474464307021 -0.00038507296234523239 0 0.024254690405014032 -0.00040428308909054648 0 0.02411458047592574 -0.00068207576858724678 0 0.024263629338679447 -0.0003574813159833257 0 0.024569287558159597 -0.0011982342163116384 0 0.024006097896802726 -0.0010042565786781599 0 0.024569287558159597 -0.0011982342163116384 0 0.024006097896802726 -0.0010042565786781599 0 0.0238664811801697 -0.0018867041936062687 0 0.024120876573409212 -3.2190866262925834e-05 0 0.023668136582231429 0.00072713890549600034 0 0.023914474464307021 -0.00038507296234523239 0 0.02411458047592574 -0.00068207576858724678 0 0.018313399134901532 -0.0031234057515459293 0 0.024006097896802726 -0.0010042565786781599 0 0.023349956797611201 -0.0010982778704291118 0 0.0238664811801697 -0.0018867041936062687 0 0.02266761059043549 -0.0019712412103939192 0 0.023349956797611201 -0.0010982778704291118 0 0.0238664811801697 -0.0018867041936062687 0 0.023770099598907139 -0.00061606566565873002 0 0.024006097896802726 -0.0010042565786781599 0 0.023349956797611201 -0.0010982778704291118 0 0.016615836982398744 -0.0065503974992436468 0 0.014792973588353618 -0.006424367188497853 0 0.014680038861455127 -0.0046449213172396085 0 0.017466822710970026 -0.0031581061977767411 0 0.019841845001398514 -0.0042979969904598384 0 0.017466822710970026 -0.0031581061977767411 0 0.012587733596192347 -0.0035220169942581756 0 0.011477549093563395 -0.0020661627699307883 0 0.011540991792167809 -0.0022002906665932755 0 0.011437372134816635 -0.0021002446853999289 0 0.012570509639442074 -0.0037828031392694735 0 0.014680038861455127 -0.0046449213172396085 0 0.01343262885641376 -0.0051534345371729243 0 0.014792973588353618 -0.006424367188497853 0 0.01343262885641376 -0.0051534345371729243 0 0.012969690082244167 -0.0062797714390729056 0 0.019841845001398514 -0.0042979969904598384 0 0.018313399134901532 -0.0031234057515459293 0 0.024569287558159597 -0.0011982342163116384 0 0.0238664811801697 -0.0018867041936062687 0 0.024753027586875084 -0.0019055779492310762 0 0.014792973588353618 -0.006424367188497853 0 0.014680038861455127 -0.0046449213172396085 0 0.01343262885641376 -0.0051534345371729243 0 0.013281525435728319 -0.0050657952577750675 0 0.012491027798505997 -0.0036908353148007683 0 0.011965450125333739 -0.0049374726199841422 0 0.018313399134901532 -0.0031234057515459293 0 0.012085054378005446 -0.0043451858641590825 0 0.018313399134901532 -0.0031234057515459293 0 0.018328889162673476 -0.001989422742963026 0 0.01343262885641376 -0.0051534345371729243 0 0.012969690082244167 -0.0062797714390729056 0 0.012143457592006994 -0.0046459151597937386 0 0.012491027798505997 -0.0036908353148007683 0 0.011667676243647252 -0.003275204925677544 0 0.011965450125333739 -0.0049374726199841422 0 0.012570509639442074 -0.0037828031392694735 0 0.01343262885641376 -0.0051534345371729243 0 0.012143457592006994 -0.0046459151597937386 0 0.018328889162673476 -0.001989422742963026 0 0.011298577869654852 -0.0038670365888562003 0 0.011667676243647252 -0.003275204925677544 0 0.011965450125333739 -0.0049374726199841422 0 0.010753801380626133 -0.003192487873873199 0 0.018328889162673476 -0.001989422742963026 0 0.018806785904281708 -0.0019837226928104005 0 0.024304458739883922 0.00016168475689591405 0 0.024183419206044495 1.3117188398024977e-05 0 0.023828473179688784 0.00013723678705006748 0 0.024237567170173883 -6.8333350516030176e-06 0 0.024443161526395533 -0.0002527571450753416 0 0.024183419206044495 1.3117188398024977e-05 0 0.024464510914582262 -0.00021553695617781152 0 0.024453756750409245 -0.00016450027127107086 0 0.024183419206044495 1.3117188398024977e-05 0 0.024419585457401794 -9.9623555315748834e-05 0 0.024453756750409245 -0.00016450027127107086 0 0.024183419206044495 1.3117188398024977e-05 0 0.024427562303982769 -0.00033024587807781663 0 0.024204093226279578 -0.00014486252164183218 0 0.024304458739883922 0.00016168475689591405 0 0.024183419206044495 1.3117188398024977e-05 0 0.024399240238582063 -3.5348050234867001e-05 0 0.024183419206044495 1.3117188398024977e-05 0 0.024419585457401794 -9.9623555315748834e-05 0 0.024399240238582063 -3.5348050234867001e-05 0 0.023668136582231429 0.00072713890549600034 0 0.022664157897860207 0.00079075603396383358 0 0.023914474464307021 -0.00038507296234523239 0 0.018328889162673476 -0.001989422742963026 0 0.025008284955551272 2.6664371718334242e-05 0 0.024304458739883922 0.00016168475689591405 0 0.024399240238582063 -3.5348050234867001e-05 0 0.024613688455946407 -0.00018348781965978758 0 0.024399240238582063 -3.5348050234867001e-05 0 0.024527495348349505 -0.0001690207645432368 0 0.024613688455946407 -0.00018348781965978758 0 0.024419585457401794 -9.9623555315748834e-05 0 0.024399240238582063 -3.5348050234867001e-05 0 0.024527495348349505 -0.0001690207645432368 0 0.024419585457401794 -9.9623555315748834e-05 0 0.024527495348349505 -0.0001690207645432368 0 0.024453756750409245 -0.00016450027127107086 0 0.024527495348349505 -0.0001690207645432368 0 0.024542237704038915 -0.0002043181245294844 0 0.024453756750409245 -0.00016450027127107086 0 0.024527495348349505 -0.0001690207645432368 0 0.024613688455946407 -0.00018348781965978758 0 0.024592279992015739 -0.00021333135410987571 0 0.024592279992015739 -0.00021333135410987571 0 0.024542237704038915 -0.0002043181245294844 0 0.02460119061005497 -0.0002093001104333966 0 0.024527495348349505 -0.0001690207645432368 0 0.024592279992015739 -0.00021333135410987571 0 0.024542237704038915 -0.0002043181245294844 0 0.02450977481010962 -0.00020491224539890667 0 0.024464510914582262 -0.00021553695617781152 0 0.024579232574662459 -0.00020946939102802525 0 0.024542237704038915 -0.0002043181245294844 0 0.02450977481010962 -0.00020491224539890667 0 0.024579232574662459 -0.00020946939102802525 0 0.024542237704038915 -0.0002043181245294844 0 0.02450977481010962 -0.00020491224539890667 0 0.024453756750409245 -0.00016450027127107086 0 0.02450977481010962 -0.00020491224539890667 0 0.024464510914582262 -0.00021553695617781152 0 0.024453756750409245 -0.00016450027127107086 0 0.024393321168662635 -0.00032086138027537887 0 0.024427562303982769 -0.00033024587807781663 0 0.024630679526891141 -0.00025088054362663463 0 0.024427562303982769 -0.00033024587807781663 0 0.024274235799593081 -0.00025045716389443615 0 0.024204093226279578 -0.00014486252164183218 0 0.024393321168662635 -0.00032086138027537887 0 0.024427562303982769 -0.00033024587807781663 0 0.024274235799593081 -0.00025045716389443615 0 0.023770530012771785 -1.6623195109079229e-05 0 0.023649871950482293 -4.1770680440391567e-05 0 0.023712129308905372 -7.7996363901572575e-05 0 0.024051946042933661 -0.00022925441603144489 0 0.024113640877077753 -0.00045838014569695584 0 0.023712129308905372 -7.7996363901572575e-05 0 0.024051946042933661 -0.00022925441603144489 0 0.024274235799593081 -0.00025045716389443615 0 0.024204093226279578 -0.00014486252164183218 0 0.024393321168662635 -0.00032086138027537887 0 0.024051946042933661 -0.00022925441603144489 0 0.024274235799593081 -0.00025045716389443615 0 0.024398585335699899 -0.00032086689885305563 0 0.024527100183457152 -0.00019002107408131561 0 0.024393321168662635 -0.00032086138027537887 0 0.024051946042933661 -0.00022925441603144489 0 0.024113640877077753 -0.00045838014569695584 0 0.024393321168662635 -0.00032086138027537887 0 0.024700809502406548 -0.00028112589357203897 0 0.024630679526891141 -0.00025088054362663463 0 0.024754237232573435 -3.1488322860443771e-05 0 0.024758134356054732 -2.3856996256095144e-05 0 0.02475716711216534 -2.9620230137826166e-05 0 0.024527100183457152 -0.00019002107408131561 0 0.024230714785574384 -6.139578640761976e-05 0 0.024051946042933661 -0.00022925441603144489 0 0.023922496301421833 -0.00010291858198485642 0 0.023712129308905372 -7.7996363901572575e-05 0 0.023770530012771785 -1.6623195109079229e-05 0 0.023922496301421833 -0.00010291858198485642 0 0.023712129308905372 -7.7996363901572575e-05 0 0.023770530012771785 -1.6623195109079229e-05 0 0.023966695908123125 -1.7045152324496865e-05 0 0.023922496301421833 -0.00010291858198485642 0 0.023966695908123125 -1.7045152324496865e-05 0 0.023922496301421833 -0.00010291858198485642 0 0.024204093226279578 -0.00014486252164183218 0 0.024051946042933661 -0.00022925441603144489 0 0.023922496301421833 -0.00010291858198485642 0 0.024204093226279578 -0.00014486252164183218 0 0.024183419206044495 1.3117188398024977e-05 0 0.023966695908123125 -1.7045152324496865e-05 0 0.024204093226279578 -0.00014486252164183218 0 0.013898119306317326 -0.004155922696368216 0 0.013409833041819903 -0.0040930714636647023 0 0.013367822538540075 -0.0039169603699605871 0 0.024183419206044495 1.3117188398024977e-05 0 0.023966695908123125 -1.7045152324496865e-05 0 0.023828473179688784 0.00013723678705006748 0 0.023770530012771785 -1.6623195109079229e-05 0 0.023966695908123125 -1.7045152324496865e-05 0 0.023828473179688784 0.00013723678705006748 0 0.013409833041819903 -0.0040930714636647023 0 0.013367822538540075 -0.0039169603699605871 0 0.013129141113779268 -0.0039275941199337005 0 0.013409833041819903 -0.0040930714636647023 0 0.013129141113779268 -0.0039275941199337005 0 0.013288158511255964 -0.0038497175265996162 0 0.023770530012771785 -1.6623195109079229e-05 0 0.023828473179688784 0.00013723678705006748 0 0.023649871950482293 -4.1770680440391567e-05 0 0.018806785904281708 -0.0019837226928104005 0 0.018466447193076892 -0.0019489840235446304 0 0.013129141113779268 -0.0039275941199337005 0 0.013288158511255964 -0.0038497175265996162 0 0.013370110623844737 -0.0039329057527366243 0 0.01371341865809286 -0.0041331027753608932 0 0.013370110623844737 -0.0039329057527366243 0 0.013644110408082921 -0.0036834465145813198 0 0.013288158511255964 -0.0038497175265996162 0 0.013370110623844737 -0.0039329057527366243 0 0.013644110408082921 -0.0036834465145813198 0 0.023649871950482293 -4.1770680440391567e-05 0 0.023910157950267959 -0.00021692995486719192 0 0.023859290505931101 7.1217713731067946e-05 0 0.018466447193076892 -0.0019489840235446304 0 0.018801051536616108 -0.0019256427103204981 0 0.023649871950482293 -4.1770680440391567e-05 0 0.023859290505931101 7.1217713731067946e-05 0 0.023712129308905372 -7.7996363901572575e-05 0 0.024303987641913112 2.5344295189829564e-05 0 0.024230714785574384 -6.139578640761976e-05 0 0.024715826878779261 -4.1671888852799648e-07 0 0.024758134356054732 -2.3856996256095144e-05 0 0.024757382887422786 -3.6030880653975686e-05 0 0.024758134356054732 -2.3856996256095144e-05 0 0.024757382887422786 -3.6030880653975686e-05 0 0.02475716711216534 -2.9620230137826166e-05 0 0.024715826878779261 -4.1671888852799648e-07 0 0.024757382887422786 -3.6030880653975686e-05 0 0.024683906713589519 -2.5705110144799818e-05 0 0.024757382887422786 -3.6030880653975686e-05 0 0.024784675441882974 -1.7521411202055259e-05 0 0.024757068743439917 -2.8767264708843225e-05 0 0.024757382887422786 -3.6030880653975686e-05 0 0.024784675441882974 -1.7521411202055259e-05 0 0.024769534926836395 -3.609983900434661e-05 0 0.024757382887422786 -3.6030880653975686e-05 0 0.024757068743439917 -2.8767264708843225e-05 0 0.02475716711216534 -2.9620230137826166e-05 0 0.024888302913000777 -2.510051732489895e-05 0 0.024896916981391366 -4.4122479175159094e-05 0 0.024888302913000777 -2.510051732489895e-05 0 0.024950489230467294 5.9381216771928293e-06 0 0.024999844750493511 -4.3148380711664084e-06 0 0.025000024834979401 -1.0186674460842943e-08 0 0.024999883811587631 -7.8996480498836479e-09 0 0.025010259426886054 -1.4406877291804016e-05 0 0.024999844750493511 -4.3148380711664084e-06 0 0.024956955981916058 6.893579641353586e-06 0 0.024999844750493511 -4.3148380711664084e-06 0 0.025000024834979401 -1.0186674460842943e-08 0 0.024982141119876507 -4.8306198149435304e-06 0 0.025010259426886054 -1.4406877291804016e-05 0 0.024982141119876507 -4.8306198149435304e-06 0 0.024961767079147056 -9.2767584425593086e-05 0 0.025010259426886054 -1.4406877291804016e-05 0 0.024999844750493511 -4.3148380711664084e-06 0 0.024982141119876507 -4.8306198149435304e-06 0 0.024982141119876507 -4.8306198149435304e-06 0 0.024999915189268269 3.7296798867467731e-08 0 0.024882918354836907 -2.8271136556237385e-05 0 0.024982141119876507 -4.8306198149435304e-06 0 0.024882918354836907 -2.8271136556237385e-05 0 0.024961767079147056 -9.2767584425593086e-05 0 0.025000024834979401 -1.0186674460842943e-08 0 0.024982141119876507 -4.8306198149435304e-06 0 0.024999915189268269 3.7296798867467731e-08 0 0.024999915189268269 3.7296798867467731e-08 0 0.024882918354836907 -2.8271136556237385e-05 0 0.024867089376869853 -1.2725018395747247e-05 0 0.024882918354836907 -2.8271136556237385e-05 0 0.024782153933725619 -0.00012464458851266832 0 0.024689275206639161 -0.00010044170068752899 0 0.024882918354836907 -2.8271136556237385e-05 0 0.024961767079147056 -9.2767584425593086e-05 0 0.024782153933725619 -0.00012464458851266832 0 0.024527100183457152 -0.00019002107408131561 0 0.024896916981391366 -4.4122479175159094e-05 0 0.024754237232573435 -3.1488322860443771e-05 0 0.024757068743439917 -2.8767264708843225e-05 0 0.02475716711216534 -2.9620230137826166e-05 0 0.024630679526891141 -0.00025088054362663463 0 0.024782153933725619 -0.00012464458851266832 0 0.024689275206639161 -0.00010044170068752899 0 0.024697655535450173 -0.0002681870168532604 0 0.024961767079147056 -9.2767584425593086e-05 0 0.024782153933725619 -0.00012464458851266832 0 0.024697655535450173 -0.0002681870168532604 0 0.024630679526891141 -0.00025088054362663463 0 0.024782153933725619 -0.00012464458851266832 0 0.024527100183457152 -0.00019002107408131561 0 0.024568947198221808 -0.0002086039091345397 0 0.024427562303982769 -0.00033024587807781663 0 0.024630679526891141 -0.00025088054362663463 0 0.024689275206639161 -0.00010044170068752899 0 0.024464510914582262 -0.00021553695617781152 0 0.024579232574662459 -0.00020946939102802525 0 0.024696594092837771 -0.00018313802114365224 0 0.024443161526395533 -0.0002527571450753416 0 0.024685299524174014 -0.00014993804798917618 0 0.024579232574662459 -0.00020946939102802525 0 0.024673035600091684 -0.00017999403552926152 0 0.024696594092837771 -0.00018313802114365224 0 0.024579232574662459 -0.00020946939102802525 0 0.02460119061005497 -0.0002093001104333966 0 0.024673035600091684 -0.00017999403552926152 0 0.024542237704038915 -0.0002043181245294844 0 0.024579232574662459 -0.00020946939102802525 0 0.02460119061005497 -0.0002093001104333966 0 0.024592279992015739 -0.00021333135410987571 0 0.02460119061005497 -0.0002093001104333966 0 0.024622367154948994 -0.00018851142711779698 0 0.02460119061005497 -0.0002093001104333966 0 0.024673035600091684 -0.00017999403552926152 0 0.024622367154948994 -0.00018851142711779698 0 0.024754639528790073 -0.00011725205659071984 0 0.024673035600091684 -0.00017999403552926152 0 0.024860671598230265 -8.2012236591400131e-05 0 0.024754639528790073 -0.00011725205659071984 0 0.024673035600091684 -0.00017999403552926152 0 0.024622367154948994 -0.00018851142711779698 0 0.024882918354836907 -2.8271136556237385e-05 0 0.024689275206639161 -0.00010044170068752899 0 0.024867089376869853 -1.2725018395747247e-05 0 0.024685299524174014 -0.00014993804798917618 0 0.024860215831124566 -4.7664882696855316e-05 0 0.024673035600091684 -0.00017999403552926152 0 0.024696594092837771 -0.00018313802114365224 0 0.024860671598230265 -8.2012236591400131e-05 0 0.024999915189268269 3.7296798867467731e-08 0 0.024867089376869853 -1.2725018395747247e-05 0 0.024999813903564032 -2.913051299979536e-08 0 0.024860215831124566 -4.7664882696855316e-05 0 0.024999940688236435 -9.9628449709671961e-09 0 0.024860671598230265 -8.2012236591400131e-05 0 0.024999799651884636 -4.9511340203812713e-10 0 0.024894130226587374 -4.5404268463831041e-05 0 0.024999799651884636 -4.9511340203812713e-10 0 0.024894130226587374 -4.5404268463831041e-05 0 0.02499998194987637 -8.5614649993218168e-08 0 0.024754639528790073 -0.00011725205659071984 0 0.024860671598230265 -8.2012236591400131e-05 0 0.024894130226587374 -4.5404268463831041e-05 0 0.024754639528790073 -0.00011725205659071984 0 0.024894130226587374 -4.5404268463831041e-05 0 0.024828674682093002 -6.6041772790080856e-05 0 0.024754639528790073 -0.00011725205659071984 0 0.024828674682093002 -6.6041772790080856e-05 0 0.024617683286572989 -0.00015949489290204049 0 0.024828674682093002 -6.6041772790080856e-05 0 0.024665264946632834 -0.00013501422570813771 0 0.024617683286572989 -0.00015949489290204049 0 0.024894130226587374 -4.5404268463831041e-05 0 0.024828674682093002 -6.6041772790080856e-05 0 0.02499998194987637 -8.5614649993218168e-08 0 0.024828674682093002 -6.6041772790080856e-05 0 0.02499998194987637 -8.5614649993218168e-08 0 0.0249991047660796 1.4839766941326499e-07 0 0.024828674682093002 -6.6041772790080856e-05 0 0.0249991047660796 1.4839766941326499e-07 0 0.024665264946632834 -0.00013501422570813771 0 0.024646960394958603 -0.0001209146840814497 0 0.0249991047660796 1.4839766941326499e-07 0 0.024665264946632834 -0.00013501422570813771 0 0.024665264946632834 -0.00013501422570813771 0 0.024617683286572989 -0.00015949489290204049 0 0.024453182779782409 -0.00021949024220112016 0 0.024754639528790073 -0.00011725205659071984 0 0.024617683286572989 -0.00015949489290204049 0 0.024622367154948994 -0.00018851142711779698 0 0.024592279992015739 -0.00021333135410987571 0 0.024464787353981589 -0.00022214932175351399 0 0.024622367154948994 -0.00018851142711779698 0 0.024617683286572989 -0.00015949489290204049 0 0.024464787353981589 -0.00022214932175351399 0 0.024622367154948994 -0.00018851142711779698 0 0.024175810817534265 -0.00017800824627801188 0 0.024263629338679447 -0.0003574813159833257 0 0.024464787353981589 -0.00022214932175351399 0 0.024617683286572989 -0.00015949489290204049 0 0.024464787353981589 -0.00022214932175351399 0 0.024453182779782409 -0.00021949024220112016 0 0.024175810817534265 -0.00017800824627801188 0 0.024464787353981589 -0.00022214932175351399 0 0.024453182779782409 -0.00021949024220112016 0 0.024398485172549604 -0.00020169982290574415 0 0.024175810817534265 -0.00017800824627801188 0 0.024453182779782409 -0.00021949024220112016 0 0.022318566516835805 0.0027413669271713148 0 0.023444194623233813 0.0024909332395376986 0 0.022671562550356322 0.0017070206256758554 0 0.022318566516835805 0.0027413669271713148 0 0.022671562550356322 0.0017070206256758554 0 0.02182000549698207 0.002371152770639933 0 0.023444194623233813 0.0024909332395376986 0 0.022671562550356322 0.0017070206256758554 0 0.024029384999127937 0.0011683283257922037 0 0.021539442905912073 0.0019595492009548496 0 0.021310917406371813 0.0023995550639621223 0 0.02182000549698207 0.002371152770639933 0 0.022671562550356322 0.0017070206256758554 0 0.021798629747584928 0.0014120573796471243 0 0.022422765181365083 0.00086527874814126978 0 0.022671562550356322 0.0017070206256758554 0 0.021798629747584928 0.0014120573796471243 0 0.02182000549698207 0.002371152770639933 0 0.021678100452050653 0.0018045313631721474 0 0.02182747348229596 0.0022994916348887178 0 0.021539442905912073 0.0019595492009548496 0 0.021224244320525915 0.0020916234729843374 0 0.021310917406371813 0.0023995550639621223 0 0.021224244320525915 0.0020916234729843374 0 0.021219487361121142 0.001863683669916979 0 0.020991826054664833 0.0019927363562659457 0 0.021539442905912073 0.0019595492009548496 0 0.021224244320525915 0.0020916234729843374 0 0.021219487361121142 0.001863683669916979 0 0.021224244320525915 0.0020916234729843374 0 0.021310917406371813 0.0023995550639621223 0 0.020982698773580655 0.0022315416769100507 0 0.021310917406371813 0.0023995550639621223 0 0.021529699921815016 0.0028661237005157265 0 0.021292749609921814 0.0029081451681698001 0 0.021310917406371813 0.0023995550639621223 0 0.021292749609921814 0.0029081451681698001 0 0.020885192775485398 0.0028238784971657202 0 0.022318566516835805 0.0027413669271713148 0 0.02182000549698207 0.002371152770639933 0 0.021529699921815016 0.0028661237005157265 0 0.021310917406371813 0.0023995550639621223 0 0.02182000549698207 0.002371152770639933 0 0.021529699921815016 0.0028661237005157265 0 0.021529699921815016 0.0028661237005157265 0 0.021429839508031075 0.0030809787664565374 0 0.021292749609921814 0.0029081451681698001 0 0.021529699921815016 0.0028661237005157265 0 0.021429839508031075 0.0030809787664565374 0 0.021512617636472577 0.0033957083968972068 0 0.021429839508031075 0.0030809787664565374 0 0.021342694694225679 0.0028552685167199132 0 0.021512617636472577 0.0033957083968972068 0 0.021429839508031075 0.0030809787664565374 0 0.021292749609921814 0.0029081451681698001 0 0.02127209664282996 0.0031450329321698338 0 0.021292749609921814 0.0029081451681698001 0 0.02127209664282996 0.0031450329321698338 0 0.020885192775485398 0.0028238784971657202 0 0.011012638159237002 -0.0041860051583709314 0 0.017067625478486372 0.00024139854757505643 0 0.012618067266992536 -0.0021348339765041588 0 0.012544994627953431 -0.0019175498343848108 0 0.012793063392490036 -0.0021086895166601816 0 0.012618067266992536 -0.0021348339765041588 0 0.012385377341501413 -0.0021214833419144243 0 0.012544994627953431 -0.0019175498343848108 0 0.017067625478486372 0.00024139854757505643 0 0.015992830114798989 -0.00064267348034028466 0 0.009973368215758777 -0.0051630424186144873 0 0.010855081136176828 -0.0050270616506052209 0 0.010376183818299179 -0.0044336193832700309 0 0.021429839508031075 0.0030809787664565374 0 0.02127209664282996 0.0031450329321698338 0 0.021342694694225679 0.0028552685167199132 0 0.014729012340250876 -0.0014344189590780852 0 0.014792553977144166 -0.0013525792242107609 0 0.014634863766991957 -0.0013435600066610892 0 0.011012638159237002 -0.0041860051583709314 0 0.015992830114798989 -0.00064267348034028466 0 0.021342694694225679 0.0028552685167199132 0 0.019797142409370416 0.0024923729967090301 0 0.021512617636472577 0.0033957083968972068 0 0.009973368215758777 -0.0051630424186144873 0 0.010376183818299179 -0.0044336193832700309 0 0.0094718219024990131 -0.0043225731879537434 0 0.019797142409370416 0.0024923729967090301 0 0.021512617636472577 0.0033957083968972068 0 0.017624903185924534 0.0028637141265461219 0 0.015992830114798989 -0.00064267348034028466 0 0.013951645254252257 -0.00077970033913979907 0 0.023069153389245908 0.0043398815563071317 0 0.017084922121693765 0.00084510190951123099 0 0.022318566516835805 0.0027413669271713148 0 0.021512617636472577 0.0033957083968972068 0 0.023669333906672804 0.0040146294101406068 0 0.022318566516835805 0.0027413669271713148 0 0.021529699921815016 0.0028661237005157265 0 0.021512617636472577 0.0033957083968972068 0 0.023444194623233813 0.0024909332395376986 0 0.023669333906672804 0.0040146294101406068 0 0.02414926184486502 0.003057715029642197 0 0.022318566516835805 0.0027413669271713148 0 0.023444194623233813 0.0024909332395376986 0 0.023669333906672804 0.0040146294101406068 0 0.00921174826414407 -0.0052648573997902386 0 0.0094718219024990131 -0.0043225731879537434 0 0.0083590242961349183 -0.0047731890544104967 0 0.0094718219024990131 -0.0043225731879537434 0 0.0083406870458488675 -0.004314390839021064 0 0.0083590242961349183 -0.0047731890544104967 0 0.013951645254252257 -0.00077970033913979907 0 0.017084922121693765 0.00084510190951123099 0 0.0083406870458488675 -0.004314390839021064 0 0.0083590242961349183 -0.0047731890544104967 0 0.0081729190848249169 -0.0046772607818949515 0 0.016986814350813968 -7.6879246932233633e-05 0 0.01619469952388615 -2.5868038457794482e-05 0 0.01622020276112 -0.00032308444459334398 0 0.0081650481404806838 -0.0047370335750664119 0 0.0083590242961349183 -0.0047731890544104967 0 0.0081729190848249169 -0.0046772607818949515 0 0.0083406870458488675 -0.004314390839021064 0 0.0081729190848249169 -0.0046772607818949515 0 0.0080372816956276651 -0.0045969027369322625 0 0.017084922121693765 0.00084510190951123099 0 0.012109441252536232 -0.0036226168489059776 0 0.017084922121693765 0.00084510190951123099 0 0.019920159406456698 0.00012837894985186818 0 0.019920159406456698 0.00012837894985186818 0 0.012109441252536232 -0.0036226168489059776 0 0.0091008591151788432 -0.0047842585394247388 0 0.012109441252536232 -0.0036226168489059776 0 0.0081513111039397401 -0.0047416430574057462 0 0.0081729190848249169 -0.0046772607818949515 0 0.0080372816956276651 -0.0045969027369322625 0 0.0083209001972865352 -0.004776489121818858 0 0.0080924854868833409 -0.0049667156687179057 0 0.0087083618770254657 -0.0047943815255696897 0 0.0149922679760376 -0.003645129537154128 0 0.014616014499189424 -0.0038018748387539983 0 0.014247985251810362 -0.0036256602813862907 0 0.019920159406456698 0.00012837894985186818 0 0.019341034274524313 -0.0021417609236511269 0 0.015005176419636017 -0.003851835870711676 0 0.014616014499189424 -0.0038018748387539983 0 0.01430367611682201 -0.0040492456074567897 0 0.0083209001972865352 -0.004776489121818858 0 0.0081513111039397401 -0.0047416430574057462 0 0.0080924854868833409 -0.0049667156687179057 0 0.012109441252536232 -0.0036226168489059776 0 0.011375675470752133 -0.0045136230565547787 0 0.0149922679760376 -0.003645129537154128 0 0.015005176419636017 -0.003851835870711676 0 0.014616014499189424 -0.0038018748387539983 0 0.024635418041877296 -0.00016344083757871244 0 0.024579951332122534 -8.1728697315284346e-05 0 0.024641637991777862 -6.6345143803770337e-06 0 0.024635418041877296 -0.00016344083757871244 0 0.024579951332122534 -8.1728697315284346e-05 0 0.024454031938841155 -0.00023608472023057902 0 0.019920159406456698 0.00012837894985186818 0 0.025390276120250511 0.0014657070815919304 0 0.024687179117829569 0.0038769425548583992 0 0.02414926184486502 0.003057715029642197 0 0.024907799390631664 0.0022587681537290217 0 0.023669333906672804 0.0040146294101406068 0 0.024687179117829569 0.0038769425548583992 0 0.02414926184486502 0.003057715029642197 0 0.01371341865809286 -0.0041331027753608932 0 0.013644110408082921 -0.0036834465145813198 0 0.013946922259746133 -0.0038977649722125255 0 0.01371341865809286 -0.0041331027753608932 0 0.013946922259746133 -0.0038977649722125255 0 0.01430367611682201 -0.0040492456074567897 0 0.013644110408082921 -0.0036834465145813198 0 0.013946922259746133 -0.0038977649722125255 0 0.014247985251810362 -0.0036256602813862907 0 0.013946922259746133 -0.0038977649722125255 0 0.01430367611682201 -0.0040492456074567897 0 0.014247985251810362 -0.0036256602813862907 0 0.014616014499189424 -0.0038018748387539983 0 0.01430367611682201 -0.0040492456074567897 0 0.014247985251810362 -0.0036256602813862907 0 0.024579951332122534 -8.1728697315284346e-05 0 0.024504834729467684 -1.6575714902574401e-05 0 0.024454031938841155 -0.00023608472023057902 0 0.018801051536616108 -0.0019256427103204981 0 0.019341034274524313 -0.0021417609236511269 0 0.023910157950267959 -0.00021692995486719192 0 0.024504834729467684 -1.6575714902574401e-05 0 0.024454031938841155 -0.00023608472023057902 0 0.023910157950267959 -0.00021692995486719192 0 0.023859290505931101 7.1217713731067946e-05 0 0.024504834729467684 -1.6575714902574401e-05 0 0.024303987641913112 2.5344295189829564e-05 0 0.024501266882283573 -1.9794172291377743e-05 0 0.024715826878779261 -4.1671888852799648e-07 0 0.024504834729467684 -1.6575714902574401e-05 0 0.024683906713589519 -2.5705110144799818e-05 0 0.024579951332122534 -8.1728697315284346e-05 0 0.024504834729467684 -1.6575714902574401e-05 0 0.024615574724314991 -5.8005411141518803e-06 0 0.024504834729467684 -1.6575714902574401e-05 0 0.024615574724314991 -5.8005411141518803e-06 0 0.024683906713589519 -2.5705110144799818e-05 0 0.024615574724314991 -5.8005411141518803e-06 0 0.024683906713589519 -2.5705110144799818e-05 0 0.024723541648498697 -1.2861483872677856e-05 0 0.023444194623233813 0.0024909332395376986 0 0.02414926184486502 0.003057715029642197 0 0.024907799390631664 0.0022587681537290217 0 0.024579951332122534 -8.1728697315284346e-05 0 0.024615574724314991 -5.8005411141518803e-06 0 0.024641637991777862 -6.6345143803770337e-06 0 0.025390276120250511 0.0014657070815919304 0 0.024815524022214031 0.00037841432018927487 0 0.024615574724314991 -5.8005411141518803e-06 0 0.024641637991777862 -6.6345143803770337e-06 0 0.024723541648498697 -1.2861483872677856e-05 0 0.024907799390631664 0.0022587681537290217 0 0.025079346730330028 0.00088430479478853244 0 0.024029384999127937 0.0011683283257922037 0 0.023444194623233813 0.0024909332395376986 0 0.024907799390631664 0.0022587681537290217 0 0.024029384999127937 0.0011683283257922037 0 0.025079346730330028 0.00088430479478853244 0 0.024649179169004096 0.00031274400989609431 0 0.024029384999127937 0.0011683283257922037 0 0.024723541648498697 -1.2861483872677856e-05 0 0.024777413069326668 -2.4254988576464272e-05 0 0.024856133511907266 -1.7093888269889928e-05 0 0.024815524022214031 0.00037841432018927487 0 0.024947436327745424 5.3511696561474539e-05 0 0.025079346730330028 0.00088430479478853244 0 0.024649179169004096 0.00031274400989609431 0 0.025009879556822243 5.3103840669085434e-05 0 0.024649179169004096 0.00031274400989609431 0 0.024833255364862302 -3.1702237788267926e-05 0 0.024128148642870405 3.1785281478643536e-05 0 0.024683906713589519 -2.5705110144799818e-05 0 0.024769534926836395 -3.609983900434661e-05 0 0.024777413069326668 -2.4254988576464272e-05 0 0.024757382887422786 -3.6030880653975686e-05 0 0.024683906713589519 -2.5705110144799818e-05 0 0.024769534926836395 -3.609983900434661e-05 0 0.024683906713589519 -2.5705110144799818e-05 0 0.024723541648498697 -1.2861483872677856e-05 0 0.024777413069326668 -2.4254988576464272e-05 0 0.024777413069326668 -2.4254988576464272e-05 0 0.024847126225715287 -2.0887353965872711e-05 0 0.024856133511907266 -1.7093888269889928e-05 0 0.024769534926836395 -3.609983900434661e-05 0 0.024777413069326668 -2.4254988576464272e-05 0 0.024847126225715287 -2.0887353965872711e-05 0 0.024784675441882974 -1.7521411202055259e-05 0 0.024769534926836395 -3.609983900434661e-05 0 0.024847126225715287 -2.0887353965872711e-05 0 0.024784675441882974 -1.7521411202055259e-05 0 0.024847126225715287 -2.0887353965872711e-05 0 0.024882451252261725 -8.6217200453324924e-06 0 0.024784675441882974 -1.7521411202055259e-05 0 0.024882451252261725 -8.6217200453324924e-06 0 0.024956955981916058 6.893579641353586e-06 0 0.024847126225715287 -2.0887353965872711e-05 0 0.024912297587779901 -8.0201375801334729e-06 0 0.024856133511907266 -1.7093888269889928e-05 0 0.024847126225715287 -2.0887353965872711e-05 0 0.024882451252261725 -8.6217200453324924e-06 0 0.024912297587779901 -8.0201375801334729e-06 0 0.024999883811587631 -7.8996480498836479e-09 0 0.024956955981916058 6.893579641353586e-06 0 0.024999827396868846 5.5654867074630478e-09 0 0.024912297587779901 -8.0201375801334729e-06 0 0.024956955981916058 6.893579641353586e-06 0 0.024999827396868846 5.5654867074630478e-09 0 0.024999844750493511 -4.3148380711664084e-06 0 0.024999883811587631 -7.8996480498836479e-09 0 0.024956955981916058 6.893579641353586e-06 0 0.024882451252261725 -8.6217200453324924e-06 0 0.024912297587779901 -8.0201375801334729e-06 0 0.024956955981916058 6.893579641353586e-06 0 0.024649179169004096 0.00031274400989609431 0 0.024833255364862302 -3.1702237788267926e-05 0 0.025009879556822243 5.3103840669085434e-05 0 0.024947436327745424 5.3511696561474539e-05 0 0.024999967929106994 -1.5948734595171648e-08 0 0.024833255364862302 -3.1702237788267926e-05 0 0.025009879556822243 5.3103840669085434e-05 0 0.025000052311452369 -1.0350674284379489e-07 0 0.024912297587779901 -8.0201375801334729e-06 0 0.024856133511907266 -1.7093888269889928e-05 0 0.024999827396868846 5.5654867074630478e-09 0 0.024833255364862302 -3.1702237788267926e-05 0 0.025000052311452369 -1.0350674284379489e-07 0 0.024999750134063727 -9.5783073405066711e-08 0 0.024833255364862302 -3.1702237788267926e-05 0 0.024999750134063727 -9.5783073405066711e-08 0 0.024655596272120522 -2.9709936275587014e-05 0 0.024999750134063727 -9.5783073405066711e-08 0 0.024999541305534251 9.3997506054921736e-08 0 0.024655596272120522 -2.9709936275587014e-05 0 0.024999541305534251 9.3997506054921736e-08 0 0.024862728315605997 -3.9450287377213738e-05 0 0.025000019306430973 -6.6587154615059636e-08 0 0.024999541305534251 9.3997506054921736e-08 0 0.024862728315605997 -3.9450287377213738e-05 0 0.024655596272120522 -2.9709936275587014e-05 0 0.023950151809949138 -0.00037041364827103098 0 0.024118016153429536 -6.0462116735505355e-05 0 0.024862728315605997 -3.9450287377213738e-05 0 0.024655596272120522 -2.9709936275587014e-05 0 0.024128148642870405 3.1785281478643536e-05 0 0.022832689274029535 -0.001093396481100829 0 0.022901174675124304 -0.00033556637873134417 0 0.024128148642870405 3.1785281478643536e-05 0 0.022832689274029535 -0.001093396481100829 0 0.022901174675124304 -0.00033556637873134417 0 0.022422560779435354 -0.00072265528389138761 0 0.024833255364862302 -3.1702237788267926e-05 0 0.024655596272120522 -2.9709936275587014e-05 0 0.024128148642870405 3.1785281478643536e-05 0 0.024649179169004096 0.00031274400989609431 0 0.024128148642870405 3.1785281478643536e-05 0 0.024029384999127937 0.0011683283257922037 0 0.024128148642870405 3.1785281478643536e-05 0 0.022809457266963141 0.00027273485086624195 0 0.023139444762221704 0.00090506492177097554 0 0.022901174675124304 -0.00033556637873134417 0 0.024128148642870405 3.1785281478643536e-05 0 0.022809457266963141 0.00027273485086624195 0 0.022901174675124304 -0.00033556637873134417 0 0.022809457266963141 0.00027273485086624195 0 0.022459865106177791 -0.00015430969821754494 0 0.022671562550356322 0.0017070206256758554 0 0.023139444762221704 0.00090506492177097554 0 0.022422765181365083 0.00086527874814126978 0 0.022809457266963141 0.00027273485086624195 0 0.023139444762221704 0.00090506492177097554 0 0.022422765181365083 0.00086527874814126978 0 0.022671562550356322 0.0017070206256758554 0 0.023139444762221704 0.00090506492177097554 0 0.024029384999127937 0.0011683283257922037 0 0.024128148642870405 3.1785281478643536e-05 0 0.023139444762221704 0.00090506492177097554 0 0.024029384999127937 0.0011683283257922037 0 0.021539442905912073 0.0019595492009548496 0 0.021219487361121142 0.001863683669916979 0 0.021350885786467756 0.0016222564139659033 0 0.021678100452050653 0.0018045313631721474 0 0.021765098315655811 0.0005042646195672297 0 0.021163668429701778 0.0017230314964187777 0 0.021219487361121142 0.001863683669916979 0 0.021350885786467756 0.0016222564139659033 0 0.021163668429701778 0.0017230314964187777 0 0.021219487361121142 0.001863683669916979 0 0.021011969247830855 0.0018074517956668083 0 0.021798629747584928 0.0014120573796471243 0 0.021858240193250052 0.00054601084360725988 0 0.021554873426060474 0.00049791122859980822 0 0.021798629747584928 0.0014120573796471243 0 0.022422765181365083 0.00086527874814126978 0 0.021858240193250052 0.00054601084360725988 0 0.021858240193250052 0.00054601084360725988 0 0.021737231141653816 0.00014946897064654173 0 0.022209465588474774 0.00020483320901860025 0 0.022422765181365083 0.00086527874814126978 0 0.021858240193250052 0.00054601084360725988 0 0.022209465588474774 0.00020483320901860025 0 0.022809457266963141 0.00027273485086624195 0 0.022422765181365083 0.00086527874814126978 0 0.022209465588474774 0.00020483320901860025 0 0.022809457266963141 0.00027273485086624195 0 0.022209465588474774 0.00020483320901860025 0 0.022459865106177791 -0.00015430969821754494 0 0.022209465588474774 0.00020483320901860025 0 0.022459865106177791 -0.00015430969821754494 0 0.021916014596282007 -0.00016884815320905108 0 0.021737231141653816 0.00014946897064654173 0 0.022209465588474774 0.00020483320901860025 0 0.021916014596282007 -0.00016884815320905108 0 0.021765098315655811 0.0005042646195672297 0 0.021645602964819453 0.00059902664513977852 0 0.021990452116470004 -0.00046373084146021854 0 0.022158960554618978 -4.5292463527511119e-05 0 0.022499954339765493 -0.00039208756538556617 0 0.021737231141653816 0.00014946897064654173 0 0.021512791084067954 0.00050074527144186966 0 0.021165085027969547 -0.00035939039721277093 0 0.021765098315655811 0.0005042646195672297 0 0.02164814534486437 -0.00025967556513560933 0 0.021737231141653816 0.00014946897064654173 0 0.021916014596282007 -0.00016884815320905108 0 0.021165085027969547 -0.00035939039721277093 0 0.021163668429701778 0.0017230314964187777 0 0.021350885786467756 0.0016222564139659033 0 0.021018472596098327 0.0016151459291739662 0 0.021858240193250052 0.00054601084360725988 0 0.021737231141653816 0.00014946897064654173 0 0.021512791084067954 0.00050074527144186966 0 0.02175383777657736 0.00051184591799819745 0 0.021765098315655811 0.0005042646195672297 0 0.021165085027969547 -0.00035939039721277093 0 0.020819822845226481 -0.0012540514324443156 0 0.022422560779435354 -0.00072265528389138761 0 0.021938233003954088 -0.0006741248883436196 0 0.022022676767977496 -0.00093282911809379563 0 0.021495246610321012 -0.001139434475844731 0 0.022422560779435354 -0.00072265528389138761 0 0.02210535330829607 -0.0011818884142562986 0 0.02164814534486437 -0.00025967556513560933 0 0.021938233003954088 -0.0006741248883436196 0 0.021916014596282007 -0.00016884815320905108 0 0.021165085027969547 -0.00035939039721277093 0 0.022422560779435354 -0.00072265528389138761 0 0.022459865106177791 -0.00015430969821754494 0 0.021916014596282007 -0.00016884815320905108 0 0.022422560779435354 -0.00072265528389138761 0 0.022901174675124304 -0.00033556637873134417 0 0.022459865106177791 -0.00015430969821754494 0 0.022422560779435354 -0.00072265528389138761 0 0.022422560779435354 -0.00072265528389138761 0 0.022369559699286643 -0.0011800254995893971 0 0.02210535330829607 -0.0011818884142562986 0 0.022832689274029535 -0.001093396481100829 0 0.022422560779435354 -0.00072265528389138761 0 0.022369559699286643 -0.0011800254995893971 0 0.024862728315605997 -3.9450287377213738e-05 0 0.025042436694453503 -1.4875473140263172e-05 0 0.025000019306430973 -6.6587154615059636e-08 0 0.022832689274029535 -0.001093396481100829 0 0.022369559699286643 -0.0011800254995893971 0 0.022106536892750467 -0.0016611990166177149 0 0.023950151809949138 -0.00037041364827103098 0 0.023308239423454207 -0.0016413126625830603 0 0.022369559699286643 -0.0011800254995893971 0 0.02210535330829607 -0.0011818884142562986 0 0.022106536892750467 -0.0016611990166177149 0 0.023308239423454207 -0.0016413126625830603 0 0.024999812045655063 -1.8490117851167689e-06 0 0.021495246610321012 -0.001139434475844731 0 0.02210535330829607 -0.0011818884142562986 0 0.022106536892750467 -0.0016611990166177149 0 0.023308239423454207 -0.0016413126625830603 0 0.023845559561528847 -0.00040984845059551005 0 0.021495246610321012 -0.001139434475844731 0 0.022106536892750467 -0.0016611990166177149 0 0.021350027542789196 -0.0015454415012141865 0 0.024945284415943549 -7.7022531455674043e-09 0 0.024999988493577562 3.6114405480012269e-10 0 0.024994409983702802 -9.6870100873561287e-06 0 0.021938233003954088 -0.0006741248883436196 0 0.024256215678224852 0.0001943377839911798 0 0.024999990324267002 -3.2765582399580786e-09 0 0.024998216628666668 -4.6291945809623661e-07 0 0.024999996403193999 1.7000981486458586e-09 0 0.023845559561528847 -0.00040984845059551005 0 0.024256215678224852 0.0001943377839911798 0 0.022703889349837334 -0.00063520293742277999 0 0.022979062761574964 5.832375804607016e-05 0 0.024250218576942921 -9.8692650368127933e-05 0 0.022328253355011148 0.00038024081542672251 0 0.023110426460351628 0.00064968338961840521 0 0.02282596387562448 0.00029951347230826661 0 0.024997812738395114 7.4347633067012539e-08 0 0.023845559561528847 -0.00040984845059551005 0 0.021938233003954088 -0.0006741248883436196 0 0.023845559561528847 -0.00040984845059551005 0 0.023110426460351628 0.00064968338961840521 0 0.023186260573588652 0.00014770185881272403 0 0.023356773796256655 0.00061879362641433107 0 0.024998216628666668 -4.6291945809623661e-07 0 0.024999996403193999 1.7000981486458586e-09 0 0.024998046548649323 4.4573335634240741e-07 0 0.024256215678224852 0.0001943377839911798 0 0.024523376288184094 0.00028380765456226216 0 0.024256215678224852 0.0001943377839911798 0 0.024845455546475978 0.00013021164121738553 0 0.024999996403193999 1.7000981486458586e-09 0 0.024998046548649323 4.4573335634240741e-07 0 0.024999324229388279 3.5057272671723328e-07 0 0.023186260573588652 0.00014770185881272403 0 0.022679655913443692 2.1116102249718193e-05 0 0.023017880433593863 -0.00031615514770411487 0 0.023110426460351628 0.00064968338961840521 0 0.02282596387562448 0.00029951347230826661 0 0.023186260573588652 0.00014770185881272403 0 0.02282596387562448 0.00029951347230826661 0 0.023186260573588652 0.00014770185881272403 0 0.022679655913443692 2.1116102249718193e-05 0 0.022328253355011148 0.00038024081542672251 0 0.02282596387562448 0.00029951347230826661 0 0.022679655913443692 2.1116102249718193e-05 0 0.022158960554618978 -4.5292463527511119e-05 0 0.022328253355011148 0.00038024081542672251 0 0.022679655913443692 2.1116102249718193e-05 0 0.025000043509159312 3.5814082748214354e-05 0 0.025000024272765663 4.4676995476062399e-08 0 0.025000035903326091 3.5526003331301169e-08 0 0.025000043509159312 3.5814082748214354e-05 0 0.024990620624466969 7.7669490165643661e-05 0 0.025000035903326091 3.5526003331301169e-08 0 0.025000043509159312 3.5814082748214354e-05 0 0.025005611765042648 6.229712727412958e-05 0 0.024990620624466969 7.7669490165643661e-05 0 0.025000043509159312 3.5814082748214354e-05 0 0.025005611765042648 6.229712727412958e-05 0 0.025017860541882025 4.6175838799194217e-05 0 0.025005611765042648 6.229712727412958e-05 0 0.025017860541882025 4.6175838799194217e-05 0 0.025011607764661763 8.8371932312682186e-05 0 0.025017860541882025 4.6175838799194217e-05 0 0.025029153309500649 4.9262260073848644e-05 0 0.025011607764661763 8.8371932312682186e-05 0 0.025017860541882025 4.6175838799194217e-05 0 0.025000024272765663 4.4676995476062399e-08 0 0.025044194915244712 1.998166369755472e-05 0 0.025000043509159312 3.5814082748214354e-05 0 0.025017860541882025 4.6175838799194217e-05 0 0.025000024272765663 4.4676995476062399e-08 0 0.024999999994027147 -2.2442310484217207e-10 0 0.024999801177167335 2.7029227165319867e-07 0 0.02499999919242981 8.0434004855364425e-10 0 0.024999996461112034 1.1720389246475954e-07 0 0.024845455546475978 0.00013021164121738553 0 0.024845455546475978 0.00013021164121738553 0 0.024523376288184094 0.00028380765456226216 0 0.025017860541882025 4.6175838799194217e-05 0 0.025044194915244712 1.998166369755472e-05 0 0.025050669123460833 4.2110629149833171e-05 0 0.024999996403193999 1.7000981486458586e-09 0 0.024999324229388279 3.5057272671723328e-07 0 0.024999997187113272 3.3247219459447796e-10 0 0.02436158730608683 0.00013221941534393377 0 0.02468212107843187 0.00024199483425812063 0 0.024632970409385328 9.7735138768583726e-05 0 0.024845455546475978 0.00013021164121738553 0 0.024999541742265444 2.4783804039370273e-07 0 0.024961233513184224 0.00016341956660343549 0 0.024523376288184094 0.00028380765456226216 0 0.024093405117101369 0.00010053564505540065 0 0.024523376288184094 0.00028380765456226216 0 0.025022060670212908 9.2265605896041169e-05 0 0.025011607764661763 8.8371932312682186e-05 0 0.025012536278339569 0.00011972635870682921 0 0.025022060670212908 9.2265605896041169e-05 0 0.025029153309500649 4.9262260073848644e-05 0 0.025011607764661763 8.8371932312682186e-05 0 0.024990620624466969 7.7669490165643661e-05 0 0.02498827023604536 0.0001339845375053856 0 0.024931221745954184 0.00018358247055031901 0 0.025005611765042648 6.229712727412958e-05 0 0.025011607764661763 8.8371932312682186e-05 0 0.024990620624466969 7.7669490165643661e-05 0 0.025011607764661763 8.8371932312682186e-05 0 0.024990620624466969 7.7669490165643661e-05 0 0.02498827023604536 0.0001339845375053856 0 0.025070222141920194 0.00022829612603541578 0 0.025098946146885147 0.00028229477860539846 0 0.024906962292813212 0.00043980329512152927 0 0.023419272660901384 0.0011047830386002255 0 0.021792718456007831 0.00099778164143353595 0 0.020488965439898189 0.0016062005528366635 0 0.020527939363892432 0.0016550405551000601 0 0.020557710345476529 0.0016353239512513185 0 0.021792718456007831 0.00099778164143353595 0 0.021171892605225607 0.0013659368751208277 0 0.023419272660901384 0.0011047830386002255 0 0.022542251778460413 0.00047086889461521865 0 0.025011607764661763 8.8371932312682186e-05 0 0.02498827023604536 0.0001339845375053856 0 0.025012536278339569 0.00011972635870682921 0 0.020557710345476529 0.0016353239512513185 0 0.02064085635113435 0.0017149915718461563 0 0.020757424804741832 0.0016339599258262465 0 0.020488965439898189 0.0016062005528366635 0 0.020557710345476529 0.0016353239512513185 0 0.020757424804741832 0.0016339599258262465 0 0.020519146397712677 0.0016546001778965571 0 0.020557710345476529 0.0016353239512513185 0 0.02064085635113435 0.0017149915718461563 0 0.021792718456007831 0.00099778164143353595 0 0.020493952747306501 0.0018744289056573413 0 0.020519146397712677 0.0016546001778965571 0 0.02064085635113435 0.0017149915718461563 0 0.020596074443932435 0.0018758786113661839 0 0.02064085635113435 0.0017149915718461563 0 0.020596074443932435 0.0018758786113661839 0 0.020711832290098355 0.0017867332929242558 0 0.020673914498856215 0.0019856391439428485 0 0.020416800475177986 0.0016575854722166417 0 0.020805871446846178 0.0015836518071464336 0 0.021792718456007831 0.00099778164143353595 0 0.023220418557201306 0.0010669182334654768 0 0.020673914498856215 0.0019856391439428485 0 0.020805871446846178 0.0015836518071464336 0 0.021136286014070298 0.0017110369679866129 0 0.021018472596098327 0.0016151459291739662 0 0.020766955712141971 0.0016547895337200419 0 0.020883418731202127 0.0017350645738331844 0 0.022679655913443692 2.1116102249718193e-05 0 0.022499954339765493 -0.00039208756538556617 0 0.023017880433593863 -0.00031615514770411487 0 0.021645602964819453 0.00059902664513977852 0 0.022542251778460413 0.00047086889461521865 0 0.022158960554618978 -4.5292463527511119e-05 0 0.022679655913443692 2.1116102249718193e-05 0 0.022499954339765493 -0.00039208756538556617 0 0.024093405117101369 0.00010053564505540065 0 0.022542251778460413 0.00047086889461521865 0 0.021018472596098327 0.0016151459291739662 0 0.020756322606951219 0.0016197710974045689 0 0.020766955712141971 0.0016547895337200419 0 0.02064085635113435 0.0017149915718461563 0 0.020757424804741832 0.0016339599258262465 0 0.020731574357142298 0.0017037990474318278 0 0.020757424804741832 0.0016339599258262465 0 0.020731574357142298 0.0017037990474318278 0 0.020766955712141971 0.0016547895337200419 0 0.022542251778460413 0.00047086889461521865 0 0.022458793046408708 0.0006273394026855162 0 0.020731574357142298 0.0017037990474318278 0 0.020766955712141971 0.0016547895337200419 0 0.020788483202454338 0.0017404657198176281 0 0.020766955712141971 0.0016547895337200419 0 0.020788483202454338 0.0017404657198176281 0 0.020883418731202127 0.0017350645738331844 0 0.020788483202454338 0.0017404657198176281 0 0.020711832290098355 0.0017867332929242558 0 0.020837589136980302 0.0018912999541160751 0 0.020596074443932435 0.0018758786113661839 0 0.020711832290098355 0.0017867332929242558 0 0.020837589136980302 0.0018912999541160751 0 0.020788483202454338 0.0017404657198176281 0 0.020837589136980302 0.0018912999541160751 0 0.020883418731202127 0.0017350645738331844 0 0.02064085635113435 0.0017149915718461563 0 0.020731574357142298 0.0017037990474318278 0 0.020711832290098355 0.0017867332929242558 0 0.020731574357142298 0.0017037990474318278 0 0.020788483202454338 0.0017404657198176281 0 0.020711832290098355 0.0017867332929242558 0 0.020837589136980302 0.0018912999541160751 0 0.021011969247830855 0.0018074517956668083 0 0.020991826054664833 0.0019927363562659457 0 0.020837589136980302 0.0018912999541160751 0 0.020883418731202127 0.0017350645738331844 0 0.021011969247830855 0.0018074517956668083 0 0.021018472596098327 0.0016151459291739662 0 0.020883418731202127 0.0017350645738331844 0 0.021011969247830855 0.0018074517956668083 0 0.021163668429701778 0.0017230314964187777 0 0.021018472596098327 0.0016151459291739662 0 0.021011969247830855 0.0018074517956668083 0 0.021219487361121142 0.001863683669916979 0 0.021011969247830855 0.0018074517956668083 0 0.020991826054664833 0.0019927363562659457 0 0.021224244320525915 0.0020916234729843374 0 0.020991826054664833 0.0019927363562659457 0 0.020982698773580655 0.0022315416769100507 0 0.020837589136980302 0.0018912999541160751 0 0.020991826054664833 0.0019927363562659457 0 0.020729884089588761 0.0021823662463889772 0 0.020991826054664833 0.0019927363562659457 0 0.020982698773580655 0.0022315416769100507 0 0.020729884089588761 0.0021823662463889772 0 0.021199315897598315 0.0022216081442570472 0 0.019831815851798475 0.0016872870525793256 0 0.019831815851798475 0.0016872870525793256 0 0.01951842046634775 0.0019581678183554661 0 0.021310917406371813 0.0023995550639621223 0 0.020982698773580655 0.0022315416769100507 0 0.020885192775485398 0.0028238784971657202 0 0.020982698773580655 0.0022315416769100507 0 0.020461091438332107 0.0022517396479357372 0 0.020885192775485398 0.0028238784971657202 0 0.018292766787218532 0.0014629737101445783 0 0.01758892102690493 0.00051832685509080312 0 0.018568266547717746 0.0004241597696347939 0 0.020596074443932435 0.0018758786113661839 0 0.020837589136980302 0.0018912999541160751 0 0.020729884089588761 0.0021823662463889772 0 0.020493952747306501 0.0018744289056573413 0 0.019831815851798475 0.0016872870525793256 0 0.020416800475177986 0.0016575854722166417 0 0.020805871446846178 0.0015836518071464336 0 0.020576117662310038 0.0012948638050326853 0 0.020416800475177986 0.0016575854722166417 0 0.02016116620661336 0.0013205870428717715 0 0.020576117662310038 0.0012948638050326853 0 0.019831815851798475 0.0016872870525793256 0 0.019825412153457771 0.0013295134779199641 0 0.020805871446846178 0.0015836518071464336 0 0.020576117662310038 0.0012948638050326853 0 0.020994850283098023 0.0012629121436162787 0 0.019320978927152069 0.0013981264110499935 0 0.019473104518298274 0.00030719077179007108 0 0.020368268433613071 0.0013247443439819916 0 0.019825412153457771 0.0013295134779199641 0 0.020718020860381017 0.0012881222176769755 0 0.019320978927152069 0.0013981264110499935 0 0.019473104518298274 0.00030719077179007108 0 0.018568266547717746 0.0004241597696347939 0 0.018292766787218532 0.0014629737101445783 0 0.019320978927152069 0.0013981264110499935 0 0.018568266547717746 0.0004241597696347939 0 0.019473104518298274 0.00030719077179007108 0 0.018867093413013403 -0.00062237100598828933 0 0.018568266547717746 0.0004241597696347939 0 0.019473104518298274 0.00030719077179007108 0 0.020312933699664578 0.00027551356837152288 0 0.020368268433613071 0.0013247443439819916 0 0.019473104518298274 0.00030719077179007108 0 0.019872002525876512 -0.00071724615349584261 0 0.020312933699664578 0.00027551356837152288 0 0.019473104518298274 0.00030719077179007108 0 0.019872002525876512 -0.00071724615349584261 0 0.018867093413013403 -0.00062237100598828933 0 0.016662986354397058 -0.00082538478378281401 0 0.016761959952232102 -0.001310133289684388 0 0.014077651826295385 -0.001897978264291356 0 0.013068170208184791 -0.0020425996040934636 0 0.013601680590096402 -0.0023185156840322069 0 0.014077651826295385 -0.001897978264291356 0 0.013068170208184791 -0.0020425996040934636 0 0.012940785747042903 -0.0018989538880083226 0 0.018867093413013403 -0.00062237100598828933 0 0.01787170880629485 -0.00052292393465641759 0 0.018568266547717746 0.0004241597696347939 0 0.016761959952232102 -0.001310133289684388 0 0.014938033504495239 -0.0012669612149723145 0 0.012544994627953431 -0.0019175498343848108 0 0.012940785747042903 -0.0018989538880083226 0 0.012793063392490036 -0.0021086895166601816 0 0.017067625478486372 0.00024139854757505643 0 0.014938033504495239 -0.0012669612149723145 0 0.013068170208184791 -0.0020425996040934636 0 0.012940785747042903 -0.0018989538880083226 0 0.012793063392490036 -0.0021086895166601816 0 0.016887704148165452 -0.00042686326067524271 0 0.01787170880629485 -0.00052292393465641759 0 0.01758892102690493 0.00051832685509080312 0 0.017067625478486372 0.00024139854757505643 0 0.01951842046634775 0.0019581678183554661 0 0.01787170880629485 -0.00052292393465641759 0 0.01758892102690493 0.00051832685509080312 0 0.018568266547717746 0.0004241597696347939 0 0.020984991691293406 0.00055390194393362981 0 0.021036140235724258 0.0011193574017702174 0 0.021981077942954789 0.00088165549146549847 0 0.020984991691293406 0.00055390194393362981 0 0.021036140235724258 0.0011193574017702174 0 0.020421796318758428 0.00027079227931703023 0 0.021036140235724258 0.0011193574017702174 0 0.021981077942954789 0.00088165549146549847 0 0.02224314090414093 0.0014771967962071313 0 0.021269277335989916 0.00070701519343280685 0 0.023078392647701566 0.00096501618285927109 0 0.021981077942954789 0.00088165549146549847 0 0.02224314090414093 0.0014771967962071313 0 0.022421318026684279 0.00085995728786657883 0 0.021981077942954789 0.00088165549146549847 0 0.022125496309105302 0.00074330313752900984 0 0.022421318026684279 0.00085995728786657883 0 0.023366623853431426 0.00041339111867774074 0 0.017868875328836228 3.3142193418539088e-05 0 0.021811184836001682 0.00070391688413155829 0 0.021770355565692168 0.00077527518307891202 0 0.021981077942954789 0.00088165549146549847 0 0.021768884732750401 0.00056701112616423137 0 0.021662511883817744 0.00058767506549753455 0 0.021768884732750401 0.00056701112616423137 0 0.022125496309105302 0.00074330313752900984 0 0.022323677278682775 0.00067121833298211444 0 0.021981077942954789 0.00088165549146549847 0 0.021768884732750401 0.00056701112616423137 0 0.022125496309105302 0.00074330313752900984 0 0.021768884732750401 0.00056701112616423137 0 0.021662511883817744 0.00058767506549753455 0 0.021704575944644321 0.00051454875709681523 0 0.021662511883817744 0.00058767506549753455 0 0.021440596012622989 0.00047370192090120413 0 0.021704575944644321 0.00051454875709681523 0 0.020984991691293406 0.00055390194393362981 0 0.021981077942954789 0.00088165549146549847 0 0.021358524934779497 0.00014017958584220316 0 0.020984991691293406 0.00055390194393362981 0 0.021358524934779497 0.00014017958584220316 0 0.02084486764462368 7.1470098394997735e-05 0 0.020984991691293406 0.00055390194393362981 0 0.02084486764462368 7.1470098394997735e-05 0 0.020421796318758428 0.00027079227931703023 0 0.02084486764462368 7.1470098394997735e-05 0 0.020421796318758428 0.00027079227931703023 0 0.02060499496581053 -0.00069524830111995415 0 0.021770355565692168 0.00077527518307891202 0 0.016959151746557568 -0.00029709060067073257 0 0.021358524934779497 0.00014017958584220316 0 0.02084486764462368 7.1470098394997735e-05 0 0.02060499496581053 -0.00069524830111995415 0 0.019892141569976807 -0.00016082886681553359 0 0.019153386525341164 -0.00061283586429038031 0 0.02060499496581053 -0.00069524830111995415 0 0.019892141569976807 -0.00016082886681553359 0 0.020421796318758428 0.00027079227931703023 0 0.02060499496581053 -0.00069524830111995415 0 0.019892141569976807 -0.00016082886681553359 0 0.019369665378833185 0.00040036440659217606 0 0.019153386525341164 -0.00061283586429038031 0 0.019892141569976807 -0.00016082886681553359 0 0.019369665378833185 0.00040036440659217606 0 0.020421796318758428 0.00027079227931703023 0 0.017618291774470433 -0.00048634057424090541 0 0.019369665378833185 0.00040036440659217606 0 0.019153386525341164 -0.00061283586429038031 0 0.019872002525876512 -0.00071724615349584261 0 0.020942352908322099 -0.00015740887129005158 0 0.020312933699664578 0.00027551356837152288 0 0.016662986354397058 -0.00082538478378281401 0 0.016744203012459612 -0.00040260114350122207 0 0.016662986354397058 -0.00082538478378281401 0 0.020582822580185109 0.00024433871025318383 0 0.020942352908322099 -0.00015740887129005158 0 0.020891774648949774 0.00061952047185419138 0 0.020312933699664578 0.00027551356837152288 0 0.021036140235724258 0.0011193574017702174 0 0.019369665378833185 0.00040036440659217606 0 0.020421796318758428 0.00027079227931703023 0 0.021269277335989916 0.00070701519343280685 0 0.020582822580185109 0.00024433871025318383 0 0.021904816311412726 0.00039162702151212099 0 0.020942352908322099 -0.00015740887129005158 0 0.020891774648949774 0.00061952047185419138 0 0.021904816311412726 0.00039162702151212099 0 0.020891774648949774 0.00061952047185419138 0 0.021423157647201426 0.0012031034893606786 0 0.020891774648949774 0.00061952047185419138 0 0.020312933699664578 0.00027551356837152288 0 0.020368268433613071 0.0013247443439819916 0 0.020891774648949774 0.00061952047185419138 0 0.021423157647201426 0.0012031034893606786 0 0.020368268433613071 0.0013247443439819916 0 0.02135316223623247 0.0012193620778678531 0 0.020718020860381017 0.0012881222176769755 0 0.020805871446846178 0.0015836518071464336 0 0.020994850283098023 0.0012629121436162787 0 0.021221394503505495 0.0014307914895313894 0 0.020805871446846178 0.0015836518071464336 0 0.021221394503505495 0.0014307914895313894 0 0.021136286014070298 0.0017110369679866129 0 0.021423157647201426 0.0012031034893606786 0 0.020994850283098023 0.0012629121436162787 0 0.021221394503505495 0.0014307914895313894 0 0.021221394503505495 0.0014307914895313894 0 0.021754643838986908 0.0014402829714586392 0 0.021136286014070298 0.0017110369679866129 0 0.021423157647201426 0.0012031034893606786 0 0.021221394503505495 0.0014307914895313894 0 0.021754643838986908 0.0014402829714586392 0 0.023264902947316389 0.0010075872666406706 0 0.023220418557201306 0.0010669182334654768 0 0.021904816311412726 0.00039162702151212099 0 0.021423157647201426 0.0012031034893606786 0 0.021884348883616699 0.00095173854599626539 0 0.021754643838986908 0.0014402829714586392 0 0.021884348883616699 0.00095173854599626539 0 0.022770119209298844 0.00087056705419055877 0 0.021423157647201426 0.0012031034893606786 0 0.021754643838986908 0.0014402829714586392 0 0.021884348883616699 0.00095173854599626539 0 0.021904816311412726 0.00039162702151212099 0 0.021884348883616699 0.00095173854599626539 0 0.022770119209298844 0.00087056705419055877 0 0.023264902947316389 0.0010075872666406706 0 0.023078392647701566 0.00096501618285927109 0 0.024343047066772056 0.00084039527489777562 0 0.024527562336918173 0.00045992110047000261 0 0.024293588863263865 0.00046601276913160945 0 0.024646316667030706 0.00064121397684652193 0 0.024343047066772056 0.00084039527489777562 0 0.024527562336918173 0.00045992110047000261 0 0.024527562336918173 0.00045992110047000261 0 0.024517303494872529 0.000248037642762626 0 0.024293588863263865 0.00046601276913160945 0 0.02474800257987364 0.00014951529531666031 0 0.024645815745148084 0.00039769446652199901 0 0.024646316667030706 0.00064121397684652193 0 0.024527562336918173 0.00045992110047000261 0 0.024717126100372466 0.00033012446498335667 0 0.024527562336918173 0.00045992110047000261 0 0.024517303494872529 0.000248037642762626 0 0.024717126100372466 0.00033012446498335667 0 0.024517303494872529 0.000248037642762626 0 0.024717126100372466 0.00033012446498335667 0 0.024747228330775826 7.1675302761267616e-05 0 0.024646316667030706 0.00064121397684652193 0 0.024906962292813212 0.00043980329512152927 0 0.024717126100372466 0.00033012446498335667 0 0.024717126100372466 0.00033012446498335667 0 0.024931221745954184 0.00018358247055031901 0 0.024747228330775826 7.1675302761267616e-05 0 0.024906962292813212 0.00043980329512152927 0 0.024717126100372466 0.00033012446498335667 0 0.024931221745954184 0.00018358247055031901 0 0.025070222141920194 0.00022829612603541578 0 0.024906962292813212 0.00043980329512152927 0 0.024931221745954184 0.00018358247055031901 0 0.023419272660901384 0.0011047830386002255 0 0.025463873507263805 0.0001818416385167822 0 0.024990620624466969 7.7669490165643661e-05 0 0.024931221745954184 0.00018358247055031901 0 0.024948552656361554 5.989687170673741e-05 0 0.024931221745954184 0.00018358247055031901 0 0.024948552656361554 5.989687170673741e-05 0 0.024747228330775826 7.1675302761267616e-05 0 0.024999696836714543 -5.5723156371350307e-08 0 0.024948552656361554 5.989687170673741e-05 0 0.024747228330775826 7.1675302761267616e-05 0 0.025000003054435976 9.4172641663083206e-09 0 0.025002772455766476 -3.5294198954591604e-06 0 0.024999991031075742 -2.0805007963282001e-08 0 0.024999944918760224 1.6699175250915557e-08 0 0.024874542933349883 4.2026677381537052e-05 0 0.024999696836714543 -5.5723156371350307e-08 0 0.024948552656361554 5.989687170673741e-05 0 0.025000035903326091 3.5526003331301169e-08 0 0.024990620624466969 7.7669490165643661e-05 0 0.024948552656361554 5.989687170673741e-05 0 0.025000035903326091 3.5526003331301169e-08 0 0.02499626195017652 3.0018378513018502e-05 0 0.024959372787190123 -2.1768808537387384e-05 0 0.024802353175639825 -1.3913303306031836e-05 0 0.02499626195017652 3.0018378513018502e-05 0 0.024959372787190123 -2.1768808537387384e-05 0 0.025002772455766476 -3.5294198954591604e-06 0 0.02474800257987364 0.00014951529531666031 0 0.024874542933349883 4.2026677381537052e-05 0 0.024959372787190123 -2.1768808537387384e-05 0 0.025002772455766476 -3.5294198954591604e-06 0 0.024999991031075742 -2.0805007963282001e-08 0 0.024959372787190123 -2.1768808537387384e-05 0 0.024999991031075742 -2.0805007963282001e-08 0 0.024999894491229538 -3.9111834794571935e-08 0 0.024959372787190123 -2.1768808537387384e-05 0 0.024999894491229538 -3.9111834794571935e-08 0 0.024909131042733724 -1.2675653737607964e-05 0 0.024959372787190123 -2.1768808537387384e-05 0 0.024909131042733724 -1.2675653737607964e-05 0 0.024802353175639825 -1.3913303306031836e-05 0 0.024909131042733724 -1.2675653737607964e-05 0 0.024802353175639825 -1.3913303306031836e-05 0 0.024810380909755906 6.9833555935654962e-06 0 0.024802353175639825 -1.3913303306031836e-05 0 0.024810380909755906 6.9833555935654962e-06 0 0.024605332267602469 6.9762828604338898e-06 0 0.024909131042733724 -1.2675653737607964e-05 0 0.024999794697275913 1.9817131352383556e-09 0 0.024810380909755906 6.9833555935654962e-06 0 0.024999894491229538 -3.9111834794571935e-08 0 0.024909131042733724 -1.2675653737607964e-05 0 0.024999794697275913 1.9817131352383556e-09 0 0.024999794697275913 1.9817131352383556e-09 0 0.024810380909755906 6.9833555935654962e-06 0 0.024911837797176428 1.4601348577920812e-05 0 0.024999794697275913 1.9817131352383556e-09 0 0.024999890896917988 4.9339736159227112e-08 0 0.024911837797176428 1.4601348577920812e-05 0 0.024999890896917988 4.9339736159227112e-08 0 0.024911837797176428 1.4601348577920812e-05 0 0.024956597716659513 1.1893363178766403e-05 0 0.024911837797176428 1.4601348577920812e-05 0 0.024838121662417018 -7.867320272463958e-06 0 0.024956597716659513 1.1893363178766403e-05 0 0.024810380909755906 6.9833555935654962e-06 0 0.024911837797176428 1.4601348577920812e-05 0 0.024838121662417018 -7.867320272463958e-06 0 0.024810380909755906 6.9833555935654962e-06 0 0.024838121662417018 -7.867320272463958e-06 0 0.024605332267602469 6.9762828604338898e-06 0 0.024734198090588404 -0.00010593347026290365 0 0.02435945215172744 2.9701422559707076e-06 0 0.024605332267602469 6.9762828604338898e-06 0 0.024838121662417018 -7.867320272463958e-06 0 0.024734198090588404 -0.00010593347026290365 0 0.024605332267602469 6.9762828604338898e-06 0 0.024838121662417018 -7.867320272463958e-06 0 0.024877850851353286 -0.00010655160311984667 0 0.024734198090588404 -0.00010593347026290365 0 0.024838121662417018 -7.867320272463958e-06 0 0.024877850851353286 -0.00010655160311984667 0 0.024956597716659513 1.1893363178766403e-05 0 0.024009795772754566 0.00011563884966690886 0 0.023991910595944684 -1.2424772734807411e-05 0 0.022719878896147089 0.00018117418713538082 0 0.022796219466081895 0.00036599474626598002 0 0.023253703390341964 3.0594951077746214e-05 0 0.024009795772754566 0.00011563884966690886 0 0.02366908477162696 7.6091529604384165e-05 0 0.022796219466081895 0.00036599474626598002 0 0.023253703390341964 3.0594951077746214e-05 0 0.023079702607169961 0.00042720264176850895 0 0.022890342987637133 0.00046740659824858876 0 0.022796219466081895 0.00036599474626598002 0 0.023079702607169961 0.00042720264176850895 0 0.022890342987637133 0.00046740659824858876 0 0.023079702607169961 0.00042720264176850895 0 0.022973106956959796 0.0005658766146540864 0 0.022773754869825306 0.00043659186653581945 0 0.022796219466081895 0.00036599474626598002 0 0.022799976368924012 0.00039279831830002531 0 0.022818347444098643 0.0004381962365362459 0 0.022800753749844253 0.00049130601310042271 0 0.022854649197475613 0.00052548192465122533 0 0.022890342987637133 0.00046740659824858876 0 0.022796219466081895 0.00036599474626598002 0 0.022818347444098643 0.0004381962365362459 0 0.022890342987637133 0.00046740659824858876 0 0.022818347444098643 0.0004381962365362459 0 0.022854649197475613 0.00052548192465122533 0 0.022818347444098643 0.0004381962365362459 0 0.022799976368924012 0.00039279831830002531 0 0.022800753749844253 0.00049130601310042271 0 0.022747106463760349 0.00049222289909592125 0 0.022799976368924012 0.00039279831830002531 0 0.022800753749844253 0.00049130601310042271 0 0.022796219466081895 0.00036599474626598002 0 0.022818347444098643 0.0004381962365362459 0 0.022799976368924012 0.00039279831830002531 0 0.023253703390341964 3.0594951077746214e-05 0 0.023627641009562893 0.00042547145470242135 0 0.02435945215172744 2.9701422559707076e-06 0 0.023991910595944684 -1.2424772734807411e-05 0 0.024321388208086932 -1.3463484780426193e-05 0 0.023079702607169961 0.00042720264176850895 0 0.023627641009562893 0.00042547145470242135 0 0.023166035067840835 0.00069554794039161823 0 0.023253703390341964 3.0594951077746214e-05 0 0.023079702607169961 0.00042720264176850895 0 0.023627641009562893 0.00042547145470242135 0 0.023627641009562893 0.00042547145470242135 0 0.02435945215172744 2.9701422559707076e-06 0 0.024333159198687608 0.0004372109859883012 0 0.02435945215172744 2.9701422559707076e-06 0 0.024333159198687608 0.0004372109859883012 0 0.024699644196556039 4.4479290931129155e-05 0 0.02499626195017652 3.0018378513018502e-05 0 0.024903050440370299 0.00029925116066175798 0 0.024699644196556039 4.4479290931129155e-05 0 0.024333159198687608 0.0004372109859883012 0 0.024903050440370299 0.00029925116066175798 0 0.024699644196556039 4.4479290931129155e-05 0 0.02499626195017652 3.0018378513018502e-05 0 0.024802353175639825 -1.3913303306031836e-05 0 0.024699644196556039 4.4479290931129155e-05 0 0.024802353175639825 -1.3913303306031836e-05 0 0.024699644196556039 4.4479290931129155e-05 0 0.024605332267602469 6.9762828604338898e-06 0 0.02435945215172744 2.9701422559707076e-06 0 0.024699644196556039 4.4479290931129155e-05 0 0.024605332267602469 6.9762828604338898e-06 0 0.024993791239158469 1.3579579114924248e-06 0 0.024999993848019764 3.5984771272114125e-10 0 0.024999993381974374 1.7162187844764579e-09 0 0.024993791239158469 1.3579579114924248e-06 0 0.024999993848019764 3.5984771272114125e-10 0 0.024992946442807109 1.880222380113713e-06 0 0.024993791239158469 1.3579579114924248e-06 0 0.024992946442807109 1.880222380113713e-06 0 0.024986464938600031 5.9586439574052381e-09 0 0.024992946442807109 1.880222380113713e-06 0 0.024975941745841206 2.8915037274057096e-06 0 0.024986464938600031 5.9586439574052381e-09 0 0.024999993848019764 3.5984771272114125e-10 0 0.024992946442807109 1.880222380113713e-06 0 0.024999972728621069 9.3584037737135565e-09 0 0.024992946442807109 1.880222380113713e-06 0 0.024999972728621069 9.3584037737135565e-09 0 0.024975941745841206 2.8915037274057096e-06 0 0.024999890896917988 4.9339736159227112e-08 0 0.025000009821121452 -1.9503928304505758e-08 0 0.024956597716659513 1.1893363178766403e-05 0 0.024999903690619895 -2.965718695886339e-08 0 0.025088921812728142 3.1137345109735435e-07 0 0.024953580428385119 -8.7430827784737432e-06 0 0.024975941745841206 2.8915037274057096e-06 0 0.024974812706755119 -6.4896342280500086e-06 0 0.024009795772754566 0.00011563884966690886 0 0.025088921812728142 3.1137345109735435e-07 0 0.022799976368924012 0.00039279831830002531 0 0.023097690755121698 0.00049407019516316242 0 0.022848305111046709 0.00035049905897946784 0 0.022773754869825306 0.00043659186653581945 0 0.022799976368924012 0.00039279831830002531 0 0.023097690755121698 0.00049407019516316242 0 0.024009795772754566 0.00011563884966690886 0 0.024004375486646433 0.00025530493176675959 0 0.022776281194639314 0.00045599746390279593 0 0.022742484226214221 0.00049806590658800444 0 0.022747106463760349 0.00049222289909592125 0 0.022799976368924012 0.00039279831830002531 0 0.022637722529395176 0.00050089440795451478 0 0.023097690755121698 0.00049407019516316242 0 0.02323714675370701 0.00029620475615909817 0 0.022848305111046709 0.00035049905897946784 0 0.024975941745841206 2.8915037274057096e-06 0 0.024974812706755119 -6.4896342280500086e-06 0 0.024986464938600031 5.9586439574052381e-09 0 0.024993791239158469 1.3579579114924248e-06 0 0.024986464938600031 5.9586439574052381e-09 0 0.024984925762807132 -8.1299486159854427e-07 0 0.024993791239158469 1.3579579114924248e-06 0 0.024984925762807132 -8.1299486159854427e-07 0 0.024994550813307842 1.9643924322760254e-06 0 0.024974812706755119 -6.4896342280500086e-06 0 0.024986464938600031 5.9586439574052381e-09 0 0.024984925762807132 -8.1299486159854427e-07 0 0.023097690755121698 0.00049407019516316242 0 0.023522167486107519 0.00049593543856841496 0 0.02323714675370701 0.00029620475615909817 0 0.024004375486646433 0.00025530493176675959 0 0.024268324473799209 0.00024613875107854411 0 0.023522167486107519 0.00049593543856841496 0 0.023674672402106543 0.00025543688119452371 0 0.02323714675370701 0.00029620475615909817 0 0.022450535765277526 0.00059908732031228721 0 0.02194153628863971 0.00064807221863325752 0 0.022450535765277526 0.00059908732031228721 0 0.022809592971437812 0.00071388095265822766 0 0.022166713643526247 0.00080199212612214567 0 0.022562037022944612 0.00092050331723274694 0 0.022580166898117822 0.00064652981907854052 0 0.023432021953312593 0.00037403399040957745 0 0.023046068547407692 0.00042754024131334709 0 0.023092148610235636 0.00054132838202771479 0 0.022948627585772052 0.00041302760302523912 0 0.023136151691986028 0.00046299868666702966 0 0.022868465363124781 0.0005595606414533844 0 0.022948627585772052 0.00041302760302523912 0 0.022779090619385756 0.00047976386127968366 0 0.023092148610235636 0.00054132838202771479 0 0.022868465363124781 0.0005595606414533844 0 0.022948627585772052 0.00041302760302523912 0 0.022380422098026903 0.00061849416742914794 0 0.022474840147506149 0.00064553708322057004 0 0.022613570146976642 0.0005305992408846386 0 0.022450535765277526 0.00059908732031228721 0 0.022686262821163927 0.00055778447443337515 0 0.022039430601485294 0.0004304102563687164 0 0.022215718597047192 0.00048141120028306791 0 0.021811074589544135 0.00080933386127780653 0 0.022450535765277526 0.00059908732031228721 0 0.022301632030313642 0.0006139421873822122 0 0.02248513981109802 0.00073339744786624409 0 0.022542107902700562 0.00068848050820990677 0 0.02256813172716635 0.00075974271879551767 0 0.022301632030313642 0.0006139421873822122 0 0.022552401210623588 0.00074797173172691208 0 0.022301632030313642 0.0006139421873822122 0 0.022686262821163927 0.00055778447443337515 0 0.023046068547407692 0.00042754024131334709 0 0.022742484226214221 0.00049806590658800444 0 0.022868465363124781 0.0005595606414533844 0 0.022779090619385756 0.00047976386127968366 0 0.022659904435061998 0.00057829993426266604 0 0.022542107902700562 0.00068848050820990677 0 0.02269647342332843 0.00051472438192768342 0 0.022672679554425465 0.00065225438057975402 0 0.022686262821163927 0.00055778447443337515 0 0.022742484226214221 0.00049806590658800444 0 0.022542107902700562 0.00068848050820990677 0 0.022672679554425465 0.00065225438057975402 0 0.022609562857841676 0.00072328757278315584 0 0.02269647342332843 0.00051472438192768342 0 0.022672679554425465 0.00065225438057975402 0 0.022774498409957416 0.00058737446758343886 0 0.022747106463760349 0.00049222289909592125 0 0.02269647342332843 0.00051472438192768342 0 0.022774498409957416 0.00058737446758343886 0 0.022738717224679357 0.0004982195460093503 0 0.022742484226214221 0.00049806590658800444 0 0.022672679554425465 0.00065225438057975402 0 0.022774498409957416 0.00058737446758343886 0 0.022766419552123017 0.00072174750017199541 0 0.022672679554425465 0.00065225438057975402 0 0.022609562857841676 0.00072328757278315584 0 0.022766419552123017 0.00072174750017199541 0 0.022542107902700562 0.00068848050820990677 0 0.022609562857841676 0.00072328757278315584 0 0.02256813172716635 0.00075974271879551767 0 0.022609562857841676 0.00072328757278315584 0 0.02256813172716635 0.00075974271879551767 0 0.022774706155485075 0.00081489722366682028 0 0.022609562857841676 0.00072328757278315584 0 0.022766419552123017 0.00072174750017199541 0 0.022774706155485075 0.00081489722366682028 0 0.02256813172716635 0.00075974271879551767 0 0.022774706155485075 0.00081489722366682028 0 0.022715582829235921 0.00089313299402886024 0 0.02256813172716635 0.00075974271879551767 0 0.022467364121015271 0.0009642028459470876 0 0.022715582829235921 0.00089313299402886024 0 0.022467364121015271 0.0009642028459470876 0 0.022715582829235921 0.00089313299402886024 0 0.022677666029358778 0.0011041041971231623 0 0.022467364121015271 0.0009642028459470876 0 0.022171063404696489 0.00095597285457697887 0 0.022281194628557804 0.0012773455161363425 0 0.022467364121015271 0.0009642028459470876 0 0.022279263461561852 0.00080516101812930154 0 0.022171063404696489 0.00095597285457697887 0 0.022143207249017624 0.00054746773633298205 0 0.02256813172716635 0.00075974271879551767 0 0.022279263461561852 0.00080516101812930154 0 0.02256813172716635 0.00075974271879551767 0 0.022467364121015271 0.0009642028459470876 0 0.022279263461561852 0.00080516101812930154 0 0.022301632030313642 0.0006139421873822122 0 0.021753147862165544 0.00081670581581844669 0 0.022143207249017624 0.00054746773633298205 0 0.022046607535819426 0.00083665102117056183 0 0.021739785612305485 0.0008403327968731063 0 0.022143207249017624 0.00054746773633298205 0 0.022279263461561852 0.00080516101812930154 0 0.022046607535819426 0.00083665102117056183 0 0.022279263461561852 0.00080516101812930154 0 0.022046607535819426 0.00083665102117056183 0 0.022171063404696489 0.00095597285457697887 0 0.022046607535819426 0.00083665102117056183 0 0.022171063404696489 0.00095597285457697887 0 0.02191944328474835 0.0010344741352952065 0 0.022171063404696489 0.00095597285457697887 0 0.02191944328474835 0.0010344741352952065 0 0.022067266016232854 0.0011736104201585924 0 0.022046607535819426 0.00083665102117056183 0 0.02191944328474835 0.0010344741352952065 0 0.021739785612305485 0.0008403327968731063 0 0.02191944328474835 0.0010344741352952065 0 0.021681245651430217 0.0011074122634319708 0 0.021739785612305485 0.0008403327968731063 0 0.022039430601485294 0.0004304102563687164 0 0.021811074589544135 0.00080933386127780653 0 0.021577253270186982 0.00060416223918432382 0 0.022832111607956371 0.0010351213797626523 0 0.022965884111934041 0.00097052894359228234 0 0.022886093552790296 0.0010688885586026796 0 0.022965884111934041 0.00097052894359228234 0 0.02307500061392705 0.00096733500415653497 0 0.023054345158172562 0.0009284682811115596 0 0.022965884111934041 0.00097052894359228234 0 0.02307500061392705 0.00096733500415653497 0 0.022886093552790296 0.0010688885586026796 0 0.022965884111934041 0.00097052894359228234 0 0.023054345158172562 0.0009284682811115596 0 0.022900575666330775 0.00093003471938172253 0 0.022832111607956371 0.0010351213797626523 0 0.022965884111934041 0.00097052894359228234 0 0.02276673259152082 0.0010182816453514381 0 0.022965884111934041 0.00097052894359228234 0 0.02276673259152082 0.0010182816453514381 0 0.022900575666330775 0.00093003471938172253 0 0.022571683606814989 0.0010912120402771148 0 0.02276673259152082 0.0010182816453514381 0 0.022635169128122402 0.0010734671988661391 0 0.022571683606814989 0.0010912120402771148 0 0.022832111607956371 0.0010351213797626523 0 0.02276673259152082 0.0010182816453514381 0 0.023078392647701566 0.00096501618285927109 0 0.023803871699835239 0.00085701030595054513 0 0.022571683606814989 0.0010912120402771148 0 0.022832111607956371 0.0010351213797626523 0 0.022886093552790296 0.0010688885586026796 0 0.023078392647701566 0.00096501618285927109 0 0.022461668976229303 0.0012392376338515969 0 0.024645815745148084 0.00039769446652199901 0 0.023803871699835239 0.00085701030595054513 0 0.024343047066772056 0.00084039527489777562 0 0.024293588863263865 0.00046601276913160945 0 0.024080476723876153 0.00070415062228393875 0 0.024333159198687608 0.0004372109859883012 0 0.024903050440370299 0.00029925116066175798 0 0.024351741711288274 0.0012238984367031996 0 0.024333159198687608 0.0004372109859883012 0 0.024351741711288274 0.0012238984367031996 0 0.023427373034445174 0.00089915577091528994 0 0.02307500061392705 0.00096733500415653497 0 0.022886093552790296 0.0010688885586026796 0 0.023427373034445174 0.00089915577091528994 0 0.023803871699835239 0.00085701030595054513 0 0.023396049093719586 0.00090326852864079524 0 0.023627641009562893 0.00042547145470242135 0 0.024333159198687608 0.0004372109859883012 0 0.023427373034445174 0.00089915577091528994 0 0.023627641009562893 0.00042547145470242135 0 0.023166035067840835 0.00069554794039161823 0 0.023427373034445174 0.00089915577091528994 0 0.023079702607169961 0.00042720264176850895 0 0.023166035067840835 0.00069554794039161823 0 0.022973106956959796 0.0005658766146540864 0 0.023166035067840835 0.00069554794039161823 0 0.023086285994751009 0.00085319476797913324 0 0.023427373034445174 0.00089915577091528994 0 0.023166035067840835 0.00069554794039161823 0 0.023086285994751009 0.00085319476797913324 0 0.022935600793085698 0.00069174004993650029 0 0.023086285994751009 0.00085319476797913324 0 0.023427373034445174 0.00089915577091528994 0 0.023054345158172562 0.0009284682811115596 0 0.022774498409957416 0.00058737446758343886 0 0.022854649197475613 0.00052548192465122533 0 0.022935600793085698 0.00069174004993650029 0 0.022774498409957416 0.00058737446758343886 0 0.022800753749844253 0.00049130601310042271 0 0.022854649197475613 0.00052548192465122533 0 0.022747106463760349 0.00049222289909592125 0 0.022774498409957416 0.00058737446758343886 0 0.022800753749844253 0.00049130601310042271 0 0.023166035067840835 0.00069554794039161823 0 0.022973106956959796 0.0005658766146540864 0 0.022935600793085698 0.00069174004993650029 0 0.022890342987637133 0.00046740659824858876 0 0.022854649197475613 0.00052548192465122533 0 0.022973106956959796 0.0005658766146540864 0 0.022854649197475613 0.00052548192465122533 0 0.022973106956959796 0.0005658766146540864 0 0.022935600793085698 0.00069174004993650029 0 0.023086285994751009 0.00085319476797913324 0 0.022935600793085698 0.00069174004993650029 0 0.022889650531877269 0.00079106503250677351 0 0.022935600793085698 0.00069174004993650029 0 0.022766419552123017 0.00072174750017199541 0 0.022889650531877269 0.00079106503250677351 0 0.022774498409957416 0.00058737446758343886 0 0.022935600793085698 0.00069174004993650029 0 0.022766419552123017 0.00072174750017199541 0 0.022774706155485075 0.00081489722366682028 0 0.02295277867558471 0.00086379896643616432 0 0.022902510758918866 0.00088836772006907201 0 0.022766419552123017 0.00072174750017199541 0 0.022889650531877269 0.00079106503250677351 0 0.022774706155485075 0.00081489722366682028 0 0.023086285994751009 0.00085319476797913324 0 0.022889650531877269 0.00079106503250677351 0 0.02295277867558471 0.00086379896643616432 0 0.022889650531877269 0.00079106503250677351 0 0.022774706155485075 0.00081489722366682028 0 0.02295277867558471 0.00086379896643616432 0 0.023054345158172562 0.0009284682811115596 0 0.02295277867558471 0.00086379896643616432 0 0.022902510758918866 0.00088836772006907201 0 0.02307500061392705 0.00096733500415653497 0 0.023427373034445174 0.00089915577091528994 0 0.023054345158172562 0.0009284682811115596 0 0.023086285994751009 0.00085319476797913324 0 0.023054345158172562 0.0009284682811115596 0 0.02295277867558471 0.00086379896643616432 0 0.023054345158172562 0.0009284682811115596 0 0.022902510758918866 0.00088836772006907201 0 0.022900575666330775 0.00093003471938172253 0 0.022902510758918866 0.00088836772006907201 0 0.022847196002734875 0.00083984399322428456 0 0.022900575666330775 0.00093003471938172253 0 0.022774706155485075 0.00081489722366682028 0 0.022902510758918866 0.00088836772006907201 0 0.022715582829235921 0.00089313299402886024 0 0.022715582829235921 0.00089313299402886024 0 0.022802831031455195 0.0009172686042517779 0 0.022677666029358778 0.0011041041971231623 0 0.022902510758918866 0.00088836772006907201 0 0.022715582829235921 0.00089313299402886024 0 0.022802831031455195 0.0009172686042517779 0 0.022802831031455195 0.0009172686042517779 0 0.022847196002734875 0.00083984399322428456 0 0.022828656254418312 0.00081339331539012486 0 0.022902510758918866 0.00088836772006907201 0 0.022802831031455195 0.0009172686042517779 0 0.022847196002734875 0.00083984399322428456 0 0.022847196002734875 0.00083984399322428456 0 0.022716486549592314 0.00070747055611541075 0 0.022718802440978857 0.00083530641634014385 0 0.022847196002734875 0.00083984399322428456 0 0.022716486549592314 0.00070747055611541075 0 0.022828656254418312 0.00081339331539012486 0 0.022847196002734875 0.00083984399322428456 0 0.022718802440978857 0.00083530641634014385 0 0.022900575666330775 0.00093003471938172253 0 0.02276673259152082 0.0010182816453514381 0 0.022756217108642739 0.00095862871068644827 0 0.022900575666330775 0.00093003471938172253 0 0.022718802440978857 0.00083530641634014385 0 0.022756217108642739 0.00095862871068644827 0 0.022900575666330775 0.00093003471938172253 0 0.02224314090414093 0.0014771967962071313 0 0.022635169128122402 0.0010734671988661391 0 0.022421318026684279 0.00085995728786657883 0 0.02276673259152082 0.0010182816453514381 0 0.022756217108642739 0.00095862871068644827 0 0.022635169128122402 0.0010734671988661391 0 0.022756217108642739 0.00095862871068644827 0 0.022635169128122402 0.0010734671988661391 0 0.022421318026684279 0.00085995728786657883 0 0.022718802440978857 0.00083530641634014385 0 0.022756217108642739 0.00095862871068644827 0 0.022421318026684279 0.00085995728786657883 0 0.022716486549592314 0.00070747055611541075 0 0.022323677278682775 0.00067121833298211444 0 0.02256661648257462 0.00048848794073801116 0 0.021768884732750401 0.00056701112616423137 0 0.022323677278682775 0.00067121833298211444 0 0.02256661648257462 0.00048848794073801116 0 0.022125496309105302 0.00074330313752900984 0 0.022421318026684279 0.00085995728786657883 0 0.022323677278682775 0.00067121833298211444 0 0.022716486549592314 0.00070747055611541075 0 0.022718802440978857 0.00083530641634014385 0 0.022323677278682775 0.00067121833298211444 0 0.022718802440978857 0.00083530641634014385 0 0.022421318026684279 0.00085995728786657883 0 0.022323677278682775 0.00067121833298211444 0 0.011854407807801164 6.4545191826712134e-05 0 0.011636345091388221 0.00010521630504221487 0 0.01168958876220955 -8.6990365199798237e-05 0 0.017868875328836228 3.3142193418539088e-05 0 0.016327206184395052 0.00036837187749884034 0 0.011869595454426205 -0.00021243133154762232 0 0.01168958876220955 -8.6990365199798237e-05 0 0.01162278282993698 -0.00029410419906049259 0 0.011854407807801164 6.4545191826712134e-05 0 0.011869595454426205 -0.00021243133154762232 0 0.01168958876220955 -8.6990365199798237e-05 0 0.011854407807801164 6.4545191826712134e-05 0 0.011869595454426205 -0.00021243133154762232 0 0.012077346854625132 -7.8206790930206911e-05 0 0.011869595454426205 -0.00021243133154762232 0 0.012077346854625132 -7.8206790930206911e-05 0 0.012089148785569792 -0.00027947326690864777 0 0.015756475331929976 -0.0010936813722930067 0 0.014138898501294822 -0.0009582463077160183 0 0.014234126494333636 -0.00033940074725233088 0 0.017868875328836228 3.3142193418539088e-05 0 0.01239983830531893 -0.00011319734209958281 0 0.022716486549592314 0.00070747055611541075 0 0.02256661648257462 0.00048848794073801116 0 0.022828656254418312 0.00081339331539012486 0 0.017868875328836228 3.3142193418539088e-05 0 0.01875015915371368 -0.00011533355454599716 0 0.014138898501294822 -0.0009582463077160183 0 0.013318862336075486 -0.0003389652087611904 0 0.014234126494333636 -0.00033940074725233088 0 0.022802831031455195 0.0009172686042517779 0 0.022828656254418312 0.00081339331539012486 0 0.022677666029358778 0.0011041041971231623 0 0.014138898501294822 -0.0009582463077160183 0 0.01283059686281933 -0.00072186073961437371 0 0.013318862336075486 -0.0003389652087611904 0 0.01875015915371368 -0.00011533355454599716 0 0.017670684899680385 0.00019790267572736438 0 0.013318862336075486 -0.0003389652087611904 0 0.012947240374633269 0.00014969154879777366 0 0.014234126494333636 -0.00033940074725233088 0 0.01283059686281933 -0.00072186073961437371 0 0.012836763471384181 -0.00027169473945319139 0 0.013318862336075486 -0.0003389652087611904 0 0.012836763471384181 -0.00027169473945319139 0 0.013318862336075486 -0.0003389652087611904 0 0.012947240374633269 0.00014969154879777366 0 0.012947240374633269 0.00014969154879777366 0 0.012589058700831797 -2.8190637565169489e-06 0 0.012537593496057273 0.00019988508236077842 0 0.012836763471384181 -0.00027169473945319139 0 0.012947240374633269 0.00014969154879777366 0 0.012589058700831797 -2.8190637565169489e-06 0 0.012756105883117675 -0.00010427936023450395 0 0.01239983830531893 -0.00011319734209958281 0 0.012344046837924508 -0.00022122108840669292 0 0.012077346854625132 -7.8206790930206911e-05 0 0.012089148785569792 -0.00027947326690864777 0 0.012344046837924508 -0.00022122108840669292 0 0.012089148785569792 -0.00027947326690864777 0 0.01218532548960144 -0.00044540478473831805 0 0.012089148785569792 -0.00027947326690864777 0 0.01218532548960144 -0.00044540478473831805 0 0.011973162510889377 -0.0004527334725505939 0 0.01254472102366542 0.00018852829774088355 0 0.012505747695389278 0.00029719346260315583 0 0.012599315139293459 0.00041195198144235466 0 0.012505747695389278 0.00029719346260315583 0 0.012432787617485879 0.00043516734835417567 0 0.012599315139293459 0.00041195198144235466 0 0.012756105883117675 -0.00010427936023450395 0 0.012489105484025114 2.791958527721005e-05 0 0.01254472102366542 0.00018852829774088355 0 0.012505747695389278 0.00029719346260315583 0 0.012537593496057273 0.00019988508236077842 0 0.012756105883117675 -0.00010427936023450395 0 0.012585891443756813 9.0429279560214046e-05 0 0.012599315139293459 0.00041195198144235466 0 0.012519269903511734 0.0007100126021804561 0 0.012413441234954959 0.00064273577543814508 0 0.012432787617485879 0.00043516734835417567 0 0.012599315139293459 0.00041195198144235466 0 0.012413441234954959 0.00064273577543814508 0 0.012489105484025114 2.791958527721005e-05 0 0.011145224962603581 9.0169070007093421e-05 0 0.012599315139293459 0.00041195198144235466 0 0.012659810609945425 0.0006628446821433443 0 0.012519269903511734 0.0007100126021804561 0 0.01218532548960144 -0.00044540478473831805 0 0.011973162510889377 -0.0004527334725505939 0 0.012013555195693281 -0.00067128710451367106 0 0.01205872522027338 -0.00078257667885200987 0 0.011145224962603581 9.0169070007093421e-05 0 0.011973162510889377 -0.0004527334725505939 0 0.011691009806284156 -0.00063512513246896803 0 0.011975575827489612 -0.0006830495264375907 0 0.011973162510889377 -0.0004527334725505939 0 0.011691009806284156 -0.00063512513246896803 0 0.011743410327261899 -0.0004164949610624732 0 0.011691009806284156 -0.00063512513246896803 0 0.011743410327261899 -0.0004164949610624732 0 0.011565311824374666 -0.00048361570934973472 0 0.011869595454426205 -0.00021243133154762232 0 0.011743410327261899 -0.0004164949610624732 0 0.01162278282993698 -0.00029410419906049259 0 0.011743410327261899 -0.0004164949610624732 0 0.01162278282993698 -0.00029410419906049259 0 0.011565311824374666 -0.00048361570934973472 0 0.011869595454426205 -0.00021243133154762232 0 0.012089148785569792 -0.00027947326690864777 0 0.011973162510889377 -0.0004527334725505939 0 0.011869595454426205 -0.00021243133154762232 0 0.011973162510889377 -0.0004527334725505939 0 0.011743410327261899 -0.0004164949610624732 0 0.011537582311781055 -0.00014030199543725301 0 0.011480504402657335 -6.0616846355364695e-05 0 0.011488499333310928 -0.00021939446554559655 0 0.011537582311781055 -0.00014030199543725301 0 0.011655298154140127 -0.00030643682351556134 0 0.011488499333310928 -0.00021939446554559655 0 0.011537582311781055 -0.00014030199543725301 0 0.011648920612846173 -0.00013152165228328997 0 0.011543711001336115 -7.7072320862589058e-05 0 0.011537582311781055 -0.00014030199543725301 0 0.011655298154140127 -0.00030643682351556134 0 0.011648920612846173 -0.00013152165228328997 0 0.021681245651430217 0.0011074122634319708 0 0.021838871590483949 0.0013513912708407604 0 0.021599632804911312 0.0012358712338586255 0 0.02191944328474835 0.0010344741352952065 0 0.021681245651430217 0.0011074122634319708 0 0.021838871590483949 0.0013513912708407604 0 0.021838871590483949 0.0013513912708407604 0 0.021475009684826834 0.0013699326749811004 0 0.021599632804911312 0.0012358712338586255 0 0.016179724950166469 0.00054711440503084515 0 0.019151150246780803 0.00055075110805849546 0 0.021838871590483949 0.0013513912708407604 0 0.022067266016232854 0.0011736104201585924 0 0.022281194628557804 0.0012773455161363425 0 0.016179724950166469 0.00054711440503084515 0 0.017328204738742123 0.00038956724466378885 0 0.02191944328474835 0.0010344741352952065 0 0.021838871590483949 0.0013513912708407604 0 0.022067266016232854 0.0011736104201585924 0 0.011655298154140127 -0.00030643682351556134 0 0.011824553745546246 -0.00018167516188990048 0 0.012090932944926214 -0.00046016760887802145 0 0.011655298154140127 -0.00030643682351556134 0 0.011648920612846173 -0.00013152165228328997 0 0.011824553745546246 -0.00018167516188990048 0 0.011648920612846173 -0.00013152165228328997 0 0.011824553745546246 -0.00018167516188990048 0 0.011777669853914921 -5.8544394377241548e-07 0 0.011824553745546246 -0.00018167516188990048 0 0.011986984968789055 -5.9966707004269394e-05 0 0.011777669853914921 -5.8544394377241548e-07 0 0.011824553745546246 -0.00018167516188990048 0 0.011986984968789055 -5.9966707004269394e-05 0 0.012090932944926214 -0.00046016760887802145 0 0.012190726672636935 -6.3845838343337929e-05 0 0.012090932944926214 -0.00046016760887802145 0 0.012457774941211032 -0.00020879003615118541 0 0.011986984968789055 -5.9966707004269394e-05 0 0.012190726672636935 -6.3845838343337929e-05 0 0.012090932944926214 -0.00046016760887802145 0 0.022171063404696489 0.00095597285457697887 0 0.022067266016232854 0.0011736104201585924 0 0.022281194628557804 0.0012773455161363425 0 0.022467364121015271 0.0009642028459470876 0 0.022677666029358778 0.0011041041971231623 0 0.022281194628557804 0.0012773455161363425 0 0.017670684899680385 0.00019790267572736438 0 0.017328204738742123 0.00038956724466378885 0 0.01283059686281933 -0.00072186073961437371 0 0.012090932944926214 -0.00046016760887802145 0 0.012457774941211032 -0.00020879003615118541 0 0.01283059686281933 -0.00072186073961437371 0 0.012836763471384181 -0.00027169473945319139 0 0.012457774941211032 -0.00020879003615118541 0 0.012836763471384181 -0.00027169473945319139 0 0.012457774941211032 -0.00020879003615118541 0 0.012589058700831797 -2.8190637565169489e-06 0 0.012190726672636935 -6.3845838343337929e-05 0 0.012457774941211032 -0.00020879003615118541 0 0.0123582540599052 0.00012162483988731215 0 0.012457774941211032 -0.00020879003615118541 0 0.012589058700831797 -2.8190637565169489e-06 0 0.0123582540599052 0.00012162483988731215 0 0.012537593496057273 0.00019988508236077842 0 0.0123582540599052 0.00012162483988731215 0 0.012412581966001987 0.00029652732047792088 0 0.012589058700831797 -2.8190637565169489e-06 0 0.012537593496057273 0.00019988508236077842 0 0.0123582540599052 0.00012162483988731215 0 0.012505747695389278 0.00029719346260315583 0 0.012537593496057273 0.00019988508236077842 0 0.012412581966001987 0.00029652732047792088 0 0.0123582540599052 0.00012162483988731215 0 0.01224150446454874 0.00029223861778947691 0 0.012125023066292047 0.00014088284623926488 0 0.0123582540599052 0.00012162483988731215 0 0.01224150446454874 0.00029223861778947691 0 0.012412581966001987 0.00029652732047792088 0 0.01224150446454874 0.00029223861778947691 0 0.012412581966001987 0.00029652732047792088 0 0.012321373395676304 0.00040462103551621239 0 0.012505747695389278 0.00029719346260315583 0 0.012432787617485879 0.00043516734835417567 0 0.012412581966001987 0.00029652732047792088 0 0.012432787617485879 0.00043516734835417567 0 0.01227930775562614 0.00056225930126348818 0 0.012321373395676304 0.00040462103551621239 0 0.012432787617485879 0.00043516734835417567 0 0.012412581966001987 0.00029652732047792088 0 0.012321373395676304 0.00040462103551621239 0 0.012432787617485879 0.00043516734835417567 0 0.01227930775562614 0.00056225930126348818 0 0.012413441234954959 0.00064273577543814508 0 0.01224150446454874 0.00029223861778947691 0 0.012321373395676304 0.00040462103551621239 0 0.012191408637857159 0.00043983039964011798 0 0.01227930775562614 0.00056225930126348818 0 0.012321373395676304 0.00040462103551621239 0 0.012191408637857159 0.00043983039964011798 0 0.01224150446454874 0.00029223861778947691 0 0.012191408637857159 0.00043983039964011798 0 0.012079611422619669 0.00029265398615990626 0 0.012191408637857159 0.00043983039964011798 0 0.012033937576063062 0.00041727304358485807 0 0.012079611422619669 0.00029265398615990626 0 0.012191408637857159 0.00043983039964011798 0 0.012033937576063062 0.00041727304358485807 0 0.012043758114123488 0.00064972160252961195 0 0.01227930775562614 0.00056225930126348818 0 0.012191408637857159 0.00043983039964011798 0 0.012043758114123488 0.00064972160252961195 0 0.011907111098997872 0.00047443134606355144 0 0.012033937576063062 0.00041727304358485807 0 0.012043758114123488 0.00064972160252961195 0 0.011907111098997872 0.00047443134606355144 0 0.011781064073127975 0.00059792350063056846 0 0.012043758114123488 0.00064972160252961195 0 0.011907111098997872 0.00047443134606355144 0 0.012033937576063062 0.00041727304358485807 0 0.011918963755505732 0.00030016279810344545 0 0.012033937576063062 0.00041727304358485807 0 0.011918963755505732 0.00030016279810344545 0 0.012079611422619669 0.00029265398615990626 0 0.011918963755505732 0.00030016279810344545 0 0.011947055109711835 0.00014671914887001721 0 0.012079611422619669 0.00029265398615990626 0 0.011947055109711835 0.00014671914887001721 0 0.012079611422619669 0.00029265398615990626 0 0.012125023066292047 0.00014088284623926488 0 0.01224150446454874 0.00029223861778947691 0 0.012079611422619669 0.00029265398615990626 0 0.012125023066292047 0.00014088284623926488 0 0.011986984968789055 -5.9966707004269394e-05 0 0.012190726672636935 -6.3845838343337929e-05 0 0.012125023066292047 0.00014088284623926488 0 0.012190726672636935 -6.3845838343337929e-05 0 0.0123582540599052 0.00012162483988731215 0 0.012125023066292047 0.00014088284623926488 0 0.011986984968789055 -5.9966707004269394e-05 0 0.011947055109711835 0.00014671914887001721 0 0.011777669853914921 -5.8544394377241548e-07 0 0.011986984968789055 -5.9966707004269394e-05 0 0.011947055109711835 0.00014671914887001721 0 0.012125023066292047 0.00014088284623926488 0 0.011947055109711835 0.00014671914887001721 0 0.011777669853914921 -5.8544394377241548e-07 0 0.011800891428412794 0.00017120938147117113 0 0.011777669853914921 -5.8544394377241548e-07 0 0.011664819791250294 7.4521968959009681e-05 0 0.011800891428412794 0.00017120938147117113 0 0.011648920612846173 -0.00013152165228328997 0 0.011777669853914921 -5.8544394377241548e-07 0 0.011617717892097019 -3.2136326843290759e-05 0 0.011777669853914921 -5.8544394377241548e-07 0 0.011617717892097019 -3.2136326843290759e-05 0 0.011664819791250294 7.4521968959009681e-05 0 0.011617717892097019 -3.2136326843290759e-05 0 0.011664819791250294 7.4521968959009681e-05 0 0.011543756107924264 1.4325149186864565e-05 0 0.011664819791250294 7.4521968959009681e-05 0 0.011659905424189265 0.00021996220288842872 0 0.011800891428412794 0.00017120938147117113 0 0.011664819791250294 7.4521968959009681e-05 0 0.011579690796026859 0.00011053067706205201 0 0.011543756107924264 1.4325149186864565e-05 0 0.011664819791250294 7.4521968959009681e-05 0 0.011579690796026859 0.00011053067706205201 0 0.011659905424189265 0.00021996220288842872 0 0.011579690796026859 0.00011053067706205201 0 0.011659905424189265 0.00021996220288842872 0 0.011498819730306675 0.00026851276591504752 0 0.011659905424189265 0.00021996220288842872 0 0.011800891428412794 0.00017120938147117113 0 0.011785040426728909 0.00035225008238965122 0 0.011918963755505732 0.00030016279810344545 0 0.011800891428412794 0.00017120938147117113 0 0.011785040426728909 0.00035225008238965122 0 0.011918963755505732 0.00030016279810344545 0 0.011947055109711835 0.00014671914887001721 0 0.011800891428412794 0.00017120938147117113 0 0.011907111098997872 0.00047443134606355144 0 0.011918963755505732 0.00030016279810344545 0 0.011785040426728909 0.00035225008238965122 0 0.011907111098997872 0.00047443134606355144 0 0.011785040426728909 0.00035225008238965122 0 0.011781064073127975 0.00059792350063056846 0 0.011785040426728909 0.00035225008238965122 0 0.011781064073127975 0.00059792350063056846 0 0.011646477643807421 0.000392769283954059 0 0.011781064073127975 0.00059792350063056846 0 0.011646477643807421 0.000392769283954059 0 0.011493398145997964 0.00053266379103086023 0 0.011646477643807421 0.000392769283954059 0 0.011498819730306675 0.00026851276591504752 0 0.011493398145997964 0.00053266379103086023 0 0.011659905424189265 0.00021996220288842872 0 0.011785040426728909 0.00035225008238965122 0 0.011646477643807421 0.000392769283954059 0 0.011659905424189265 0.00021996220288842872 0 0.011646477643807421 0.000392769283954059 0 0.011498819730306675 0.00026851276591504752 0 0.011498819730306675 0.00026851276591504752 0 0.01131044044156272 0.0004135784321330932 0 0.011493398145997964 0.00053266379103086023 0 0.011498819730306675 0.00026851276591504752 0 0.01131044044156272 0.0004135784321330932 0 0.011267985557590786 0.00019858042030893288 0 0.01131044044156272 0.0004135784321330932 0 0.011493398145997964 0.00053266379103086023 0 0.011192049812469688 0.00078769107574012205 0 0.01131044044156272 0.0004135784321330932 0 0.011192049812469688 0.00078769107574012205 0 0.011009152217687248 0.00036514707380601205 0 0.01131044044156272 0.0004135784321330932 0 0.011267985557590786 0.00019858042030893288 0 0.011009152217687248 0.00036514707380601205 0 0.011267985557590786 0.00019858042030893288 0 0.011260782917818292 -0.00015204365515533109 0 0.011009152217687248 0.00036514707380601205 0 0.011267985557590786 0.00019858042030893288 0 0.011346437580677923 -1.188219465349135e-05 0 0.011260782917818292 -0.00015204365515533109 0 0.011267985557590786 0.00019858042030893288 0 0.011346437580677923 -1.188219465349135e-05 0 0.01145721587669301 8.9136511115170758e-05 0 0.011498819730306675 0.00026851276591504752 0 0.011267985557590786 0.00019858042030893288 0 0.01145721587669301 8.9136511115170758e-05 0 0.011579690796026859 0.00011053067706205201 0 0.011498819730306675 0.00026851276591504752 0 0.01145721587669301 8.9136511115170758e-05 0 0.011579690796026859 0.00011053067706205201 0 0.01145721587669301 8.9136511115170758e-05 0 0.011543756107924264 1.4325149186864565e-05 0 0.01145721587669301 8.9136511115170758e-05 0 0.011455257659385562 -3.0306038115645064e-05 0 0.011543756107924264 1.4325149186864565e-05 0 0.011346437580677923 -1.188219465349135e-05 0 0.01145721587669301 8.9136511115170758e-05 0 0.011455257659385562 -3.0306038115645064e-05 0 0.011455257659385562 -3.0306038115645064e-05 0 0.011543711001336115 -7.7072320862589058e-05 0 0.011479702095026686 -7.6213454263664726e-05 0 0.011455257659385562 -3.0306038115645064e-05 0 0.011543756107924264 1.4325149186864565e-05 0 0.011543711001336115 -7.7072320862589058e-05 0 0.011537582311781055 -0.00014030199543725301 0 0.011543711001336115 -7.7072320862589058e-05 0 0.011479702095026686 -7.6213454263664726e-05 0 0.011617717892097019 -3.2136326843290759e-05 0 0.011543756107924264 1.4325149186864565e-05 0 0.011543711001336115 -7.7072320862589058e-05 0 0.011648920612846173 -0.00013152165228328997 0 0.011617717892097019 -3.2136326843290759e-05 0 0.011543711001336115 -7.7072320862589058e-05 0 0.011537582311781055 -0.00014030199543725301 0 0.011479702095026686 -7.6213454263664726e-05 0 0.011480504402657335 -6.0616846355364695e-05 0 0.011346437580677923 -1.188219465349135e-05 0 0.011455257659385562 -3.0306038115645064e-05 0 0.01139400022073065 -4.9730025021579392e-05 0 0.011455257659385562 -3.0306038115645064e-05 0 0.011479702095026686 -7.6213454263664726e-05 0 0.01139400022073065 -4.9730025021579392e-05 0 0.013081762542706496 -0.00091756682043190446 0 0.013499604545465772 -0.00100457415600242 0 0.012828089815532937 -0.00053665623192649693 0 0.013499604545465772 -0.00100457415600242 0 0.009481918720591587 0.0021173539654022475 0 0.010490329107066992 0.0013803136936503637 0 0.0062774914809654867 0.0044173411233176417 0 0.0062319275055302782 0.0036122179345674048 0 0.0071241056335610052 0.003559819415694737 0 0.009481918720591587 0.0021173539654022475 0 0.0081803937666284094 0.0027281534589703319 0 0.0097694368129690647 0.0014437526338127067 0 0.0097709361489503443 0.0014672917418096165 0 0.009729401810698899 0.0014346145113111001 0 0.011192049812469688 0.00078769107574012205 0 0.011574252052721879 0.00079759698999219881 0 0.01151494589148737 0.0012913564616842627 0 0.011192049812469688 0.00078769107574012205 0 0.01151494589148737 0.0012913564616842627 0 0.010844082494760229 0.0013803190513339858 0 0.011493398145997964 0.00053266379103086023 0 0.011192049812469688 0.00078769107574012205 0 0.011574252052721879 0.00079759698999219881 0 0.012212622300219253 0.00042619772476053377 0 0.009481918720591587 0.0021173539654022475 0 0.011574252052721879 0.00079759698999219881 0 0.011816039034585283 0.00084883491459211116 0 0.01151494589148737 0.0012913564616842627 0 0.011781064073127975 0.00059792350063056846 0 0.011493398145997964 0.00053266379103086023 0 0.011574252052721879 0.00079759698999219881 0 0.011781064073127975 0.00059792350063056846 0 0.011816039034585283 0.00084883491459211116 0 0.012043758114123488 0.00064972160252961195 0 0.011781064073127975 0.00059792350063056846 0 0.011574252052721879 0.00079759698999219881 0 0.011816039034585283 0.00084883491459211116 0 0.011816039034585283 0.00084883491459211116 0 0.011608000026160492 0.0010372837548515304 0 0.012028017191724317 0.0009806687732140662 0 0.0062774914809654867 0.0044173411233176417 0 0.004842528723941259 0.0044487649618916358 0 0.005430365435096212 0.0037111719786785411 0 0.009481918720591587 0.0021173539654022475 0 0.0082592827572363532 0.0027635534871885943 0 0.0062774914809654867 0.0044173411233176417 0 0.005430365435096212 0.0037111719786785411 0 0.0062319275055302782 0.0036122179345674048 0 0.004842528723941259 0.0044487649618916358 0 0.0043998591629125158 0.0035507359648992301 0 0.005430365435096212 0.0037111719786785411 0 0.011816039034585283 0.00084883491459211116 0 0.012028017191724317 0.0009806687732140662 0 0.012043758114123488 0.00064972160252961195 0 0.012028017191724317 0.0009806687732140662 0 0.012043758114123488 0.00064972160252961195 0 0.012232813836113746 0.00074745511096387476 0 0.012232813836113746 0.00074745511096387476 0 0.012413441234954959 0.00064273577543814508 0 0.012345512758498435 0.00088569955967843813 0 0.01227930775562614 0.00056225930126348818 0 0.012043758114123488 0.00064972160252961195 0 0.012232813836113746 0.00074745511096387476 0 0.01227930775562614 0.00056225930126348818 0 0.012232813836113746 0.00074745511096387476 0 0.012413441234954959 0.00064273577543814508 0 0.0082592827572363532 0.0027635534871885943 0 0.0080251233667144126 0.0027456078771580517 0 0.012028017191724317 0.0009806687732140662 0 0.012232813836113746 0.00074745511096387476 0 0.012345512758498435 0.00088569955967843813 0 0.004842528723941259 0.0044487649618916358 0 0.0043998591629125158 0.0035507359648992301 0 0.0031976132948914621 0.0044463714566873773 0 0.0043998591629125158 0.0035507359648992301 0 0.0034133764944026999 0.0033032114407750219 0 0.0031976132948914621 0.0044463714566873773 0 0.0043998591629125158 0.0035507359648992301 0 0.0034133764944026999 0.0033032114407750219 0 0.0042203017858840402 0.0023963361316481852 0 0.0043843540959509243 0.0034236121285361968 0 0.0042665676137329193 0.0025695309881631906 0 0.0034133764944026999 0.0033032114407750219 0 0.0042203017858840402 0.0023963361316481852 0 0.0027484401707467379 0.0024976767307327121 0 0.0042665676137329193 0.0025695309881631906 0 0.0026632232613898565 0.0014795871480231492 0 0.0033599800470871634 0.0018927051337809015 0 0.0042203017858840402 0.0023963361316481852 0 0.0040847306909962975 0.0011683862060831167 0 0.0033599800470871634 0.0018927051337809015 0 0.0042203017858840402 0.0023963361316481852 0 0.0027484401707467379 0.0024976767307327121 0 0.0043384358404297638 0.0026508404608335309 0 0.0051985308141569613 0.0024246282456049507 0 0.0050118835349624302 0.003067822938041797 0 0.0043384358404297638 0.0026508404608335309 0 0.0051985308141569613 0.0024246282456049507 0 0.0042231153758589971 0.0017278348685015167 0 0.0051985308141569613 0.0024246282456049507 0 0.0050118835349624302 0.003067822938041797 0 0.0057767255671272626 0.0031005866825279853 0 0.0043998591629125158 0.0035507359648992301 0 0.0043384358404297638 0.0026508404608335309 0 0.0050118835349624302 0.003067822938041797 0 0.0043998591629125158 0.0035507359648992301 0 0.0050118835349624302 0.003067822938041797 0 0.005430365435096212 0.0037111719786785411 0 0.005430365435096212 0.0037111719786785411 0 0.0062319275055302782 0.0036122179345674048 0 0.0057767255671272626 0.0031005866825279853 0 0.0062319275055302782 0.0036122179345674048 0 0.0057767255671272626 0.0031005866825279853 0 0.0065326755867453328 0.0030925640225630932 0 0.0050118835349624302 0.003067822938041797 0 0.005430365435096212 0.0037111719786785411 0 0.0057767255671272626 0.0031005866825279853 0 0.0051985308141569613 0.0024246282456049507 0 0.0057767255671272626 0.0031005866825279853 0 0.0061005961901848763 0.0024184309304053084 0 0.0051985308141569613 0.0024246282456049507 0 0.0061005961901848763 0.0024184309304053084 0 0.0058241035631812731 0.0015272731563557098 0 0.0057767255671272626 0.0031005866825279853 0 0.0061005961901848763 0.0024184309304053084 0 0.0065326755867453328 0.0030925640225630932 0 0.0061005961901848763 0.0024184309304053084 0 0.0067834185842345646 0.0024909691050610506 0 0.0065326755867453328 0.0030925640225630932 0 0.0061005961901848763 0.0024184309304053084 0 0.0067834185842345646 0.0024909691050610506 0 0.0066914739763890676 0.0019703783993759946 0 0.0067834185842345646 0.0024909691050610506 0 0.0072714495953507697 0.0019890026912397717 0 0.0066914739763890676 0.0019703783993759946 0 0.0067834185842345646 0.0024909691050610506 0 0.0065326755867453328 0.0030925640225630932 0 0.0071655190944475613 0.0028669915387617034 0 0.0062319275055302782 0.0036122179345674048 0 0.0065326755867453328 0.0030925640225630932 0 0.0071241056335610052 0.003559819415694737 0 0.0065326755867453328 0.0030925640225630932 0 0.0071241056335610052 0.003559819415694737 0 0.0071655190944475613 0.0028669915387617034 0 0.0074880194396577246 0.00069602708644769698 0 0.0077882690011919489 0.0010904573415449282 0 0.007845782837240356 0.00070410062463115977 0 0.0057453348811590983 0.00090680844875851336 0 0.0059989314275433626 0.0018065845511755017 0 0.0015819284883600842 0.0015282211937152545 0 0.0016172137683224371 0.0015412221729590866 0 0.0015744808166490499 0.0015163727912890499 0 0.0057453348811590983 0.00090680844875851336 0 0.00174031853388252 0.00069863637479133846 0 0.0015819284883600842 0.0015282211937152545 0 0.0015744808166490499 0.0015163727912890499 0 0.0015388795002783805 0.0014520856901455174 0 0.0057453348811590983 0.00090680844875851336 0 0.0065801454217014159 0.00016819120870687753 0 0.0014818776527359746 0.0013018771658265256 0 0.0015388795002783805 0.0014520856901455174 0 0.0017236396019854976 0.001258142184526123 0 0.0015388795002783805 0.0014520856901455174 0 0.0016819756082236137 0.0014340734153170478 0 0.0017236396019854976 0.001258142184526123 0 0.011691009806284156 -0.00063512513246896803 0 0.011777891207198399 -0.00090273282321104767 0 0.011507990287868499 -0.00091236504410716708 0 0.0057453348811590983 0.00090680844875851336 0 0.011145224962603581 9.0169070007093421e-05 0 0.011691009806284156 -0.00063512513246896803 0 0.011777891207198399 -0.00090273282321104767 0 0.011975575827489612 -0.0006830495264375907 0 0.011145224962603581 9.0169070007093421e-05 0 0.0059989314275433626 0.0018065845511755017 0 0.012659810609945425 0.0006628446821433443 0 0.012519269903511734 0.0007100126021804561 0 0.012562203755449419 0.00085279454474349958 0 0.012519269903511734 0.0007100126021804561 0 0.012413441234954959 0.00064273577543814508 0 0.012345512758498435 0.00088569955967843813 0 0.0031976132948914621 0.0044463714566873773 0 0.001581824162673523 0.0043814168885497762 0 0.0025339164769130917 0.003569215624811539 0 0.0034133764944026999 0.0033032114407750219 0 0.0031976132948914621 0.0044463714566873773 0 0.0025339164769130917 0.003569215624811539 0 0.0080251233667144126 0.0027456078771580517 0 0.0059989314275433626 0.0018065845511755017 0 0.012519269903511734 0.0007100126021804561 0 0.012345512758498435 0.00088569955967843813 0 0.012562203755449419 0.00085279454474349958 0 0.0016172137683224371 0.0015412221729590866 0 0.001628164306921011 0.0015436352640141417 0 0.0015744808166490499 0.0015163727912890499 0 0.001581824162673523 0.0043814168885497762 0 0.0017502321986030453 0.0029324179791771336 0 0.0025339164769130917 0.003569215624811539 0 0.0059989314275433626 0.0018065845511755017 0 0.0012985097835732779 0.0025643045918928064 0 0.0017502321986030453 0.0029324179791771336 0 0.0025339164769130917 0.003569215624811539 0 0.0027484401707467379 0.0024976767307327121 0 0.0034133764944026999 0.0033032114407750219 0 0.0025339164769130917 0.003569215624811539 0 0.0027484401707467379 0.0024976767307327121 0 0.0027484401707467379 0.0024976767307327121 0 0.0018811614523684154 0.0014085298546046134 0 0.0023903370878161326 0.0014568713110579149 0 0.0033599800470871634 0.0018927051337809015 0 0.0027484401707467379 0.0024976767307327121 0 0.0023903370878161326 0.0014568713110579149 0 0.001628164306921011 0.0015436352640141417 0 0.0016207584759872658 0.0014753674779000134 0 0.0018811614523684154 0.0014085298546046134 0 0.0017502321986030453 0.0029324179791771336 0 0.0027484401707467379 0.0024976767307327121 0 0.0018811614523684154 0.0014085298546046134 0 0.0012985097835732779 0.0025643045918928064 0 0.0019499724013929214 0.0012905981535884978 0 0.0016207584759872658 0.0014753674779000134 0 0.0014776043142606277 0.001362990684725467 0 0.0018811614523684154 0.0014085298546046134 0 0.001628164306921011 0.0015436352640141417 0 0.0016207584759872658 0.0014753674779000134 0 0.0015227636550605279 0.0015150423653177154 0 0.0014110834867185394 0.0015125233539104196 0 0.0012934558360741511 0.0013026850834052951 0 0.0014776043142606277 0.001362990684725467 0 0.0016207584759872658 0.0014753674779000134 0 0.0015227636550605279 0.0015150423653177154 0 0.0014776043142606277 0.001362990684725467 0 0.0015227636550605279 0.0015150423653177154 0 0.0014110834867185394 0.0015125233539104196 0 0.0014776043142606277 0.001362990684725467 0 0.001628164306921011 0.0015436352640141417 0 0.0015227636550605279 0.0015150423653177154 0 0.0015744808166490499 0.0015163727912890499 0 0.0015227636550605279 0.0015150423653177154 0 0.0015744808166490499 0.0015163727912890499 0 0.0015388795002783805 0.0014520856901455174 0 0.0015227636550605279 0.0015150423653177154 0 0.0015388795002783805 0.0014520856901455174 0 0.0014110834867185394 0.0015125233539104196 0 0.0015388795002783805 0.0014520856901455174 0 0.0014110834867185394 0.0015125233539104196 0 0.0016819756082236137 0.0014340734153170478 0 0.0014110834867185394 0.0015125233539104196 0 0.0011625627544411502 0.0013421296295381441 0 0.0012934558360741511 0.0013026850834052951 0 0.0014110834867185394 0.0015125233539104196 0 0.0011625627544411502 0.0013421296295381441 0 0.0010552681731481495 0.0014931491656689382 0 0.0011625627544411502 0.0013421296295381441 0 0.0010552681731481495 0.0014931491656689382 0 0.00099718832784916707 0.0012967495694513362 0 0.0014864531633787437 0.0015012365685660883 0 0.0012884788327432095 0.0016217227516975275 0 0.00087714947653080616 0.0014890940094359352 0 0.00082367625941876551 0.0012525573307049489 0 0.00099718832784916707 0.0012967495694513362 0 0.0010552681731481495 0.0014931491656689382 0 0.00087714947653080616 0.0014890940094359352 0 0.00099718832784916707 0.0012967495694513362 0 0.0012884788327432095 0.0016217227516975275 0 0.0020949554614751184 0.00043933886261016787 0 0.0017949786203349419 0.0015948937640788388 0 0.0021304482552909382 0.001547260107459688 0 0.0018676644107308426 0.0014039855124654413 0 0.0021304482552909382 0.001547260107459688 0 0.0018676644107308426 0.0014039855124654413 0 0.0020374565113445149 0.0012144702948965705 0 0.0020949554614751184 0.00043933886261016787 0 0.0077262901612315136 -0.00049742600161048055 0 0.0014110834867185394 0.0015125233539104196 0 0.0017949786203349419 0.0015948937640788388 0 0.0016819756082236137 0.0014340734153170478 0 0.0017949786203349419 0.0015948937640788388 0 0.0018676644107308426 0.0014039855124654413 0 0.0016819756082236137 0.0014340734153170478 0 0.0018676644107308426 0.0014039855124654413 0 0.0016819756082236137 0.0014340734153170478 0 0.0017236396019854976 0.001258142184526123 0 0.0018676644107308426 0.0014039855124654413 0 0.0017236396019854976 0.001258142184526123 0 0.0020374565113445149 0.0012144702948965705 0 0.0065801454217014159 0.00016819120870687753 0 0.0077262901612315136 -0.00049742600161048055 0 0.011121331378714719 -0.00077967317949758437 0 0.011383511319542367 -0.00064867055735329617 0 0.011190156730902623 -0.00057982048033596901 0 0.011254818842526194 -0.00098979495396859509 0 0.011121331378714719 -0.00077967317949758437 0 0.011383511319542367 -0.00064867055735329617 0 0.0077262901612315136 -0.00049742600161048055 0 0.012068088858141134 -0.00061268369077334297 0 0.011507990287868499 -0.00091236504410716708 0 0.011231139421677484 -0.00092153643841470551 0 0.011383511319542367 -0.00064867055735329617 0 0.011691009806284156 -0.00063512513246896803 0 0.011507990287868499 -0.00091236504410716708 0 0.011383511319542367 -0.00064867055735329617 0 0.011274303671601012 -0.00060550577039875997 0 0.0077091945034894367 -0.0010813711177609635 0 0.010966753694478307 -0.00077338242769407403 0 0.010815535067864812 -0.0011474523276117335 0 0.01066124611001126 -0.00084610363390430422 0 0.0077091945034894367 -0.0010813711177609635 0 0.0085155160158034756 -0.0012292266004290163 0 0.010941936144082159 -0.00066816748291828978 0 0.011121331378714719 -0.00077967317949758437 0 0.011190156730902623 -0.00057982048033596901 0 0.010941936144082159 -0.00066816748291828978 0 0.011121331378714719 -0.00077967317949758437 0 0.010791634905479398 -0.0010047017872397534 0 0.0054182902064560364 -0.00070055375348813769 0 0.00558927458519606 -0.00070604777611576975 0 0.0055421653639708655 -0.00064552693406122214 0 0.0077262901612315136 -0.00049742600161048055 0 0.0077091945034894367 -0.0010813711177609635 0 0.011254818842526194 -0.00098979495396859509 0 0.011121331378714719 -0.00077967317949758437 0 0.010791634905479398 -0.0010047017872397534 0 0.0077091945034894367 -0.0010813711177609635 0 0.0058016588481097833 -0.00020739576601278538 0 0.0059787852291005045 -0.00093943447874916916 0 0.0063158342800907728 -0.00093444186960375982 0 0.0064091282652570612 -0.0016642123914418164 0 0.0055848157526883699 -0.00070986280735537864 0 0.0055920107427417515 -0.00064586630251820356 0 0.0055421653639708655 -0.00064552693406122214 0 0.0077091945034894367 -0.0010813711177609635 0 0.0029145426784193029 -0.0018503563145627479 0 0.0077091945034894367 -0.0010813711177609635 0 0.0033464775608391785 -0.0014866537715477498 0 0.00076567352657141237 -0.002164166624459553 0 0.0006204721098904424 -0.0018456564425680486 0 0.00089488812114610111 -0.0018750739576268573 0 0.0046225688147714852 -0.0015878287463854993 0 0.0043676343959916045 -0.0015938158875420769 0 0.00452050485994501 -0.0018911798308080333 0 0.0029145426784193029 -0.0018503563145627479 0 0.0033464775608391785 -0.0014866537715477498 0 0.0026894648672802072 -0.0015193478443439935 0 0.0025968742830975691 -0.0013409678739208094 0 0.0027340518164126449 -0.0013657745522814267 0 0.0006204721098904424 -0.0018456564425680486 0 0.00068214339908273351 -0.0016512717097555499 0 0.00089488812114610111 -0.0018750739576268573 0 0.0033464775608391785 -0.0014866537715477498 0 0.0027271219830844857 -0.0015096533387006941 0 0.0033464775608391785 -0.0014866537715477498 0 0.001362698682868234 -0.0016733157399422378 0 0.0055920107427417515 -0.00064586630251820356 0 0.0055421653639708655 -0.00064552693406122214 0 0.0055617624015061031 -0.00059880098047139258 0 0.00048307199620405475 -0.0014003266112213014 0 0.00045133698011464498 -0.001340109467105324 0 0.00062690685617188186 -0.0014261739488455303 0 0.0027271219830844857 -0.0015096533387006941 0 0.0024544412237601588 -0.0013030470066291418 0 0.00045133698011464498 -0.001340109467105324 0 0.00062690685617188186 -0.0014261739488455303 0 0.00050888727320071647 -0.0011750401574470567 0 0.0027271219830844857 -0.0015096533387006941 0 0.001362698682868234 -0.0016733157399422378 0 0.0054329734170846054 -0.00056923563402484453 0 0.0055421653639708655 -0.00064552693406122214 0 0.0055617624015061031 -0.00059880098047139258 0 0.0054329734170846054 -0.00056923563402484453 0 0.0054182902064560364 -0.00070055375348813769 0 0.0055421653639708655 -0.00064552693406122214 0 -5.1153902624714463e-05 -0.0012957918615022878 0 0.00048539087200349452 -0.0014023492525065476 0 0.00045133698011464498 -0.001340109467105324 0 0.0020949554614751184 0.00043933886261016787 0 0.0027271219830844857 -0.0015096533387006941 0 0.00024906486616815663 -0.0011313379885973631 0 0.00040909272222811543 -0.00095112026961108602 0 0.00011952003544855114 -0.00064743122694878861 0 0.0020949554614751184 0.00043933886261016787 0 0.0002506879687113604 0.00014742456114541006 0 -5.1153902624714463e-05 -0.0012957918615022878 0 0.00024906486616815663 -0.0011313379885973631 0 0.00011952003544855114 -0.00064743122694878861 0 -5.1153902624714463e-05 -0.0012957918615022878 0 0.00045133698011464498 -0.001340109467105324 0 0.00024906486616815663 -0.0011313379885973631 0 0.001362698682868234 -0.0016733157399422378 0 0.00073900316708540705 -0.0011587047584718812 0 0.00062690685617188186 -0.0014261739488455303 0 0.00050888727320071647 -0.0011750401574470567 0 0.00074020858850836282 -0.0010708356779741263 0 0.00024906486616815663 -0.0011313379885973631 0 0.00050888727320071647 -0.0011750401574470567 0 0.00040909272222811543 -0.00095112026961108602 0 0.00045133698011464498 -0.001340109467105324 0 0.00024906486616815663 -0.0011313379885973631 0 0.00050888727320071647 -0.0011750401574470567 0 0.00050888727320071647 -0.0011750401574470567 0 0.00040909272222811543 -0.00095112026961108602 0 0.00074020858850836282 -0.0010708356779741263 0 0.00040909272222811543 -0.00095112026961108602 0 0.00074020858850836282 -0.0010708356779741263 0 0.00057769906678306116 -0.00067114186108488015 0 0.00074020858850836282 -0.0010708356779741263 0 0.0010521887909279411 -0.0010326732320734586 0 0.00091171306170248316 -0.00070222434334417264 0 0.00056335152522418296 -0.0016218598493250634 0 0.00074020858850836282 -0.0010708356779741263 0 0.00094380834868026931 -0.0013847304268243855 0 0.00074020858850836282 -0.0010708356779741263 0 0.00094380834868026931 -0.0013847304268243855 0 0.0010521887909279411 -0.0010326732320734586 0 0.00094380834868026931 -0.0013847304268243855 0 0.0010521887909279411 -0.0010326732320734586 0 0.0012989400852591441 -0.0012866861727874976 0 0.0010521887909279411 -0.0010326732320734586 0 0.0012989400852591441 -0.0012866861727874976 0 0.0012728449466529125 -0.00082566518123077459 0 0.001515462230183008 -0.00097970538365069497 0 0.0012989400852591441 -0.0012866861727874976 0 0.0012728449466529125 -0.00082566518123077459 0 0.0012989400852591441 -0.0012866861727874976 0 0.0014845854914298186 -0.001655305200534132 0 0.0017204024336676734 -0.0013291891904760565 0 0.001515462230183008 -0.00097970538365069497 0 0.0012989400852591441 -0.0012866861727874976 0 0.0017204024336676734 -0.0013291891904760565 0 0.0014845854914298186 -0.001655305200534132 0 0.0017204024336676734 -0.0013291891904760565 0 0.0017240665755510899 -0.0020285713867069944 0 0.0012989400852591441 -0.0012866861727874976 0 0.0014845854914298186 -0.001655305200534132 0 0.0011801982644305722 -0.0017295665662706682 0 0.0014845854914298186 -0.001655305200534132 0 0.0014264601069819386 -0.0019178306803698162 0 0.0017240665755510899 -0.0020285713867069944 0 0.0014264601069819386 -0.0019178306803698162 0 0.0011801982644305722 -0.0017295665662706682 0 0.0011521775908723178 -0.0019684047945387468 0 0.0014845854914298186 -0.001655305200534132 0 0.0014264601069819386 -0.0019178306803698162 0 0.0011801982644305722 -0.0017295665662706682 0 0.0011801982644305722 -0.0017295665662706682 0 0.00089488812114610111 -0.0018750739576268573 0 0.0011521775908723178 -0.0019684047945387468 0 0.00068214339908273351 -0.0016512717097555499 0 0.0011801982644305722 -0.0017295665662706682 0 0.00089488812114610111 -0.0018750739576268573 0 0.00056335152522418296 -0.0016218598493250634 0 0.00094380834868026931 -0.0013847304268243855 0 0.0011801982644305722 -0.0017295665662706682 0 0.001362698682868234 -0.0016733157399422378 0 0.00087350450641947395 -0.0016793650197743451 0 0.00094380834868026931 -0.0013847304268243855 0 0.0012989400852591441 -0.0012866861727874976 0 0.0011801982644305722 -0.0017295665662706682 0 0.0037223257075394383 -0.00058402470500416599 0 0.0029044402565577099 -0.001142117637371454 0 0.0026896003195675455 -0.0005461371510804803 0 0.0029044402565577099 -0.001142117637371454 0 0.0022123002630167585 -0.0014034887869238549 0 0.0026896003195675455 -0.0005461371510804803 0 0.0037223257075394383 -0.00058402470500416599 0 0.0029044402565577099 -0.001142117637371454 0 0.0035488457478636917 -0.0017504540503767074 0 0.0029044402565577099 -0.001142117637371454 0 0.0022123002630167585 -0.0014034887869238549 0 0.0027049341666770003 -0.0021616258104035424 0 0.001515462230183008 -0.00097970538365069497 0 0.0017204024336676734 -0.0013291891904760565 0 0.0017848502338662694 -0.00046040674548338304 0 0.0022123002630167585 -0.0014034887869238549 0 0.0017204024336676734 -0.0013291891904760565 0 0.0017848502338662694 -0.00046040674548338304 0 0.0016715696499040706 -0.0014512240549719125 0 0.00150214508996302 -0.0025074651581114267 0 0.0017204024336676734 -0.0013291891904760565 0 0.0019961996368536351 -0.0021673100965644617 0 0.0011898633124522537 -0.0030307162283709364 0 0.0019961996368536351 -0.0021673100965644617 0 0.0021999995255084534 -0.0029676290081370586 0 0.0011898633124522537 -0.0030307162283709364 0 0.0019961996368536351 -0.0021673100965644617 0 0.0027049341666770003 -0.0021616258104035424 0 0.0021999995255084534 -0.0029676290081370586 0 0.0022123002630167585 -0.0014034887869238549 0 0.0017204024336676734 -0.0013291891904760565 0 0.0019961996368536351 -0.0021673100965644617 0 0.0022123002630167585 -0.0014034887869238549 0 0.0019961996368536351 -0.0021673100965644617 0 0.0027049341666770003 -0.0021616258104035424 0 0.0043281586640359308 -0.0025235834707256007 0 0.0035488457478636917 -0.0017504540503767074 0 0.00334162053339777 -0.0031074030192810584 0 0.0027049341666770003 -0.0021616258104035424 0 0.0035488457478636917 -0.0017504540503767074 0 0.00334162053339777 -0.0031074030192810584 0 0.0027049341666770003 -0.0021616258104035424 0 0.00334162053339777 -0.0031074030192810584 0 0.0021999995255084534 -0.0029676290081370586 0 0.0029044402565577099 -0.001142117637371454 0 0.0027049341666770003 -0.0021616258104035424 0 0.0035488457478636917 -0.0017504540503767074 0 0.00334162053339777 -0.0031074030192810584 0 0.0022127831604762489 -0.0041164486949894297 0 0.0032355509856080464 -0.0047996590549506269 0 0.0050699329638650486 -0.0039571061152821937 0 0.00334162053339777 -0.0031074030192810584 0 0.0032355509856080464 -0.0047996590549506269 0 0.00334162053339777 -0.0031074030192810584 0 0.0022127831604762489 -0.0041164486949894297 0 0.0021999995255084534 -0.0029676290081370586 0 0.0022127831604762489 -0.0041164486949894297 0 0.0011898633124522537 -0.0030307162283709364 0 0.00091279336241874233 -0.0051060317367876296 0 0.0022127831604762489 -0.0041164486949894297 0 0.0021999995255084534 -0.0029676290081370586 0 0.0011898633124522537 -0.0030307162283709364 0 0.0022127831604762489 -0.0041164486949894297 0 0.0020154124835156748 -0.0052957991886966281 0 0.00091279336241874233 -0.0051060317367876296 0 0.0020154124835156748 -0.0052957991886966281 0 0.00091279336241874233 -0.0051060317367876296 0 0.0014604918551369079 -0.006096284839303071 0 0.0022127831604762489 -0.0041164486949894297 0 0.0020154124835156748 -0.0052957991886966281 0 0.0032355509856080464 -0.0047996590549506269 0 0.0045404462667423479 -0.005821138443913112 0 0.0032355509856080464 -0.0047996590549506269 0 0.0025509489903625233 -0.0063872247525555599 0 0.0020154124835156748 -0.0052957991886966281 0 0.0032355509856080464 -0.0047996590549506269 0 0.0025509489903625233 -0.0063872247525555599 0 0.00095991481027866879 -0.0022099350725795631 0 0.0012685796380644853 -0.0023663965266065567 0 0.0014958556426397107 -0.002170449510700122 0 0.00076567352657141237 -0.002164166624459553 0 0.0011521775908723178 -0.0019684047945387468 0 0.0014958556426397107 -0.002170449510700122 0 0.0029145426784193029 -0.0018503563145627479 0 0.00063517074009343706 -0.0022370879429993167 0 0.00076567352657141237 -0.002164166624459553 0 0.00089488812114610111 -0.0018750739576268573 0 0.0011521775908723178 -0.0019684047945387468 0 0.0014958556426397107 -0.002170449510700122 0 0.0017240665755510899 -0.0020285713867069944 0 0.0017259998904402335 -0.0026876718833620957 0 0.00150214508996302 -0.0025074651581114267 0 0.0010129069011781753 -0.0040006641480998468 0 0.0014264601069819386 -0.0019178306803698162 0 0.0011521775908723178 -0.0019684047945387468 0 0.0014958556426397107 -0.002170449510700122 0 0.0014264601069819386 -0.0019178306803698162 0 0.0014958556426397107 -0.002170449510700122 0 0.0017240665755510899 -0.0020285713867069944 0 0.0012685796380644853 -0.0023663965266065567 0 0.0014958556426397107 -0.002170449510700122 0 0.0014348617165195873 -0.0025096299369283355 0 0.0014958556426397107 -0.002170449510700122 0 0.0014348617165195873 -0.0025096299369283355 0 0.0017259998904402335 -0.0026876718833620957 0 0.0014348617165195873 -0.0025096299369283355 0 0.0017259998904402335 -0.0026876718833620957 0 0.0014521909705359985 -0.002799523229198905 0 0.0017259998904402335 -0.0026876718833620957 0 0.0014521909705359985 -0.002799523229198905 0 0.0014812325122260793 -0.0030819550778552378 0 0.0066571442395907945 -0.0015826965018703074 0 0.0064091282652570612 -0.0016642123914418164 0 0.0070117807184954476 -0.0022436084339317185 0 0.0014348617165195873 -0.0025096299369283355 0 0.0014521909705359985 -0.002799523229198905 0 0.0011530565123555768 -0.0026374203297929314 0 0.0029145426784193029 -0.0018503563145627479 0 0.0038614800949621358 -0.0020357257728588823 0 0.00095991481027866879 -0.0022099350725795631 0 0.0012685796380644853 -0.0023663965266065567 0 0.0011530565123555768 -0.0026374203297929314 0 0.0063158342800907728 -0.00093444186960375982 0 0.0066571442395907945 -0.0015826965018703074 0 0.0064091282652570612 -0.0016642123914418164 0 0.0012685796380644853 -0.0023663965266065567 0 0.0014348617165195873 -0.0025096299369283355 0 0.0011530565123555768 -0.0026374203297929314 0 0.01066124611001126 -0.00084610363390430422 0 0.010492923443283878 -0.00054475954687993068 0 0.010801758092646822 -0.00056460924438695966 0 0.0038614800949621358 -0.0020357257728588823 0 0.0055522914000444047 -0.0026854961598244335 0 0.0085155160158034756 -0.0012292266004290163 0 0.0095040171189098247 -0.0015550820206172967 0 0.0064091282652570612 -0.0016642123914418164 0 0.0068607897846037812 -0.0024029830112946666 0 0.0070117807184954476 -0.0022436084339317185 0 0.0014521909705359985 -0.002799523229198905 0 0.0011530565123555768 -0.0026374203297929314 0 0.0014223397356529822 -0.0031435135965466555 0 0.0095040171189098247 -0.0015550820206172967 0 0.0055522914000444047 -0.0026854961598244335 0 0.00091279336241874233 -0.0051060317367876296 0 0.0007347106100734288 -0.0070611275559161486 0 0.0014604918551369079 -0.006096284839303071 0 0.0010129069011781753 -0.0040006641480998468 0 0.0049995303117368823 -0.0050020769250921559 0 0.0017259998904402335 -0.0026876718833620957 0 0.0014812325122260793 -0.0030819550778552378 0 0.0016043691849815852 -0.0031537652241346355 0 0.0014521909705359985 -0.002799523229198905 0 0.0014812325122260793 -0.0030819550778552378 0 0.0014223397356529822 -0.0031435135965466555 0 0.0017259998904402335 -0.0026876718833620957 0 0.0016043691849815852 -0.0031537652241346355 0 0.0017257503839223692 -0.0033718748783300983 0 0.0016460702954590671 -0.003326685696704623 0 0.0016043691849815852 -0.0031537652241346355 0 0.0017257503839223692 -0.0033718748783300983 0 0.0055522914000444047 -0.0026854961598244335 0 0.0077652390831102402 -0.0031207736512043394 0 0.0014272901474505445 -0.0031463398737624848 0 0.001575836453238543 -0.0032861911724861559 0 0.0015877613847174591 -0.0034293479707803694 0 0.007590522019418248 -0.0023149063542602382 0 0.0080701500377029119 -0.0018193534696499616 0 0.0086571132254351264 -0.0029517856179355449 0 0.0014812325122260793 -0.0030819550778552378 0 0.0014272901474505445 -0.0031463398737624848 0 0.0016043691849815852 -0.0031537652241346355 0 0.0048050244409029528 -0.0031540333178708734 0 0.0055522914000444047 -0.0026854961598244335 0 0.0014272901474505445 -0.0031463398737624848 0 0.0016043691849815852 -0.0031537652241346355 0 0.001575836453238543 -0.0032861911724861559 0 0.0016460702954590671 -0.003326685696704623 0 0.0016043691849815852 -0.0031537652241346355 0 0.001575836453238543 -0.0032861911724861559 0 0.0016460702954590671 -0.003326685696704623 0 0.001575836453238543 -0.0032861911724861559 0 0.0016487448314680114 -0.0034042077662158332 0 0.012684532655997206 -0.0023646783050279099 0 0.012691432367092803 -0.0024092415476390521 0 0.012856903611474894 -0.0024632406819399834 0 0.0077652390831102402 -0.0031207736512043394 0 0.01074995688836322 -0.0025194514246865375 0 0.007590522019418248 -0.0023149063542602382 0 0.0086571132254351264 -0.0029517856179355449 0 0.0081015006143709458 -0.0031722636752354915 0 0.012157520781396938 -0.0025170704219671194 0 0.011804286063658468 -0.0022694363785053157 0 0.011518124408448939 -0.0012754359376326383 0 0.01195113630341584 -0.002594109725773884 0 0.012157520781396938 -0.0025170704219671194 0 0.011804286063658468 -0.0022694363785053157 0 0.001575836453238543 -0.0032861911724861559 0 0.0016487448314680114 -0.0034042077662158332 0 0.0015877613847174591 -0.0034293479707803694 0 0.0083810787239534355 -0.0029466248958680036 0 0.0082253899606212332 -0.0030082055755348176 0 0.008550843041180721 -0.0030832114959188648 0 0.0067925551891879028 -0.0038938055230839591 0 0.0077652390831102402 -0.0031207736512043394 0 0.0077652390831102402 -0.0031207736512043394 0 0.0097233088907502877 -0.0029015653238266079 0 0.0058778472530933963 -0.0058602539785973127 0 0.0058871390421988985 -0.0057705831770824192 0 0.0063275028764674859 -0.0058738427277866328 0 0.0076550998212559672 -0.0040232978267123005 0 0.0049995303117368823 -0.0050020769250921559 0 0.0067925551891879028 -0.0038938055230839591 0 0.0049995303117368823 -0.0050020769250921559 0 0.0016460702954590671 -0.003326685696704623 0 0.0016487448314680114 -0.0034042077662158332 0 0.0017257503839223692 -0.0033718748783300983 0 0.0062408548973551248 -0.0034059436891670093 0 0.0070592216712250765 -0.0040690078626390187 0 0.0071793398237043511 -0.0030349893940022458 0 0.0067925551891879028 -0.0038938055230839591 0 0.0076550998212559672 -0.0040232978267123005 0 0.0082253899606212332 -0.0030082055755348176 0 0.008550843041180721 -0.0030832114959188648 0 0.0085026265249761382 -0.0035326195973627524 0 0.0076550998212559672 -0.0040232978267123005 0 0.0097233088907502877 -0.0029015653238266079 0 0.012427940305574542 -0.0028361408624429829 0 0.012337401457167401 -0.0023121964902020889 0 0.012508218768235699 -0.0025735861672040047 0 0.012337401457167401 -0.0023121964902020889 0 0.012656514882312078 -0.0023738010742773482 0 0.012508218768235699 -0.0025735861672040047 0 0.012984567101134202 -0.0022524355995531238 0 0.012592150437323398 -0.0027694786281085336 0 0.013637717055787563 -0.0022954770130452786 0 0.012659334020958576 -0.0032476820442526176 0 0.012592150437323398 -0.0027694786281085336 0 0.013637717055787563 -0.0022954770130452786 0 0.012337401457167401 -0.0023121964902020889 0 0.012656514882312078 -0.0023738010742773482 0 0.012594660361692043 -0.0019430343827641762 0 0.0095040171189098247 -0.0015550820206172967 0 0.012548385838028113 -0.0011459874588818331 0 0.010492923443283878 -0.00054475954687993068 0 0.010801758092646822 -0.00056460924438695966 0 0.010782600154392861 -0.00027885404331930738 0 0.012656514882312078 -0.0023738010742773482 0 0.012984567101134202 -0.0022524355995531238 0 0.012592150437323398 -0.0027694786281085336 0 0.012656514882312078 -0.0023738010742773482 0 0.012984567101134202 -0.0022524355995531238 0 0.012594660361692043 -0.0019430343827641762 0 0.012656514882312078 -0.0023738010742773482 0 0.012508218768235699 -0.0025735861672040047 0 0.012592150437323398 -0.0027694786281085336 0 0.012659334020958576 -0.0032476820442526176 0 0.012419543281004546 -0.0028351447399347592 0 0.012592150437323398 -0.0027694786281085336 0 0.0095040171189098247 -0.0015550820206172967 0 0.01074995688836322 -0.0025194514246865375 0 0.012427940305574542 -0.0028361408624429829 0 0.012508218768235699 -0.0025735861672040047 0 0.012592150437323398 -0.0027694786281085336 0 0.01074995688836322 -0.0025194514246865375 0 0.011190903260616862 -0.0024261575156325323 0 0.0072335680286470779 -0.0052420605435609903 0 0.0065746489495423256 -0.0055097353237319206 0 0.0068513857587939875 -0.0059695122674133386 0 0.0060163906107233919 -0.0054646567399938952 0 0.0041829489207425141 -0.0061699663359895624 0 0.0058871390421988985 -0.0057705831770824192 0 0.0065746489495423256 -0.0055097353237319206 0 0.0063275028764674859 -0.0058738427277866328 0 0.0007347106100734288 -0.0070611275559161486 0 0.0025509489903625233 -0.0063872247525555599 0 0.0014604918551369079 -0.006096284839303071 0 0.0049995303117368823 -0.0050020769250921559 0 0.0041829489207425141 -0.0061699663359895624 0 0.0020154124835156748 -0.0052957991886966281 0 0.0025509489903625233 -0.0063872247525555599 0 0.0014604918551369079 -0.006096284839303071 0 0.0076550998212559672 -0.0040232978267123005 0 0.0099038162985573275 -0.0045197819093889396 0 0.0058778472530933963 -0.0058602539785973127 0 0.0063275028764674859 -0.0058738427277866328 0 0.0064315351820878929 -0.0063246201582739612 0 0.0063275028764674859 -0.0058738427277866328 0 0.0068513857587939875 -0.0059695122674133386 0 0.0064315351820878929 -0.0063246201582739612 0 0.0065746489495423256 -0.0055097353237319206 0 0.0063275028764674859 -0.0058738427277866328 0 0.0068513857587939875 -0.0059695122674133386 0 0.012744179973554919 -0.0023982767825365889 0 0.012850791833506977 -0.0024309142813863944 0 0.012856903611474894 -0.0024632406819399834 0 0.0097198757692520503 -0.0045802031429937069 0 0.0099038162985573275 -0.0045197819093889396 0 0.0074526927211992508 -0.0061372576393720017 0 0.0068513857587939875 -0.0059695122674133386 0 0.0070102419678766386 -0.0068274647139776263 0 0.0068513857587939875 -0.0059695122674133386 0 0.0070102419678766386 -0.0068274647139776263 0 0.0064315351820878929 -0.0063246201582739612 0 0.012691432367092803 -0.0024092415476390521 0 0.012830719833708811 -0.0024684174345157503 0 0.012828123676230239 -0.0025123590350539728 0 0.012691432367092803 -0.0024092415476390521 0 0.012856903611474894 -0.0024632406819399834 0 0.012830719833708811 -0.0024684174345157503 0 0.012850791833506977 -0.0024309142813863944 0 0.012830719833708811 -0.0024684174345157503 0 0.012828123676230239 -0.0025123590350539728 0 0.012818086100953738 -0.0024149055362416754 0 0.013010067655986078 -0.0021174914868198644 0 0.012850791833506977 -0.0024309142813863944 0 0.012856903611474894 -0.0024632406819399834 0 0.012830719833708811 -0.0024684174345157503 0 0.013177108199894772 -0.0022860572806311162 0 0.013010067655986078 -0.0021174914868198644 0 0.013068170208184791 -0.0020425996040934636 0 0.013523067605304591 -0.0029271194061997619 0 0.013601680590096402 -0.0023185156840322069 0 0.013068170208184791 -0.0020425996040934636 0 0.01311344152745679 -0.0023504998007383144 0 0.01290803602604758 -0.0022792722026179629 0 0.012850791833506977 -0.0024309142813863944 0 0.01311344152745679 -0.0023504998007383144 0 0.01290803602604758 -0.0022792722026179629 0 0.012744179973554919 -0.0023982767825365889 0 0.01290803602604758 -0.0022792722026179629 0 0.012793063392490036 -0.0021086895166601816 0 0.012744179973554919 -0.0023982767825365889 0 0.012850791833506977 -0.0024309142813863944 0 0.01290803602604758 -0.0022792722026179629 0 0.013068170208184791 -0.0020425996040934636 0 0.01290803602604758 -0.0022792722026179629 0 0.012793063392490036 -0.0021086895166601816 0 0.012618067266992536 -0.0021348339765041588 0 0.012744179973554919 -0.0023982767825365889 0 0.012793063392490036 -0.0021086895166601816 0 0.012886035356981631 -0.0013978801935488347 0 0.013740523030284602 -0.0010768857769697323 0 0.013637717055787563 -0.0022954770130452786 0 0.012886035356981631 -0.0013978801935488347 0 0.012594660361692043 -0.0019430343827641762 0 0.012468427621207165 -0.0016051924268193098 0 0.012984567101134202 -0.0022524355995531238 0 0.012886035356981631 -0.0013978801935488347 0 0.013637717055787563 -0.0022954770130452786 0 0.012984567101134202 -0.0022524355995531238 0 0.012886035356981631 -0.0013978801935488347 0 0.012594660361692043 -0.0019430343827641762 0 0.01074995688836322 -0.0025194514246865375 0 0.012053232572910846 -0.0014993028538107525 0 0.011804286063658468 -0.0022694363785053157 0 0.011518124408448939 -0.0012754359376326383 0 0.0112916490222866 -0.0011655521041084231 0 0.0097233088907502877 -0.0029015653238266079 0 0.013010067655986078 -0.0021174914868198644 0 0.012337401457167401 -0.0023121964902020889 0 0.012594660361692043 -0.0019430343827641762 0 0.012219469080040386 -0.0017132089610184455 0 0.012427940305574542 -0.0028361408624429829 0 0.012337401457167401 -0.0023121964902020889 0 0.011518124408448939 -0.0012754359376326383 0 0.012337401457167401 -0.0023121964902020889 0 0.011518124408448939 -0.0012754359376326383 0 0.012219469080040386 -0.0017132089610184455 0 0.012594660361692043 -0.0019430343827641762 0 0.012219469080040386 -0.0017132089610184455 0 0.012468427621207165 -0.0016051924268193098 0 0.011518124408448939 -0.0012754359376326383 0 0.012219469080040386 -0.0017132089610184455 0 0.012159599894053385 -0.0012907955921159485 0 0.012886035356981631 -0.0013978801935488347 0 0.012468427621207165 -0.0016051924268193098 0 0.012159599894053385 -0.0012907955921159485 0 0.012219469080040386 -0.0017132089610184455 0 0.012468427621207165 -0.0016051924268193098 0 0.012159599894053385 -0.0012907955921159485 0 0.015387601558781931 -0.0019727859478775381 0 0.014077651826295385 -0.001897978264291356 0 0.01441628508827773 -0.0024846255474365339 0 0.012886035356981631 -0.0013978801935488347 0 0.012159599894053385 -0.0012907955921159485 0 0.012182814155882791 -0.00064392215524992924 0 0.013010067655986078 -0.0021174914868198644 0 0.012900791691720766 -0.0017701431530215235 0 0.011518124408448939 -0.0012754359376326383 0 0.012159599894053385 -0.0012907955921159485 0 0.012182814155882791 -0.00064392215524992924 0 0.011518124408448939 -0.0012754359376326383 0 0.0112916490222866 -0.0011655521041084231 0 0.012182814155882791 -0.00064392215524992924 0 0.013523067605304591 -0.0029271194061997619 0 0.013601680590096402 -0.0023185156840322069 0 0.01441628508827773 -0.0024846255474365339 0 0.014077651826295385 -0.001897978264291356 0 0.013601680590096402 -0.0023185156840322069 0 0.01441628508827773 -0.0024846255474365339 0 0.013168145021380478 -0.00012896549138339554 0 0.012886035356981631 -0.0013978801935488347 0 0.013740523030284602 -0.0010768857769697323 0 0.016662986354397058 -0.00082538478378281401 0 0.012900791691720766 -0.0017701431530215235 0 0.013168145021380478 -0.00012896549138339554 0 0.012886035356981631 -0.0013978801935488347 0 0.012182814155882791 -0.00064392215524992924 0 0.013168145021380478 -0.00012896549138339554 0 0.014388805416774375 -0.0002246001891848499 0 0.013740523030284602 -0.0010768857769697323 0 0.014388805416774375 -0.0002246001891848499 0 0.013740523030284602 -0.0010768857769697323 0 0.014628675162059662 -0.0013250837154687113 0 0.013740523030284602 -0.0010768857769697323 0 0.014628675162059662 -0.0013250837154687113 0 0.013637717055787563 -0.0022954770130452786 0 0.012346549459621624 -0.00091371296564183885 0 0.012548385838028113 -0.0011459874588818331 0 0.011074336484210492 -5.1024536999198504e-05 0 0.010782600154392861 -0.00027885404331930738 0 0.011102786377263987 -0.00038357416910859803 0 0.011074336484210492 -5.1024536999198504e-05 0 0.011421596013878084 -0.00013503327975511247 0 0.011102786377263987 -0.00038357416910859803 0 0.012346549459621624 -0.00091371296564183885 0 0.016959151746557568 -0.00029709060067073257 0 0.016744203012459612 -0.00040260114350122207 0 0.016959151746557568 -0.00029709060067073257 0 0.014388805416774375 -0.0002246001891848499 0 0.014628675162059662 -0.0013250837154687113 0 0.015629873185576161 -0.00032694408229042146 0 0.011074336484210492 -5.1024536999198504e-05 0 0.011368413426092931 0.00015339476081468984 0 0.011421596013878084 -0.00013503327975511247 0 0.016959151746557568 -0.00029709060067073257 0 0.016327206184395052 0.00036837187749884034 0 0.011368413426092931 0.00015339476081468984 0 0.011636345091388221 0.00010521630504221487 0 0.011421596013878084 -0.00013503327975511247 0 0.021768884732750401 0.00056701112616423137 0 0.021560186253628478 0.00048098669037231105 0 0.021704575944644321 0.00051454875709681523 0 0.011636345091388221 0.00010521630504221487 0 0.01168958876220955 -8.6990365199798237e-05 0 0.011421596013878084 -0.00013503327975511247 0 0.01168958876220955 -8.6990365199798237e-05 0 0.011421596013878084 -0.00013503327975511247 0 0.01162278282993698 -0.00029410419906049259 0 0.011421596013878084 -0.00013503327975511247 0 0.011381634058067995 -0.00042093140217287236 0 0.011102786377263987 -0.00038357416910859803 0 0.011421596013878084 -0.00013503327975511247 0 0.011381634058067995 -0.00042093140217287236 0 0.01162278282993698 -0.00029410419906049259 0 0.011381634058067995 -0.00042093140217287236 0 0.01162278282993698 -0.00029410419906049259 0 0.011565311824374666 -0.00048361570934973472 0 0.011381634058067995 -0.00042093140217287236 0 0.011565311824374666 -0.00048361570934973472 0 0.011383511319542367 -0.00064867055735329617 0 0.011691009806284156 -0.00063512513246896803 0 0.011565311824374666 -0.00048361570934973472 0 0.011383511319542367 -0.00064867055735329617 0 0.011381634058067995 -0.00042093140217287236 0 0.011190156730902623 -0.00057982048033596901 0 0.011102786377263987 -0.00038357416910859803 0 0.011381634058067995 -0.00042093140217287236 0 0.011383511319542367 -0.00064867055735329617 0 0.011190156730902623 -0.00057982048033596901 0 0.011274303671601012 -0.00060550577039875997 0 0.011014901127086835 -0.00047156508858539034 0 0.010941936144082159 -0.00066816748291828978 0 0.011190156730902623 -0.00057982048033596901 0 0.011102786377263987 -0.00038357416910859803 0 0.010966753694478307 -0.00077338242769407403 0 0.010801758092646822 -0.00056460924438695966 0 0.011102786377263987 -0.00038357416910859803 0 0.010966753694478307 -0.00077338242769407403 0 0.01066124611001126 -0.00084610363390430422 0 0.010801758092646822 -0.00056460924438695966 0 0.010801758092646822 -0.00056460924438695966 0 0.010782600154392861 -0.00027885404331930738 0 0.011102786377263987 -0.00038357416910859803 0 0.01934453377152235 -0.0001591852482302368 0 0.019625775633585675 -0.00021233279347940899 0 0.019926994762947126 -0.00016657593905199613 0 0.019455153097028211 -2.399940915929366e-07 0 0.019926994762947126 -0.00016657593905199613 0 0.020874117660927893 -7.8359001532774743e-07 0 0.01934453377152235 -0.0001591852482302368 0 0.019455153097028211 -2.399940915929366e-07 0 0.019926994762947126 -0.00016657593905199613 0 0.01934453377152235 -0.0001591852482302368 0 0.019455153097028211 -2.399940915929366e-07 0 0.018744714699538353 -0.00011944696382098175 0 0.01934453377152235 -0.0001591852482302368 0 0.019028158418528916 -0.00015164050140394598 0 0.018744714699538353 -0.00011944696382098175 0 0.018925581812118359 0.0012578586607218483 0 0.018412130006657649 0.0011006098878744643 0 0.018215929083415888 0.0005475177060349283 0 0.018412130006657649 0.0011006098878744643 0 0.018988891221311973 0.001766204225158169 0 0.017614953131240833 0.0013767534484496954 0 0.018925581812118359 0.0012578586607218483 0 0.018412130006657649 0.0011006098878744643 0 0.018988891221311973 0.001766204225158169 0 0.018981486869622768 0.0018350718139982811 0 0.01899869258927496 0.0020550230940409144 0 0.018412130006657649 0.0011006098878744643 0 0.017614953131240833 0.0013767534484496954 0 0.017808320246513399 0.00070592766189560535 0 0.018988891221311973 0.001766204225158169 0 0.019029774449936809 0.0014471038672158824 0 0.019725290849624277 0.0012589151440425773 0 0.018988891221311973 0.001766204225158169 0 0.019725290849624277 0.0012589151440425773 0 0.020740734481092482 0.0016457272052700007 0 0.01934453377152235 -0.0001591852482302368 0 0.019028158418528916 -0.00015164050140394598 0 0.019625775633585675 -0.00021233279347940899 0 0.018925581812118359 0.0012578586607218483 0 0.018988891221311973 0.001766204225158169 0 0.019029774449936809 0.0014471038672158824 0 0.018939971620506167 0.00051704270825568446 0 0.019330180902655692 0.00060032130838763597 0 0.019029774449936809 0.0014471038672158824 0 0.019725290849624277 0.0012589151440425773 0 0.019662511277711431 0.00080060820357482948 0 0.019725290849624277 0.0012589151440425773 0 0.020245247947466381 0.00064506302944803556 0 0.019662511277711431 0.00080060820357482948 0 0.020245247947466381 0.00064506302944803556 0 0.019662511277711431 0.00080060820357482948 0 0.019859297257198889 0.00036152916537627992 0 0.019662511277711431 0.00080060820357482948 0 0.019859297257198889 0.00036152916537627992 0 0.019612822147071305 0.00021448470579446701 0 0.020245247947466381 0.00064506302944803556 0 0.019859297257198889 0.00036152916537627992 0 0.020263169162338508 0.000206150705571657 0 0.019029774449936809 0.0014471038672158824 0 0.019662511277711431 0.00080060820357482948 0 0.019612822147071305 0.00021448470579446701 0 0.019625775633585675 -0.00021233279347940899 0 0.019612822147071305 0.00021448470579446701 0 0.019872794194433635 -4.7952354141909575e-05 0 0.019330180902655692 0.00060032130838763597 0 0.01956864862926317 0.00026228365767793938 0 0.019612822147071305 0.00021448470579446701 0 0.019699200105608917 0.00028935554409273927 0 0.019872794194433635 -4.7952354141909575e-05 0 0.019699200105608917 0.00028935554409273927 0 0.020428981916167013 0.00018174062524197338 0 0.019872794194433635 -4.7952354141909575e-05 0 0.020428981916167013 0.00018174062524197338 0 0.019872794194433635 -4.7952354141909575e-05 0 0.020572962990924766 -2.4849438661195552e-05 0 0.019872794194433635 -4.7952354141909575e-05 0 0.019926994762947126 -0.00016657593905199613 0 0.020572962990924766 -2.4849438661195552e-05 0 0.019625775633585675 -0.00021233279347940899 0 0.019872794194433635 -4.7952354141909575e-05 0 0.019926994762947126 -0.00016657593905199613 0 0.019926994762947126 -0.00016657593905199613 0 0.020874117660927893 -7.8359001532774743e-07 0 0.020572962990924766 -2.4849438661195552e-05 0 0.020428981916167013 0.00018174062524197338 0 0.020572962990924766 -2.4849438661195552e-05 0 0.022290712020316648 1.9837402325849393e-06 0 0.020874117660927893 -7.8359001532774743e-07 0 0.020572962990924766 -2.4849438661195552e-05 0 0.022290712020316648 1.9837402325849393e-06 0 0.0222928156060039 2.2055720022667503e-07 0 0.021802490266801044 0.00056419786975000379 0 0.022297580510478289 1.8527211744325685e-06 0 0.023307957591585039 0.00037046006971890532 0 0.022936097958685977 -1.5725785069576884e-06 0 0.020428981916167013 0.00018174062524197338 0 0.022290712020316648 1.9837402325849393e-06 0 0.020157954674459647 0.00076498127411471419 0 0.019699200105608917 0.00028935554409273927 0 0.020428981916167013 0.00018174062524197338 0 0.020157954674459647 0.00076498127411471419 0 0.023307957591585039 0.00037046006971890532 0 0.022936097958685977 -1.5725785069576884e-06 0 0.023389383687832121 -9.3211586258560699e-05 0 0.022940628237147861 1.9857030020235366e-08 0 0.023952800833700043 -4.5692646517999105e-05 0 0.02499798710147853 -7.4318294597339978e-07 0 0.024505357160333481 4.0936829674015182e-05 0 0.024808819303008243 -1.0378919585788569e-05 0 0.022944220189992849 1.2376591067684142e-06 0 0.02499798710147853 -7.4318294597339978e-07 0 0.024505357160333481 4.0936829674015182e-05 0 0.02499798710147853 -7.4318294597339978e-07 0 0.024808819303008243 -1.0378919585788569e-05 0 0.025000043301079088 1.1845593741360718e-07 0 0.025000043301079088 1.1845593741360718e-07 0 0.024969505524283581 1.3042755884566316e-05 0 0.024941640067461319 -6.3787641454319109e-05 0 0.024808819303008243 -1.0378919585788569e-05 0 0.025000043301079088 1.1845593741360718e-07 0 0.024969505524283581 1.3042755884566316e-05 0 0.023389383687832121 -9.3211586258560699e-05 0 0.024177499049553391 -0.00022752878203560628 0 0.023927684415410579 0.00013502658109084683 0 0.023952800833700043 -4.5692646517999105e-05 0 0.024560104384594932 -9.3663187374450388e-05 0 0.024505357160333481 4.0936829674015182e-05 0 0.024808819303008243 -1.0378919585788569e-05 0 0.024969505524283581 1.3042755884566316e-05 0 0.024177499049553391 -0.00022752878203560628 0 0.023927684415410579 0.00013502658109084683 0 0.024658198900038952 3.7539653943030011e-05 0 0.023927684415410579 0.00013502658109084683 0 0.024622020704358198 0.00038363343270168512 0 0.024658198900038952 3.7539653943030011e-05 0 0.023307957591585039 0.00037046006971890532 0 0.023389383687832121 -9.3211586258560699e-05 0 0.023927684415410579 0.00013502658109084683 0 0.01909889946746576 0.00046149038148845221 0 0.021145670869178297 0.0002350269633199167 0 0.019699200105608917 0.00028935554409273927 0 0.020157954674459647 0.00076498127411471419 0 0.018840451827922981 0.00065991087154485678 0 0.023307957591585039 0.00037046006971890532 0 0.023927684415410579 0.00013502658109084683 0 0.024090744886669416 0.00056796956601542689 0 0.019612822147071305 0.00021448470579446701 0 0.019699200105608917 0.00028935554409273927 0 0.019756792190889393 -8.0160944122809681e-05 0 0.021802490266801044 0.00056419786975000379 0 0.021145670869178297 0.0002350269633199167 0 0.021145670869178297 0.0002350269633199167 0 0.023356255551354562 -2.7093801425267078e-05 0 0.021145670869178297 0.0002350269633199167 0 0.021136177580262788 -0.00011825906615370162 0 0.023927684415410579 0.00013502658109084683 0 0.024090744886669416 0.00056796956601542689 0 0.024622020704358198 0.00038363343270168512 0 0.020263169162338508 0.000206150705571657 0 0.019756792190889393 -8.0160944122809681e-05 0 0.020846656524962589 -0.00027256293844965285 0 0.019859297257198889 0.00036152916537627992 0 0.019612822147071305 0.00021448470579446701 0 0.019756792190889393 -8.0160944122809681e-05 0 0.019859297257198889 0.00036152916537627992 0 0.020263169162338508 0.000206150705571657 0 0.019756792190889393 -8.0160944122809681e-05 0 0.021067572895916879 -2.101729267926077e-05 0 0.021663747444254276 -1.0666928499227851e-05 0 0.021619356527488576 -0.00028043632775717449 0 0.020263169162338508 0.000206150705571657 0 0.020846656524962589 -0.00027256293844965285 0 0.020784604830814048 0.0002492924554467152 0 0.020846656524962589 -0.00027256293844965285 0 0.021418158023347279 0.00027237020401799621 0 0.020784604830814048 0.0002492924554467152 0 0.021663747444254276 -1.0666928499227851e-05 0 0.021619356527488576 -0.00028043632775717449 0 0.02198765002366343 -0.00019643032932749658 0 0.022280284881581371 3.8671485843392918e-05 0 0.02198765002366343 -0.00019643032932749658 0 0.022251250002458749 -0.00059228282828799794 0 0.020846656524962589 -0.00027256293844965285 0 0.022280284881581371 3.8671485843392918e-05 0 0.021418158023347279 0.00027237020401799621 0 0.021136177580262788 -0.00011825906615370162 0 0.022216357810391198 -7.5380594733408153e-06 0 0.021663747444254276 -1.0666928499227851e-05 0 0.022280284881581371 3.8671485843392918e-05 0 0.02198765002366343 -0.00019643032932749658 0 0.023356255551354562 -2.7093801425267078e-05 0 0.023573748664515368 -0.00019161331760387518 0 0.021619356527488576 -0.00028043632775717449 0 0.02198765002366343 -0.00019643032932749658 0 0.022251250002458749 -0.00059228282828799794 0 0.024622020704358198 0.00038363343270168512 0 0.024939532434919004 0.00018843655270593288 0 0.024658198900038952 3.7539653943030011e-05 0 0.024560104384594932 -9.3663187374450388e-05 0 0.024893289948729833 -7.7290465216612168e-05 0 0.025000043301079088 1.1845593741360718e-07 0 0.024941640067461319 -6.3787641454319109e-05 0 0.024999691775637874 -2.722942490891801e-07 0 0.024177499049553391 -0.00022752878203560628 0 0.024658198900038952 3.7539653943030011e-05 0 0.024941640067461319 -6.3787641454319109e-05 0 0.02495594226898604 2.5530149934436074e-05 0 0.024941640067461319 -6.3787641454319109e-05 0 0.025013570763676825 -9.7622788407150144e-07 0 0.024658198900038952 3.7539653943030011e-05 0 0.02495594226898604 2.5530149934436074e-05 0 0.024941640067461319 -6.3787641454319109e-05 0 0.024939532434919004 0.00018843655270593288 0 0.024658198900038952 3.7539653943030011e-05 0 0.02495594226898604 2.5530149934436074e-05 0 0.024680546213756201 -0.00010617001277726118 0 0.024999820841299824 5.8227274157792759e-08 0 0.024999400989671988 -1.5689843398800868e-07 0 0.024680546213756201 -0.00010617001277726118 0 0.024999820841299824 5.8227274157792759e-08 0 0.024787290374086553 -8.6944642771812135e-05 0 0.02499993445420013 7.2120424324168449e-09 0 0.024883305022108334 8.7078124807282733e-06 0 0.024941640067461319 -6.3787641454319109e-05 0 0.024999691775637874 -2.722942490891801e-07 0 0.025013570763676825 -9.7622788407150144e-07 0 0.02495594226898604 2.5530149934436074e-05 0 0.025013570763676825 -9.7622788407150144e-07 0 0.025049691131449458 7.1338325915895021e-05 0 0.024883305022108334 8.7078124807282733e-06 0 0.024116788071586608 -0.00037037647905765531 0 0.024787290374086553 -8.6944642771812135e-05 0 0.024636853253753803 -0.00041545249491489175 0 0.02435733677713374 -0.00027783318377249219 0 0.024116788071586608 -0.00037037647905765531 0 0.024277156787497711 -0.00035247865987081541 0 0.024680546213756201 -0.00010617001277726118 0 0.024787290374086553 -8.6944642771812135e-05 0 0.02435733677713374 -0.00027783318377249219 0 0.024680546213756201 -0.00010617001277726118 0 0.02435733677713374 -0.00027783318377249219 0 0.024419857294988329 -0.0001670479125535042 0 0.02435733677713374 -0.00027783318377249219 0 0.024008328287214671 -0.00018644815007746703 0 0.024419857294988329 -0.0001670479125535042 0 0.024008328287214671 -0.00018644815007746703 0 0.023657960217740127 0.0001826583132988377 0 0.024203715755591774 2.2415284861669427e-05 0 0.024008328287214671 -0.00018644815007746703 0 0.023410883392911957 -0.00022188345982643664 0 0.023657960217740127 0.0001826583132988377 0 0.0238466028365476 -0.00031922314426976588 0 0.02435733677713374 -0.00027783318377249219 0 0.024008328287214671 -0.00018644815007746703 0 0.0238466028365476 -0.00031922314426976588 0 0.024008328287214671 -0.00018644815007746703 0 0.023410883392911957 -0.00022188345982643664 0 0.023573748664515368 -0.00019161331760387518 0 0.024116788071586608 -0.00037037647905765531 0 0.024939532434919004 0.00018843655270593288 0 0.02495594226898604 2.5530149934436074e-05 0 0.025049691131449458 7.1338325915895021e-05 0 0.022280284881581371 3.8671485843392918e-05 0 0.022251250002458749 -0.00059228282828799794 0 0.023410883392911957 -0.00022188345982643664 0 0.022251250002458749 -0.00059228282828799794 0 0.023359745884735557 -0.0010217443806572718 0 0.023410883392911957 -0.00022188345982643664 0 0.024116788071586608 -0.00037037647905765531 0 0.023604901238446375 -0.00034198637648561039 0 0.022280284881581371 3.8671485843392918e-05 0 0.023410883392911957 -0.00022188345982643664 0 0.023049201212237004 0.00023519782005417152 0 0.022280284881581371 3.8671485843392918e-05 0 0.023049201212237004 0.00023519782005417152 0 0.022736006384620679 0.00070546119149452672 0 0.023410883392911957 -0.00022188345982643664 0 0.023049201212237004 0.00023519782005417152 0 0.023657960217740127 0.0001826583132988377 0 0.023049201212237004 0.00023519782005417152 0 0.023657960217740127 0.0001826583132988377 0 0.023193254672377411 0.00057233855854497268 0 0.023657960217740127 0.0001826583132988377 0 0.023516418357105891 0.00075879827813199517 0 0.024056474539585586 0.00037482928723458591 0 0.023657960217740127 0.0001826583132988377 0 0.023516418357105891 0.00075879827813199517 0 0.023193254672377411 0.00057233855854497268 0 0.023193254672377411 0.00057233855854497268 0 0.023134571580948005 0.00088838333268760638 0 0.022736006384620679 0.00070546119149452672 0 0.023516418357105891 0.00075879827813199517 0 0.023193254672377411 0.00057233855854497268 0 0.023134571580948005 0.00088838333268760638 0 0.023516418357105891 0.00075879827813199517 0 0.023134571580948005 0.00088838333268760638 0 0.0230373491711891 0.00072101690585922346 0 0.023134571580948005 0.00088838333268760638 0 0.022478821326580516 0.0010616642520769842 0 0.023131253112530201 0.0014152228306776359 0 0.023134571580948005 0.00088838333268760638 0 0.023131253112530201 0.0014152228306776359 0 0.0230373491711891 0.00072101690585922346 0 0.023205987743219969 0.00024747567068715982 0 0.022802398706685212 0.00031073558209376596 0 0.0230373491711891 0.00072101690585922346 0 0.023082959646334798 0.00087652269128548862 0 0.023052701997526643 0.00077534545068076689 0 0.022478821326580516 0.0010616642520769842 0 0.02201894607309339 0.0016374803270017483 0 0.023131253112530201 0.0014152228306776359 0 0.022478821326580516 0.0010616642520769842 0 0.022736006384620679 0.00070546119149452672 0 0.021979398118237486 0.00061684544550075996 0 0.023134571580948005 0.00088838333268760638 0 0.022478821326580516 0.0010616642520769842 0 0.022736006384620679 0.00070546119149452672 0 0.023049201212237004 0.00023519782005417152 0 0.023193254672377411 0.00057233855854497268 0 0.022736006384620679 0.00070546119149452672 0 0.022280284881581371 3.8671485843392918e-05 0 0.022736006384620679 0.00070546119149452672 0 0.021979398118237486 0.00061684544550075996 0 0.022280284881581371 3.8671485843392918e-05 0 0.021418158023347279 0.00027237020401799621 0 0.021979398118237486 0.00061684544550075996 0 0.021418158023347279 0.00027237020401799621 0 0.021979398118237486 0.00061684544550075996 0 0.021134877019249976 0.00062998999742403265 0 0.021979398118237486 0.00061684544550075996 0 0.021134877019249976 0.00062998999742403265 0 0.021547246491871234 0.0010914109723954475 0 0.020245247947466381 0.00064506302944803556 0 0.020263169162338508 0.000206150705571657 0 0.020784604830814048 0.0002492924554467152 0 0.021418158023347279 0.00027237020401799621 0 0.020784604830814048 0.0002492924554467152 0 0.021134877019249976 0.00062998999742403265 0 0.020245247947466381 0.00064506302944803556 0 0.021134877019249976 0.00062998999742403265 0 0.020681694111484746 0.0010458933262650801 0 0.020245247947466381 0.00064506302944803556 0 0.020784604830814048 0.0002492924554467152 0 0.021134877019249976 0.00062998999742403265 0 0.019725290849624277 0.0012589151440425773 0 0.020681694111484746 0.0010458933262650801 0 0.020740734481092482 0.0016457272052700007 0 0.019725290849624277 0.0012589151440425773 0 0.020245247947466381 0.00064506302944803556 0 0.020681694111484746 0.0010458933262650801 0 0.021134877019249976 0.00062998999742403265 0 0.020681694111484746 0.0010458933262650801 0 0.021547246491871234 0.0010914109723954475 0 0.020681694111484746 0.0010458933262650801 0 0.021547246491871234 0.0010914109723954475 0 0.020740734481092482 0.0016457272052700007 0 0.021547246491871234 0.0010914109723954475 0 0.02201894607309339 0.0016374803270017483 0 0.020740734481092482 0.0016457272052700007 0 0.022478821326580516 0.0010616642520769842 0 0.021547246491871234 0.0010914109723954475 0 0.02201894607309339 0.0016374803270017483 0 0.022478821326580516 0.0010616642520769842 0 0.021979398118237486 0.00061684544550075996 0 0.021547246491871234 0.0010914109723954475 0 0.021471464690881754 0.0023114066859529401 0 0.02201894607309339 0.0016374803270017483 0 0.020740734481092482 0.0016457272052700007 0 0.021471464690881754 0.0023114066859529401 0 0.02201894607309339 0.0016374803270017483 0 0.022432868457991594 0.0023155461428869353 0 0.018988891221311973 0.001766204225158169 0 0.020740734481092482 0.0016457272052700007 0 0.020444285221252512 0.0027164391893109295 0 0.021471464690881754 0.0023114066859529401 0 0.020740734481092482 0.0016457272052700007 0 0.020444285221252512 0.0027164391893109295 0 0.017614953131240833 0.0013767534484496954 0 0.016865135675515387 0.00097013925804809251 0 0.017364184035429327 0.00086186125348628557 0 0.017614953131240833 0.0013767534484496954 0 0.017808320246513399 0.00070592766189560535 0 0.017364184035429327 0.00086186125348628557 0 0.021471464690881754 0.0023114066859529401 0 0.021591643996750225 0.0032289720277487045 0 0.022432868457991594 0.0023155461428869353 0 0.021471464690881754 0.0023114066859529401 0 0.020444285221252512 0.0027164391893109295 0 0.021591643996750225 0.0032289720277487045 0 0.01899869258927496 0.0020550230940409144 0 0.020057975416709339 0.00064332360214943785 0 0.022884670470992768 -0.00019526446040098839 0 0.020824443101207572 -0.00060402548762758122 0 0.023129050984556858 -0.00023674003431829467 0 0.023430287572022562 -0.0001451818134006785 0 0.023456443928805769 -0.00040264863539705021 0 0.023559186609792247 -0.00033891687699677688 0 0.023430287572022562 -0.0001451818134006785 0 0.023456443928805769 -0.00040264863539705021 0 0.020057975416709339 0.00064332360214943785 0 0.02316657939911753 0.0010107202890828444 0 0.021903281649911413 -0.0001040969610663503 0 0.021955373563244947 -0.00023094339273542857 0 0.022102093383544914 -0.0002400884399464588 0 0.021903281649911413 -0.0001040969610663503 0 0.021809276236482964 -0.00017920948632500186 0 0.021955373563244947 -0.00023094339273542857 0 0.023129050984556858 -0.00023674003431829467 0 0.023205987743219969 0.00024747567068715982 0 0.022802398706685212 0.00031073558209376596 0 0.023129050984556858 -0.00023674003431829467 0 0.023205987743219969 0.00024747567068715982 0 0.023430287572022562 -0.0001451818134006785 0 0.02201894607309339 0.0016374803270017483 0 0.023131253112530201 0.0014152228306776359 0 0.022432868457991594 0.0023155461428869353 0 0.023082959646334798 0.00087652269128548862 0 0.02316657939911753 0.0010107202890828444 0 0.022146289595730766 0.00020124340574352828 0 0.021524840639994651 4.1646664581334572e-05 0 0.022322015542056664 0.0006642599494756904 0 0.021776284735838931 -7.3426866348269299e-05 0 0.022146289595730766 0.00020124340574352828 0 0.021886601601019226 -7.8702360704236993e-05 0 0.021776284735838931 -7.3426866348269299e-05 0 0.022146289595730766 0.00020124340574352828 0 0.021524840639994651 4.1646664581334572e-05 0 0.022884670470992768 -0.00019526446040098839 0 0.021986472955546298 0.00023597946410754123 0 0.021903281649911413 -0.0001040969610663503 0 0.022146289595730766 0.00020124340574352828 0 0.021886601601019226 -7.8702360704236993e-05 0 0.023129050984556858 -0.00023674003431829467 0 0.022146289595730766 0.00020124340574352828 0 0.022802398706685212 0.00031073558209376596 0 0.021903281649911413 -0.0001040969610663503 0 0.021886601601019226 -7.8702360704236993e-05 0 0.021809276236482964 -0.00017920948632500186 0 0.021886601601019226 -7.8702360704236993e-05 0 0.021809276236482964 -0.00017920948632500186 0 0.021695404802116958 -0.00019294848598097277 0 0.021776284735838931 -7.3426866348269299e-05 0 0.021520504610919249 -0.00023878005971613884 0 0.021524840639994651 4.1646664581334572e-05 0 0.021776284735838931 -7.3426866348269299e-05 0 0.021886601601019226 -7.8702360704236993e-05 0 0.021695404802116958 -0.00019294848598097277 0 0.021776284735838931 -7.3426866348269299e-05 0 0.021695404802116958 -0.00019294848598097277 0 0.021520504610919249 -0.00023878005971613884 0 0.021695404802116958 -0.00019294848598097277 0 0.021520504610919249 -0.00023878005971613884 0 0.021520447881229577 -0.00031469198624580315 0 0.021520504610919249 -0.00023878005971613884 0 0.021370825635323942 -0.0002103564694708979 0 0.021393248724069207 -0.00031872390758540096 0 0.022770032890430277 -0.00012318765066985315 0 0.02302763293360454 0.00028150271253595595 0 0.021520504610919249 -0.00023878005971613884 0 0.021370825635323942 -0.0002103564694708979 0 0.021524840639994651 4.1646664581334572e-05 0 0.024173834735289952 -5.0186561744389466e-05 0 0.023806552282624974 0.00024057199200274671 0 0.023632530262287042 -0.00010737749362985285 0 0.024224084333069714 0.00041889602503296906 0 0.024447251765538507 0.00071193543143213906 0 0.024041622752253019 0.00058955498246366549 0 0.024173834735289952 -5.0186561744389466e-05 0 0.024224084333069714 0.00041889602503296906 0 0.023806552282624974 0.00024057199200274671 0 0.024224084333069714 0.00041889602503296906 0 0.024041622752253019 0.00058955498246366549 0 0.023806552282624974 0.00024057199200274671 0 0.024173834735289952 -5.0186561744389466e-05 0 0.024224084333069714 0.00041889602503296906 0 0.024546415410667433 0.00052156285474389084 0 0.024224084333069714 0.00041889602503296906 0 0.024546415410667433 0.00052156285474389084 0 0.024447251765538507 0.00071193543143213906 0 0.024546415410667433 0.00052156285474389084 0 0.024447251765538507 0.00071193543143213906 0 0.024484665107071441 0.00071144286718338408 0 0.024447251765538507 0.00071193543143213906 0 0.024479685678444389 0.00085044488953252989 0 0.024508590245252038 0.00073517178468289002 0 0.024447251765538507 0.00071193543143213906 0 0.024482306834906781 0.0007452174445954355 0 0.024484665107071441 0.00071144286718338408 0 0.024447251765538507 0.00071193543143213906 0 0.024482306834906781 0.0007452174445954355 0 0.024508590245252038 0.00073517178468289002 0 0.024447251765538507 0.00071193543143213906 0 0.024041622752253019 0.00058955498246366549 0 0.024479685678444389 0.00085044488953252989 0 0.024041622752253019 0.00058955498246366549 0 0.024479685678444389 0.00085044488953252989 0 0.023869602837256074 0.0010899679575061647 0 0.024479685678444389 0.00085044488953252989 0 0.024673414398382072 0.00055724678687498971 0 0.024919845299837193 0.00077665880604223811 0 0.02444232021472106 0.00088142115506924484 0 0.024412826546573917 0.00090877783675148325 0 0.024479685678444389 0.00085044488953252989 0 0.024673414398382072 0.00055724678687498971 0 0.024508590245252038 0.00073517178468289002 0 0.024673414398382072 0.00055724678687498971 0 0.024918188502553396 0.00053185484449999381 0 0.024919845299837193 0.00077665880604223811 0 0.024482306834906781 0.0007452174445954355 0 0.024508590245252038 0.00073517178468289002 0 0.024471780723617921 0.00061074967210779211 0 0.024673414398382072 0.00055724678687498971 0 0.024508590245252038 0.00073517178468289002 0 0.024559625193831088 0.00053690102402694764 0 0.024508590245252038 0.00073517178468289002 0 0.024559625193831088 0.00053690102402694764 0 0.024471780723617921 0.00061074967210779211 0 0.024559625193831088 0.00053690102402694764 0 0.024471780723617921 0.00061074967210779211 0 0.024508532771096225 0.00038388004055110752 0 0.024471780723617921 0.00061074967210779211 0 0.024336009243234522 0.00051055852570533065 0 0.024508532771096225 0.00038388004055110752 0 0.024471780723617921 0.00061074967210779211 0 0.024336009243234522 0.00051055852570533065 0 0.024394043024061365 0.00072066806375608748 0 0.024336009243234522 0.00051055852570533065 0 0.024394043024061365 0.00072066806375608748 0 0.024161501036806272 0.00066563432638709142 0 0.024394043024061365 0.00072066806375608748 0 0.024370658578134308 0.00088303380868284213 0 0.024161501036806272 0.00066563432638709142 0 0.024482306834906781 0.0007452174445954355 0 0.024471780723617921 0.00061074967210779211 0 0.024394043024061365 0.00072066806375608748 0 0.024482306834906781 0.0007452174445954355 0 0.024443649877552886 0.00077322820749056915 0 0.024484665107071441 0.00071144286718338408 0 0.02302763293360454 0.00028150271253595595 0 0.023324733604780722 0.00071057908493537398 0 0.024443649877552886 0.00077322820749056915 0 0.024370658578134308 0.00088303380868284213 0 0.024484665107071441 0.00071144286718338408 0 0.024546415410667433 0.00052156285474389084 0 0.024370658578134308 0.00088303380868284213 0 0.024484665107071441 0.00071144286718338408 0 0.024482306834906781 0.0007452174445954355 0 0.024394043024061365 0.00072066806375608748 0 0.024443649877552886 0.00077322820749056915 0 0.024394043024061365 0.00072066806375608748 0 0.024443649877552886 0.00077322820749056915 0 0.024370658578134308 0.00088303380868284213 0 0.022322015542056664 0.0006642599494756904 0 0.022802398706685212 0.00031073558209376596 0 0.0230373491711891 0.00072101690585922346 0 0.022146289595730766 0.00020124340574352828 0 0.022322015542056664 0.0006642599494756904 0 0.022802398706685212 0.00031073558209376596 0 0.023516418357105891 0.00075879827813199517 0 0.022322015542056664 0.0006642599494756904 0 0.0230373491711891 0.00072101690585922346 0 0.023442241483517791 0.00073449906060037943 0 0.023324733604780722 0.00071057908493537398 0 0.023516418357105891 0.00075879827813199517 0 0.024370658578134308 0.00088303380868284213 0 0.024161501036806272 0.00066563432638709142 0 0.024336009243234522 0.00051055852570533065 0 0.024161501036806272 0.00066563432638709142 0 0.024056474539585586 0.00037482928723458591 0 0.023516418357105891 0.00075879827813199517 0 0.024161501036806272 0.00066563432638709142 0 0.024056474539585586 0.00037482928723458591 0 0.024336009243234522 0.00051055852570533065 0 0.024056474539585586 0.00037482928723458591 0 0.024387306929861029 0.00021303706200600703 0 0.024056474539585586 0.00037482928723458591 0 0.024387306929861029 0.00021303706200600703 0 0.024203715755591774 2.2415284861669427e-05 0 0.023657960217740127 0.0001826583132988377 0 0.024056474539585586 0.00037482928723458591 0 0.024203715755591774 2.2415284861669427e-05 0 0.024336009243234522 0.00051055852570533065 0 0.024508532771096225 0.00038388004055110752 0 0.024387306929861029 0.00021303706200600703 0 0.024508532771096225 0.00038388004055110752 0 0.024387306929861029 0.00021303706200600703 0 0.024595075007308322 0.00014545813276189724 0 0.024387306929861029 0.00021303706200600703 0 0.024595075007308322 0.00014545813276189724 0 0.024525119530239673 -1.8847407884202821e-05 0 0.024595075007308322 0.00014545813276189724 0 0.024525119530239673 -1.8847407884202821e-05 0 0.024736710441450156 2.8280121401382009e-06 0 0.024387306929861029 0.00021303706200600703 0 0.024525119530239673 -1.8847407884202821e-05 0 0.024203715755591774 2.2415284861669427e-05 0 0.024525119530239673 -1.8847407884202821e-05 0 0.024203715755591774 2.2415284861669427e-05 0 0.024419857294988329 -0.0001670479125535042 0 0.024008328287214671 -0.00018644815007746703 0 0.024203715755591774 2.2415284861669427e-05 0 0.024419857294988329 -0.0001670479125535042 0 0.024680546213756201 -0.00010617001277726118 0 0.024419857294988329 -0.0001670479125535042 0 0.024747791071868148 -8.2351253221608976e-05 0 0.024525119530239673 -1.8847407884202821e-05 0 0.024419857294988329 -0.0001670479125535042 0 0.024747791071868148 -8.2351253221608976e-05 0 0.024525119530239673 -1.8847407884202821e-05 0 0.024747791071868148 -8.2351253221608976e-05 0 0.024736710441450156 2.8280121401382009e-06 0 0.024747791071868148 -8.2351253221608976e-05 0 0.024902676004628244 -2.0746090627139613e-05 0 0.024736710441450156 2.8280121401382009e-06 0 0.024747791071868148 -8.2351253221608976e-05 0 0.024999745200925468 -5.2039452562050934e-08 0 0.024999400989671988 -1.5689843398800868e-07 0 0.024747791071868148 -8.2351253221608976e-05 0 0.024999745200925468 -5.2039452562050934e-08 0 0.024902676004628244 -2.0746090627139613e-05 0 0.024680546213756201 -0.00010617001277726118 0 0.024747791071868148 -8.2351253221608976e-05 0 0.024999400989671988 -1.5689843398800868e-07 0 0.024999883200559153 -2.0396706921485677e-08 0 0.024902676004628244 -2.0746090627139613e-05 0 0.024980490897167321 8.0858365166106426e-06 0 0.024999745200925468 -5.2039452562050934e-08 0 0.024999883200559153 -2.0396706921485677e-08 0 0.024902676004628244 -2.0746090627139613e-05 0 0.024736710441450156 2.8280121401382009e-06 0 0.024868791643496153 4.523667788232857e-05 0 0.024744411660558189 0.00014271182822905515 0 0.024902676004628244 -2.0746090627139613e-05 0 0.024736710441450156 2.8280121401382009e-06 0 0.024868791643496153 4.523667788232857e-05 0 0.024902676004628244 -2.0746090627139613e-05 0 0.024868791643496153 4.523667788232857e-05 0 0.024980490897167321 8.0858365166106426e-06 0 0.024868791643496153 4.523667788232857e-05 0 0.024972996936277574 0.00015384268641768545 0 0.024980490897167321 8.0858365166106426e-06 0 0.024868791643496153 4.523667788232857e-05 0 0.024859735575467494 0.00016345004666610784 0 0.024972996936277574 0.00015384268641768545 0 0.024868791643496153 4.523667788232857e-05 0 0.024859735575467494 0.00016345004666610784 0 0.024744411660558189 0.00014271182822905515 0 0.024859735575467494 0.00016345004666610784 0 0.024858655022997146 0.00027905107124082525 0 0.0247647114087244 0.00031476067241822914 0 0.024859735575467494 0.00016345004666610784 0 0.024744411660558189 0.00014271182822905515 0 0.0247647114087244 0.00031476067241822914 0 0.024859735575467494 0.00016345004666610784 0 0.024858655022997146 0.00027905107124082525 0 0.024949625645674899 0.00026655395646129492 0 0.024859735575467494 0.00016345004666610784 0 0.024949625645674899 0.00026655395646129492 0 0.024972996936277574 0.00015384268641768545 0 0.024595075007308322 0.00014545813276189724 0 0.024736710441450156 2.8280121401382009e-06 0 0.024744411660558189 0.00014271182822905515 0 0.024595075007308322 0.00014545813276189724 0 0.024744411660558189 0.00014271182822905515 0 0.02464162194192214 0.00031654173107756008 0 0.024508532771096225 0.00038388004055110752 0 0.024595075007308322 0.00014545813276189724 0 0.02464162194192214 0.00031654173107756008 0 0.024744411660558189 0.00014271182822905515 0 0.02464162194192214 0.00031654173107756008 0 0.0247647114087244 0.00031476067241822914 0 0.02464162194192214 0.00031654173107756008 0 0.024661437655060375 0.00043997407604136937 0 0.0247647114087244 0.00031476067241822914 0 0.024559625193831088 0.00053690102402694764 0 0.02464162194192214 0.00031654173107756008 0 0.024661437655060375 0.00043997407604136937 0 0.024673414398382072 0.00055724678687498971 0 0.024559625193831088 0.00053690102402694764 0 0.024661437655060375 0.00043997407604136937 0 0.024559625193831088 0.00053690102402694764 0 0.024508532771096225 0.00038388004055110752 0 0.02464162194192214 0.00031654173107756008 0 0.024860169099365923 0.0003768576329798733 0 0.024858655022997146 0.00027905107124082525 0 0.0247647114087244 0.00031476067241822914 0 0.024860169099365923 0.0003768576329798733 0 0.024858655022997146 0.00027905107124082525 0 0.024949625645674899 0.00026655395646129492 0 0.024673414398382072 0.00055724678687498971 0 0.024860169099365923 0.0003768576329798733 0 0.0247647114087244 0.00031476067241822914 0 0.024673414398382072 0.00055724678687498971 0 0.024661437655060375 0.00043997407604136937 0 0.0247647114087244 0.00031476067241822914 0 0.024673414398382072 0.00055724678687498971 0 0.024860169099365923 0.0003768576329798733 0 0.024918188502553396 0.00053185484449999381 0 0.024860169099365923 0.0003768576329798733 0 0.024982671866151676 0.0004050962742510724 0 0.024918188502553396 0.00053185484449999381 0 0.024982671866151676 0.0004050962742510724 0 0.024918188502553396 0.00053185484449999381 0 0.025069998201394449 0.00054222814143182595 0 0.02511222926351344 0.00035913803328425117 0 0.025141678437156791 0.00035553656939741446 0 0.024972996936277574 0.00015384268641768545 0 0.02511222926351344 0.00035913803328425117 0 0.025162343075796959 0.00035894670219111457 0 0.025069998201394449 0.00054222814143182595 0 0.024982671866151676 0.0004050962742510724 0 0.02511222926351344 0.00035913803328425117 0 0.025069998201394449 0.00054222814143182595 0 0.024885632270080608 0.00029820820724521795 0 0.024816761217131555 0.00029555302132526555 0 0.024860169099365923 0.0003768576329798733 0 0.024982671866151676 0.0004050962742510724 0 0.024949625645674899 0.00026655395646129492 0 0.024982671866151676 0.0004050962742510724 0 0.02511222926351344 0.00035913803328425117 0 0.024949625645674899 0.00026655395646129492 0 0.024337388024720918 0.00047318819220040629 0 0.023937482603253495 0.00048413726909972974 0 0.024210215826923252 0.0003426827973429907 0 0.024816761217131555 0.00029555302132526555 0 0.024426436255212479 0.00023657052271399795 0 0.024989993690472785 6.0406594616851046e-06 0 0.02499279262249543 3.1043834980763701e-06 0 0.024988702173451192 2.5931639845614789e-06 0 0.024816761217131555 0.00029555302132526555 0 0.025057920945970671 1.5804093149014652e-05 0 0.024989993690472785 6.0406594616851046e-06 0 0.024993986075165231 2.6497072207094415e-06 0 0.02499279262249543 3.1043834980763701e-06 0 0.025141678437156791 0.00035553656939741446 0 0.024972996936277574 0.00015384268641768545 0 0.025060108243485292 6.1295609724989629e-05 0 0.02511222926351344 0.00035913803328425117 0 0.024949625645674899 0.00026655395646129492 0 0.024972996936277574 0.00015384268641768545 0 0.024972996936277574 0.00015384268641768545 0 0.025060108243485292 6.1295609724989629e-05 0 0.024980490897167321 8.0858365166106426e-06 0 0.024993986075165231 2.6497072207094415e-06 0 0.024996314059936242 1.5325682688929267e-06 0 0.02499279262249543 3.1043834980763701e-06 0 0.024999993116309491 7.5671131081762431e-10 0 0.024999996158716998 9.5786628116142268e-10 0 0.024996314059936242 1.5325682688929267e-06 0 0.024993986075165231 2.6497072207094415e-06 0 0.024999993116309491 7.5671131081762431e-10 0 0.024996314059936242 1.5325682688929267e-06 0 0.024999883200559153 -2.0396706921485677e-08 0 0.025000072745736093 -3.7360949517401274e-08 0 0.024980490897167321 8.0858365166106426e-06 0 0.025057920945970671 1.5804093149014652e-05 0 0.024999994823227709 4.6103239947676475e-08 0 0.025060108243485292 6.1295609724989629e-05 0 0.025000072745736093 -3.7360949517401274e-08 0 0.024980490897167321 8.0858365166106426e-06 0 0.024993791239158469 1.3579579114924248e-06 0 0.024999993381974374 1.7162187844764579e-09 0 0.024994550813307842 1.9643924322760254e-06 0 0.024999993381974374 1.7162187844764579e-09 0 0.024999996158716998 9.5786628116142268e-10 0 0.024994550813307842 1.9643924322760254e-06 0 0.024999996158716998 9.5786628116142268e-10 0 0.024996314059936242 1.5325682688929267e-06 0 0.024994550813307842 1.9643924322760254e-06 0 0.024996314059936242 1.5325682688929267e-06 0 0.024994550813307842 1.9643924322760254e-06 0 0.02499279262249543 3.1043834980763701e-06 0 0.024984925762807132 -8.1299486159854427e-07 0 0.024994550813307842 1.9643924322760254e-06 0 0.024988702173451192 2.5931639845614789e-06 0 0.024994550813307842 1.9643924322760254e-06 0 0.02499279262249543 3.1043834980763701e-06 0 0.024988702173451192 2.5931639845614789e-06 0 0.023522167486107519 0.00049593543856841496 0 0.023674672402106543 0.00025543688119452371 0 0.023937482603253495 0.00048413726909972974 0 0.024268324473799209 0.00024613875107854411 0 0.024426436255212479 0.00023657052271399795 0 0.023432021953312593 0.00037403399040957745 0 0.023502247837592277 0.00053416453108477116 0 0.023674672402106543 0.00025543688119452371 0 0.023937482603253495 0.00048413726909972974 0 0.024091434045798433 0.00022027453877482278 0 0.023092148610235636 0.00054132838202771479 0 0.023136151691986028 0.00046299868666702966 0 0.023334802369479542 0.00052112731023537019 0 0.022707565851074526 0.00079410895481897353 0 0.022562037022944612 0.00092050331723274694 0 0.022580166898117822 0.00064652981907854052 0 0.022707565851074526 0.00079410895481897353 0 0.022887153058132433 0.00073241687682599566 0 0.022580166898117822 0.00064652981907854052 0 0.022887153058132433 0.00073241687682599566 0 0.022974168622172678 0.0010484513283631506 0 0.02304802367705729 0.00079319344202153415 0 0.022707565851074526 0.00079410895481897353 0 0.022887153058132433 0.00073241687682599566 0 0.022974168622172678 0.0010484513283631506 0 0.022707565851074526 0.00079410895481897353 0 0.022562037022944612 0.00092050331723274694 0 0.022974168622172678 0.0010484513283631506 0 0.022887153058132433 0.00073241687682599566 0 0.02304802367705729 0.00079319344202153415 0 0.023027618264884139 0.00068022191973236899 0 0.023937482603253495 0.00048413726909972974 0 0.024119117862375722 0.00022861260417980552 0 0.024210215826923252 0.0003426827973429907 0 0.023937482603253495 0.00048413726909972974 0 0.024091434045798433 0.00022027453877482278 0 0.024119117862375722 0.00022861260417980552 0 0.022809592971437812 0.00071388095265822766 0 0.023502247837592277 0.00053416453108477116 0 0.023502247837592277 0.00053416453108477116 0 0.023579032565400435 0.00053673837779507521 0 0.023502247837592277 0.00053416453108477116 0 0.024012487944173957 0.00070221054467432744 0 0.024337388024720918 0.00047318819220040629 0 0.024210215826923252 0.0003426827973429907 0 0.024321513037391208 0.00019970847507056375 0 0.024091504628546 0.00022056031187756014 0 0.024119117862375722 0.00022861260417980552 0 0.024321513037391208 0.00019970847507056375 0 0.024119117862375722 0.00022861260417980552 0 0.024210215826923252 0.0003426827973429907 0 0.024321513037391208 0.00019970847507056375 0 0.024816761217131555 0.00029555302132526555 0 0.024012487944173957 0.00070221054467432744 0 0.022974168622172678 0.0010484513283631506 0 0.023276887860487625 0.0010273066385856266 0 0.023152076863284014 0.00089131439651703496 0 0.025162343075796959 0.00035894670219111457 0 0.025195354679607866 0.00072855064441575113 0 0.025069998201394449 0.00054222814143182595 0 0.024918188502553396 0.00053185484449999381 0 0.025069998201394449 0.00054222814143182595 0 0.024919845299837193 0.00077665880604223811 0 0.023331911558730069 0.0012041001426515664 0 0.023869602837256074 0.0010899679575061647 0 0.023530796733562408 0.0009487773060570774 0 0.024012487944173957 0.00070221054467432744 0 0.024412826546573917 0.00090877783675148325 0 0.025195354679607866 0.00072855064441575113 0 0.025069998201394449 0.00054222814143182595 0 0.024919845299837193 0.00077665880604223811 0 0.024041622752253019 0.00058955498246366549 0 0.023869602837256074 0.0010899679575061647 0 0.023706524587011387 0.00077839157214535846 0 0.023869602837256074 0.0010899679575061647 0 0.023530796733562408 0.0009487773060570774 0 0.023706524587011387 0.00077839157214535846 0 0.023331911558730069 0.0012041001426515664 0 0.023530796733562408 0.0009487773060570774 0 0.023283499045604294 0.00079740884590556163 0 0.023530796733562408 0.0009487773060570774 0 0.023471825755000203 0.00073315059825714176 0 0.023706524587011387 0.00077839157214535846 0 0.023530796733562408 0.0009487773060570774 0 0.023471825755000203 0.00073315059825714176 0 0.023283499045604294 0.00079740884590556163 0 0.023471825755000203 0.00073315059825714176 0 0.023283499045604294 0.00079740884590556163 0 0.023342508673875766 0.00060313298723516562 0 0.023471825755000203 0.00073315059825714176 0 0.023706524587011387 0.00077839157214535846 0 0.023648786078540245 0.00054661785051666372 0 0.023471825755000203 0.00073315059825714176 0 0.023648786078540245 0.00054661785051666372 0 0.023342508673875766 0.00060313298723516562 0 0.024041622752253019 0.00058955498246366549 0 0.023706524587011387 0.00077839157214535846 0 0.023648786078540245 0.00054661785051666372 0 0.022974168622172678 0.0010484513283631506 0 0.023152076863284014 0.00089131439651703496 0 0.02304802367705729 0.00079319344202153415 0 0.023152076863284014 0.00089131439651703496 0 0.023199497773070503 0.00077879002907003817 0 0.02304802367705729 0.00079319344202153415 0 0.024012487944173957 0.00070221054467432744 0 0.023459412406696543 0.00092730782217702421 0 0.023276887860487625 0.0010273066385856266 0 0.023152076863284014 0.00089131439651703496 0 0.023283499045604294 0.00079740884590556163 0 0.023152076863284014 0.00089131439651703496 0 0.023199497773070503 0.00077879002907003817 0 0.023283499045604294 0.00079740884590556163 0 0.023199497773070503 0.00077879002907003817 0 0.023114810242092561 0.00056218352085426581 0 0.023342508673875766 0.00060313298723516562 0 0.023199497773070503 0.00077879002907003817 0 0.023283499045604294 0.00079740884590556163 0 0.023342508673875766 0.00060313298723516562 0 0.023199497773070503 0.00077879002907003817 0 0.02304802367705729 0.00079319344202153415 0 0.023027618264884139 0.00068022191973236899 0 0.022983098850129977 0.00046126646155955436 0 0.023342508673875766 0.00060313298723516562 0 0.022869821000683868 0.00036677588880340442 0 0.023199497773070503 0.00077879002907003817 0 0.023027618264884139 0.00068022191973236899 0 0.02300904292240331 0.0004829128182059289 0 0.023199497773070503 0.00077879002907003817 0 0.023114810242092561 0.00056218352085426581 0 0.022932157892590187 0.00047737892344741124 0 0.023247121414368868 0.00077462781607481282 0 0.022418642005030794 0.00063376036267269898 0 0.023296898956583659 0.00060403233452821026 0 0.023095558738620882 0.00019297005356961534 0 0.023114810242092561 0.00056218352085426581 0 0.022983098850129977 0.00046126646155955436 0 0.023342508673875766 0.00060313298723516562 0 0.022983098850129977 0.00046126646155955436 0 0.022542995532339547 0.0006770245304334653 0 0.022615390018823071 0.0003709936831200111 0 0.022985884772469902 0.00045625097987214447 0 0.022418642005030794 0.00063376036267269898 0 0.023114810242092561 0.00056218352085426581 0 0.022983098850129977 0.00046126646155955436 0 0.022932157892590187 0.00047737892344741124 0 0.023342508673875766 0.00060313298723516562 0 0.023504815336575547 0.00030643695390025028 0 0.023285830877698793 -3.1874213583334585e-05 0 0.024041622752253019 0.00058955498246366549 0 0.023648786078540245 0.00054661785051666372 0 0.023806552282624974 0.00024057199200274671 0 0.023648786078540245 0.00054661785051666372 0 0.023342508673875766 0.00060313298723516562 0 0.023504815336575547 0.00030643695390025028 0 0.023648786078540245 0.00054661785051666372 0 0.023504815336575547 0.00030643695390025028 0 0.023806552282624974 0.00024057199200274671 0 0.023504815336575547 0.00030643695390025028 0 0.023806552282624974 0.00024057199200274671 0 0.023553640724462283 0.00010031464979233711 0 0.024173834735289952 -5.0186561744389466e-05 0 0.023632530262287042 -0.00010737749362985285 0 0.023625337680982118 -0.00057078006657145474 0 0.023806552282624974 0.00024057199200274671 0 0.023553640724462283 0.00010031464979233711 0 0.023632530262287042 -0.00010737749362985285 0 0.023553640724462283 0.00010031464979233711 0 0.023632530262287042 -0.00010737749362985285 0 0.023285830877698793 -3.1874213583334585e-05 0 0.023504815336575547 0.00030643695390025028 0 0.023553640724462283 0.00010031464979233711 0 0.023285830877698793 -3.1874213583334585e-05 0 0.023632530262287042 -0.00010737749362985285 0 0.023285830877698793 -3.1874213583334585e-05 0 0.023420891579486718 -0.00034445825771469427 0 0.022983098850129977 0.00046126646155955436 0 0.022615390018823071 0.0003709936831200111 0 0.022869821000683868 0.00036677588880340442 0 0.022615390018823071 0.0003709936831200111 0 0.022869821000683868 0.00036677588880340442 0 0.022527302151868829 0.00017986267204542756 0 0.022418642005030794 0.00063376036267269898 0 0.021966374618193025 0.00078542901691666905 0 0.022542995532339547 0.0006770245304334653 0 0.022615390018823071 0.0003709936831200111 0 0.022181495753045784 0.00020446751227247808 0 0.022615390018823071 0.0003709936831200111 0 0.022527302151868829 0.00017986267204542756 0 0.022181495753045784 0.00020446751227247808 0 0.021147502627168153 0.0007737096213090767 0 0.021330139641817777 0.0010936655365277007 0 0.021421177176193879 0.00093789174299526139 0 0.021330139641817777 0.0010936655365277007 0 0.02140280247184663 0.001115862526980399 0 0.021421177176193879 0.00093789174299526139 0 0.021811074589544135 0.00080933386127780653 0 0.02140280247184663 0.001115862526980399 0 0.021421177176193879 0.00093789174299526139 0 0.021753147862165544 0.00081670581581844669 0 0.021429370001247689 0.0011036420975100206 0 0.021681245651430217 0.0011074122634319708 0 0.021739785612305485 0.0008403327968731063 0 0.02140280247184663 0.001115862526980399 0 0.021811074589544135 0.00080933386127780653 0 0.021421177176193879 0.00093789174299526139 0 0.02147067420188277 0.0008073275704276341 0 0.021811074589544135 0.00080933386127780653 0 0.021577253270186982 0.00060416223918432382 0 0.02147067420188277 0.0008073275704276341 0 0.021147502627168153 0.0007737096213090767 0 0.021421177176193879 0.00093789174299526139 0 0.02147067420188277 0.0008073275704276341 0 0.022418642005030794 0.00063376036267269898 0 0.02194153628863971 0.00064807221863325752 0 0.021147502627168153 0.0007737096213090767 0 0.021577253270186982 0.00060416223918432382 0 0.02147067420188277 0.0008073275704276341 0 0.022887153058132433 0.00073241687682599566 0 0.02300904292240331 0.0004829128182059289 0 0.022580166898117822 0.00064652981907854052 0 0.022887153058132433 0.00073241687682599566 0 0.023027618264884139 0.00068022191973236899 0 0.02300904292240331 0.0004829128182059289 0 0.021534709239655274 -0.00074060226604277855 0 0.020575436929561507 -2.3299527290541432e-05 0 0.021011768123308169 -0.0014889459810271879 0 0.019151150246780803 0.00055075110805849546 0 0.023148200575694756 -0.0003613975244683622 0 0.021534709239655274 -0.00074060226604277855 0 0.020575436929561507 -2.3299527290541432e-05 0 0.022336536571782185 -0.000210093654613182 0 0.021534709239655274 -0.00074060226604277855 0 0.022336536571782185 -0.000210093654613182 0 0.022387548266048697 -0.0011036072625649326 0 0.013499604545465772 -0.00100457415600242 0 0.019151150246780803 0.00055075110805849546 0 0.019811583184038074 -0.0013469140845508939 0 0.020575436929561507 -2.3299527290541432e-05 0 0.021011768123308169 -0.0014889459810271879 0 0.021330139641817777 0.0010936655365277007 0 0.02140280247184663 0.001115862526980399 0 0.021475009684826834 0.0013699326749811004 0 0.021681245651430217 0.0011074122634319708 0 0.02140280247184663 0.001115862526980399 0 0.021599632804911312 0.0012358712338586255 0 0.021966374618193025 0.00078542901691666905 0 0.019151150246780803 0.00055075110805849546 0 0.02140280247184663 0.001115862526980399 0 0.021475009684826834 0.0013699326749811004 0 0.021599632804911312 0.0012358712338586255 0 0.021953827574367941 -0.00013953967441157524 0 0.022292142856954123 -1.3947333125479286e-05 0 0.022336536571782185 -0.000210093654613182 0 0.022181495753045784 0.00020446751227247808 0 0.021953827574367941 -0.00013953967441157524 0 0.022292142856954123 -1.3947333125479286e-05 0 0.022527302151868829 0.00017986267204542756 0 0.022181495753045784 0.00020446751227247808 0 0.022292142856954123 -1.3947333125479286e-05 0 0.023285830877698793 -3.1874213583334585e-05 0 0.023151242479539924 -0.00064837903463682036 0 0.023420891579486718 -0.00034445825771469427 0 0.022869821000683868 0.00036677588880340442 0 0.022527302151868829 0.00017986267204542756 0 0.02258313210895211 -3.4827251060828042e-05 0 0.022527302151868829 0.00017986267204542756 0 0.022292142856954123 -1.3947333125479286e-05 0 0.02258313210895211 -3.4827251060828042e-05 0 0.023151242479539924 -0.00064837903463682036 0 0.023625337680982118 -0.00057078006657145474 0 0.023066455153353285 -0.0010443097799830944 0 0.023095558738620882 0.00019297005356961534 0 0.02284583955240712 -0.00034767104826285576 0 0.022292142856954123 -1.3947333125479286e-05 0 0.02258313210895211 -3.4827251060828042e-05 0 0.022336536571782185 -0.000210093654613182 0 0.023151242479539924 -0.00064837903463682036 0 0.023420891579486718 -0.00034445825771469427 0 0.023625337680982118 -0.00057078006657145474 0 0.023632530262287042 -0.00010737749362985285 0 0.023420891579486718 -0.00034445825771469427 0 0.023625337680982118 -0.00057078006657145474 0 0.021749679449195734 -0.00063437867325803071 0 0.021596638513560917 -0.00024340401107959632 0 0.021321630042138866 -0.00037078487542328907 0 0.021305406774225041 -0.00038680549742380727 0 0.02134637338679285 -0.00037937558530766778 0 0.021323545989548182 -0.00033510558339155055 0 0.021321630042138866 -0.00037078487542328907 0 0.02134637338679285 -0.00037937558530766778 0 0.021323545989548182 -0.00033510558339155055 0 0.021321630042138866 -0.00037078487542328907 0 0.021308733862472808 -0.00037875212456249161 0 0.022452964528429192 -0.00044755953341735243 0 0.022328197127885946 -0.00073815289160336097 0 0.02284583955240712 -0.00034767104826285576 0 0.022328197127885946 -0.00073815289160336097 0 0.02258313210895211 -3.4827251060828042e-05 0 0.022336536571782185 -0.000210093654613182 0 0.022513584881841953 -0.00061209616538003195 0 0.021321630042138866 -0.00037078487542328907 0 0.021308733862472808 -0.00037875212456249161 0 0.021305406774225041 -0.00038680549742380727 0 0.022328197127885946 -0.00073815289160336097 0 0.021749679449195734 -0.00063437867325803071 0 0.022336536571782185 -0.000210093654613182 0 0.022513584881841953 -0.00061209616538003195 0 0.022387548266048697 -0.0011036072625649326 0 0.021954480592567487 -0.00015951520239374748 0 0.021955024641769863 -0.00013658049172240281 0 0.021874071254580487 -0.00012506188850639407 0 0.021749679449195734 -0.00063437867325803071 0 0.021077416084895575 -0.00079152868553713455 0 0.02148439535084766 -0.0013737181389960761 0 0.02143838138408713 -0.001603166771668719 0 0.021400166317056626 -0.0016082209555860767 0 0.019242561928500958 0.00029373325989083277 0 0.01936086000668779 0.00026711080529119715 0 0.019304643699475349 0.00024855919112355863 0 0.021077416084895575 -0.00079152868553713455 0 0.021099580261956276 -0.00080776634024457071 0 0.021954480592567487 -0.00015951520239374748 0 0.021874071254580487 -0.00012506188850639407 0 0.021888582812685495 -0.00020342629606036068 0 0.021077416084895575 -0.00079152868553713455 0 0.020574837402769823 0.00020671994176597286 0 0.019242561928500958 0.00029373325989083277 0 0.01936086000668779 0.00026711080529119715 0 0.019486025789591702 0.00029292791728127346 0 0.01936086000668779 0.00026711080529119715 0 0.019429152582528246 0.00025761445517211319 0 0.01938546350036684 0.00023845113002809627 0 0.01936086000668779 0.00026711080529119715 0 0.019429152582528246 0.00025761445517211319 0 0.019486025789591702 0.00029292791728127346 0 0.019429152582528246 0.00025761445517211319 0 0.019419748161711874 0.00023808378927199408 0 0.019488209503581842 0.00025178004996831514 0 0.019429152582528246 0.00025761445517211319 0 0.019488209503581842 0.00025178004996831514 0 0.019486025789591702 0.00029292791728127346 0 0.019379417429909333 0.00020454316575161497 0 0.019363843058367792 0.00014513515109459068 0 0.019488209503581842 0.00025178004996831514 0 0.019419748161711874 0.00023808378927199408 0 0.019379417429909333 0.00020454316575161497 0 0.019488209503581842 0.00025178004996831514 0 0.019429152582528246 0.00025761445517211319 0 0.019419748161711874 0.00023808378927199408 0 0.01938546350036684 0.00023845113002809627 0 0.019419748161711874 0.00023808378927199408 0 0.01938546350036684 0.00023845113002809627 0 0.019379417429909333 0.00020454316575161497 0 0.01938546350036684 0.00023845113002809627 0 0.0193355866962641 0.00022386311631243441 0 0.019379417429909333 0.00020454316575161497 0 0.01936086000668779 0.00026711080529119715 0 0.01938546350036684 0.00023845113002809627 0 0.0193355866962641 0.00022386311631243441 0 0.0193355866962641 0.00022386311631243441 0 0.019379417429909333 0.00020454316575161497 0 0.019309504734726382 0.00017045773706063193 0 0.021077416084895575 -0.00079152868553713455 0 0.014988273008488354 5.2257815846463782e-05 0 0.019242561928500958 0.00029373325989083277 0 0.019277156093569957 0.00021328605240262215 0 0.019205297777314456 0.00016033487184266164 0 0.021442181293764441 -0.0016024866286979665 0 0.021400166317056626 -0.0016082209555860767 0 0.021268737772481935 -0.0022434348147587547 0 0.019277156093569957 0.00021328605240262215 0 0.019205297777314456 0.00016033487184266164 0 0.019309504734726382 0.00017045773706063193 0 0.019242561928500958 0.00029373325989083277 0 0.019304643699475349 0.00024855919112355863 0 0.019277156093569957 0.00021328605240262215 0 0.0193355866962641 0.00022386311631243441 0 0.019304643699475349 0.00024855919112355863 0 0.019277156093569957 0.00021328605240262215 0 0.01936086000668779 0.00026711080529119715 0 0.0193355866962641 0.00022386311631243441 0 0.019304643699475349 0.00024855919112355863 0 0.0193355866962641 0.00022386311631243441 0 0.019277156093569957 0.00021328605240262215 0 0.019309504734726382 0.00017045773706063193 0 0.010533917813862198 0.00019184119050071622 0 0.010478317711851138 0.00080442234748742713 0 0.0097769748451885432 0.00067249981458496818 0 0.016032223749530648 -0.0010851653897477936 0 0.014988273008488354 5.2257815846463782e-05 0 0.021400166317056626 -0.0016082209555860767 0 0.021134728381765732 -0.0018112377684383323 0 0.021268737772481935 -0.0022434348147587547 0 0.021134728381765732 -0.0018112377684383323 0 0.020788779499160259 -0.0019462415407055442 0 0.021268737772481935 -0.0022434348147587547 0 0.021749679449195734 -0.00063437867325803071 0 0.021110189647456892 -0.0015274249317766282 0 0.021400166317056626 -0.0016082209555860767 0 0.021134728381765732 -0.0018112377684383323 0 0.021011768123308169 -0.0014889459810271879 0 0.021534709239655274 -0.00074060226604277855 0 0.022387548266048697 -0.0011036072625649326 0 0.021011768123308169 -0.0014889459810271879 0 0.02148439535084766 -0.0013737181389960761 0 0.021400166317056626 -0.0016082209555860767 0 0.021011768123308169 -0.0014889459810271879 0 0.021134728381765732 -0.0018112377684383323 0 0.021011768123308169 -0.0014889459810271879 0 0.020788779499160259 -0.0019462415407055442 0 0.013499604545465772 -0.00100457415600242 0 0.016032223749530648 -0.0010851653897477936 0 0.019811583184038074 -0.0013469140845508939 0 0.021011768123308169 -0.0014889459810271879 0 0.020788779499160259 -0.0019462415407055442 0 0.011260782917818292 -0.00015204365515533109 0 0.011009152217687248 0.00036514707380601205 0 0.010533917813862198 0.00019184119050071622 0 0.011009152217687248 0.00036514707380601205 0 0.010533917813862198 0.00019184119050071622 0 0.010478317711851138 0.00080442234748742713 0 0.011192049812469688 0.00078769107574012205 0 0.010478317711851138 0.00080442234748742713 0 0.010844082494760229 0.0013803190513339858 0 0.011192049812469688 0.00078769107574012205 0 0.011009152217687248 0.00036514707380601205 0 0.010478317711851138 0.00080442234748742713 0 0.010478317711851138 0.00080442234748742713 0 0.010304991092307264 0.0011578382159458756 0 0.010844082494760229 0.0013803190513339858 0 0.0095216544809359933 0.0010504116812317008 0 0.0094514532981134838 0.00081173938264536842 0 0.0095281008051425579 0.00087902818033132562 0 0.010478317711851138 0.00080442234748742713 0 0.0097769748451885432 0.00067249981458496818 0 0.010027276194001232 0.0010694305795547782 0 0.0097769748451885432 0.00067249981458496818 0 0.010027276194001232 0.0010694305795547782 0 0.0097903066807795737 0.0014559830492812586 0 0.014988273008488354 5.2257815846463782e-05 0 0.009322918893893738 0.001163928817717682 0 0.010478317711851138 0.00080442234748742713 0 0.010304991092307264 0.0011578382159458756 0 0.010027276194001232 0.0010694305795547782 0 0.010304991092307264 0.0011578382159458756 0 0.010027276194001232 0.0010694305795547782 0 0.009875449691126189 0.0014010516830884636 0 0.0094514532981134838 0.00081173938264536842 0 0.0094061558764726074 0.00089206649508032001 0 0.0094908915578621154 0.0014889548026230631 0 0.0097903066807795737 0.0014559830492812586 0 0.0097531403513204142 0.0014329436586669982 0 0.0094908915578621154 0.0014889548026230631 0 0.0094514532981134838 0.00081173938264536842 0 0.0094061558764726074 0.00089206649508032001 0 0.0095281008051425579 0.00087902818033132562 0 0.010027276194001232 0.0010694305795547782 0 0.0097903066807795737 0.0014559830492812586 0 0.009875449691126189 0.0014010516830884636 0 0.0097903066807795737 0.0014559830492812586 0 0.009875449691126189 0.0014010516830884636 0 0.0097531403513204142 0.0014329436586669982 0 0.010304991092307264 0.0011578382159458756 0 0.009875449691126189 0.0014010516830884636 0 0.010844082494760229 0.0013803190513339858 0 0.0098341173312842742 0.0014019976900476268 0 0.010490329107066992 0.0013803136936503637 0 0.009875449691126189 0.0014010516830884636 0 0.0097531403513204142 0.0014329436586669982 0 0.009729401810698899 0.0014346145113111001 0 0.0097531403513204142 0.0014329436586669982 0 0.009729401810698899 0.0014346145113111001 0 0.0097008012651289208 0.0014328867748495983 0 0.0097709361489503443 0.0014672917418096165 0 0.009729401810698899 0.0014346145113111001 0 0.0097008012651289208 0.0014328867748495983 0 0.0081803937666284094 0.0027281534589703319 0 0.0087780738549102996 0.002158741910700453 0 0.0071241056335610052 0.003559819415694737 0 0.0079202751255734102 0.0027595873011652693 0 0.0071655190944475613 0.0028669915387617034 0 0.0097709361489503443 0.0014672917418096165 0 0.0097008012651289208 0.0014328867748495983 0 0.0094908915578621154 0.0014889548026230631 0 0.0097709361489503443 0.0014672917418096165 0 0.0094908915578621154 0.0014889548026230631 0 0.0095568574542872903 0.0016876818250537943 0 0.009322918893893738 0.001163928817717682 0 0.0095721989645554378 0.0014744013939043889 0 0.0097531403513204142 0.0014329436586669982 0 0.0097008012651289208 0.0014328867748495983 0 0.0094908915578621154 0.0014889548026230631 0 0.0094061558764726074 0.00089206649508032001 0 0.0094908915578621154 0.0014889548026230631 0 0.0088928231201291352 0.0016563556122422979 0 0.0094908915578621154 0.0014889548026230631 0 0.0091487521961581986 0.0017205938489243335 0 0.0088928231201291352 0.0016563556122422979 0 0.0087780738549102996 0.002158741910700453 0 0.0087771026273609828 0.0020141089768580997 0 0.0095568574542872903 0.0016876818250537943 0 0.0091487521961581986 0.0017205938489243335 0 0.0087581432483545014 0.0019725211212191195 0 0.0094908915578621154 0.0014889548026230631 0 0.0095568574542872903 0.0016876818250537943 0 0.0091487521961581986 0.0017205938489243335 0 0.0079202751255734102 0.0027595873011652693 0 0.0079470981596392251 0.0022702088287356401 0 0.0087581432483545014 0.0019725211212191195 0 0.0079470981596392251 0.0022702088287356401 0 0.0074313812836298287 0.002433206608299765 0 0.0076749899571047298 0.0020756643921596945 0 0.0079202751255734102 0.0027595873011652693 0 0.0079470981596392251 0.0022702088287356401 0 0.0074313812836298287 0.002433206608299765 0 0.0074313812836298287 0.002433206608299765 0 0.0072714495953507697 0.0019890026912397717 0 0.0076749899571047298 0.0020756643921596945 0 0.0067834185842345646 0.0024909691050610506 0 0.0074313812836298287 0.002433206608299765 0 0.0072714495953507697 0.0019890026912397717 0 0.0067834185842345646 0.0024909691050610506 0 0.0074313812836298287 0.002433206608299765 0 0.0071655190944475613 0.0028669915387617034 0 0.0079202751255734102 0.0027595873011652693 0 0.0074313812836298287 0.002433206608299765 0 0.0071655190944475613 0.0028669915387617034 0 0.0097216941998046324 0.00047885243983657302 0 0.0096415173789634184 0.00041634103828606977 0 0.0098784608239988591 0.0004208700623818975 0 0.0096415173789634184 0.00041634103828606977 0 0.0092296814844746913 0.00027340275479102445 0 0.0094917195955316423 0.0004659073208790964 0 0.0095078483647990965 0.00037133851315546747 0 0.010015781196991425 -2.4749842034144911e-05 0 0.0097216941998046324 0.00047885243983657302 0 0.0096321756253930149 0.00050306892750339642 0 0.0097473447966592609 0.00057589077902828266 0 0.0097216941998046324 0.00047885243983657302 0 0.0097473447966592609 0.00057589077902828266 0 0.0098784608239988591 0.0004208700623818975 0 0.0097216941998046324 0.00047885243983657302 0 0.0096415173789634184 0.00041634103828606977 0 0.0096321756253930149 0.00050306892750339642 0 0.0091732213681723074 0.0011834811201617173 0 0.0097937057455184297 0.00090175855294660973 0 0.0096415173789634184 0.00041634103828606977 0 0.0096321756253930149 0.00050306892750339642 0 0.0096488185859470877 0.0004193480777969213 0 0.0088928231201291352 0.0016563556122422979 0 0.0088080440452329798 0.0019280157330838687 0 0.0088987423678845573 0.0019458789613966648 0 0.0091487521961581986 0.0017205938489243335 0 0.0088928231201291352 0.0016563556122422979 0 0.0087581432483545014 0.0019725211212191195 0 0.0096321756253930149 0.00050306892750339642 0 0.0095463745347324491 0.00055499734489713635 0 0.0096488185859470877 0.0004193480777969213 0 0.0088928231201291352 0.0016563556122422979 0 0.0088080440452329798 0.0019280157330838687 0 0.0087581432483545014 0.0019725211212191195 0 0.0096321756253930149 0.00050306892750339642 0 0.0095463745347324491 0.00055499734489713635 0 0.0097473447966592609 0.00057589077902828266 0 0.0094061558764726074 0.00089206649508032001 0 0.0095463745347324491 0.00055499734489713635 0 0.0096188041250140494 0.00076150770687251703 0 0.0093939251704469179 0.00087889108139628275 0 0.0091732213681723074 0.0011834811201617173 0 0.0095463745347324491 0.00055499734489713635 0 0.0097473447966592609 0.00057589077902828266 0 0.0096188041250140494 0.00076150770687251703 0 0.0097473447966592609 0.00057589077902828266 0 0.0099125410850426487 0.0007563165192273582 0 0.0098784608239988591 0.0004208700623818975 0 0.0097473447966592609 0.00057589077902828266 0 0.0096188041250140494 0.00076150770687251703 0 0.0099125410850426487 0.0007563165192273582 0 0.019288881034479129 0.00012587770790575069 0 0.019363843058367792 0.00014513515109459068 0 0.019298489392625767 0.00011281663887475262 0 0.0096188041250140494 0.00076150770687251703 0 0.0096969582573690344 0.00091587684591956805 0 0.0099125410850426487 0.0007563165192273582 0 0.014225995257384666 0.00066820794287396411 0 0.015558015007325701 0.0005457697325658489 0 0.0094061558764726074 0.00089206649508032001 0 0.0096188041250140494 0.00076150770687251703 0 0.0095281008051425579 0.00087902818033132562 0 0.0096188041250140494 0.00076150770687251703 0 0.0096969582573690344 0.00091587684591956805 0 0.0095281008051425579 0.00087902818033132562 0 0.0095216544809359933 0.0010504116812317008 0 0.0096969582573690344 0.00091587684591956805 0 0.0095281008051425579 0.00087902818033132562 0 0.014988273008488354 5.2257815846463782e-05 0 0.014225995257384666 0.00066820794287396411 0 0.019205297777314456 0.00016033487184266164 0 0.019288881034479129 0.00012587770790575069 0 0.019309504734726382 0.00017045773706063193 0 0.019379417429909333 0.00020454316575161497 0 0.019309504734726382 0.00017045773706063193 0 0.019363843058367792 0.00014513515109459068 0 0.019288881034479129 0.00012587770790575069 0 0.019309504734726382 0.00017045773706063193 0 0.019363843058367792 0.00014513515109459068 0 0.019606723791640739 0.00035781170931995806 0 0.019531701402222372 0.00034169792295088192 0 0.019523750210595537 0.00027633829716218868 0 0.019606723791640739 0.00035781170931995806 0 0.019531701402222372 0.00034169792295088192 0 0.019545224204808163 0.0004407737174549341 0 0.019480533658824659 0.00039063737671923805 0 0.019462048712356982 0.00029431337578901897 0 0.019506679258895043 0.00027752193738925473 0 0.019531701402222372 0.00034169792295088192 0 0.019480533658824659 0.00039063737671923805 0 0.019506679258895043 0.00027752193738925473 0 0.019531701402222372 0.00034169792295088192 0 0.019545224204808163 0.0004407737174549341 0 0.019480533658824659 0.00039063737671923805 0 0.019480533658824659 0.00039063737671923805 0 0.019507465508059183 0.00054915673725626057 0 0.019410230384920839 0.00047902985746689703 0 0.019545224204808163 0.0004407737174549341 0 0.019480533658824659 0.00039063737671923805 0 0.019507465508059183 0.00054915673725626057 0 0.019507465508059183 0.00054915673725626057 0 0.019393553236807227 0.00058986925552775339 0 0.019410230384920839 0.00047902985746689703 0 0.019507465508059183 0.00054915673725626057 0 0.019438048982034096 0.00064231939703573418 0 0.019393553236807227 0.00058986925552775339 0 0.019850777646902983 0.00021547287928230238 0 0.015558015007325701 0.0005457697325658489 0 0.019606723791640739 0.00035781170931995806 0 0.019545224204808163 0.0004407737174549341 0 0.019619827052429432 0.00058271385070365607 0 0.019545224204808163 0.0004407737174549341 0 0.019507465508059183 0.00054915673725626057 0 0.019619827052429432 0.00058271385070365607 0 0.015558015007325701 0.0005457697325658489 0 0.010015781196991425 -2.4749842034144911e-05 0 0.013400854548919403 0.00013267517268121529 0 0.013537357642091127 9.9620660342302694e-06 0 0.013368719151356538 -0.00016964510722598014 0 0.015558015007325701 0.0005457697325658489 0 0.01696600344454947 2.4788148955325766e-05 0 0.019507465508059183 0.00054915673725626057 0 0.019619827052429432 0.00058271385070365607 0 0.019503546477075813 0.00069965125614292504 0 0.019507465508059183 0.00054915673725626057 0 0.019438048982034096 0.00064231939703573418 0 0.019503546477075813 0.00069965125614292504 0 0.019438048982034096 0.00064231939703573418 0 0.019356778280055168 0.00070324999639707713 0 0.019393553236807227 0.00058986925552775339 0 0.019438048982034096 0.00064231939703573418 0 0.019408495645264864 0.00071634968880398761 0 0.019356778280055168 0.00070324999639707713 0 0.019408495645264864 0.00071634968880398761 0 0.019503546477075813 0.00069965125614292504 0 0.019363518662458883 0.00081595245285476931 0 0.019408495645264864 0.00071634968880398761 0 0.019363155157770148 0.00075421356301424969 0 0.019356778280055168 0.00070324999639707713 0 0.019438048982034096 0.00064231939703573418 0 0.019408495645264864 0.00071634968880398761 0 0.019503546477075813 0.00069965125614292504 0 0.0078951766315245239 -2.0040585824806963e-05 0 0.0075785811369093988 0.00022803811331201685 0 0.0081355811102670223 0.0005958064892275704 0 0.0078951766315245239 -2.0040585824806963e-05 0 0.0089361424522418458 0.00018998845088361138 0 0.0081355811102670223 0.0005958064892275704 0 0.013537357642091127 9.9620660342302694e-06 0 0.013679528687032049 -0.00011151990671176344 0 0.013368719151356538 -0.00016964510722598014 0 0.013131957800727463 -2.3424428019403734e-06 0 0.010015781196991425 -2.4749842034144911e-05 0 0.01696600344454947 2.4788148955325766e-05 0 0.013131957800727463 -2.3424428019403734e-06 0 0.019408495645264864 0.00071634968880398761 0 0.019363155157770148 0.00075421356301424969 0 0.019363518662458883 0.00081595245285476931 0 0.014457674139517391 0.0014033710125632322 0 0.014241481707148134 0.0010447157831800645 0 0.014547347901159718 0.00092981826426861047 0 0.014457674139517391 0.0014033710125632322 0 0.014241481707148134 0.0010447157831800645 0 0.013828169735706327 0.0012840359135153246 0 0.014241481707148134 0.0010447157831800645 0 0.013864018498908077 0.0010622052326872036 0 0.013828169735706327 0.0012840359135153246 0 0.019148284792567138 0.00081261563160484962 0 0.019320161475080255 0.00080312459672310366 0 0.019284870615857264 0.00075717739058474471 0 0.017061768005128295 0.0011637516593018997 0 0.015329694969829792 0.00071089355606390107 0 0.01339420113862913 -0.00028817171770843206 0 0.012334956590804963 0.0005817747454724435 0 0.01254636251914348 -0.00045254302885269868 0 0.013131957800727463 -2.3424428019403734e-06 0 0.010449242706452181 0.00042446437900507249 0 0.010449242706452181 0.00042446437900507249 0 0.015329694969829792 0.00071089355606390107 0 0.019363518662458883 0.00081595245285476931 0 0.019313575021724653 0.00080641813420869856 0 0.019325071522030477 0.00078307298312952722 0 0.013131957800727463 -2.3424428019403734e-06 0 0.015329694969829792 0.00071089355606390107 0 0.019320161475080255 0.00080312459672310366 0 0.019325071522030477 0.00078307298312952722 0 0.019284870615857264 0.00075717739058474471 0 0.015329694969829792 0.00071089355606390107 0 0.015646659315438155 0.00059279603660564401 0 0.019363155157770148 0.00075421356301424969 0 0.019363518662458883 0.00081595245285476931 0 0.019325071522030477 0.00078307298312952722 0 0.019284870615857264 0.00075717739058474471 0 0.019356778280055168 0.00070324999639707713 0 0.019267800955714495 0.00068314491674158705 0 0.019363155157770148 0.00075421356301424969 0 0.019325071522030477 0.00078307298312952722 0 0.019356778280055168 0.00070324999639707713 0 0.019325071522030477 0.00078307298312952722 0 0.019284870615857264 0.00075717739058474471 0 0.019356778280055168 0.00070324999639707713 0 0.019356778280055168 0.00070324999639707713 0 0.019267800955714495 0.00068314491674158705 0 0.019393553236807227 0.00058986925552775339 0 0.019148284792567138 0.00081261563160484962 0 0.019267800955714495 0.00068314491674158705 0 0.019114435949402462 0.00062569635257414427 0 0.019148284792567138 0.00081261563160484962 0 0.019284870615857264 0.00075717739058474471 0 0.019267800955714495 0.00068314491674158705 0 0.019267800955714495 0.00068314491674158705 0 0.019308017967539358 0.00054294416050293122 0 0.019114435949402462 0.00062569635257414427 0 0.019308017967539358 0.00054294416050293122 0 0.019252112919975129 0.00046314735462925848 0 0.019114435949402462 0.00062569635257414427 0 0.019267800955714495 0.00068314491674158705 0 0.019393553236807227 0.00058986925552775339 0 0.019308017967539358 0.00054294416050293122 0 0.019308017967539358 0.00054294416050293122 0 0.019410230384920839 0.00047902985746689703 0 0.019381479369968528 0.00041079432005554806 0 0.019393553236807227 0.00058986925552775339 0 0.019308017967539358 0.00054294416050293122 0 0.019410230384920839 0.00047902985746689703 0 0.019480533658824659 0.00039063737671923805 0 0.019410230384920839 0.00047902985746689703 0 0.019381479369968528 0.00041079432005554806 0 0.019480533658824659 0.00039063737671923805 0 0.019381479369968528 0.00041079432005554806 0 0.019462048712356982 0.00029431337578901897 0 0.019381479369968528 0.00041079432005554806 0 0.019353958702672945 0.00031141550992928922 0 0.019462048712356982 0.00029431337578901897 0 0.019252112919975129 0.00046314735462925848 0 0.019353958702672945 0.00031141550992928922 0 0.019103640427691915 0.00037984915053111988 0 0.019252112919975129 0.00046314735462925848 0 0.019103640427691915 0.00037984915053111988 0 0.019114435949402462 0.00062569635257414427 0 0.019308017967539358 0.00054294416050293122 0 0.019381479369968528 0.00041079432005554806 0 0.019252112919975129 0.00046314735462925848 0 0.019381479369968528 0.00041079432005554806 0 0.019252112919975129 0.00046314735462925848 0 0.019353958702672945 0.00031141550992928922 0 0.019353958702672945 0.00031141550992928922 0 0.01931558925118303 0.00017508906204066499 0 0.019103640427691915 0.00037984915053111988 0 0.019353958702672945 0.00031141550992928922 0 0.01931558925118303 0.00017508906204066499 0 0.019491123008930088 0.00015854982982276746 0 0.01931558925118303 0.00017508906204066499 0 0.019491123008930088 0.00015854982982276746 0 0.019640865743663843 -7.0361886432054047e-05 0 0.020549030048950048 6.7878670718158764e-05 0 0.019662302940223458 -5.1759661400842654e-05 0 0.019491123008930088 0.00015854982982276746 0 0.019518301090356974 0.00018755237652978132 0 0.019640865743663843 -7.0361886432054047e-05 0 0.019491123008930088 0.00015854982982276746 0 0.019500625783289732 0.00022008196404291628 0 0.019518301090356974 0.00018755237652978132 0 0.019491123008930088 0.00015854982982276746 0 0.019462048712356982 0.00029431337578901897 0 0.019500625783289732 0.00022008196404291628 0 0.019353958702672945 0.00031141550992928922 0 0.019491123008930088 0.00015854982982276746 0 0.019462048712356982 0.00029431337578901897 0 0.019462048712356982 0.00029431337578901897 0 0.019506679258895043 0.00027752193738925473 0 0.019500625783289732 0.00022008196404291628 0 0.019531701402222372 0.00034169792295088192 0 0.019506679258895043 0.00027752193738925473 0 0.019523750210595537 0.00027633829716218868 0 0.019506679258895043 0.00027752193738925473 0 0.019500625783289732 0.00022008196404291628 0 0.019511307304094189 0.00023444380972630299 0 0.019506679258895043 0.00027752193738925473 0 0.019523750210595537 0.00027633829716218868 0 0.019511307304094189 0.00023444380972630299 0 0.019850777646902983 0.00021547287928230238 0 0.019419642661168773 0.00028523690719823815 0 0.019606723791640739 0.00035781170931995806 0 0.019523750210595537 0.00027633829716218868 0 0.019488209503581842 0.00025178004996831514 0 0.019523750210595537 0.00027633829716218868 0 0.019506177330734519 0.00025532429106843468 0 0.019511307304094189 0.00023444380972630299 0 0.019523750210595537 0.00027633829716218868 0 0.019488209503581842 0.00025178004996831514 0 0.019506177330734519 0.00025532429106843468 0 0.021874071254580487 -0.00012506188850639407 0 0.021621103406099872 7.7360259826773389e-06 0 0.021758707173841818 -0.00013897728486098572 0 0.020574837402769823 0.00020671994176597286 0 0.020549030048950048 6.7878670718158764e-05 0 0.019486025789591702 0.00029292791728127346 0 0.019511307304094189 0.00023444380972630299 0 0.019518301090356974 0.00018755237652978132 0 0.019506177330734519 0.00025532429106843468 0 0.019486025789591702 0.00029292791728127346 0 0.019511307304094189 0.00023444380972630299 0 0.019488209503581842 0.00025178004996831514 0 0.019506177330734519 0.00025532429106843468 0 0.019486025789591702 0.00029292791728127346 0 0.019500625783289732 0.00022008196404291628 0 0.019511307304094189 0.00023444380972630299 0 0.019518301090356974 0.00018755237652978132 0 0.021633254980885044 -0.00022405822348303876 0 0.021487934831785155 -0.00038132225750382227 0 0.021060881536249312 -0.00039318815116436509 0 0.021633254980885044 -0.00022405822348303876 0 0.021888582812685495 -0.00020342629606036068 0 0.021487934831785155 -0.00038132225750382227 0 0.021621103406099872 7.7360259826773389e-06 0 0.021633254980885044 -0.00022405822348303876 0 0.021758707173841818 -0.00013897728486098572 0 0.021621103406099872 7.7360259826773389e-06 0 0.021633254980885044 -0.00022405822348303876 0 0.021060881536249312 -0.00039318815116436509 0 0.021633254980885044 -0.00022405822348303876 0 0.021758707173841818 -0.00013897728486098572 0 0.021888582812685495 -0.00020342629606036068 0 0.021596638513560917 -0.00024340401107959632 0 0.021498690842656598 -0.00038631412108524292 0 0.021874071254580487 -0.00012506188850639407 0 0.021758707173841818 -0.00013897728486098572 0 0.021888582812685495 -0.00020342629606036068 0 0.022770032890430277 -0.00012318765066985315 0 0.022452964528429192 -0.00044755953341735243 0 0.021370825635323942 -0.0002103564694708979 0 0.021323545989548182 -0.00033510558339155055 0 0.021393248724069207 -0.00031872390758540096 0 0.021323545989548182 -0.00033510558339155055 0 0.02134637338679285 -0.00037937558530766778 0 0.021393248724069207 -0.00031872390758540096 0 0.02134637338679285 -0.00037937558530766778 0 0.021393248724069207 -0.00031872390758540096 0 0.021487934831785155 -0.00038132225750382227 0 0.021520504610919249 -0.00023878005971613884 0 0.021393248724069207 -0.00031872390758540096 0 0.021487934831785155 -0.00038132225750382227 0 0.021487934831785155 -0.00038132225750382227 0 0.021520447881229577 -0.00031469198624580315 0 0.021060881536249312 -0.00039318815116436509 0 0.021520447881229577 -0.00031469198624580315 0 0.02150380309705582 -0.00031102359088514713 0 0.021060881536249312 -0.00039318815116436509 0 0.021695404802116958 -0.00019294848598097277 0 0.021520447881229577 -0.00031469198624580315 0 0.02150380309705582 -0.00031102359088514713 0 0.021520504610919249 -0.00023878005971613884 0 0.021487934831785155 -0.00038132225750382227 0 0.021520447881229577 -0.00031469198624580315 0 0.021809276236482964 -0.00017920948632500186 0 0.021695404802116958 -0.00019294848598097277 0 0.02150380309705582 -0.00031102359088514713 0 0.021809276236482964 -0.00017920948632500186 0 0.02150380309705582 -0.00031102359088514713 0 0.021860711898249181 -0.00039257595429327959 0 0.019640865743663843 -7.0361886432054047e-05 0 0.021060881536249312 -0.00039318815116436509 0 0.019285549350142414 -0.00089100167342955083 0 0.02150380309705582 -0.00031102359088514713 0 0.021060881536249312 -0.00039318815116436509 0 0.021860711898249181 -0.00039257595429327959 0 0.021110500854903125 -0.00038153526821975198 0 0.02048996907075994 -0.00064581563687348602 0 0.021621103406099872 7.7360259826773389e-06 0 0.019640865743663843 -7.0361886432054047e-05 0 0.021060881536249312 -0.00039318815116436509 0 0.018532005648520217 -0.00070009859888724277 0 0.01867029045882402 -0.00041767277480754756 0 0.01832107059411478 -0.00053603982370377303 0 0.018813265459858532 -0.00069983044812293451 0 0.018532005648520217 -0.00070009859888724277 0 0.01867029045882402 -0.00041767277480754756 0 0.018813265459858532 -0.00069983044812293451 0 0.01867029045882402 -0.00041767277480754756 0 0.019073230700806722 -0.00038073647479642365 0 0.019640865743663843 -7.0361886432054047e-05 0 0.019073230700806722 -0.00038073647479642365 0 0.019285549350142414 -0.00089100167342955083 0 0.018813265459858532 -0.00069983044812293451 0 0.019073230700806722 -0.00038073647479642365 0 0.019285549350142414 -0.00089100167342955083 0 0.021860711898249181 -0.00039257595429327959 0 0.021955373563244947 -0.00023094339273542857 0 0.022102093383544914 -0.0002400884399464588 0 0.021809276236482964 -0.00017920948632500186 0 0.021860711898249181 -0.00039257595429327959 0 0.021955373563244947 -0.00023094339273542857 0 0.018813265459858532 -0.00069983044812293451 0 0.019285549350142414 -0.00089100167342955083 0 0.018574089572016294 -0.0010559510297935579 0 0.02048996907075994 -0.00064581563687348602 0 0.020824443101207572 -0.00060402548762758122 0 0.018813265459858532 -0.00069983044812293451 0 0.018532005648520217 -0.00070009859888724277 0 0.018574089572016294 -0.0010559510297935579 0 0.020057975416709339 0.00064332360214943785 0 0.020824443101207572 -0.00060402548762758122 0 0.018493079919577583 -0.00106891546463905 0 0.018799738116807845 -0.00092806232765448276 0 0.018313867972752591 -0.00061966404250270418 0 0.016865135675515387 0.00097013925804809251 0 0.017364184035429327 0.00086186125348628557 0 0.017446767616781246 0.00035892780007761753 0 0.020057975416709339 0.00064332360214943785 0 0.017505192441369145 -5.4574418891329016e-05 0 0.018493079919577583 -0.00106891546463905 0 0.018313867972752591 -0.00061966404250270418 0 0.018048670352073675 -0.00063703001661358813 0 0.018532005648520217 -0.00070009859888724277 0 0.018574089572016294 -0.0010559510297935579 0 0.018186910799530456 -0.00073546407909968591 0 0.020824443101207572 -0.00060402548762758122 0 0.018012859786249651 -0.00052981657580052966 0 0.017808320246513399 0.00070592766189560535 0 0.017364184035429327 0.00086186125348628557 0 0.017446767616781246 0.00035892780007761753 0 0.017808320246513399 0.00070592766189560535 0 0.017446767616781246 0.00035892780007761753 0 0.017856415789136531 0.00029990704908864203 0 0.017505192441369145 -5.4574418891329016e-05 0 0.01785415126045441 -0.00024385743682336401 0 0.017446767616781246 0.00035892780007761753 0 0.017771059946162623 -0.00017927901069813521 0 0.017856415789136531 0.00029990704908864203 0 0.018048670352073675 -0.00063703001661358813 0 0.017908636754752183 -0.00034242558981930325 0 0.017771059946162623 -0.00017927901069813521 0 0.018186910799530456 -0.00073546407909968591 0 0.018106525944774847 -0.000422350518588439 0 0.017908636754752183 -0.00034242558981930325 0 0.018313867972752591 -0.00061966404250270418 0 0.018048670352073675 -0.00063703001661358813 0 0.017908636754752183 -0.00034242558981930325 0 0.018012859786249651 -0.00052981657580052966 0 0.018026377509612567 -0.00045384268614909868 0 0.018106525944774847 -0.000422350518588439 0 0.018237308532317573 -0.00029152187371573918 0 0.017923904285096933 -0.00025025698510197712 0 0.018106525944774847 -0.000422350518588439 0 0.017908636754752183 -0.00034242558981930325 0 0.017923904285096933 -0.00025025698510197712 0 0.017908636754752183 -0.00034242558981930325 0 0.017923904285096933 -0.00025025698510197712 0 0.017771059946162623 -0.00017927901069813521 0 0.01867029045882402 -0.00041767277480754756 0 0.01832107059411478 -0.00053603982370377303 0 0.018237308532317573 -0.00029152187371573918 0 0.018532005648520217 -0.00070009859888724277 0 0.018186910799530456 -0.00073546407909968591 0 0.01832107059411478 -0.00053603982370377303 0 0.018186910799530456 -0.00073546407909968591 0 0.018106525944774847 -0.000422350518588439 0 0.01832107059411478 -0.00053603982370377303 0 0.018106525944774847 -0.000422350518588439 0 0.01832107059411478 -0.00053603982370377303 0 0.018237308532317573 -0.00029152187371573918 0 0.018460569767789745 -9.20161524644404e-05 0 0.018237308532317573 -0.00029152187371573918 0 0.017955500776476372 -4.9937436512422725e-05 0 0.01867029045882402 -0.00041767277480754756 0 0.018460569767789745 -9.20161524644404e-05 0 0.018237308532317573 -0.00029152187371573918 0 0.018237308532317573 -0.00029152187371573918 0 0.017923904285096933 -0.00025025698510197712 0 0.017955500776476372 -4.9937436512422725e-05 0 0.017923904285096933 -0.00025025698510197712 0 0.017955500776476372 -4.9937436512422725e-05 0 0.017738653614339277 -0.00017555810639671178 0 0.017955500776476372 -4.9937436512422725e-05 0 0.018507027998908541 0.00022243105774856405 0 0.018023537832115476 0.00052404998255710237 0 0.018460569767789745 -9.20161524644404e-05 0 0.017955500776476372 -4.9937436512422725e-05 0 0.018507027998908541 0.00022243105774856405 0 0.018460569767789745 -9.20161524644404e-05 0 0.018507027998908541 0.00022243105774856405 0 0.018973952358421232 3.4409193829207711e-05 0 0.018507027998908541 0.00022243105774856405 0 0.018973952358421232 3.4409193829207711e-05 0 0.019103640427691915 0.00037984915053111988 0 0.01867029045882402 -0.00041767277480754756 0 0.019073230700806722 -0.00038073647479642365 0 0.018973952358421232 3.4409193829207711e-05 0 0.01867029045882402 -0.00041767277480754756 0 0.018460569767789745 -9.20161524644404e-05 0 0.018973952358421232 3.4409193829207711e-05 0 0.01931558925118303 0.00017508906204066499 0 0.019640865743663843 -7.0361886432054047e-05 0 0.018973952358421232 3.4409193829207711e-05 0 0.019640865743663843 -7.0361886432054047e-05 0 0.019073230700806722 -0.00038073647479642365 0 0.018973952358421232 3.4409193829207711e-05 0 0.01931558925118303 0.00017508906204066499 0 0.018973952358421232 3.4409193829207711e-05 0 0.019103640427691915 0.00037984915053111988 0 0.018507027998908541 0.00022243105774856405 0 0.019103640427691915 0.00037984915053111988 0 0.018786208930062186 0.00059597680585232152 0 0.018469953126769665 0.00020625506086892372 0 0.018921277490725891 0.00068848678708683005 0 0.019103640427691915 0.00037984915053111988 0 0.018786208930062186 0.00059597680585232152 0 0.019114435949402462 0.00062569635257414427 0 0.018786208930062186 0.00059597680585232152 0 0.019114435949402462 0.00062569635257414427 0 0.018910815503533945 0.0008162970534794019 0 0.017061768005128295 0.0011637516593018997 0 0.016900528434933251 0.0011760466665862398 0 0.019148284792567138 0.00081261563160484962 0 0.019114435949402462 0.00062569635257414427 0 0.018910815503533945 0.0008162970534794019 0 0.018623292142213657 0.00071757928766682556 0 0.018787054556534538 0.0013120858333458226 0 0.018165540085493665 0.0012010574520187143 0 0.018921277490725891 0.00068848678708683005 0 0.016900528434933251 0.0011760466665862398 0 0.016900528434933251 0.0011760466665862398 0 0.016756864915246607 0.00115235963870809 0 0.014952557238257676 0.0010642018079552863 0 0.015137539997165892 0.00080880809615708094 0 0.015366319231455863 0.0011034895850796939 0 0.014952557238257676 0.0010642018079552863 0 0.015137539997165892 0.00080880809615708094 0 0.014841209427109666 0.00081859500568020357 0 0.014457674139517391 0.0014033710125632322 0 0.015079777433749567 0.0015230562091303318 0 0.014899436656087841 0.0010330852033468665 0 0.014457674139517391 0.0014033710125632322 0 0.014899436656087841 0.0010330852033468665 0 0.014547347901159718 0.00092981826426861047 0 0.016900528434933251 0.0011760466665862398 0 0.014815629378956117 0.00084648988163025412 0 0.015137539997165892 0.00080880809615708094 0 0.015572312639856733 0.00084690369958702718 0 0.015366319231455863 0.0011034895850796939 0 0.015572312639856733 0.00084690369958702718 0 0.015366319231455863 0.0011034895850796939 0 0.015799513646981053 0.0010612617260936086 0 0.016756864915246607 0.00115235963870809 0 0.01658855138295684 0.0010378969316536877 0 0.018165540085493665 0.0012010574520187143 0 0.018023537832115476 0.00052404998255710237 0 0.017417199415573927 0.0010773410043546203 0 0.018623292142213657 0.00071757928766682556 0 0.018165540085493665 0.0012010574520187143 0 0.018023537832115476 0.00052404998255710237 0 0.018507027998908541 0.00022243105774856405 0 0.018623292142213657 0.00071757928766682556 0 0.018023537832115476 0.00052404998255710237 0 0.017955500776476372 -4.9937436512422725e-05 0 0.018023537832115476 0.00052404998255710237 0 0.017292362303429686 0.00017285113721981119 0 0.017292362303429686 0.00017285113721981119 0 0.01620899626922 0.00014375703808581765 0 0.017020467390222001 -0.00012731022677075433 0 0.017292362303429686 0.00017285113721981119 0 0.016169930284112767 0.00070259300935080903 0 0.01620899626922 0.00014375703808581765 0 0.017292362303429686 0.00017285113721981119 0 0.016169930284112767 0.00070259300935080903 0 0.017417199415573927 0.0010773410043546203 0 0.016175757467420174 0.00076108880751677105 0 0.01658855138295684 0.0010378969316536877 0 0.018023537832115476 0.00052404998255710237 0 0.017292362303429686 0.00017285113721981119 0 0.017417199415573927 0.0010773410043546203 0 0.015572312639856733 0.00084690369958702718 0 0.015799513646981053 0.0010612617260936086 0 0.015943541525967678 0.00091689970337696213 0 0.016169930284112767 0.00070259300935080903 0 0.015943541525967678 0.00091689970337696213 0 0.015815292461480248 0.0008903198374604444 0 0.016169930284112767 0.00070259300935080903 0 0.015799513646981053 0.0010612617260936086 0 0.015943541525967678 0.00091689970337696213 0 0.015943541525967678 0.00091689970337696213 0 0.015892734496029116 0.0010671853002295068 0 0.015815292461480248 0.0008903198374604444 0 0.015943541525967678 0.00091689970337696213 0 0.015892734496029116 0.0010671853002295068 0 0.015830851242546237 0.00075938821473164235 0 0.016103003068248248 0.0010045025031135291 0 0.015733028767243928 0.00074727291955786735 0 0.015572312639856733 0.00084690369958702718 0 0.015943541525967678 0.00091689970337696213 0 0.015830851242546237 0.00075938821473164235 0 0.012533491727333658 0.00012336883878366137 0 0.012194416112699879 -3.4659077293877676e-07 0 0.012059713983890873 0.00012574832695622529 0 0.012533491727333658 0.00012336883878366137 0 0.013360844041669871 9.2819446255227542e-07 0 0.012194416112699879 -3.4659077293877676e-07 0 0.014267745812098859 0.00043464274920613057 0 0.013362497949424958 -2.090476363575958e-07 0 0.01508179712990741 0.0012553969418404585 0 0.015892734496029116 0.0010671853002295068 0 0.015815292461480248 0.0008903198374604444 0 0.014267745812098859 0.00043464274920613057 0 0.013796206431089406 0.00045719055781591114 0 0.014267745812098859 0.00043464274920613057 0 0.016103003068248248 0.0010045025031135291 0 0.012533491727333658 0.00012336883878366137 0 0.011700596802881861 0.00028647950448641848 0 0.012059713983890873 0.00012574832695622529 0 0.015909598036186141 0.0007413870703429535 0 0.015934879456185429 0.00074054679555587261 0 0.015953559552777916 0.00071034401607704639 0 0.01508179712990741 0.0012553969418404585 0 0.015815292461480248 0.0008903198374604444 0 0.015327674596555162 0.00052515501953008374 0 0.016169930284112767 0.00070259300935080903 0 0.015815292461480248 0.0008903198374604444 0 0.015327674596555162 0.00052515501953008374 0 0.015327674596555162 0.00052515501953008374 0 0.013782559857648466 2.6253006100520925e-06 0 0.015349814792804273 0.00016228059192609681 0 0.01508179712990741 0.0012553969418404585 0 0.015327674596555162 0.00052515501953008374 0 0.013782559857648466 2.6253006100520925e-06 0 0.013155354652372187 5.1645086699992315e-06 0 0.013365053817490704 4.2560750428056788e-08 0 0.013778018707956649 -3.7193239430089086e-08 0 0.014267745812098859 0.00043464274920613057 0 0.013779708448140353 1.2691134288373564e-07 0 0.013782559857648466 2.6253006100520925e-06 0 0.015349814792804273 0.00016228059192609681 0 0.015198865685695775 -6.2211636105265495e-07 0 0.016169930284112767 0.00070259300935080903 0 0.015349814792804273 0.00016228059192609681 0 0.01620899626922 0.00014375703808581765 0 0.016169930284112767 0.00070259300935080903 0 0.015327674596555162 0.00052515501953008374 0 0.015349814792804273 0.00016228059192609681 0 0.01620899626922 0.00014375703808581765 0 0.015198865685695775 -6.2211636105265495e-07 0 0.017020467390222001 -0.00012731022677075433 0 0.015349814792804273 0.00016228059192609681 0 0.01620899626922 0.00014375703808581765 0 0.015198865685695775 -6.2211636105265495e-07 0 0.016618003680877222 -1.3582552795109017e-07 0 0.017020467390222001 -0.00012731022677075433 0 0.018041198955123468 -0.00013427302770789459 0 0.015198865685695775 -6.2211636105265495e-07 0 0.016618003680877222 -1.3582552795109017e-07 0 0.017020467390222001 -0.00012731022677075433 0 0.017207625830726419 -0.00010592641812914821 0 0.018092566546266935 -5.197064967078793e-05 0 0.017292362303429686 0.00017285113721981119 0 0.017020467390222001 -0.00012731022677075433 0 0.017545804475779414 -9.9299878352137848e-05 0 0.017955500776476372 -4.9937436512422725e-05 0 0.017292362303429686 0.00017285113721981119 0 0.017545804475779414 -9.9299878352137848e-05 0 0.017955500776476372 -4.9937436512422725e-05 0 0.017545804475779414 -9.9299878352137848e-05 0 0.017738653614339277 -0.00017555810639671178 0 0.017545804475779414 -9.9299878352137848e-05 0 0.017738653614339277 -0.00017555810639671178 0 0.017748123835496742 -0.00016043295832506759 0 0.017738653614339277 -0.00017555810639671178 0 0.017748123835496742 -0.00016043295832506759 0 0.017771059946162623 -0.00017927901069813521 0 0.017923904285096933 -0.00025025698510197712 0 0.017738653614339277 -0.00017555810639671178 0 0.017771059946162623 -0.00017927901069813521 0 0.017020467390222001 -0.00012731022677075433 0 0.017545804475779414 -9.9299878352137848e-05 0 0.017748123835496742 -0.00016043295832506759 0 0.017020467390222001 -0.00012731022677075433 0 0.017748123835496742 -0.00016043295832506759 0 0.018217933792260641 -6.7467108763380045e-06 0 0.017748123835496742 -0.00016043295832506759 0 0.018217933792260641 -6.7467108763380045e-06 0 0.017979953565887101 6.0232408440371438e-05 0 0.018217933792260641 -6.7467108763380045e-06 0 0.017979953565887101 6.0232408440371438e-05 0 0.018215929083415888 0.0005475177060349283 0 0.017748123835496742 -0.00016043295832506759 0 0.017771059946162623 -0.00017927901069813521 0 0.017979953565887101 6.0232408440371438e-05 0 0.017771059946162623 -0.00017927901069813521 0 0.017979953565887101 6.0232408440371438e-05 0 0.017856415789136531 0.00029990704908864203 0 0.017808320246513399 0.00070592766189560535 0 0.017856415789136531 0.00029990704908864203 0 0.018215929083415888 0.0005475177060349283 0 0.017979953565887101 6.0232408440371438e-05 0 0.017856415789136531 0.00029990704908864203 0 0.018215929083415888 0.0005475177060349283 0 0.018412130006657649 0.0011006098878744643 0 0.017808320246513399 0.00070592766189560535 0 0.018215929083415888 0.0005475177060349283 0 0.018925581812118359 0.0012578586607218483 0 0.018217933792260641 -6.7467108763380045e-06 0 0.018215929083415888 0.0005475177060349283 0 0.018939971620506167 0.00051704270825568446 0 0.018092566546266935 -5.197064967078793e-05 0 0.016618003680877222 -1.3582552795109017e-07 0 0.018041198955123468 -0.00013427302770789459 0 0.018036386394719703 -2.3604908455135072e-07 0 0.018041198955123468 -0.00013427302770789459 0 0.018744714699538353 -0.00011944696382098175 0 0.018036386394719703 -2.3604908455135072e-07 0 0.019028158418528916 -0.00015164050140394598 0 0.018041198955123468 -0.00013427302770789459 0 0.018744714699538353 -0.00011944696382098175 0 0.019455153097028211 -2.399940915929366e-07 0 0.018744714699538353 -0.00011944696382098175 0 0.018036386394719703 -2.3604908455135072e-07 0 0.0064897624856751204 0.00044152774036448667 0 0.0074537200958677439 0.00023331681357663788 0 0.0063392700995238372 0.00020311246681794577 0 0.0055583454427153246 0.00088980946203896414 0 0.0074558696996842979 0.00015135677201073559 0 0.0063392700995238372 0.00020311246681794577 0 0.00564663599337381 0.00033485333482155338 0 0.0055583454427153246 0.00088980946203896414 0 0.00564663599337381 0.00033485333482155338 0 0.0055583454427153246 0.00088980946203896414 0 0.0050970409519227001 0.00037371537372703174 0 0.0074558696996842979 0.00015135677201073559 0 0.0064946335839039483 5.0619879175414724e-08 0 0.0078408366802772966 5.6850009106068022e-07 0 0.0063392700995238372 0.00020311246681794577 0 0.0074558696996842979 0.00015135677201073559 0 0.0064946335839039483 5.0619879175414724e-08 0 0.0079773675517957818 7.1069150824426794e-05 0 0.0074558696996842979 0.00015135677201073559 0 0.0079956427296819666 -4.7775318701123444e-05 0 0.0064946335839039483 5.0619879175414724e-08 0 0.00566301378211555 7.5338458546240071e-05 0 0.0055716051865653321 -9.008116885506801e-05 0 0.0063392700995238372 0.00020311246681794577 0 0.0064946335839039483 5.0619879175414724e-08 0 0.00566301378211555 7.5338458546240071e-05 0 0.00566301378211555 7.5338458546240071e-05 0 0.0050970409519227001 0.00037371537372703174 0 0.0051374477856741124 -4.7871421111923052e-05 0 0.0063392700995238372 0.00020311246681794577 0 0.00564663599337381 0.00033485333482155338 0 0.00566301378211555 7.5338458546240071e-05 0 0.00564663599337381 0.00033485333482155338 0 0.00566301378211555 7.5338458546240071e-05 0 0.0050970409519227001 0.00037371537372703174 0 0.0050970409519227001 0.00037371537372703174 0 0.0047976709594937349 0.00012131727112326684 0 0.0051374477856741124 -4.7871421111923052e-05 0 0.0050970409519227001 0.00037371537372703174 0 0.0045595116352383207 0.00033834574784465132 0 0.0047976709594937349 0.00012131727112326684 0 0.0045595116352383207 0.00033834574784465132 0 0.0042095761724059398 0.0001952896926638437 0 0.0044694412059242865 0.00011608444919352041 0 0.0045595116352383207 0.00033834574784465132 0 0.0044694412059242865 0.00011608444919352041 0 0.0047976709594937349 0.00012131727112326684 0 0.0045595116352383207 0.00033834574784465132 0 0.0042010935382966706 0.0005246801434698325 0 0.0042095761724059398 0.0001952896926638437 0 0.0076085054297392934 0.00035607587928957775 0 0.0061187197747436042 0.00037286374799182226 0 0.0046598052587223755 -0.0015547225290505832 0 0.0045595116352383207 0.00033834574784465132 0 0.0046921680758242835 0.00087092439873261943 0 0.0042010935382966706 0.0005246801434698325 0 0.0076905625597133717 0.00041083359522486006 0 0.0037470545937513399 -0.0011260947275552177 0 0.0074093103326009014 -0.00071057207196637299 0 0.0037470545937513399 -0.0011260947275552177 0 0.0076905625597133717 0.00041083359522486006 0 0.0074093103326009014 -0.00071057207196637299 0 0.0050970409519227001 0.00037371537372703174 0 0.0045595116352383207 0.00033834574784465132 0 0.0046921680758242835 0.00087092439873261943 0 0.0064897624856751204 0.00044152774036448667 0 0.0076905625597133717 0.00041083359522486006 0 0.0055583454427153246 0.00088980946203896414 0 0.0050970409519227001 0.00037371537372703174 0 0.0046921680758242835 0.00087092439873261943 0 0.0076905625597133717 0.00041083359522486006 0 0.0093449143268118096 0.000313179468661338 0 0.0079773675517957818 7.1069150824426794e-05 0 0.0080513481648716995 7.173028297745796e-05 0 0.0078888890978839454 3.459158362781343e-05 0 0.010559269259109671 0.00071678098695480454 0 0.010490997765730349 0.00037815532790393813 0 0.010175938573172214 0.00054850235911982207 0 0.010559269259109671 0.00071678098695480454 0 0.01066027861049044 0.00071321573790712452 0 0.010490997765730349 0.00037815532790393813 0 0.0095711427188944122 -0.0024036370468123094 0 0.0097631439669400178 -0.0010257262510221627 0 0.010305425334790168 -0.00086143114935674828 0 0.0074093103326009014 -0.00071057207196637299 0 0.010842237739642397 -0.00017449602109445385 0 0.0095711427188944122 -0.0024036370468123094 0 0.0093184001101713557 -0.0012615457901384141 0 0.0097631439669400178 -0.0010257262510221627 0 0.0095711427188944122 -0.0024036370468123094 0 0.0093184001101713557 -0.0012615457901384141 0 0.0089842791148030191 -0.0018217058539559171 0 0.0093184001101713557 -0.0012615457901384141 0 0.0097631439669400178 -0.0010257262510221627 0 0.0095654715848603571 -0.00065968246152361672 0 0.0093184001101713557 -0.0012615457901384141 0 0.0095654715848603571 -0.00065968246152361672 0 0.0090533565690226105 -0.00082527646849172177 0 0.0097631439669400178 -0.0010257262510221627 0 0.010305425334790168 -0.00086143114935674828 0 0.010076754595485233 -0.00048598970045582912 0 0.0097631439669400178 -0.0010257262510221627 0 0.0095654715848603571 -0.00065968246152361672 0 0.010076754595485233 -0.00048598970045582912 0 0.0095654715848603571 -0.00065968246152361672 0 0.0096509367688814279 -0.00029693327745852175 0 0.009120108060020133 -0.00038284017427516972 0 0.010842237739642397 -0.00017449602109445385 0 0.01011574508867851 -0.00034511268026559121 0 0.010305425334790168 -0.00086143114935674828 0 0.01027594616885474 -0.00024889612277888723 0 0.010076754595485233 -0.00048598970045582912 0 0.010490997765730349 0.00037815532790393813 0 0.010175938573172214 0.00054850235911982207 0 0.01027594616885474 -0.00024889612277888723 0 0.010175938573172214 0.00054850235911982207 0 0.0091892649556387755 7.2459930341273346e-07 0 0.01027594616885474 -0.00024889612277888723 0 0.0079773675517957818 7.1069150824426794e-05 0 0.0078888890978839454 3.459158362781343e-05 0 0.0079956427296819666 -4.7775318701123444e-05 0 0.0078408366802772966 5.6850009106068022e-07 0 0.0079956427296819666 -4.7775318701123444e-05 0 0.0091847544094407901 1.9456713009742349e-08 0 0.0078888890978839454 3.459158362781343e-05 0 0.0079956427296819666 -4.7775318701123444e-05 0 0.0091847544094407901 1.9456713009742349e-08 0 0.0074558696996842979 0.00015135677201073559 0 0.0078408366802772966 5.6850009106068022e-07 0 0.0079956427296819666 -4.7775318701123444e-05 0 0.0093449143268118096 0.000313179468661338 0 0.0091859025034452847 -1.9593154105414201e-07 0 0.0091892649556387755 7.2459930341273346e-07 0 0.01027594616885474 -0.00024889612277888723 0 0.010688877859607034 -8.8501058140637194e-07 0 0.010495549621844643 -8.6153014255772723e-05 0 0.010750606181716466 3.8421465666923909e-05 0 0.01020153510774793 -0.00014279860616290391 0 0.011283547560935863 1.3374615261422167e-06 0 0.010634579655741862 -0.00015939273320546803 0 0.01027594616885474 -0.00024889612277888723 0 0.010495549621844643 -8.6153014255772723e-05 0 0.01020153510774793 -0.00014279860616290391 0 0.010495549621844643 -8.6153014255772723e-05 0 0.010688877859607034 -8.8501058140637194e-07 0 0.010750606181716466 3.8421465666923909e-05 0 0.01027594616885474 -0.00024889612277888723 0 0.010495549621844643 -8.6153014255772723e-05 0 0.010688877859607034 -8.8501058140637194e-07 0 0.010688877859607034 -8.8501058140637194e-07 0 0.010750606181716466 3.8421465666923909e-05 0 0.012191451318713742 8.7638251320137645e-07 0 0.011798919493544587 5.4168603070534605e-05 0 0.011348001619866155 0.00014560199804024759 0 0.011700596802881861 0.00028647950448641848 0 0.011798919493544587 5.4168603070534605e-05 0 0.011348001619866155 0.00014560199804024759 0 0.011030085800876503 -0.00019251040050922373 0 0.011798919493544587 5.4168603070534605e-05 0 0.011700596802881861 0.00028647950448641848 0 0.012059713983890873 0.00012574832695622529 0 0.011798919493544587 5.4168603070534605e-05 0 0.012194416112699879 -3.4659077293877676e-07 0 0.012059713983890873 0.00012574832695622529 0 0.011283547560935863 1.3374615261422167e-06 0 0.01219217002752462 1.5079199682883965e-10 0 0.015572312639856733 0.00084690369958702718 0 0.015830851242546237 0.00075938821473164235 0 0.015596485005605176 0.00054540066637192674 0 0.015830851242546237 0.00075938821473164235 0 0.015857419309231794 0.00048545293236579388 0 0.015596485005605176 0.00054540066637192674 0 0.015934879456185429 0.00074054679555587261 0 0.015953559552777916 0.00071034401607704639 0 0.015830851242546237 0.00075938821473164235 0 0.013796206431089406 0.00045719055781591114 0 0.013294789559710175 0.00033647601697937987 0 0.015953559552777916 0.00071034401607704639 0 0.015830851242546237 0.00075938821473164235 0 0.015857419309231794 0.00048545293236579388 0 0.011348001619866155 0.00014560199804024759 0 0.011700596802881861 0.00028647950448641848 0 0.010852438507015455 0.00029164990491156354 0 0.011348001619866155 0.00014560199804024759 0 0.010852438507015455 0.00029164990491156354 0 0.011030085800876503 -0.00019251040050922373 0 0.015857419309231794 0.00048545293236579388 0 0.015615307443914015 0.00018857213477582982 0 0.015596485005605176 0.00054540066637192674 0 0.010852438507015455 0.00029164990491156354 0 0.0098839795057220452 4.9605617748654764e-05 0 0.010361846091190511 -0.00016829027321088101 0 0.013294789559710175 0.00033647601697937987 0 0.012952135011188883 0.00017099349222960864 0 0.010852438507015455 0.00029164990491156354 0 0.010361846091190511 -0.00016829027321088101 0 0.011030085800876503 -0.00019251040050922373 0 0.010361846091190511 -0.00016829027321088101 0 0.011030085800876503 -0.00019251040050922373 0 0.010076754595485233 -0.00048598970045582912 0 0.010634579655741862 -0.00015939273320546803 0 0.010154991122174136 -0.0004542334193792586 0 0.01027594616885474 -0.00024889612277888723 0 0.01020153510774793 -0.00014279860616290391 0 0.010076754595485233 -0.00048598970045582912 0 0.0098839795057220452 4.9605617748654764e-05 0 0.010361846091190511 -0.00016829027321088101 0 0.0096509367688814279 -0.00029693327745852175 0 0.010361846091190511 -0.00016829027321088101 0 0.010076754595485233 -0.00048598970045582912 0 0.0096509367688814279 -0.00029693327745852175 0 0.0095654715848603571 -0.00065968246152361672 0 0.010076754595485233 -0.00048598970045582912 0 0.0096509367688814279 -0.00029693327745852175 0 0.012952135011188883 0.00017099349222960864 0 0.010675669605407345 -0.00011751263438117987 0 0.0098839795057220452 4.9605617748654764e-05 0 0.0096509367688814279 -0.00029693327745852175 0 0.0090220155005893022 -0.00028872787912265782 0 0.0096509367688814279 -0.00029693327745852175 0 0.0090220155005893022 -0.00028872787912265782 0 0.009120108060020133 -0.00038284017427516972 0 0.010675669605407345 -0.00011751263438117987 0 0.0093991050627701411 0.00019093068901843106 0 0.0064723173530047027 -0.00025990662970084709 0 0.0062286332707951302 7.6293852226637631e-05 0 0.0062001279731039843 -0.00027974795216038591 0 0.010675669605407345 -0.00011751263438117987 0 0.010754750097911589 6.5192746140778498e-05 0 0.0068798399705181628 -0.00026358734267282167 0 0.0064723173530047027 -0.00025990662970084709 0 0.0062286332707951302 7.6293852226637631e-05 0 0.015347189711642345 -7.7858571968325756e-05 0 0.015097049510102975 0.0001497634555244256 0 0.015352779155724984 0.00033518800747537231 0 0.015097049510102975 0.0001497634555244256 0 0.015352779155724984 0.00033518800747537231 0 0.015102113562762235 0.00037940092995542794 0 0.015615307443914015 0.00018857213477582982 0 0.015347189711642345 -7.7858571968325756e-05 0 0.015352779155724984 0.00033518800747537231 0 0.015352779155724984 0.00033518800747537231 0 0.015596485005605176 0.00054540066637192674 0 0.015301546830273344 0.00058891688752819556 0 0.015615307443914015 0.00018857213477582982 0 0.015352779155724984 0.00033518800747537231 0 0.015596485005605176 0.00054540066637192674 0 0.015301546830273344 0.00058891688752819556 0 0.015048482367337546 0.00056789094159565056 0 0.015102113562762235 0.00037940092995542794 0 0.015352779155724984 0.00033518800747537231 0 0.015301546830273344 0.00058891688752819556 0 0.015102113562762235 0.00037940092995542794 0 0.015137539997165892 0.00080880809615708094 0 0.015572312639856733 0.00084690369958702718 0 0.015301546830273344 0.00058891688752819556 0 0.015137539997165892 0.00080880809615708094 0 0.015301546830273344 0.00058891688752819556 0 0.015048482367337546 0.00056789094159565056 0 0.015572312639856733 0.00084690369958702718 0 0.015596485005605176 0.00054540066637192674 0 0.015301546830273344 0.00058891688752819556 0 0.014899436656087841 0.0010330852033468665 0 0.014696372559762139 0.00058174760714906754 0 0.014547347901159718 0.00092981826426861047 0 0.014815629378956117 0.00084648988163025412 0 0.014736754787396902 0.00064271767913187585 0 0.014841209427109666 0.00081859500568020357 0 0.014885921926751951 0.0006569976396532429 0 0.014696372559762139 0.00058174760714906754 0 0.015137539997165892 0.00080880809615708094 0 0.014841209427109666 0.00081859500568020357 0 0.014885921926751951 0.0006569976396532429 0 0.015137539997165892 0.00080880809615708094 0 0.014885921926751951 0.0006569976396532429 0 0.015048482367337546 0.00056789094159565056 0 0.014885921926751951 0.0006569976396532429 0 0.015048482367337546 0.00056789094159565056 0 0.014835290017798155 0.00034901642862755511 0 0.015048482367337546 0.00056789094159565056 0 0.015102113562762235 0.00037940092995542794 0 0.014835290017798155 0.00034901642862755511 0 0.010471462538222663 0.00016239144746996937 0 0.010399890314606593 0.00013444297255619771 0 0.014696372559762139 0.00058174760714906754 0 0.014835290017798155 0.00034901642862755511 0 0.014418443764584883 0.00062960572053362689 0 0.014885921926751951 0.0006569976396532429 0 0.014696372559762139 0.00058174760714906754 0 0.014835290017798155 0.00034901642862755511 0 0.0061224537456719581 -4.7133318568606395e-05 0 0.006341121304132241 -8.9382117947091376e-05 0 0.0064021376997907041 -0.00032821318406076039 0 0.0061224537456719581 -4.7133318568606395e-05 0 0.006245054203714245 5.9703230453353124e-05 0 0.0060140193375393478 2.8785396579190715e-07 0 0.0061224537456719581 -4.7133318568606395e-05 0 0.006245054203714245 5.9703230453353124e-05 0 0.006341121304132241 -8.9382117947091376e-05 0 0.0062286332707951302 7.6293852226637631e-05 0 0.0061224537456719581 -4.7133318568606395e-05 0 0.0060140193375393478 2.8785396579190715e-07 0 0.015097049510102975 0.0001497634555244256 0 0.015102113562762235 0.00037940092995542794 0 0.014835290017798155 0.00034901642862755511 0 0.010754750097911589 6.5192746140778498e-05 0 0.010471462538222663 0.00016239144746996937 0 0.0062286332707951302 7.6293852226637631e-05 0 0.0060140193375393478 2.8785396579190715e-07 0 0.0062001279731039843 -0.00027974795216038591 0 0.0060140193375393478 2.8785396579190715e-07 0 0.0058921135556216373 -0.00032035100720062348 0 0.0062001279731039843 -0.00027974795216038591 0 0.0053901735400513863 0.00028060173129598639 0 0.0060140193375393478 2.8785396579190715e-07 0 0.0055767909257857734 -7.8820385827194068e-05 0 0.0059594003734851657 7.1924539303493381e-05 0 0.0059591129694077042 5.0344653921497163e-05 0 0.0058921135556216373 -0.00032035100720062348 0 0.0055767909257857734 -7.8820385827194068e-05 0 0.0055541539484294964 -0.00048557072740063175 0 0.0060140193375393478 2.8785396579190715e-07 0 0.0058921135556216373 -0.00032035100720062348 0 0.0055767909257857734 -7.8820385827194068e-05 0 0.0055541539484294964 -0.00048557072740063175 0 0.0056154897718493193 -0.0009286511615164034 0 0.0059544759066233908 -0.00066188417249287096 0 0.0055541539484294964 -0.00048557072740063175 0 0.0056154897718493193 -0.0009286511615164034 0 0.0051049272716929403 -0.00070050573177904375 0 0.0052573199907367694 -0.0012702218786694742 0 0.0037418975674002159 2.294021746572313e-05 0 0.0046893409048720377 -0.0015570220348322507 0 0.00619270414492697 -0.0013372323112522634 0 0.0059544759066233908 -0.00066188417249287096 0 0.0046893409048720377 -0.0015570220348322507 0 0.00619270414492697 -0.0013372323112522634 0 0.0048427782590565018 -0.002072922042654786 0 0.00619270414492697 -0.0013372323112522634 0 0.0075155419672751919 -0.0026073460139518939 0 0.0048427782590565018 -0.002072922042654786 0 0.0052573199907367694 -0.0012702218786694742 0 0.0058459798113270718 -0.00072506301554317533 0 0.00619270414492697 -0.0013372323112522634 0 0.0059544759066233908 -0.00066188417249287096 0 0.0065914366071487202 -0.00066090255452412692 0 0.0058921135556216373 -0.00032035100720062348 0 0.0055541539484294964 -0.00048557072740063175 0 0.0059544759066233908 -0.00066188417249287096 0 0.0062001279731039843 -0.00027974795216038591 0 0.0059544759066233908 -0.00066188417249287096 0 0.0065914366071487202 -0.00066090255452412692 0 0.0058921135556216373 -0.00032035100720062348 0 0.0062001279731039843 -0.00027974795216038591 0 0.0059544759066233908 -0.00066188417249287096 0 0.0064723173530047027 -0.00025990662970084709 0 0.0062001279731039843 -0.00027974795216038591 0 0.0065914366071487202 -0.00066090255452412692 0 0.010675669605407345 -0.00011751263438117987 0 0.0068075679299043311 -0.0009389282480412979 0 0.0068798399705181628 -0.00026358734267282167 0 0.0064723173530047027 -0.00025990662970084709 0 0.0065914366071487202 -0.00066090255452412692 0 0.009120108060020133 -0.00038284017427516972 0 0.0085491435262151257 -0.0005794148976171734 0 0.0090533565690226105 -0.00082527646849172177 0 0.0095654715848603571 -0.00065968246152361672 0 0.009120108060020133 -0.00038284017427516972 0 0.0090533565690226105 -0.00082527646849172177 0 0.0085003211459856853 0.00018953911213388276 0 0.0074768043932104851 -0.00057683857414271491 0 0.0085491435262151257 -0.0005794148976171734 0 0.0085003211459856853 0.00018953911213388276 0 0.009120108060020133 -0.00038284017427516972 0 0.0085491435262151257 -0.0005794148976171734 0 0.0085491435262151257 -0.0005794148976171734 0 0.0090533565690226105 -0.00082527646849172177 0 0.0085143177489240482 -0.0011811149376584355 0 0.0074768043932104851 -0.00057683857414271491 0 0.0085491435262151257 -0.0005794148976171734 0 0.0085143177489240482 -0.0011811149376584355 0 0.0093184001101713557 -0.0012615457901384141 0 0.0090533565690226105 -0.00082527646849172177 0 0.0085143177489240482 -0.0011811149376584355 0 0.0081421815837460568 -0.0017580829540901522 0 0.0089842791148030191 -0.0018217058539559171 0 0.0075155419672751919 -0.0026073460139518939 0 0.0093184001101713557 -0.0012615457901384141 0 0.0085143177489240482 -0.0011811149376584355 0 0.0089842791148030191 -0.0018217058539559171 0 0.0085143177489240482 -0.0011811149376584355 0 0.0081421815837460568 -0.0017580829540901522 0 0.0075006683793104297 -0.0014617563544680431 0 0.0085143177489240482 -0.0011811149376584355 0 0.0081421815837460568 -0.0017580829540901522 0 0.0089842791148030191 -0.0018217058539559171 0 0.0063671124669650529 -0.0012288788671160492 0 0.0068075679299043311 -0.0009389282480412979 0 0.00619270414492697 -0.0013372323112522634 0 0.0074768043932104851 -0.00057683857414271491 0 0.0075006683793104297 -0.0014617563544680431 0 0.0074768043932104851 -0.00057683857414271491 0 0.0085143177489240482 -0.0011811149376584355 0 0.0075006683793104297 -0.0014617563544680431 0 0.0081421815837460568 -0.0017580829540901522 0 0.0075006683793104297 -0.0014617563544680431 0 0.0075155419672751919 -0.0026073460139518939 0 0.00619270414492697 -0.0013372323112522634 0 0.0075006683793104297 -0.0014617563544680431 0 0.0075155419672751919 -0.0026073460139518939 0 0.0036493018072080124 -0.0020386588384315417 0 0.0038317299885157856 -0.0016183057280737714 0 0.0031882831847917527 -0.0016513059402904508 0 0.0036493018072080124 -0.0020386588384315417 0 0.0038317299885157856 -0.0016183057280737714 0 0.0048427782590565018 -0.002072922042654786 0 0.0074093103326009014 -0.00071057207196637299 0 0.0053214870062798262 -0.0024400006187934565 0 0.0029837955177852314 -0.0019572115395051822 0 0.0036493018072080124 -0.0020386588384315417 0 0.0031882831847917527 -0.0016513059402904508 0 0.0095711427188944122 -0.0024036370468123094 0 0.0089842791148030191 -0.0018217058539559171 0 0.0075155419672751919 -0.0026073460139518939 0 0.0037470545937513399 -0.0011260947275552177 0 0.0036221496022270016 -0.00031319814017722702 0 0.0042010935382966706 0.0005246801434698325 0 0.0042095761724059398 0.0001952896926638437 0 0.0038925184316323013 0.00012059626891612462 0 0.0037470545937513399 -0.0011260947275552177 0 0.0033829018492752654 -0.0013595021866310317 0 0.0029221425003705045 -0.0015610349666197556 0 0.003371462735040577 -0.0012559563792226879 0 0.0033292366321936253 -0.00096839194957053297 0 0.0038317299885157856 -0.0016183057280737714 0 0.0031882831847917527 -0.0016513059402904508 0 0.0036455972020000152 -0.0013125395168604055 0 0.0033829018492752654 -0.0013595021866310317 0 0.0039499614534494855 -0.00094579392431231885 0 0.0036455972020000152 -0.0013125395168604055 0 0.0038991781584957982 -0.0013321101436613522 0 0.0039229576552153953 -0.00094162762319897713 0 0.0038317299885157856 -0.0016183057280737714 0 0.0036455972020000152 -0.0013125395168604055 0 0.0038991781584957982 -0.0013321101436613522 0 0.004224378038772513 -0.0014747691755749818 0 0.0043704705444283691 -0.0011584116056673436 0 0.0039229576552153953 -0.00094162762319897713 0 0.0038991781584957982 -0.0013321101436613522 0 0.004224378038772513 -0.0014747691755749818 0 0.0039229576552153953 -0.00094162762319897713 0 0.0038317299885157856 -0.0016183057280737714 0 0.0038991781584957982 -0.0013321101436613522 0 0.004224378038772513 -0.0014747691755749818 0 0.004224378038772513 -0.0014747691755749818 0 0.0043704705444283691 -0.0011584116056673436 0 0.0045902272487916337 -0.0016043038362226222 0 0.0045902272487916337 -0.0016043038362226222 0 0.0047239829919319843 -0.0018539293357508247 0 0.0048452253372497939 -0.0013339543601914826 0 0.0043704705444283691 -0.0011584116056673436 0 0.0045902272487916337 -0.0016043038362226222 0 0.0048452253372497939 -0.0013339543601914826 0 0.0046893409048720377 -0.0015570220348322507 0 0.0047239829919319843 -0.0018539293357508247 0 0.0048427782590565018 -0.002072922042654786 0 0.0045902272487916337 -0.0016043038362226222 0 0.0047239829919319843 -0.0018539293357508247 0 0.0048427782590565018 -0.002072922042654786 0 0.0046893409048720377 -0.0015570220348322507 0 0.0047239829919319843 -0.0018539293357508247 0 0.0047809579749986276 -0.0018649719000150256 0 0.0047239829919319843 -0.0018539293357508247 0 0.0047809579749986276 -0.0018649719000150256 0 0.0048452253372497939 -0.0013339543601914826 0 0.004224378038772513 -0.0014747691755749818 0 0.0045902272487916337 -0.0016043038362226222 0 0.0048427782590565018 -0.002072922042654786 0 0.0038317299885157856 -0.0016183057280737714 0 0.004224378038772513 -0.0014747691755749818 0 0.0048427782590565018 -0.002072922042654786 0 0.0053214870062798262 -0.0024400006187934565 0 0.0050284370739996547 -0.0020951336690703463 0 0.0021575940390552604 0.001270630265723476 0 0.0019686143529281507 0.0011557138590940191 0 0.0019944073484832008 0.0013418288015089417 0 0.0019686143529281507 0.0011557138590940191 0 0.0018041915634431564 0.0012593901791033248 0 0.0019944073484832008 0.0013418288015089417 0 0.0037418975674002159 2.294021746572313e-05 0 0.0039417526397162381 4.1403883378657831e-05 0 0.0029183487285790056 0.0020335561712472847 0 0.0027679138752897299 0.0016066372143209453 0 0.0024030891951189962 0.0016601075165186552 0 0.0037418975674002159 2.294021746572313e-05 0 0.0020808883287436264 0.0015669511735454983 0 0.0029183487285790056 0.0020335561712472847 0 0.0027679138752897299 0.0016066372143209453 0 0.0030584457430100943 0.0013864127280775727 0 0.0027679138752897299 0.0016066372143209453 0 0.0030584457430100943 0.0013864127280775727 0 0.0027290040673056434 0.0012607461615037068 0 0.0024030891951189962 0.0016601075165186552 0 0.0023022802237169719 0.0012900365679559913 0 0.0027290040673056434 0.0012607461615037068 0 0.0027679138752897299 0.0016066372143209453 0 0.0024030891951189962 0.0016601075165186552 0 0.0027290040673056434 0.0012607461615037068 0 0.0024030891951189962 0.0016601075165186552 0 0.0019274971672283028 0.0012897333694848467 0 0.0023022802237169719 0.0012900365679559913 0 0.0020808883287436264 0.0015669511735454983 0 0.0018519590635537554 0.0011546253468463091 0 0.0019686143529281507 0.0011557138590940191 0 0.0018041915634431564 0.0012593901791033248 0 0.0017587799310845478 0.0010497449767195158 0 0.0015814988441520163 0.001146961577984479 0 0.0018041915634431564 0.0012593901791033248 0 0.0017587799310845478 0.0010497449767195158 0 0.0015814988441520163 0.001146961577984479 0 0.0018041915634431564 0.0012593901791033248 0 0.0016602253045897599 0.001319865966731092 0 0.0018041915634431564 0.0012593901791033248 0 0.0018929874150814458 0.0014177925369041819 0 0.0017742648948534986 0.001387064053756567 0 0.0018041915634431564 0.0012593901791033248 0 0.0018929874150814458 0.0014177925369041819 0 0.0019944073484832008 0.0013418288015089417 0 0.0018929874150814458 0.0014177925369041819 0 0.0017742648948534986 0.001387064053756567 0 0.0018157970928074202 0.0015005880263580132 0 0.0016602253045897599 0.001319865966731092 0 0.0017742648948534986 0.001387064053756567 0 0.0017052781984375717 0.0014640249170106657 0 0.0016602253045897599 0.001319865966731092 0 0.0017052781984375717 0.0014640249170106657 0 0.0015801929571600329 0.0014383475434331329 0 0.0018041915634431564 0.0012593901791033248 0 0.0016602253045897599 0.001319865966731092 0 0.0017742648948534986 0.001387064053756567 0 0.0017742648948534986 0.001387064053756567 0 0.0017052781984375717 0.0014640249170106657 0 0.0018157970928074202 0.0015005880263580132 0 0.0017551229996186719 0.0015610561644423364 0 0.0018157970928074202 0.0015005880263580132 0 0.0018474795971644186 0.001618999585721528 0 0.0017052781984375717 0.0014640249170106657 0 0.0017551229996186719 0.0015610561644423364 0 0.0018157970928074202 0.0015005880263580132 0 0.0017052781984375717 0.0014640249170106657 0 0.0017551229996186719 0.0015610561644423364 0 0.0016328808774110737 0.0015822837649353857 0 0.0018929874150814458 0.0014177925369041819 0 0.0018157970928074202 0.0015005880263580132 0 0.001918528844897468 0.0015516075589993321 0 0.0018157970928074202 0.0015005880263580132 0 0.001918528844897468 0.0015516075589993321 0 0.0018474795971644186 0.001618999585721528 0 0.001918528844897468 0.0015516075589993321 0 0.0020044038347140935 0.0015001319721453053 0 0.0019922537865977173 0.0016145097952136617 0 0.0018929874150814458 0.0014177925369041819 0 0.001918528844897468 0.0015516075589993321 0 0.0020044038347140935 0.0015001319721453053 0 0.0020044038347140935 0.0015001319721453053 0 0.0021248293696818433 0.0014487267630942811 0 0.0021004537193916434 0.0016175449379360204 0 0.0018929874150814458 0.0014177925369041819 0 0.0020044038347140935 0.0015001319721453053 0 0.0019944073484832008 0.0013418288015089417 0 0.0020044038347140935 0.0015001319721453053 0 0.0019944073484832008 0.0013418288015089417 0 0.0021248293696818433 0.0014487267630942811 0 0.0056154897718493193 -0.0009286511615164034 0 0.0052088383474332171 -0.0012321253678060859 0 0.0051049272716929403 -0.00070050573177904375 0 0.0021575940390552604 0.001270630265723476 0 0.0019944073484832008 0.0013418288015089417 0 0.0021248293696818433 0.0014487267630942811 0 0.0037418975674002159 2.294021746572313e-05 0 0.0036186374610593674 0.00036412472296990092 0 0.0036186374610593674 0.00036412472296990092 0 0.0034152168110948809 0.00080802833718430882 0 0.0055541539484294964 -0.00048557072740063175 0 0.0051049272716929403 -0.00070050573177904375 0 0.0049649782729399607 -0.00010846528976620098 0 0.0053901735400513863 0.00028060173129598639 0 0.0055767909257857734 -7.8820385827194068e-05 0 0.0049649782729399607 -0.00010846528976620098 0 0.0055767909257857734 -7.8820385827194068e-05 0 0.0055541539484294964 -0.00048557072740063175 0 0.0049649782729399607 -0.00010846528976620098 0 0.0020044038347140935 0.0015001319721453053 0 0.0021004537193916434 0.0016175449379360204 0 0.0019922537865977173 0.0016145097952136617 0 0.0021004537193916434 0.0016175449379360204 0 0.0019922537865977173 0.0016145097952136617 0 0.0019926765722386363 0.0017274295372163241 0 0.0019922537865977173 0.0016145097952136617 0 0.0019926765722386363 0.0017274295372163241 0 0.0019198269957136169 0.0016635824252274206 0 0.0034152168110948809 0.00080802833718430882 0 0.0052354189005830859 0.0011378896918201691 0 0.0021004537193916434 0.0016175449379360204 0 0.0020762368538571434 0.0017786889062322156 0 0.0019926765722386363 0.0017274295372163241 0 0.0020762368538571434 0.0017786889062322156 0 0.0019926765722386363 0.0017274295372163241 0 0.0019460504698218728 0.001777595920113858 0 0.0059594003734851657 7.1924539303493381e-05 0 0.0052354189005830859 0.0011378896918201691 0 0.0053901735400513863 0.00028060173129598639 0 0.0049649782729399607 -0.00010846528976620098 0 0.0048337827841310153 0.00054392677484214566 0 0.006245054203714245 5.9703230453353124e-05 0 0.0065479853831419141 9.7698857069386547e-06 0 0.006341121304132241 -8.9382117947091376e-05 0 0.006341121304132241 -8.9382117947091376e-05 0 0.0066582899806227483 -0.00027555184810627685 0 0.0064021376997907041 -0.00032821318406076039 0 0.0065479853831419141 9.7698857069386547e-06 0 0.006341121304132241 -8.9382117947091376e-05 0 0.0066582899806227483 -0.00027555184810627685 0 0.0052354189005830859 0.0011378896918201691 0 0.0047606475391630699 0.0016820667340590129 0 0.0072256177253838426 0.0016974445479842469 0 0.007398001845143865 0.00095646638208264872 0 0.0080783987979264355 0.0013106737529159031 0 0.0052354189005830859 0.0011378896918201691 0 0.0069960007074356071 0.00022945919325535855 0 0.0020762368538571434 0.0017786889062322156 0 0.0019025551808300361 0.0017890829872645603 0 0.0019460504698218728 0.001777595920113858 0 0.010449242706452181 0.00042446437900507249 0 0.0069960007074356071 0.00022945919325535855 0 0.010449242706452181 0.00042446437900507249 0 0.010399890314606593 0.00013444297255619771 0 0.0075785811369093988 0.00022803811331201685 0 0.007398001845143865 0.00095646638208264872 0 0.0081355811102670223 0.0005958064892275704 0 0.0067663961760313519 -0.00059497481180418655 0 0.0066582899806227483 -0.00027555184810627685 0 0.0064021376997907041 -0.00032821318406076039 0 0.014241481707148134 0.0010447157831800645 0 0.013864018498908077 0.0010622052326872036 0 0.014418443764584883 0.00062960572053362689 0 0.014241481707148134 0.0010447157831800645 0 0.014547347901159718 0.00092981826426861047 0 0.014418443764584883 0.00062960572053362689 0 0.014696372559762139 0.00058174760714906754 0 0.014547347901159718 0.00092981826426861047 0 0.014418443764584883 0.00062960572053362689 0 0.010015781196991425 -2.4749842034144911e-05 0 0.0063512367440633219 0.0009267860407488653 0 0.0089361424522418458 0.00018998845088361138 0 0.0089099180646009975 0.00092349267801322818 0 0.0081355811102670223 0.0005958064892275704 0 0.0092296814844746913 0.00027340275479102445 0 0.0092032405634493841 0.00071543896890501296 0 0.0092793294950175124 0.00062470582616885146 0 0.0063512367440633219 0.0009267860407488653 0 0.0075312525959823299 0.00062023068910018061 0 0.0092032405634493841 0.00071543896890501296 0 0.0092793294950175124 0.00062470582616885146 0 0.0092991288270024806 0.00067213636854059153 0 0.0089099180646009975 0.00092349267801322818 0 0.0081355811102670223 0.0005958064892275704 0 0.0080783987979264355 0.0013106737529159031 0 0.007398001845143865 0.00095646638208264872 0 0.0081355811102670223 0.0005958064892275704 0 0.0080783987979264355 0.0013106737529159031 0 0.0019025551808300361 0.0017890829872645603 0 0.0019660896230327858 0.0018391391998400105 0 0.0019460504698218728 0.001777595920113858 0 0.0019660896230327858 0.0018391391998400105 0 0.0017490625952513916 0.0018717727683941704 0 0.0018284442186444637 0.0017760723953787422 0 0.001754365617736082 0.0018531343289326513 0 0.0028658497095877308 0.0018614499008764536 0 0.0026276270156853558 0.0013973509691400648 0 0.0019660896230327858 0.0018391391998400105 0 0.0026238490831080783 0.0018073922275031198 0 0.0063512367440633219 0.0009267860407488653 0 0.0047606475391630699 0.0016820667340590129 0 0.0026276270156853558 0.0013973509691400648 0 0.0019025551808300361 0.0017890829872645603 0 0.0019660896230327858 0.0018391391998400105 0 0.0053032486219274652 0.0011102588399887136 0 0.0052922073984024752 0.0012160084618968987 0 0.0053410573474343874 0.0011665680356577571 0 0.0063512367440633219 0.0009267860407488653 0 0.0028658497095877308 0.0018614499008764536 0 0.0017490625952513916 0.0018717727683941704 0 0.0018284442186444637 0.0017760723953787422 0 0.0017301522392836862 0.0017028221159726181 0 0.0028658497095877308 0.0018614499008764536 0 0.0016512349560276014 0.0017222639067852325 0 0.0017571063598402876 0.0018582020877721014 0 0.0017301522392836862 0.0017028221159726181 0 0.0017102530648422315 0.0017543209188974442 0 0.0018284442186444637 0.0017760723953787422 0 0.0019082205669849646 0.0017751191828567316 0 0.0018631027941577482 0.001733544507435805 0 0.0018284442186444637 0.0017760723953787422 0 0.0018041244986415808 0.0017164896378276577 0 0.0017301522392836862 0.0017028221159726181 0 0.0018284442186444637 0.0017760723953787422 0 0.0018041244986415808 0.0017164896378276577 0 0.0018631027941577482 0.001733544507435805 0 0.0018041244986415808 0.0017164896378276577 0 0.0018631027941577482 0.001733544507435805 0 0.0018246167301822498 0.0016851502697133266 0 0.0018041244986415808 0.0017164896378276577 0 0.0017697985920485542 0.0016793269197105569 0 0.0018246167301822498 0.0016851502697133266 0 0.0018041244986415808 0.0017164896378276577 0 0.0017301522392836862 0.0017028221159726181 0 0.0017697985920485542 0.0016793269197105569 0 0.0019926765722386363 0.0017274295372163241 0 0.0019460504698218728 0.001777595920113858 0 0.0019151710746618492 0.0017377661449923245 0 0.0019660896230327858 0.0018391391998400105 0 0.0018284442186444637 0.0017760723953787422 0 0.0019082205669849646 0.0017751191828567316 0 0.0019660896230327858 0.0018391391998400105 0 0.0019460504698218728 0.001777595920113858 0 0.0019082205669849646 0.0017751191828567316 0 0.0019460504698218728 0.001777595920113858 0 0.0019082205669849646 0.0017751191828567316 0 0.0019151710746618492 0.0017377661449923245 0 0.0018809343051368495 0.0016955418424762485 0 0.0019151710746618492 0.0017377661449923245 0 0.0019198269957136169 0.0016635824252274206 0 0.0019082205669849646 0.0017751191828567316 0 0.0018631027941577482 0.001733544507435805 0 0.0019151710746618492 0.0017377661449923245 0 0.0018631027941577482 0.001733544507435805 0 0.0018809343051368495 0.0016955418424762485 0 0.0018246167301822498 0.0016851502697133266 0 0.0018631027941577482 0.001733544507435805 0 0.0018809343051368495 0.0016955418424762485 0 0.0019151710746618492 0.0017377661449923245 0 0.0019926765722386363 0.0017274295372163241 0 0.0019151710746618492 0.0017377661449923245 0 0.0019198269957136169 0.0016635824252274206 0 0.0018809343051368495 0.0016955418424762485 0 0.0018474795971644186 0.001618999585721528 0 0.0018246167301822498 0.0016851502697133266 0 0.0018809343051368495 0.0016955418424762485 0 0.0019198269957136169 0.0016635824252274206 0 0.0018474795971644186 0.001618999585721528 0 0.001918528844897468 0.0015516075589993321 0 0.0019198269957136169 0.0016635824252274206 0 0.0018474795971644186 0.001618999585721528 0 0.001918528844897468 0.0015516075589993321 0 0.0019922537865977173 0.0016145097952136617 0 0.0019198269957136169 0.0016635824252274206 0 0.0017697985920485542 0.0016793269197105569 0 0.0017542524346724386 0.0016283615396496961 0 0.0016845641797787691 0.0016404929801830874 0 0.0017301522392836862 0.0017028221159726181 0 0.0017697985920485542 0.0016793269197105569 0 0.0016845641797787691 0.0016404929801830874 0 0.0017697985920485542 0.0016793269197105569 0 0.0018246167301822498 0.0016851502697133266 0 0.0017542524346724386 0.0016283615396496961 0 0.0018474795971644186 0.001618999585721528 0 0.0018246167301822498 0.0016851502697133266 0 0.0017542524346724386 0.0016283615396496961 0 0.0017551229996186719 0.0015610561644423364 0 0.0018474795971644186 0.001618999585721528 0 0.0017542524346724386 0.0016283615396496961 0 0.0017551229996186719 0.0015610561644423364 0 0.0017542524346724386 0.0016283615396496961 0 0.0016328808774110737 0.0015822837649353857 0 0.0017542524346724386 0.0016283615396496961 0 0.0016328808774110737 0.0015822837649353857 0 0.0016845641797787691 0.0016404929801830874 0 0.0016328808774110737 0.0015822837649353857 0 0.0016262508362057614 0.0016892779776585499 0 0.0015011389873606448 0.0016681383676102365 0 0.0017301522392836862 0.0017028221159726181 0 0.0016845641797787691 0.0016404929801830874 0 0.0016262508362057614 0.0016892779776585499 0 0.0016328808774110737 0.0015822837649353857 0 0.0016845641797787691 0.0016404929801830874 0 0.0016262508362057614 0.0016892779776585499 0 0.0015051532044034592 0.0012319145212920559 0 0.0013384736257346613 0.0011835823577655976 0 0.0013592565141205826 0.0011090613101466568 0 0.0016328808774110737 0.0015822837649353857 0 0.0015011389873606448 0.0016681383676102365 0 0.0013501326920521731 0.0014635250164274248 0 0.0015051532044034592 0.0012319145212920559 0 0.0015362153330687118 0.0013333269260564877 0 0.0016576246473917035 0.0014024363625060345 0 0.0015051532044034592 0.0012319145212920559 0 0.0015362153330687118 0.0013333269260564877 0 0.0014464115984687291 0.0013212830117775611 0 0.0015362153330687118 0.0013333269260564877 0 0.0014464115984687291 0.0013212830117775611 0 0.0015231102567451762 0.0013628406692027051 0 0.0016262508362057614 0.0016892779776585499 0 0.0017102530648422315 0.0017543209188974442 0 0.001660456376889988 0.0018891705555224086 0 0.0016262508362057614 0.0016892779776585499 0 0.0015011389873606448 0.0016681383676102365 0 0.001660456376889988 0.0018891705555224086 0 0.0010263392654921318 0.0013847189087103215 0 0.0050244616070777527 0.0013408446846773761 0 0.0017301522392836862 0.0017028221159726181 0 0.0016262508362057614 0.0016892779776585499 0 0.0017102530648422315 0.0017543209188974442 0 0.0015937261139277003 0.0023811833389467789 0 0.0050244616070777527 0.0013408446846773761 0 0.0017571063598402876 0.0018582020877721014 0 0.0017102530648422315 0.0017543209188974442 0 0.0016975361848511361 0.0018580341535695257 0 0.0028658497095877308 0.0018614499008764536 0 0.0050244616070777527 0.0013408446846773761 0 0.0094165490670075555 0.0010070201784989528 0 0.0094009070468467782 0.00061029913588002481 0 0.0094866765832285916 0.00058620083561316302 0 0.0096917029448926034 0.0010140957999975973 0 0.0092009809449000324 0.0013925652121246715 0 0.0088987423678845573 0.0019458789613966648 0 0.0052922073984024752 0.0012160084618968987 0 0.0053886912982410284 0.001209605484693901 0 0.0053410573474343874 0.0011665680356577571 0 0.0050244616070777527 0.0013408446846773761 0 0.0075312525959823299 0.00062023068910018061 0 0.0094165490670075555 0.0010070201784989528 0 0.0094009070468467782 0.00061029913588002481 0 0.0092625465292197895 0.00066987725500975868 0 0.0053032486219274652 0.0011102588399887136 0 0.0053410573474343874 0.0011665680356577571 0 0.0053411084381341407 0.0010933697170776207 0 0.0053886912982410284 0.001209605484693901 0 0.0053410573474343874 0.0011665680356577571 0 0.0053411084381341407 0.0010933697170776207 0 0.0096917029448926034 0.0010140957999975973 0 0.0092009809449000324 0.0013925652121246715 0 0.009373720082871153 0.0011081642716325427 0 0.0092009809449000324 0.0013925652121246715 0 0.009373720082871153 0.0011081642716325427 0 0.0090438427196428764 0.0012742204611312623 0 0.0096917029448926034 0.0010140957999975973 0 0.009373720082871153 0.0011081642716325427 0 0.0087350486122828083 0.0010082936142043085 0 0.0050244616070777527 0.0013408446846773761 0 0.0049191531779217389 0.0010325710675854788 0 0.0015362153330687118 0.0013333269260564877 0 0.0016576246473917035 0.0014024363625060345 0 0.0015231102567451762 0.0013628406692027051 0 0.0016576246473917035 0.0014024363625060345 0 0.0015231102567451762 0.0013628406692027051 0 0.0014604052498055882 0.0013989968208349454 0 0.0096917029448926034 0.0010140957999975973 0 0.0082204181387643439 0.00064865149339403123 0 0.0087350486122828083 0.0010082936142043085 0 0.0014464115984687291 0.0013212830117775611 0 0.0015231102567451762 0.0013628406692027051 0 0.0014604052498055882 0.0013989968208349454 0 0.0082204181387643439 0.00064865149339403123 0 0.0084832844886722266 0.0015032495299168434 0 0.0087350486122828083 0.0010082936142043085 0 0.0084832844886722266 0.0015032495299168434 0 0.0087350486122828083 0.0010082936142043085 0 0.0087999149348762119 0.0014178512632028943 0 0.0084832844886722266 0.0015032495299168434 0 0.0087999149348762119 0.0014178512632028943 0 0.0086639036465694878 0.0015999990565443941 0 0.009373720082871153 0.0011081642716325427 0 0.0087350486122828083 0.0010082936142043085 0 0.0090438427196428764 0.0012742204611312623 0 0.0087350486122828083 0.0010082936142043085 0 0.0087999149348762119 0.0014178512632028943 0 0.0090438427196428764 0.0012742204611312623 0 0.0087999149348762119 0.0014178512632028943 0 0.0090438427196428764 0.0012742204611312623 0 0.0089727783904558611 0.0015572989424579272 0 0.0092009809449000324 0.0013925652121246715 0 0.0090438427196428764 0.0012742204611312623 0 0.0089727783904558611 0.0015572989424579272 0 0.0092009809449000324 0.0013925652121246715 0 0.0089727783904558611 0.0015572989424579272 0 0.0088987423678845573 0.0019458789613966648 0 0.0089727783904558611 0.0015572989424579272 0 0.0088057003913799142 0.001706152020682427 0 0.0088987423678845573 0.0019458789613966648 0 0.0087999149348762119 0.0014178512632028943 0 0.0089727783904558611 0.0015572989424579272 0 0.0088057003913799142 0.001706152020682427 0 0.0084832844886722266 0.0015032495299168434 0 0.0086639036465694878 0.0015999990565443941 0 0.0086134836736826755 0.0017326689663236998 0 0.0087999149348762119 0.0014178512632028943 0 0.0088057003913799142 0.001706152020682427 0 0.0086639036465694878 0.0015999990565443941 0 0.0088057003913799142 0.001706152020682427 0 0.0086639036465694878 0.0015999990565443941 0 0.0086134836736826755 0.0017326689663236998 0 0.0088057003913799142 0.001706152020682427 0 0.0086134836736826755 0.0017326689663236998 0 0.0088080440452329798 0.0019280157330838687 0 0.0086134836736826755 0.0017326689663236998 0 0.0088080440452329798 0.0019280157330838687 0 0.0087581432483545014 0.0019725211212191195 0 0.0088057003913799142 0.001706152020682427 0 0.0088080440452329798 0.0019280157330838687 0 0.0088987423678845573 0.0019458789613966648 0 0.0050244616070777527 0.0013408446846773761 0 0.0097937057455184297 0.00090175855294660973 0 0.0096488185859470877 0.0004193480777969213 0 0.0094917195955316423 0.0004659073208790964 0 0.0094866765832285916 0.00058620083561316302 0 0.0094165490670075555 0.0010070201784989528 0 0.0096488185859470877 0.0004193480777969213 0 0.0094866765832285916 0.00058620083561316302 0 0.0096415173789634184 0.00041634103828606977 0 0.0096488185859470877 0.0004193480777969213 0 0.0094917195955316423 0.0004659073208790964 0 0.0094917195955316423 0.0004659073208790964 0 0.0094286195455011174 0.00053698853405315463 0 0.0094866765832285916 0.00058620083561316302 0 0.0092296814844746913 0.00027340275479102445 0 0.0093560734882495219 0.00049509264238874824 0 0.0092793294950175124 0.00062470582616885146 0 0.0092296814844746913 0.00027340275479102445 0 0.0094917195955316423 0.0004659073208790964 0 0.0093560734882495219 0.00049509264238874824 0 0.0094917195955316423 0.0004659073208790964 0 0.0093560734882495219 0.00049509264238874824 0 0.0094286195455011174 0.00053698853405315463 0 0.0093560734882495219 0.00049509264238874824 0 0.0094286195455011174 0.00053698853405315463 0 0.0093529361578416677 0.00058674414519471903 0 0.0094009070468467782 0.00061029913588002481 0 0.0093529361578416677 0.00058674414519471903 0 0.009301724484472142 0.00066627666119325373 0 0.0094286195455011174 0.00053698853405315463 0 0.0094009070468467782 0.00061029913588002481 0 0.0094866765832285916 0.00058620083561316302 0 0.0094286195455011174 0.00053698853405315463 0 0.0094009070468467782 0.00061029913588002481 0 0.0093529361578416677 0.00058674414519471903 0 0.0093560734882495219 0.00049509264238874824 0 0.0093529361578416677 0.00058674414519471903 0 0.0092793294950175124 0.00062470582616885146 0 0.0093529361578416677 0.00058674414519471903 0 0.0092793294950175124 0.00062470582616885146 0 0.009301724484472142 0.00066627666119325373 0 0.0076624228020458146 0.00071272403935944808 0 0.0075312525959823299 0.00062023068910018061 0 0.0085792485696143707 0.0003401506945301374 0 0.0075312525959823299 0.00062023068910018061 0 0.0074542292554556589 0.0014287452069789647 0 0.0077216697020463815 0.0018081429711439359 0 0.0081102436314846333 0.0016613367487456868 0 0.0074542292554556589 0.0014287452069789647 0 0.0072714495953507697 0.0019890026912397717 0 0.0077216697020463815 0.0018081429711439359 0 0.0072714495953507697 0.0019890026912397717 0 0.0076749899571047298 0.0020756643921596945 0 0.0077216697020463815 0.0018081429711439359 0 0.0079470981596392251 0.0022702088287356401 0 0.0076749899571047298 0.0020756643921596945 0 0.0080250268711737332 0.0019401542441148526 0 0.0076749899571047298 0.0020756643921596945 0 0.0077216697020463815 0.0018081429711439359 0 0.0080250268711737332 0.0019401542441148526 0 0.0084832844886722266 0.0015032495299168434 0 0.0074542292554556589 0.0014287452069789647 0 0.0081102436314846333 0.0016613367487456868 0 0.0077216697020463815 0.0018081429711439359 0 0.0080250268711737332 0.0019401542441148526 0 0.0081102436314846333 0.0016613367487456868 0 0.0079470981596392251 0.0022702088287356401 0 0.0087581432483545014 0.0019725211212191195 0 0.0080250268711737332 0.0019401542441148526 0 0.0086134836736826755 0.0017326689663236998 0 0.0087581432483545014 0.0019725211212191195 0 0.0081102436314846333 0.0016613367487456868 0 0.0087581432483545014 0.0019725211212191195 0 0.0080250268711737332 0.0019401542441148526 0 0.0081102436314846333 0.0016613367487456868 0 0.0084832844886722266 0.0015032495299168434 0 0.0086134836736826755 0.0017326689663236998 0 0.0081102436314846333 0.0016613367487456868 0 0.0082991192366000405 0.0015287579022426618 0 0.005641981734861949 0.0018342751057911569 0 0.0084832844886722266 0.0015032495299168434 0 0.0036766584566017137 0.0023162007200265653 0 0.0043113250841864022 0.00088451725676484628 0 0.0014604052498055882 0.0013989968208349454 0 0.0013364871971823708 0.0013540508518125303 0 0.0013810957746461688 0.0013384026764752333 0 0.0082204181387643439 0.00064865149339403123 0 0.0084832844886722266 0.0015032495299168434 0 0.0043113250841864022 0.00088451725676484628 0 0.0049191531779217389 0.0010325710675854788 0 0.0028224657049510399 0.001154518280998206 0 0.0014464115984687291 0.0013212830117775611 0 0.0014604052498055882 0.0013989968208349454 0 0.0013810957746461688 0.0013384026764752333 0 0.0036766584566017137 0.0023162007200265653 0 0.0043113250841864022 0.00088451725676484628 0 0.0014547976234962254 0.00145661132820151 0 0.0013364871971823708 0.0013540508518125303 0 0.0013372557318985473 0.0013326865467645939 0 0.0013810957746461688 0.0013384026764752333 0 0.0013364871971823708 0.0013540508518125303 0 0.0013372557318985473 0.0013326865467645939 0 0.001350119714734376 0.0013638545329055357 0 0.0013372557318985473 0.0013326865467645939 0 0.0012871250854154803 0.0012745984059065578 0 0.0013533905772293447 0.0012739748149196586 0 0.0013372557318985473 0.0013326865467645939 0 0.0012871250854154803 0.0012745984059065578 0 0.001350119714734376 0.0013638545329055357 0 0.0015051532044034592 0.0012319145212920559 0 0.0014464115984687291 0.0013212830117775611 0 0.0013533905772293447 0.0012739748149196586 0 0.0014464115984687291 0.0013212830117775611 0 0.0013810957746461688 0.0013384026764752333 0 0.0013533905772293447 0.0012739748149196586 0 0.0013372557318985473 0.0013326865467645939 0 0.0013810957746461688 0.0013384026764752333 0 0.0013533905772293447 0.0012739748149196586 0 0.0015051532044034592 0.0012319145212920559 0 0.0013533905772293447 0.0012739748149196586 0 0.0013384736257346613 0.0011835823577655976 0 0.0013533905772293447 0.0012739748149196586 0 0.0013384736257346613 0.0011835823577655976 0 0.0012550327850307014 0.0012045965298197487 0 0.0012871250854154803 0.0012745984059065578 0 0.0013533905772293447 0.0012739748149196586 0 0.0012550327850307014 0.0012045965298197487 0 0.0012871250854154803 0.0012745984059065578 0 0.0012550327850307014 0.0012045965298197487 0 0.0011746062971081765 0.0011951255941886525 0 0.0012294809708639106 0.0011157716967395946 0 0.0010857116178484155 0.0010601251572813493 0 0.0011372395312783193 0.0011354222174464867 0 0.0012550327850307014 0.0012045965298197487 0 0.0012294809708639106 0.0011157716967395946 0 0.0011372395312783193 0.0011354222174464867 0 0.0013384736257346613 0.0011835823577655976 0 0.0012550327850307014 0.0012045965298197487 0 0.0012294809708639106 0.0011157716967395946 0 0.0012294809708639106 0.0011157716967395946 0 0.0012086707605417526 0.0010142825431602347 0 0.0010857116178484155 0.0010601251572813493 0 0.0013501326920521731 0.0014635250164274248 0 0.0013995258073802867 0.0013076360840831398 0 0.0012075678720350797 0.0012441723129101169 0 0.0012294809708639106 0.0011157716967395946 0 0.0013592565141205826 0.0011090613101466568 0 0.0012086707605417526 0.0010142825431602347 0 0.0014274152454214284 0.0013211939804069312 0 0.0011992297534409097 0.0011188760194794701 0 0.0013384736257346613 0.0011835823577655976 0 0.0012294809708639106 0.0011157716967395946 0 0.0013592565141205826 0.0011090613101466568 0 0.0010263392654921318 0.0013847189087103215 0 0.0014274152454214284 0.0013211939804069312 0 0.0016328808774110737 0.0015822837649353857 0 0.0013501326920521731 0.0014635250164274248 0 0.0015801929571600329 0.0014383475434331329 0 0.0017052781984375717 0.0014640249170106657 0 0.0016328808774110737 0.0015822837649353857 0 0.0015801929571600329 0.0014383475434331329 0 0.0016602253045897599 0.001319865966731092 0 0.0015801929571600329 0.0014383475434331329 0 0.0015135000287927873 0.0012644788585202754 0 0.0015801929571600329 0.0014383475434331329 0 0.0013995258073802867 0.0013076360840831398 0 0.0015135000287927873 0.0012644788585202754 0 0.0013501326920521731 0.0014635250164274248 0 0.0015801929571600329 0.0014383475434331329 0 0.0013995258073802867 0.0013076360840831398 0 0.0013995258073802867 0.0013076360840831398 0 0.0015135000287927873 0.0012644788585202754 0 0.0013430967866863714 0.0011258302379664159 0 0.0015814988441520163 0.001146961577984479 0 0.0015135000287927873 0.0012644788585202754 0 0.0013430967866863714 0.0011258302379664159 0 0.0015814988441520163 0.001146961577984479 0 0.0016602253045897599 0.001319865966731092 0 0.0015135000287927873 0.0012644788585202754 0 0.0015814988441520163 0.001146961577984479 0 0.0013430967866863714 0.0011258302379664159 0 0.0013869289932473335 0.0010764985204434457 0 0.0013430967866863714 0.0011258302379664159 0 0.0012328593545628699 0.00095126046624663342 0 0.0013869289932473335 0.0010764985204434457 0 0.0013430967866863714 0.0011258302379664159 0 0.0010943187168535014 0.00094764505189589448 0 0.0012075678720350797 0.0012441723129101169 0 0.0013430967866863714 0.0011258302379664159 0 0.0010943187168535014 0.00094764505189589448 0 0.0012328593545628699 0.00095126046624663342 0 0.0010943187168535014 0.00094764505189589448 0 0.0012086707605417526 0.0010142825431602347 0 0.00098634667863077303 0.00098772914165101027 0 0.0011083875007903625 0.00096577523900559677 0 0.0011992297534409097 0.0011188760194794701 0 0.0012086707605417526 0.0010142825431602347 0 0.0010857116178484155 0.0010601251572813493 0 0.00098634667863077303 0.00098772914165101027 0 0.0013995258073802867 0.0013076360840831398 0 0.0013430967866863714 0.0011258302379664159 0 0.0012075678720350797 0.0012441723129101169 0 0.00085211439046304824 0.00087394295586759 0 0.00083557777369847562 0.00112633697450135 0 0.0010969419327980531 0.00095113668121926079 0 0.00085211439046304824 0.00087394295586759 0 0.00063521360730816353 0.00091452507655547194 0 0.00083557777369847562 0.00112633697450135 0 0.00085211439046304824 0.00087394295586759 0 0.0010716216113486037 0.00083448247939036128 0 0.00088815962088465241 0.00070968832234310987 0 0.00063521360730816353 0.00091452507655547194 0 0.00060558226650598223 0.00074177693929927896 0 0.00051634078543455703 0.00082456227903562852 0 0.00085211439046304824 0.00087394295586759 0 0.00063521360730816353 0.00091452507655547194 0 0.00060558226650598223 0.00074177693929927896 0 0.00063521360730816353 0.00091452507655547194 0 0.00052161921305267367 0.00089780142415721038 0 0.00051634078543455703 0.00082456227903562852 0 0.00063521360730816353 0.00091452507655547194 0 0.00083557777369847562 0.00112633697450135 0 0.00051983012317978006 0.0009805837731596107 0 0.0010943187168535014 0.00094764505189589448 0 0.0012328593545628699 0.00095126046624663342 0 0.0010020847742730459 0.0008542037033471095 0 0.0010371502696178208 0.0010305730317452235 0 0.00076776697040037401 0.00092450874446192255 0 0.00083557777369847562 0.00112633697450135 0 0.0013869289932473335 0.0010764985204434457 0 0.0010969419327980531 0.00095113668121926079 0 0.0013869289932473335 0.0010764985204434457 0 0.0013133218246885389 0.00087940908685607512 0 0.0010969419327980531 0.00095113668121926079 0 0.0010371502696178208 0.0010305730317452235 0 0.0013541821185963582 0.0010721995840867542 0 0.0015814988441520163 0.001146961577984479 0 0.0013869289932473335 0.0010764985204434457 0 0.0015539015451452051 0.00097525471054809567 0 0.0013869289932473335 0.0010764985204434457 0 0.0013133218246885389 0.00087940908685607512 0 0.0015539015451452051 0.00097525471054809567 0 0.0013133218246885389 0.00087940908685607512 0 0.0015005874190733022 0.00068282135356575796 0 0.0015539015451452051 0.00097525471054809567 0 0.00085211439046304824 0.00087394295586759 0 0.0010969419327980531 0.00095113668121926079 0 0.0010716216113486037 0.00083448247939036128 0 0.0013133218246885389 0.00087940908685607512 0 0.0010969419327980531 0.00095113668121926079 0 0.0010716216113486037 0.00083448247939036128 0 0.0013133218246885389 0.00087940908685607512 0 0.0010716216113486037 0.00083448247939036128 0 0.0011890378678262471 0.0006899540536497164 0 0.0010716216113486037 0.00083448247939036128 0 0.0011890378678262471 0.0006899540536497164 0 0.00088815962088465241 0.00070968832234310987 0 0.0011890378678262471 0.0006899540536497164 0 0.0010313178355425721 0.00050371988722524165 0 0.00088815962088465241 0.00070968832234310987 0 0.0011890378678262471 0.0006899540536497164 0 0.0015005874190733022 0.00068282135356575796 0 0.0013218623343047506 0.00051367709794855436 0 0.0013133218246885389 0.00087940908685607512 0 0.0011890378678262471 0.0006899540536497164 0 0.0015005874190733022 0.00068282135356575796 0 0.0013218623343047506 0.00051367709794855436 0 0.0012663824909011905 0.00030382240352363896 0 0.0016072967176076363 0.00034006082161973703 0 0.0015005874190733022 0.00068282135356575796 0 0.0013218623343047506 0.00051367709794855436 0 0.0016072967176076363 0.00034006082161973703 0 0.0011890378678262471 0.0006899540536497164 0 0.0013218623343047506 0.00051367709794855436 0 0.0010313178355425721 0.00050371988722524165 0 0.0013218623343047506 0.00051367709794855436 0 0.0010313178355425721 0.00050371988722524165 0 0.0012663824909011905 0.00030382240352363896 0 0.0010313178355425721 0.00050371988722524165 0 0.00064532627896977219 0.00054496139640441759 0 0.00090629464163808704 0.00025417144907208196 0 0.0010313178355425721 0.00050371988722524165 0 0.00064532627896977219 0.00054496139640441759 0 0.00088815962088465241 0.00070968832234310987 0 0.00085211439046304824 0.00087394295586759 0 0.00088815962088465241 0.00070968832234310987 0 0.00060558226650598223 0.00074177693929927896 0 0.00064532627896977219 0.00054496139640441759 0 0.00088815962088465241 0.00070968832234310987 0 0.00060558226650598223 0.00074177693929927896 0 0.00060558226650598223 0.00074177693929927896 0 0.0004076700270690954 0.00073259792716201966 0 0.00051634078543455703 0.00082456227903562852 0 0.00064532627896977219 0.00054496139640441759 0 0.00060558226650598223 0.00074177693929927896 0 0.00037109301872625066 0.00059568370226400309 0 0.00060558226650598223 0.00074177693929927896 0 0.00037109301872625066 0.00059568370226400309 0 0.0004076700270690954 0.00073259792716201966 0 0.00037109301872625066 0.00059568370226400309 0 0.00030561765111673052 0.00043769932196770217 0 0.00020211448743809264 0.00063703723886744407 0 0.00064532627896977219 0.00054496139640441759 0 0.00037109301872625066 0.00059568370226400309 0 0.00030561765111673052 0.00043769932196770217 0 0.00064532627896977219 0.00054496139640441759 0 0.00030561765111673052 0.00043769932196770217 0 0.00090629464163808704 0.00025417144907208196 0 0.00031618047950796138 0.00039687648475384351 0 0.00048239532761903129 0.00020540630441255768 0 0.00030561765111673052 0.00043769932196770217 0 0.00085104224554668844 -0.00023757602549581675 0 0.00090629464163808704 0.00025417144907208196 0 0.00030561765111673052 0.00043769932196770217 0 0.00017172464537517623 0.00066684550164442435 0 0.00020211448743809264 0.00063703723886744407 0 0.00030561765111673052 0.00043769932196770217 0 4.8420408652970872e-05 0.00064701492398300221 0 0.00017172464537517623 0.00066684550164442435 0 0.00017172464537517623 0.00066684550164442435 0 8.0858198321819691e-05 0.00071646234729480225 0 8.4690658621635438e-05 0.00074513127918126589 0 0.00017172464537517623 0.00066684550164442435 0 8.4690658621635438e-05 0.00074513127918126589 0 6.7130637318788214e-05 0.00075928056231748509 0 4.8420408652970872e-05 0.00064701492398300221 0 0.00017172464537517623 0.00066684550164442435 0 8.0858198321819691e-05 0.00071646234729480225 0 4.8420408652970872e-05 0.00064701492398300221 0 8.0858198321819691e-05 0.00071646234729480225 0 6.7588409086757502e-05 0.00070164716695316008 0 8.0858198321819691e-05 0.00071646234729480225 0 7.3356958501510022e-05 0.00070919631937722133 0 6.7588409086757502e-05 0.00070164716695316008 0 8.0858198321819691e-05 0.00071646234729480225 0 7.3356958501510022e-05 0.00070919631937722133 0 6.9125907337027655e-05 0.00073263155686472824 0 7.3356958501510022e-05 0.00070919631937722133 0 8.1780217283199211e-05 0.00068014787857101713 0 7.0554724449264157e-05 0.00070075520673034319 0 7.3356958501510022e-05 0.00070919631937722133 0 6.9125907337027655e-05 0.00073263155686472824 0 7.0554724449264157e-05 0.00070075520673034319 0 6.9125907337027655e-05 0.00073263155686472824 0 3.2438112135582426e-05 0.00076138001450096865 0 5.1986651645527476e-05 0.00071937875675649699 0 3.2438112135582426e-05 0.00076138001450096865 0 8.4690658621635438e-05 0.00074513127918126589 0 2.6036238005176446e-05 0.00078284661619150442 0 6.9125907337027655e-05 0.00073263155686472824 0 3.2438112135582426e-05 0.00076138001450096865 0 8.4690658621635438e-05 0.00074513127918126589 0 8.0858198321819691e-05 0.00071646234729480225 0 6.9125907337027655e-05 0.00073263155686472824 0 8.4690658621635438e-05 0.00074513127918126589 0 0.00010594213289021811 0.00068689335035555885 0 0.00013882821639292088 0.00069039567040892651 0 8.7475239552748377e-05 0.00071151567818750878 0 0.00010594213289021811 0.00068689335035555885 0 8.3080241879605969e-05 0.00069355153881577058 0 8.7475239552748377e-05 0.00071151567818750878 0 0.00010594213289021811 0.00068689335035555885 0 0.00013882821639292088 0.00069039567040892651 0 0.00012782815842170506 0.00067118101192519789 0 0.00013882821639292088 0.00069039567040892651 0 0.00012782815842170506 0.00067118101192519789 0 0.00016375520743477817 0.00067542625279052833 0 0.00012782815842170506 0.00067118101192519789 0 0.00015331182821303306 0.00065029577830475306 0 9.4905602194310368e-05 0.00066151150730855567 0 0.00010594213289021811 0.00068689335035555885 0 0.00012782815842170506 0.00067118101192519789 0 9.4905602194310368e-05 0.00066151150730855567 0 0.00010594213289021811 0.00068689335035555885 0 8.3080241879605969e-05 0.00069355153881577058 0 9.4905602194310368e-05 0.00066151150730855567 0 8.3080241879605969e-05 0.00069355153881577058 0 8.1780217283199211e-05 0.00068014787857101713 0 9.4905602194310368e-05 0.00066151150730855567 0 7.3356958501510022e-05 0.00070919631937722133 0 8.3080241879605969e-05 0.00069355153881577058 0 8.1780217283199211e-05 0.00068014787857101713 0 7.3356958501510022e-05 0.00070919631937722133 0 8.3080241879605969e-05 0.00069355153881577058 0 6.7588409086757502e-05 0.00070164716695316008 0 0.00048239532761903129 0.00020540630441255768 0 0.00066938889015090083 0.00010169258261304207 0 8.3080241879605969e-05 0.00069355153881577058 0 6.7588409086757502e-05 0.00070164716695316008 0 8.7475239552748377e-05 0.00071151567818750878 0 4.8420408652970872e-05 0.00064701492398300221 0 6.7588409086757502e-05 0.00070164716695316008 0 8.7475239552748377e-05 0.00071151567818750878 0 0.0013655002070429949 -0.00059052836135681014 0 0.001526974426369124 -0.0003760210012967208 0 0.0016936427107296392 -0.00047912278441634819 0 0.00013882821639292088 0.00069039567040892651 0 8.7475239552748377e-05 0.00071151567818750878 0 0.00018118411745863636 0.0006967437449345279 0 0.00066938889015090083 0.00010169258261304207 0 0.0012039421598619311 -0.00028022032885766492 0 0.0013655002070429949 -0.00059052836135681014 0 0.001526974426369124 -0.0003760210012967208 0 0.0013654035718478766 -0.00013684794365869266 0 0.001526974426369124 -0.0003760210012967208 0 0.0013654035718478766 -0.00013684794365869266 0 0.0016538135626851774 -0.0002756051945599188 0 0.00085104224554668844 -0.00023757602549581675 0 0.0013654035718478766 -0.00013684794365869266 0 0.00090629464163808704 0.00025417144907208196 0 0.00085104224554668844 -0.00023757602549581675 0 0.0013655002070429949 -0.00059052836135681014 0 0.0013654035718478766 -0.00013684794365869266 0 0.0010313178355425721 0.00050371988722524165 0 0.00090629464163808704 0.00025417144907208196 0 0.0012663824909011905 0.00030382240352363896 0 0.0013654035718478766 -0.00013684794365869266 0 0.00090629464163808704 0.00025417144907208196 0 0.0012663824909011905 0.00030382240352363896 0 0.0013793388714929409 -0.00014168920777464636 0 0.0016653392961682386 0.00013532193644070917 0 0.0013654035718478766 -0.00013684794365869266 0 0.0012663824909011905 0.00030382240352363896 0 0.0016072967176076363 0.00034006082161973703 0 0.0013654035718478766 -0.00013684794365869266 0 0.0016538135626851774 -0.0002756051945599188 0 0.0017482298500405972 -4.9480836070836275e-05 0 0.0019662762197791197 -0.00023743652190322354 0 0.0016538135626851774 -0.0002756051945599188 0 0.0017482298500405972 -4.9480836070836275e-05 0 0.0019662762197791197 -0.00023743652190322354 0 0.0022036933289709378 -6.7286711496785824e-05 0 0.0017482298500405972 -4.9480836070836275e-05 0 0.0019662762197791197 -0.00023743652190322354 0 0.0020255243952352186 -0.00051771618307594762 0 0.0016538135626851774 -0.0002756051945599188 0 0.0019662762197791197 -0.00023743652190322354 0 0.0022962001350818107 -0.0003461011628430854 0 0.0022036933289709378 -6.7286711496785824e-05 0 0.0019662762197791197 -0.00023743652190322354 0 0.0022962001350818107 -0.0003461011628430854 0 0.0020255243952352186 -0.00051771618307594762 0 0.0020255243952352186 -0.00051771618307594762 0 0.0020882503367297507 -0.00080322757177944421 0 0.0023967940199569326 -0.00063337627430788159 0 0.0022962001350818107 -0.0003461011628430854 0 0.0020255243952352186 -0.00051771618307594762 0 0.0023967940199569326 -0.00063337627430788159 0 0.001526974426369124 -0.0003760210012967208 0 0.0016538135626851774 -0.0002756051945599188 0 0.0016936427107296392 -0.00047912278441634819 0 0.0016516990401757561 -0.00029424432291529936 0 0.0017488427776663536 -0.00070594651808107342 0 0.0020255243952352186 -0.00051771618307594762 0 0.0016538135626851774 -0.0002756051945599188 0 0.0017594368152788885 -0.00078662948897052158 0 0.0020255243952352186 -0.00051771618307594762 0 0.0017594368152788885 -0.00078662948897052158 0 0.0020882503367297507 -0.00080322757177944421 0 0.0013655002070429949 -0.00059052836135681014 0 0.0016936427107296392 -0.00047912278441634819 0 0.0017318983970267662 -0.000787897643748339 0 0.0017594368152788885 -0.00078662948897052158 0 0.0020882503367297507 -0.00080322757177944421 0 0.0018692755651772066 -0.0011697512678199033 0 0.0016936427107296392 -0.00047912278441634819 0 0.0017318983970267662 -0.000787897643748339 0 0.001764790015936307 -0.00077222759746883374 0 0.0017488427776663536 -0.00070594651808107342 0 0.0015421999753619585 -0.00054119056843694789 0 0.0022841909966815357 -0.00097594835735381519 0 0.0021297179437902206 -0.00095190488901819158 0 0.0024265448661430441 -0.00083546160952342621 0 0.0020882503367297507 -0.00080322757177944421 0 0.0018692755651772066 -0.0011697512678199033 0 0.002391225134744468 -0.00092322287485633182 0 0.0015421999753619585 -0.00054119056843694789 0 0.0024749637336400139 -0.00092923574977669672 0 0.0020882503367297507 -0.00080322757177944421 0 0.002391225134744468 -0.00092322287485633182 0 0.0023967940199569326 -0.00063337627430788159 0 0.0022841909966815357 -0.00097594835735381519 0 0.0022898474562681355 -0.0010465723954736598 0 0.0021595658397285424 -0.0009944631940200547 0 0.0022841909966815357 -0.00097594835735381519 0 0.0024071486543127108 -0.0010147779574704047 0 0.0024265448661430441 -0.00083546160952342621 0 0.0022841909966815357 -0.00097594835735381519 0 0.0022898474562681355 -0.0010465723954736598 0 0.0024071486543127108 -0.0010147779574704047 0 0.0022898474562681355 -0.0010465723954736598 0 0.0024071486543127108 -0.0010147779574704047 0 0.0023006422012406386 -0.0011382181102483056 0 0.0022898474562681355 -0.0010465723954736598 0 0.0021595658397285424 -0.0009944631940200547 0 0.0023006422012406386 -0.0011382181102483056 0 0.0021595658397285424 -0.0009944631940200547 0 0.0021384802982722644 -0.00098202819820504723 0 0.0022105941698196824 -0.0012516112196700653 0 0.00018316880223880782 0.00066296358235354888 0 0.00019795037134876255 0.00069114358713176516 0 0.00019485653227048635 0.00063703281378927321 0 0.00015331182821303306 0.00065029577830475306 0 0.00018316880223880782 0.00066296358235354888 0 0.00016375520743477817 0.00067542625279052833 0 0.00015331182821303306 0.00065029577830475306 0 0.00018316880223880782 0.00066296358235354888 0 0.00019485653227048635 0.00063703281378927321 0 0.00012782815842170506 0.00067118101192519789 0 0.00015331182821303306 0.00065029577830475306 0 0.00016375520743477817 0.00067542625279052833 0 0.00018316880223880782 0.00066296358235354888 0 0.00016375520743477817 0.00067542625279052833 0 0.00018055964153863445 0.00068361927523121781 0 0.00016375520743477817 0.00067542625279052833 0 0.00018055964153863445 0.00068361927523121781 0 0.00017152851460626938 0.00069152969566062435 0 0.00013882821639292088 0.00069039567040892651 0 0.00017152851460626938 0.00069152969566062435 0 0.00018118411745863636 0.0006967437449345279 0 0.0010691614220662015 -0.00025537342065529855 0 0.0012039421598619311 -0.00028022032885766492 0 0.00018055964153863445 0.00068361927523121781 0 0.00017152851460626938 0.00069152969566062435 0 0.0001853648207515248 0.00069742967391636375 0 0.00013882821639292088 0.00069039567040892651 0 0.00016375520743477817 0.00067542625279052833 0 0.00017152851460626938 0.00069152969566062435 0 0.0022841909966815357 -0.00097594835735381519 0 0.0021297179437902206 -0.00095190488901819158 0 0.0021595658397285424 -0.0009944631940200547 0 0.0015646488021961189 -0.00034311566811313628 0 0.0015383551318506425 -0.0003557629528562721 0 0.0015296811436632544 -0.00032213023983499378 0 0.0012039421598619311 -0.00028022032885766492 0 0.0015421999753619585 -0.00054119056843694789 0 0.00018316880223880782 0.00066296358235354888 0 0.00018055964153863445 0.00068361927523121781 0 0.00019795037134876255 0.00069114358713176516 0 0.0012039421598619311 -0.00028022032885766492 0 0.0013933176839365578 -0.00031379802199616493 0 0.00018055964153863445 0.00068361927523121781 0 0.0001853648207515248 0.00069742967391636375 0 0.00019795037134876255 0.00069114358713176516 0 0.0021297179437902206 -0.00095190488901819158 0 0.0021595658397285424 -0.0009944631940200547 0 0.0021373483905392713 -0.00098149705786885642 0 0.0015421999753619585 -0.00054119056843694789 0 0.0013933176839365578 -0.00031379802199616493 0 0.0015113023014430695 -0.00039201615680251609 0 0.0013933176839365578 -0.00031379802199616493 0 0.0025388555415029393 -0.0010977254632263799 0 0.002587337988258344 -0.00091019464375556851 0 0.0028119068017146732 -0.00091565125001039918 0 0.002703002229493618 -0.0012041164963617677 0 0.0024575634626150798 -0.0012165441537382515 0 0.0025386082527314047 -0.0011981977231874338 0 0.0027010000172412378 -0.0012093677160690949 0 0.0026394075282552519 -0.0010507348568624764 0 0.0025388555415029393 -0.0010977254632263799 0 0.0024071486543127108 -0.0010147779574704047 0 0.0023006422012406386 -0.0011382181102483056 0 0.0025388555415029393 -0.0010977254632263799 0 0.0024071486543127108 -0.0010147779574704047 0 0.002587337988258344 -0.00091019464375556851 0 0.0024749637336400139 -0.00092923574977669672 0 0.002759104801250298 -0.00072720923440625356 0 0.002587337988258344 -0.00091019464375556851 0 0.0024265448661430441 -0.00083546160952342621 0 0.0026921720182278117 -0.00074512675653046862 0 0.0024071486543127108 -0.0010147779574704047 0 0.002587337988258344 -0.00091019464375556851 0 0.0024265448661430441 -0.00083546160952342621 0 0.002587337988258344 -0.00091019464375556851 0 0.0026921720182278117 -0.00074512675653046862 0 0.0028119068017146732 -0.00091565125001039918 0 0.0028468017263249337 -0.00071301472807829328 0 0.0023967940199569326 -0.00063337627430788159 0 0.0026468823352651071 -0.00048678004927661195 0 0.0022962001350818107 -0.0003461011628430854 0 0.0023967940199569326 -0.00063337627430788159 0 0.0026468823352651071 -0.00048678004927661195 0 0.002391225134744468 -0.00092322287485633182 0 0.0028468017263249337 -0.00071301472807829328 0 0.0023967940199569326 -0.00063337627430788159 0 0.0022962001350818107 -0.0003461011628430854 0 0.0025581101120282774 -0.00020644342707764587 0 0.0022036933289709378 -6.7286711496785824e-05 0 0.0022962001350818107 -0.0003461011628430854 0 0.0026468823352651071 -0.00048678004927661195 0 0.0025581101120282774 -0.00020644342707764587 0 0.0028468017263249337 -0.00071301472807829328 0 0.0026468823352651071 -0.00048678004927661195 0 0.0029360788834993249 -0.00038559138571839908 0 0.0026468823352651071 -0.00048678004927661195 0 0.0029360788834993249 -0.00038559138571839908 0 0.0025581101120282774 -0.00020644342707764587 0 0.0029360788834993249 -0.00038559138571839908 0 0.0026517217629419437 0.00019689289356505151 0 0.0025581101120282774 -0.00020644342707764587 0 0.0029360788834993249 -0.00038559138571839908 0 0.0026517217629419437 0.00019689289356505151 0 0.0034271091424659928 -4.2061609334074086e-05 0 0.0026517217629419437 0.00019689289356505151 0 0.003235745215066867 0.00071276184856857642 0 0.0034271091424659928 -4.2061609334074086e-05 0 0.0026517217629419437 0.00019689289356505151 0 0.0020608822956631719 0.00026280547853622493 0 0.0023806455202510608 0.00070979738202894274 0 0.0026517217629419437 0.00019689289356505151 0 0.0025581101120282774 -0.00020644342707764587 0 0.0022036933289709378 -6.7286711496785824e-05 0 0.0022036933289709378 -6.7286711496785824e-05 0 0.0017482298500405972 -4.9480836070836275e-05 0 0.0020608822956631719 0.00026280547853622493 0 0.0016653392961682386 0.00013532193644070917 0 0.0019670969338558331 0.00043134134372780486 0 0.0015005874190733022 0.00068282135356575796 0 0.0016072967176076363 0.00034006082161973703 0 0.0018642574389110399 0.00058962856820500879 0 0.0015005874190733022 0.00068282135356575796 0 0.0018642574389110399 0.00058962856820500879 0 0.0018567665208741985 0.00085643481620178486 0 0.0026517217629419437 0.00019689289356505151 0 0.0022036933289709378 -6.7286711496785824e-05 0 0.0020608822956631719 0.00026280547853622493 0 0.0018642574389110399 0.00058962856820500879 0 0.0018567665208741985 0.00085643481620178486 0 0.0022388489230021754 0.00086441454340548791 0 0.0019670969338558331 0.00043134134372780486 0 0.0023223077001935902 0.00080402460138405494 0 0.0015005874190733022 0.00068282135356575796 0 0.0018567665208741985 0.00085643481620178486 0 0.0015539015451452051 0.00097525471054809567 0 0.0015814988441520163 0.001146961577984479 0 0.0015539015451452051 0.00097525471054809567 0 0.0017587799310845478 0.0010497449767195158 0 0.0018567665208741985 0.00085643481620178486 0 0.0015539015451452051 0.00097525471054809567 0 0.0019274971672283028 0.0012897333694848467 0 0.0015779724836578783 0.00099111141395139555 0 0.0018519590635537554 0.0011546253468463091 0 0.0019274971672283028 0.0012897333694848467 0 0.0023022802237169719 0.0012900365679559913 0 0.0022388489230021754 0.00086441454340548791 0 0.0018567665208741985 0.00085643481620178486 0 0.0019274971672283028 0.0012897333694848467 0 0.0022388489230021754 0.00086441454340548791 0 0.0023022802237169719 0.0012900365679559913 0 0.0027290040673056434 0.0012607461615037068 0 0.0022388489230021754 0.00086441454340548791 0 0.0027057416527009374 0.0012414376202390871 0 0.0023223077001935902 0.00080402460138405494 0 0.0027290040673056434 0.0012607461615037068 0 0.0028089802197289611 0.00084667646524210546 0 0.0023806455202510608 0.00070979738202894274 0 0.0030584457430100943 0.0013864127280775727 0 0.0027290040673056434 0.0012607461615037068 0 0.0028089802197289611 0.00084667646524210546 0 0.0030584457430100943 0.0013864127280775727 0 0.0028089802197289611 0.00084667646524210546 0 0.003235745215066867 0.00071276184856857642 0 0.0026517217629419437 0.00019689289356505151 0 0.0028089802197289611 0.00084667646524210546 0 0.003235745215066867 0.00071276184856857642 0 0.0026517217629419437 0.00019689289356505151 0 0.0028089802197289611 0.00084667646524210546 0 0.0023806455202510608 0.00070979738202894274 0 0.0036839604242871584 -0.00024788762665682492 0 0.0043076259805890143 -0.0003896264669183658 0 0.003722697576951792 -0.00015946095276627592 0 0.0036839604242871584 -0.00024788762665682492 0 0.0043076259805890143 -0.0003896264669183658 0 0.0039229576552153953 -0.00094162762319897713 0 0.0039417526397162381 4.1403883378657831e-05 0 0.0037523932542553175 0.0001085921495589854 0 0.0043704705444283691 -0.0011584116056673436 0 0.0043076259805890143 -0.0003896264669183658 0 0.0039229576552153953 -0.00094162762319897713 0 0.0043704705444283691 -0.0011584116056673436 0 0.0048452253372497939 -0.0013339543601914826 0 0.0043076259805890143 -0.0003896264669183658 0 0.0036839604242871584 -0.00024788762665682492 0 0.0039229576552153953 -0.00094162762319897713 0 0.0033292366321936253 -0.00096839194957053297 0 0.0036795298996917434 -0.0002888691407477285 0 0.0036221496022270016 -0.00031319814017722702 0 0.003371462735040577 -0.0012559563792226879 0 0.0039229576552153953 -0.00094162762319897713 0 0.0033292366321936253 -0.00096839194957053297 0 0.0038925184316323013 0.00012059626891612462 0 0.0040688350381764393 1.1752352943841913e-05 0 0.0039173552740819611 -0.00013734722595684643 0 0.0042095761724059398 0.0001952896926638437 0 0.0038925184316323013 0.00012059626891612462 0 0.0040688350381764393 1.1752352943841913e-05 0 0.0040688350381764393 1.1752352943841913e-05 0 0.0041169186076433677 -9.3375477761145566e-05 0 0.0042826718331689774 -1.7560199408465158e-05 0 0.0042095761724059398 0.0001952896926638437 0 0.0040688350381764393 1.1752352943841913e-05 0 0.0042826718331689774 -1.7560199408465158e-05 0 0.0039173552740819611 -0.00013734722595684643 0 0.0041194053691794245 -0.00017386515452906198 0 0.0038368659787641388 -0.00022882091759764519 0 0.0040688350381764393 1.1752352943841913e-05 0 0.0041169186076433677 -9.3375477761145566e-05 0 0.0039173552740819611 -0.00013734722595684643 0 0.0041169186076433677 -9.3375477761145566e-05 0 0.0041194053691794245 -0.00017386515452906198 0 0.0043415751546729102 -0.00012245573071349854 0 0.0041169186076433677 -9.3375477761145566e-05 0 0.0039173552740819611 -0.00013734722595684643 0 0.0041194053691794245 -0.00017386515452906198 0 0.0036839604242871584 -0.00024788762665682492 0 0.0039173552740819611 -0.00013734722595684643 0 0.0037556247636293498 -0.00020312649267331263 0 0.0036839604242871584 -0.00024788762665682492 0 0.0038925184316323013 0.00012059626891612462 0 0.0039173552740819611 -0.00013734722595684643 0 0.0037556247636293498 -0.00020312649267331263 0 0.0038368659787641388 -0.00022882091759764519 0 0.003623281582565445 -0.00017881121932967863 0 0.0038368659787641388 -0.00022882091759764519 0 0.0036232155782660331 -0.00030622404166147951 0 0.003623281582565445 -0.00017881121932967863 0 0.0039173552740819611 -0.00013734722595684643 0 0.0037556247636293498 -0.00020312649267331263 0 0.0038368659787641388 -0.00022882091759764519 0 0.0036839604242871584 -0.00024788762665682492 0 0.0037556247636293498 -0.00020312649267331263 0 0.003623281582565445 -0.00017881121932967863 0 0.0041194053691794245 -0.00017386515452906198 0 0.0038368659787641388 -0.00022882091759764519 0 0.0041023092493416673 -0.00024341728895324664 0 0.0038368659787641388 -0.00022882091759764519 0 0.0038347057407341692 -0.00031200550122470266 0 0.0041023092493416673 -0.00024341728895324664 0 0.0038347057407341692 -0.00031200550122470266 0 0.0038674432898324787 -0.00040470480347452496 0 0.0041295608992487284 -0.000301744992854093 0 0.0038347057407341692 -0.00031200550122470266 0 0.0041295608992487284 -0.000301744992854093 0 0.0041023092493416673 -0.00024341728895324664 0 0.0038368659787641388 -0.00022882091759764519 0 0.0038347057407341692 -0.00031200550122470266 0 0.0036232155782660331 -0.00030622404166147951 0 0.0038347057407341692 -0.00031200550122470266 0 0.0036437805838468529 -0.00041647746479832727 0 0.0038674432898324787 -0.00040470480347452496 0 0.0036232155782660331 -0.00030622404166147951 0 0.003427656143132213 -0.0003128031175434826 0 0.003623281582565445 -0.00017881121932967863 0 0.0036232155782660331 -0.00030622404166147951 0 0.0034513505749326329 -0.00044800027073685925 0 0.0036437805838468529 -0.00041647746479832727 0 0.0038347057407341692 -0.00031200550122470266 0 0.0036232155782660331 -0.00030622404166147951 0 0.0036437805838468529 -0.00041647746479832727 0 0.0036232155782660331 -0.00030622404166147951 0 0.003427656143132213 -0.0003128031175434826 0 0.0034513505749326329 -0.00044800027073685925 0 0.003427656143132213 -0.0003128031175434826 0 0.003623281582565445 -0.00017881121932967863 0 0.0034271091424659928 -4.2061609334074086e-05 0 0.0036839604242871584 -0.00024788762665682492 0 0.003623281582565445 -0.00017881121932967863 0 0.003722697576951792 -0.00015946095276627592 0 0.003623281582565445 -0.00017881121932967863 0 0.003722697576951792 -0.00015946095276627592 0 0.0034271091424659928 -4.2061609334074086e-05 0 0.0037523932542553175 0.0001085921495589854 0 0.0035096601936232615 -5.7533996085861918e-05 0 0.0043076259805890143 -0.0003896264669183658 0 0.003722697576951792 -0.00015946095276627592 0 0.0034271091424659928 -4.2061609334074086e-05 0 0.003427656143132213 -0.0003128031175434826 0 0.0034271091424659928 -4.2061609334074086e-05 0 0.0031946671639246377 -0.00037296538693192682 0 0.0029360788834993249 -0.00038559138571839908 0 0.0034271091424659928 -4.2061609334074086e-05 0 0.0031946671639246377 -0.00037296538693192682 0 0.0029360788834993249 -0.00038559138571839908 0 0.0031946671639246377 -0.00037296538693192682 0 0.0030754121340794021 -0.00061990531736272044 0 0.003427656143132213 -0.0003128031175434826 0 0.0032585443075906378 -0.0005122390429751452 0 0.0034513505749326329 -0.00044800027073685925 0 0.003427656143132213 -0.0003128031175434826 0 0.0031946671639246377 -0.00037296538693192682 0 0.0032585443075906378 -0.0005122390429751452 0 0.0031946671639246377 -0.00037296538693192682 0 0.0032585443075906378 -0.0005122390429751452 0 0.0030754121340794021 -0.00061990531736272044 0 0.0032585443075906378 -0.0005122390429751452 0 0.0031213593347169384 -0.00067009308247546989 0 0.0032838071464623884 -0.00062115719891290644 0 0.0032585443075906378 -0.0005122390429751452 0 0.0031213593347169384 -0.00067009308247546989 0 0.0030754121340794021 -0.00061990531736272044 0 0.0031213593347169384 -0.00067009308247546989 0 0.0030754121340794021 -0.00061990531736272044 0 0.0029191775605304227 -0.00081447861860576838 0 0.0031213593347169384 -0.00067009308247546989 0 0.0029191775605304227 -0.00081447861860576838 0 0.0030994272218172287 -0.00079841177456506103 0 0.002759104801250298 -0.00072720923440625356 0 0.0030581797583201747 -0.00062278430650384502 0 0.0026921720182278117 -0.00074512675653046862 0 0.0030754121340794021 -0.00061990531736272044 0 0.0028860615972695694 -0.00078708703618438037 0 0.0028468017263249337 -0.00071301472807829328 0 0.0029360788834993249 -0.00038559138571839908 0 0.0030754121340794021 -0.00061990531736272044 0 0.0030754121340794021 -0.00061990531736272044 0 0.0029191775605304227 -0.00081447861860576838 0 0.0028860615972695694 -0.00078708703618438037 0 0.0029191775605304227 -0.00081447861860576838 0 0.0028860615972695694 -0.00078708703618438037 0 0.0028119068017146732 -0.00091565125001039918 0 0.0029058237692287832 -0.0008347176277475652 0 0.0026394075282552519 -0.0010507348568624764 0 0.0026921720182278117 -0.00074512675653046862 0 0.0028860615972695694 -0.00078708703618438037 0 0.0028119068017146732 -0.00091565125001039918 0 0.0029191775605304227 -0.00081447861860576838 0 0.0024575634626150798 -0.0012165441537382515 0 0.0026415316398910654 -0.0011561756359283429 0 0.0029191775605304227 -0.00081447861860576838 0 0.0026415316398910654 -0.0011561756359283429 0 0.002856789303535679 -0.0010257704059447891 0 0.0029191775605304227 -0.00081447861860576838 0 0.002856789303535679 -0.0010257704059447891 0 0.0030994272218172287 -0.00079841177456506103 0 0.0026415316398910654 -0.0011561756359283429 0 0.0025355197511885978 -0.0012507657363648363 0 0.0024574004873251132 -0.0012839251235763497 0 0.0026415316398910654 -0.0011561756359283429 0 0.0025355197511885978 -0.0012507657363648363 0 0.002856789303535679 -0.0010257704059447891 0 0.0025355197511885978 -0.0012507657363648363 0 0.0024574004873251132 -0.0012839251235763497 0 0.0023758359270233437 -0.0013183700298095484 0 0.0024575634626150798 -0.0012165441537382515 0 0.0024574004873251132 -0.0012839251235763497 0 0.0025386082527314047 -0.0011981977231874338 0 0.0024575634626150798 -0.0012165441537382515 0 0.0026415316398910654 -0.0011561756359283429 0 0.0024574004873251132 -0.0012839251235763497 0 0.0030445565393407092 -0.0013064995058423648 0 0.0028384999759099999 -0.0011550786932589309 0 0.0031850173428403694 -0.0010718382978712425 0 0.0030445565393407092 -0.0013064995058423648 0 0.0031850173428403694 -0.0010718382978712425 0 0.0035519809705996884 -0.001063089483384419 0 0.00047092151599222444 -0.0016427649476035435 0 0.0025856300600824579 -0.00035505124734977808 0 0.0030445565393407092 -0.0013064995058423648 0 0.0025045143486976153 -0.0013284469378541169 0 0.0028384999759099999 -0.0011550786932589309 0 0.0025355197511885978 -0.0012507657363648363 0 0.0025045143486976153 -0.0013284469378541169 0 0.0021977827301188899 -0.001387950761550014 0 0.0025355197511885978 -0.0012507657363648363 0 0.0025045143486976153 -0.0013284469378541169 0 0.0028384999759099999 -0.0011550786932589309 0 0.0025355197511885978 -0.0012507657363648363 0 0.0028384999759099999 -0.0011550786932589309 0 0.002856789303535679 -0.0010257704059447891 0 0.0028384999759099999 -0.0011550786932589309 0 0.0031506481532304863 -0.00091977542945427646 0 0.0031850173428403694 -0.0010718382978712425 0 0.0028384999759099999 -0.0011550786932589309 0 0.002856789303535679 -0.0010257704059447891 0 0.0031506481532304863 -0.00091977542945427646 0 0.002856789303535679 -0.0010257704059447891 0 0.0031506481532304863 -0.00091977542945427646 0 0.0030994272218172287 -0.00079841177456506103 0 0.0031506481532304863 -0.00091977542945427646 0 0.0031850173428403694 -0.0010718382978712425 0 0.0033855249893189982 -0.00093297600962148879 0 0.0031506481532304863 -0.00091977542945427646 0 0.0033855249893189982 -0.00093297600962148879 0 0.0034846822103360457 -0.00074678250769243354 0 0.0031850173428403694 -0.0010718382978712425 0 0.0033855249893189982 -0.00093297600962148879 0 0.0035519809705996884 -0.001063089483384419 0 0.0033855249893189982 -0.00093297600962148879 0 0.0035643330222735422 -0.00081900524054088716 0 0.0036696978470435889 -0.00090420782017765807 0 0.0033855249893189982 -0.00093297600962148879 0 0.0036696978470435889 -0.00090420782017765807 0 0.0035519809705996884 -0.001063089483384419 0 0.0035643330222735422 -0.00081900524054088716 0 0.0034846822103360457 -0.00074678250769243354 0 0.0037258860546488227 -0.00069795374373538064 0 0.0033855249893189982 -0.00093297600962148879 0 0.0035643330222735422 -0.00081900524054088716 0 0.0034846822103360457 -0.00074678250769243354 0 0.0031506481532304863 -0.00091977542945427646 0 0.0034846822103360457 -0.00074678250769243354 0 0.0033296874817893077 -0.00071599191604340771 0 0.0033296874817893077 -0.00071599191604340771 0 0.0034711070868985853 -0.00054374634995850923 0 0.0036282282987203781 -0.00056853058119010899 0 0.0034846822103360457 -0.00074678250769243354 0 0.0033296874817893077 -0.00071599191604340771 0 0.0036282282987203781 -0.00056853058119010899 0 0.0034846822103360457 -0.00074678250769243354 0 0.0036282282987203781 -0.00056853058119010899 0 0.0037258860546488227 -0.00069795374373538064 0 0.0031506481532304863 -0.00091977542945427646 0 0.0030994272218172287 -0.00079841177456506103 0 0.0033296874817893077 -0.00071599191604340771 0 0.0033296874817893077 -0.00071599191604340771 0 0.0032838071464623884 -0.00062115719891290644 0 0.0034711070868985853 -0.00054374634995850923 0 0.0031213593347169384 -0.00067009308247546989 0 0.0030994272218172287 -0.00079841177456506103 0 0.0032838071464623884 -0.00062115719891290644 0 0.0030994272218172287 -0.00079841177456506103 0 0.0033296874817893077 -0.00071599191604340771 0 0.0032838071464623884 -0.00062115719891290644 0 0.0032585443075906378 -0.0005122390429751452 0 0.0032838071464623884 -0.00062115719891290644 0 0.0034513505749326329 -0.00044800027073685925 0 0.0032838071464623884 -0.00062115719891290644 0 0.0034711070868985853 -0.00054374634995850923 0 0.0034513505749326329 -0.00044800027073685925 0 0.0034711070868985853 -0.00054374634995850923 0 0.0034513505749326329 -0.00044800027073685925 0 0.0036437805838468529 -0.00041647746479832727 0 0.0036282282987203781 -0.00056853058119010899 0 0.0038674432898324787 -0.00040470480347452496 0 0.0039091293362112332 -0.00051227574144915703 0 0.0036282282987203781 -0.00056853058119010899 0 0.0039091293362112332 -0.00051227574144915703 0 0.0037258860546488227 -0.00069795374373538064 0 0.0034711070868985853 -0.00054374634995850923 0 0.0036282282987203781 -0.00056853058119010899 0 0.0036437805838468529 -0.00041647746479832727 0 0.0036282282987203781 -0.00056853058119010899 0 0.0036437805838468529 -0.00041647746479832727 0 0.0038674432898324787 -0.00040470480347452496 0 0.0038674432898324787 -0.00040470480347452496 0 0.0040926405256924321 -0.00038658710669718264 0 0.0039091293362112332 -0.00051227574144915703 0 0.0040926405256924321 -0.00038658710669718264 0 0.0040944010306304965 -0.00047078048865917727 0 0.0039091293362112332 -0.00051227574144915703 0 0.0040926405256924321 -0.00038658710669718264 0 0.0040944010306304965 -0.00047078048865917727 0 0.0042283031806055402 -0.00038354745686813727 0 0.0040944010306304965 -0.00047078048865917727 0 0.0039091293362112332 -0.00051227574144915703 0 0.0039896773295242148 -0.00059625075230572422 0 0.0040944010306304965 -0.00047078048865917727 0 0.0042531908197782917 -0.0004894822585085703 0 0.0039896773295242148 -0.00059625075230572422 0 0.0043949653103524181 -0.0003133690996260531 0 0.0042283031806055402 -0.00038354745686813727 0 0.0042944924443331072 -0.00030052127790426594 0 0.0043949653103524181 -0.0003133690996260531 0 0.0042283031806055402 -0.00038354745686813727 0 0.0042531908197782917 -0.0004894822585085703 0 0.0040944010306304965 -0.00047078048865917727 0 0.0042283031806055402 -0.00038354745686813727 0 0.0042531908197782917 -0.0004894822585085703 0 0.0043949653103524181 -0.0003133690996260531 0 0.0042531908197782917 -0.0004894822585085703 0 0.0044033820505193803 -0.00050150442761618037 0 0.0014333569624840135 -2.4167071105560344e-05 0 0.0013389561317886213 -0.00015820170515113864 0 0.0012957394470104386 -0.00017983661435499022 0 0.0028508036663093179 -0.0002718177794893911 0 0.0032500064125534035 -0.00071960243469273023 0 0.0042531908197782917 -0.0004894822585085703 0 0.0044033820505193803 -0.00050150442761618037 0 0.0040728631765781596 -0.00079000297069441389 0 0.0042952991210421284 -0.00042788217111502859 0 0.0032500064125534035 -0.00071960243469273023 0 0.0042531908197782917 -0.0004894822585085703 0 0.0039896773295242148 -0.00059625075230572422 0 0.0039441141248688413 -0.00081826325953407713 0 0.0039091293362112332 -0.00051227574144915703 0 0.0037258860546488227 -0.00069795374373538064 0 0.0039896773295242148 -0.00059625075230572422 0 0.0037258860546488227 -0.00069795374373538064 0 0.0039896773295242148 -0.00059625075230572422 0 0.0039441141248688413 -0.00081826325953407713 0 0.0035643330222735422 -0.00081900524054088716 0 0.0037258860546488227 -0.00069795374373538064 0 0.0036696978470435889 -0.00090420782017765807 0 0.0037258860546488227 -0.00069795374373538064 0 0.0039441141248688413 -0.00081826325953407713 0 0.0036696978470435889 -0.00090420782017765807 0 0.0032500064125534035 -0.00071960243469273023 0 0.0036458773717573233 -0.00070791757254826408 0 0.0012957394470104386 -0.00017983661435499022 0 0.0013573526238257799 -0.00016592054649402279 0 0.0012327075416218582 -0.00019531524668184687 0 0.0013573526238257799 -0.00016592054649402279 0 0.0012327075416218582 -0.00019531524668184687 0 0.0013003589280048871 -0.00010403804587774026 0 0.0038646151764330804 -0.00080744946709823402 0 0.0036696978470435889 -0.00090420782017765807 0 0.0035519809705996884 -0.001063089483384419 0 0.0032500064125534035 -0.00071960243469273023 0 0.0025856300600824579 -0.00035505124734977808 0 0.0013389561317886213 -0.00015820170515113864 0 0.0012957394470104386 -0.00017983661435499022 0 0.0012327075416218582 -0.00019531524668184687 0 0.001033999735362862 1.5446661638623166e-05 0 0.0013003589280048871 -0.00010403804587774026 0 0.0012843421877074958 9.3899251182488156e-05 0 0.0012327075416218582 -0.00019531524668184687 0 0.001033999735362862 1.5446661638623166e-05 0 0.0013003589280048871 -0.00010403804587774026 0 0.0014528301621945744 -6.8477214224039199e-05 0 0.0013003589280048871 -0.00010403804587774026 0 0.0012843421877074958 9.3899251182488156e-05 0 0.0014528301621945744 -6.8477214224039199e-05 0 0.0013573526238257799 -0.00016592054649402279 0 0.0013003589280048871 -0.00010403804587774026 0 0.00047092151599222444 -0.0016427649476035435 0 -0.0011387298710472543 -0.0018042650155552394 0 0.00050676203958620932 -9.1759638506149863e-05 0 0.00079902302831739123 -8.5085953086014917e-07 0 -0.00071638029177757679 1.3847764851268915e-06 0 0.0012327075416218582 -0.00019531524668184687 0 0.001033999735362862 1.5446661638623166e-05 0 0.00050676203958620932 -9.1759638506149863e-05 0 0.0012327075416218582 -0.00019531524668184687 0 0.00050676203958620932 -9.1759638506149863e-05 0 0.0014208196773078158 -0.00019104450736830061 0 0.0013389561317886213 -0.00015820170515113864 0 0.0012327075416218582 -0.00019531524668184687 0 0.0014208196773078158 -0.00019104450736830061 0 0.00050676203958620932 -9.1759638506149863e-05 0 0.00079902302831739123 -8.5085953086014917e-07 0 0.0014208196773078158 -0.00019104450736830061 0 0.00079902302831739123 -8.5085953086014917e-07 0 0.0023013473149234775 -4.2504758691290145e-07 0 0.0014208196773078158 -0.00019104450736830061 0 0.0014333569624840135 -2.4167071105560344e-05 0 0.0013389561317886213 -0.00015820170515113864 0 0.0014208196773078158 -0.00019104450736830061 0 0.0043949653103524181 -0.0003133690996260531 0 0.0044033820505193803 -0.00050150442761618037 0 0.0045042072082462853 -7.3542110512054621e-05 0 0.0014333569624840135 -2.4167071105560344e-05 0 0.0014208196773078158 -0.00019104450736830061 0 0.002199151424678302 0.00015705728957340852 0 0.0028508036663093179 -0.0002718177794893911 0 0.0033089370843706603 -3.7428660887735564e-05 0 0.0023013473149234775 -4.2504758691290145e-07 0 0.0038013924257512635 1.1298136604499881e-06 0 0.002199151424678302 0.00015705728957340852 0 0.0023013473149234775 -4.2504758691290145e-07 0 0.0014208196773078158 -0.00019104450736830061 0 0.002199151424678302 0.00015705728957340852 0 0.003805991082590424 -2.7911248365221665e-08 0 0.0046330275829186045 -0.0001985495532577731 0 0.0045042072082462853 -7.3542110512054621e-05 0 0.0038029607073230974 -1.0906213383533765e-07 0 0.0033089370843706603 -3.7428660887735564e-05 0 0.003805991082590424 -2.7911248365221665e-08 0 0.0046330275829186045 -0.0001985495532577731 0 0.0051484825713228339 -5.7003593314898754e-07 0 0.0046330275829186045 -0.0001985495532577731 0 0.0046482473296704371 -0.00021745085236847477 0 0.0050478887104877298 -0.00014580146521441211 0 0.0046330275829186045 -0.0001985495532577731 0 0.0045164534389168422 -0.00021903522128716976 0 0.0046482473296704371 -0.00021745085236847477 0 0.0046330275829186045 -0.0001985495532577731 0 0.0045042072082462853 -7.3542110512054621e-05 0 0.0045164534389168422 -0.00021903522128716976 0 0.0043949653103524181 -0.0003133690996260531 0 0.0045042072082462853 -7.3542110512054621e-05 0 0.0045164534389168422 -0.00021903522128716976 0 0.0043949653103524181 -0.0003133690996260531 0 0.0042944924443331072 -0.00030052127790426594 0 0.0045164534389168422 -0.00021903522128716976 0 0.0042944924443331072 -0.00030052127790426594 0 0.0045164534389168422 -0.00021903522128716976 0 0.0043748935794519633 -0.00024347423827587365 0 0.0038674432898324787 -0.00040470480347452496 0 0.0040926405256924321 -0.00038658710669718264 0 0.0041295608992487284 -0.000301744992854093 0 0.0040926405256924321 -0.00038658710669718264 0 0.0042283031806055402 -0.00038354745686813727 0 0.0042944924443331072 -0.00030052127790426594 0 0.0040926405256924321 -0.00038658710669718264 0 0.0042944924443331072 -0.00030052127790426594 0 0.0041295608992487284 -0.000301744992854093 0 0.0042944924443331072 -0.00030052127790426594 0 0.0041295608992487284 -0.000301744992854093 0 0.0043748935794519633 -0.00024347423827587365 0 0.0041295608992487284 -0.000301744992854093 0 0.0041023092493416673 -0.00024341728895324664 0 0.0043748935794519633 -0.00024347423827587365 0 0.0041023092493416673 -0.00024341728895324664 0 0.0043748935794519633 -0.00024347423827587365 0 0.0044289343918195879 -0.00018882450346665864 0 0.0041194053691794245 -0.00017386515452906198 0 0.0041023092493416673 -0.00024341728895324664 0 0.0044289343918195879 -0.00018882450346665864 0 0.0045164534389168422 -0.00021903522128716976 0 0.0043748935794519633 -0.00024347423827587365 0 0.0046482473296704371 -0.00021745085236847477 0 0.0043748935794519633 -0.00024347423827587365 0 0.0046482473296704371 -0.00021745085236847477 0 0.0044289343918195879 -0.00018882450346665864 0 0.0046482473296704371 -0.00021745085236847477 0 0.0047571307824394353 -0.00015422251617278382 0 0.0044289343918195879 -0.00018882450346665864 0 0.0047571307824394353 -0.00015422251617278382 0 0.0044289343918195879 -0.00018882450346665864 0 0.0046019186251237054 -7.7473802853228718e-05 0 0.0041194053691794245 -0.00017386515452906198 0 0.0044289343918195879 -0.00018882450346665864 0 0.0043415751546729102 -0.00012245573071349854 0 0.0043415751546729102 -0.00012245573071349854 0 0.0042826718331689774 -1.7560199408465158e-05 0 0.0046019186251237054 -7.7473802853228718e-05 0 0.0044289343918195879 -0.00018882450346665864 0 0.0043415751546729102 -0.00012245573071349854 0 0.0046019186251237054 -7.7473802853228718e-05 0 0.0041169186076433677 -9.3375477761145566e-05 0 0.0043415751546729102 -0.00012245573071349854 0 0.0042826718331689774 -1.7560199408465158e-05 0 0.0042826718331689774 -1.7560199408465158e-05 0 0.0044694412059242865 0.00011608444919352041 0 0.0046019186251237054 -7.7473802853228718e-05 0 0.0044694412059242865 0.00011608444919352041 0 0.0046019186251237054 -7.7473802853228718e-05 0 0.0047976709594937349 0.00012131727112326684 0 0.0042095761724059398 0.0001952896926638437 0 0.0042826718331689774 -1.7560199408465158e-05 0 0.0044694412059242865 0.00011608444919352041 0 0.0047571307824394353 -0.00015422251617278382 0 0.0046019186251237054 -7.7473802853228718e-05 0 0.0051374477856741124 -4.7871421111923052e-05 0 0.0046019186251237054 -7.7473802853228718e-05 0 0.0047976709594937349 0.00012131727112326684 0 0.0051374477856741124 -4.7871421111923052e-05 0 0.0051374477856741124 -4.7871421111923052e-05 0 0.0055716051865653321 -9.008116885506801e-05 0 0.0050478887104877298 -0.00014580146521441211 0 0.00566301378211555 7.5338458546240071e-05 0 0.0051374477856741124 -4.7871421111923052e-05 0 0.0055716051865653321 -9.008116885506801e-05 0 0.0064946335839039483 5.0619879175414724e-08 0 0.0055716051865653321 -9.008116885506801e-05 0 0.0051484825713228339 -5.7003593314898754e-07 0 0.0046330275829186045 -0.0001985495532577731 0 0.0051484825713228339 -5.7003593314898754e-07 0 0.0050478887104877298 -0.00014580146521441211 0 0.0055716051865653321 -9.008116885506801e-05 0 0.0051484825713228339 -5.7003593314898754e-07 0 0.0050478887104877298 -0.00014580146521441211 0 0.0047571307824394353 -0.00015422251617278382 0 0.0051374477856741124 -4.7871421111923052e-05 0 0.0050478887104877298 -0.00014580146521441211 0 0.0046482473296704371 -0.00021745085236847477 0 0.0047571307824394353 -0.00015422251617278382 0 0.0050478887104877298 -0.00014580146521441211 0 0.00079137290211985303 0.0010432865724263191 0 0.00069722076030063259 0.0010644406615056318 0 0.0008985310314393722 0.00099194299989650218 0 0.00079137290211985303 0.0010432865724263191 0 0.00084558937973999541 0.0010514862761696474 0 0.0008985310314393722 0.00099194299989650218 0 0.00070241326803445134 0.0010649109603061136 0 0.00069478176131077159 0.0010799921079559013 0 0.00069722076030063259 0.0010644406615056318 0 0.00048516980897105782 0.0011640538599225305 0 0.00057199433127256866 0.0011972376443854112 0 0.00069722076030063259 0.0010644406615056318 0 0.00071977086313692186 0.0010349697135468698 0 0.0006115646737632482 0.0012809133604972118 0 0.00057708469052371281 0.0011370323774271454 0 0.00069778504297263795 0.0011113081111290136 0 0.0006854068681089807 0.0010031275129122289 0 0.00079137290211985303 0.0010432865724263191 0 0.00069722076030063259 0.0010644406615056318 0 0.00074753802880917451 0.0010435226181566355 0 0.00071977086313692186 0.0010349697135468698 0 0.00074753802880917451 0.0010435226181566355 0 0.00078186795347917376 0.0010539775682123222 0 0.00079137290211985303 0.0010432865724263191 0 0.00074753802880917451 0.0010435226181566355 0 0.00078186795347917376 0.0010539775682123222 0 0.00069722076030063259 0.0010644406615056318 0 0.00071977086313692186 0.0010349697135468698 0 0.00074753802880917451 0.0010435226181566355 0 0.00071977086313692186 0.0010349697135468698 0 0.00078186795347917376 0.0010539775682123222 0 0.00081863500803877414 0.0010756109411725607 0 0.00064335313845196131 0.0010886616898835553 0 0.00063092812551675801 0.00087671758584761917 0 0.00057708469052371281 0.0011370323774271454 0 0.00058271004204172195 0.00081914495590199434 0 0.00046448830283926765 0.00073639423478405323 0 0.00057708469052371281 0.0011370323774271454 0 0.00058271004204172195 0.00081914495590199434 0 0.0006854068681089807 0.0010031275129122289 0 0.00078186795347917376 0.0010539775682123222 0 0.0008346552173538759 0.0010669795916487357 0 0.00081863500803877414 0.0010756109411725607 0 0.00078186795347917376 0.0010539775682123222 0 0.0008346552173538759 0.0010669795916487357 0 0.00084558937973999541 0.0010514862761696474 0 0.00079137290211985303 0.0010432865724263191 0 0.00078186795347917376 0.0010539775682123222 0 0.00084558937973999541 0.0010514862761696474 0 0.0008346552173538759 0.0010669795916487357 0 0.00084558937973999541 0.0010514862761696474 0 0.00087366328538108432 0.0010667116666492613 0 0.00091768901403149088 0.0010544334654217574 0 0.00095469523645846563 0.001035866953530435 0 0.0008985310314393722 0.00099194299989650218 0 0.00084558937973999541 0.0010514862761696474 0 0.00091768901403149088 0.0010544334654217574 0 0.00087366328538108432 0.0010667116666492613 0 0.00084558937973999541 0.0010514862761696474 0 0.00091768901403149088 0.0010544334654217574 0 0.0008985310314393722 0.00099194299989650218 0 0.00091768901403149088 0.0010544334654217574 0 0.00095469523645846563 0.001035866953530435 0 0.00099349653290849616 0.0010521238973652119 0 0.00095469523645846563 0.001035866953530435 0 0.00099349653290849616 0.0010521238973652119 0 0.00099105730837508008 0.0010420001838588465 0 0.00095469523645846563 0.001035866953530435 0 0.00095823768601235859 0.0010433902862348561 0 0.00096465094162070518 0.0010528591574144037 0 0.00095469523645846563 0.001035866953530435 0 0.0008985310314393722 0.00099194299989650218 0 0.00096465094162070518 0.0010528591574144037 0 0.00069478176131077159 0.0010799921079559013 0 0.00072451651859349825 0.0011263915012898222 0 0.00048516980897105782 0.0011640538599225305 0 0.00048870221766810569 0.0011959752640523322 0 0.00051100684074511659 0.0012261721493198356 0 0.00048870221766810569 0.0011959752640523322 0 0.00049431410563224973 0.0011913272518153655 0 0.00049175625227978624 0.0011935145159059502 0 0.00048516980897105782 0.0011640538599225305 0 0.00048870221766810569 0.0011959752640523322 0 0.00049175625227978624 0.0011935145159059502 0 0.00048870221766810569 0.0011959752640523322 0 0.00049431410563224973 0.0011913272518153655 0 0.00049610232811260545 0.0011983525376181433 0 0.00048870221766810569 0.0011959752640523322 0 0.00051100684074511659 0.0012261721493198356 0 0.00049610232811260545 0.0011983525376181433 0 0.00048516980897105782 0.0011640538599225305 0 0.00051100684074511659 0.0012261721493198356 0 0.00057199433127256866 0.0011972376443854112 0 0.00064335313845196131 0.0010886616898835553 0 0.00062223003051298448 0.0012563962499143448 0 0.00069722076030063259 0.0010644406615056318 0 0.00057199433127256866 0.0011972376443854112 0 0.0006115646737632482 0.0012809133604972118 0 0.00051100684074511659 0.0012261721493198356 0 0.00057199433127256866 0.0011972376443854112 0 0.0006115646737632482 0.0012809133604972118 0 0.00057708469052371281 0.0011370323774271454 0 0.0006115646737632482 0.0012809133604972118 0 0.00071543292315425205 0.0012262403533173246 0 0.00051100684074511659 0.0012261721493198356 0 0.0006115646737632482 0.0012809133604972118 0 0.00052394744983944161 0.0012414693507167428 0 0.0006115646737632482 0.0012809133604972118 0 0.00068563551749239277 0.0013719552110397978 0 0.00052394744983944161 0.0012414693507167428 0 0.00068563551749239277 0.0013719552110397978 0 0.00057787469337624295 0.0013460928574202727 0 0.00086102060057805863 0.0014847594097772592 0 0.00068563551749239277 0.0013719552110397978 0 0.00057787469337624295 0.0013460928574202727 0 0.00048304355588008892 0.0012214526644030116 0 0.00068563551749239277 0.0013719552110397978 0 0.00071543292315425205 0.0012262403533173246 0 0.00096828318126185862 0.0012118601323501343 0 0.00068563551749239277 0.0013719552110397978 0 0.00086102060057805863 0.0014847594097772592 0 0.00096828318126185862 0.0012118601323501343 0 0.0006115646737632482 0.0012809133604972118 0 0.00068563551749239277 0.0013719552110397978 0 0.00071543292315425205 0.0012262403533173246 0 0.00020688953469589602 0.001577917638821864 0 0.00040555286195772725 0.001457259673838104 0 0.00036298861472691901 0.0013507389841409363 0 0.00040555286195772725 0.001457259673838104 0 0.00057787469337624295 0.0013460928574202727 0 0.00086102060057805863 0.0014847594097772592 0 0.00040555286195772725 0.001457259673838104 0 0.00057787469337624295 0.0013460928574202727 0 0.00036298861472691901 0.0013507389841409363 0 0.00088625332568005013 0.0014929303337171548 0 0.0010748946481851198 0.0014321774835781992 0 0.00040555286195772725 0.001457259673838104 0 0.00086102060057805863 0.0014847594097772592 0 0.00022365502625773284 0.0015793929500202469 0 0.00020688953469589602 0.001577917638821864 0 0.00040555286195772725 0.001457259673838104 0 0.00022365502625773284 0.0015793929500202469 0 0.0019114843384383435 0.0013554456609981393 0 0.0013826854537673926 0.0011329523957181759 0 0.0018881489686095694 0.00084661578248641713 0 0.00086102060057805863 0.0014847594097772592 0 0.0013826854537673926 0.0011329523957181759 0 0.00096828318126185862 0.0012118601323501343 0 0.00086102060057805863 0.0014847594097772592 0 0.0019114843384383435 0.0013554456609981393 0 0.0013826854537673926 0.0011329523957181759 0 0.0013826854537673926 0.0011329523957181759 0 0.0018881489686095694 0.00084661578248641713 0 0.0012133257349081377 0.00087743840764162989 0 0.0022598166637707471 0.00084007303050860648 0 0.0019114843384383435 0.0013554456609981393 0 0.0018881489686095694 0.00084661578248641713 0 0.00071543292315425205 0.0012262403533173246 0 0.00096828318126185862 0.0012118601323501343 0 0.00083089741038479053 0.0010373176122506198 0 0.00069778504297263795 0.0011113081111290136 0 0.00071543292315425205 0.0012262403533173246 0 0.00083089741038479053 0.0010373176122506198 0 0.00057708469052371281 0.0011370323774271454 0 0.00069778504297263795 0.0011113081111290136 0 0.00071543292315425205 0.0012262403533173246 0 0.0013826854537673926 0.0011329523957181759 0 0.00096828318126185862 0.0012118601323501343 0 0.0012133257349081377 0.00087743840764162989 0 0.00096828318126185862 0.0012118601323501343 0 0.0012133257349081377 0.00087743840764162989 0 0.00083089741038479053 0.0010373176122506198 0 0.0012133257349081377 0.00087743840764162989 0 0.00083089741038479053 0.0010373176122506198 0 0.00090899497103639506 0.00070695953274772382 0 0.00083089741038479053 0.0010373176122506198 0 0.0007548027305768636 0.0008617743494835358 0 0.00090899497103639506 0.00070695953274772382 0 0.00069778504297263795 0.0011113081111290136 0 0.00083089741038479053 0.0010373176122506198 0 0.0006854068681089807 0.0010031275129122289 0 0.00083089741038479053 0.0010373176122506198 0 0.0006854068681089807 0.0010031275129122289 0 0.0007548027305768636 0.0008617743494835358 0 0.00058271004204172195 0.00081914495590199434 0 0.0006854068681089807 0.0010031275129122289 0 0.0007548027305768636 0.0008617743494835358 0 0.00058271004204172195 0.00081914495590199434 0 0.0007548027305768636 0.0008617743494835358 0 0.00075165205199522161 0.00061542814950776045 0 0.0007548027305768636 0.0008617743494835358 0 0.00075165205199522161 0.00061542814950776045 0 0.00090899497103639506 0.00070695953274772382 0 0.00075165205199522161 0.00061542814950776045 0 0.00088947769391755618 0.00033152182938656679 0 0.00061181120429239797 0.00031955057510610498 0 0.00075165205199522161 0.00061542814950776045 0 0.00090899497103639506 0.00070695953274772382 0 0.00088947769391755618 0.00033152182938656679 0 0.00090899497103639506 0.00070695953274772382 0 0.00088947769391755618 0.00033152182938656679 0 0.0014930946433276829 0.00025117152011728541 0 0.0012576765193833296 0.00086374549168641344 0 0.0015577381773261706 0.00036251059727636793 0 0.0012133257349081377 0.00087743840764162989 0 0.00090899497103639506 0.00070695953274772382 0 0.0014930946433276829 0.00025117152011728541 0 0.00088947769391755618 0.00033152182938656679 0 0.0014930946433276829 0.00025117152011728541 0 0.0010641270317123513 -2.2456546464399403e-05 0 0.00088947769391755618 0.00033152182938656679 0 0.0010641270317123513 -2.2456546464399403e-05 0 0.00068645068102643524 8.3465295216451099e-06 0 0.00088947769391755618 0.00033152182938656679 0 0.00068645068102643524 8.3465295216451099e-06 0 0.00061181120429239797 0.00031955057510610498 0 0.0023828395917425064 0.00057379720342773128 0 0.0018881489686095694 0.00084661578248641713 0 0.0020200775086224262 0.00057767539287566791 0 0.0018881489686095694 0.00084661578248641713 0 0.0012133257349081377 0.00087743840764162989 0 0.0020200775086224262 0.00057767539287566791 0 0.0012133257349081377 0.00087743840764162989 0 0.0020200775086224262 0.00057767539287566791 0 0.0016478512468626717 0.00044235862644673721 0 0.0020200775086224262 0.00057767539287566791 0 0.0016478512468626717 0.00044235862644673721 0 0.002550433655935234 0.0001400134578166852 0 0.0023828395917425064 0.00057379720342773128 0 0.0020200775086224262 0.00057767539287566791 0 0.002550433655935234 0.0001400134578166852 0 0.0016478512468626717 0.00044235862644673721 0 0.002550433655935234 0.0001400134578166852 0 0.0020051874486943272 -0.00014328088647685581 0 0.0015577381773261706 0.00036251059727636793 0 0.0018957372293905296 -0.00033294403476628648 0 0.0021919822378591173 -0.0013590864813850176 0 0.0018957372293905296 -0.00033294403476628648 0 0.0022123002630167585 -0.0014034887869238549 0 0.0020051874486943272 -0.00014328088647685581 0 0.0026896003195675455 -0.0005461371510804803 0 0.0037223257075394383 -0.00058402470500416599 0 0.002550433655935234 0.0001400134578166852 0 0.0026896003195675455 -0.0005461371510804803 0 0.002550433655935234 0.0001400134578166852 0 0.0020051874486943272 -0.00014328088647685581 0 0.0026896003195675455 -0.0005461371510804803 0 0.00089214163515483763 -0.00032026227209678773 0 0.0010641270317123513 -2.2456546464399403e-05 0 0.0012988881814541549 -0.00036691975167750231 0 0.00089214163515483763 -0.00032026227209678773 0 0.0010641270317123513 -2.2456546464399403e-05 0 0.00068645068102643524 8.3465295216451099e-06 0 0.0014930946433276829 0.00025117152011728541 0 0.0010641270317123513 -2.2456546464399403e-05 0 0.0012988881814541549 -0.00036691975167750231 0 0.0014930946433276829 0.00025117152011728541 0 0.0017848502338662694 -0.00046040674548338304 0 0.0012988881814541549 -0.00036691975167750231 0 0.001515462230183008 -0.00097970538365069497 0 0.0017848502338662694 -0.00046040674548338304 0 0.0012728449466529125 -0.00082566518123077459 0 0.0017848502338662694 -0.00046040674548338304 0 0.0012988881814541549 -0.00036691975167750231 0 0.0012728449466529125 -0.00082566518123077459 0 0.0012988881814541549 -0.00036691975167750231 0 0.0012728449466529125 -0.00082566518123077459 0 0.00091171306170248316 -0.00070222434334417264 0 0.0010521887909279411 -0.0010326732320734586 0 0.0012728449466529125 -0.00082566518123077459 0 0.00091171306170248316 -0.00070222434334417264 0 0.00089214163515483763 -0.00032026227209678773 0 0.0012988881814541549 -0.00036691975167750231 0 0.00091171306170248316 -0.00070222434334417264 0 0.00089214163515483763 -0.00032026227209678773 0 0.00091171306170248316 -0.00070222434334417264 0 0.00057769906678306116 -0.00067114186108488015 0 0.00074020858850836282 -0.0010708356779741263 0 0.00091171306170248316 -0.00070222434334417264 0 0.00057769906678306116 -0.00067114186108488015 0 0.00040909272222811543 -0.00095112026961108602 0 0.00057769906678306116 -0.00067114186108488015 0 0.00011952003544855114 -0.00064743122694878861 0 0.00057769906678306116 -0.00067114186108488015 0 0.00011952003544855114 -0.00064743122694878861 0 0.00041699002735968993 -0.00032850281233917211 0 0.00082367625941876551 0.0012525573307049489 0 0.00083210688247885875 0.0011169536855984751 0 0.00089269564089071809 0.0011156016307402282 0 0.0002506879687113604 0.00014742456114541006 0 0.00066029187135194971 0.0008791285604843786 0 0.0002506879687113604 0.00014742456114541006 0 0.00037796839925631151 0.00018133829560653279 0 0.00011952003544855114 -0.00064743122694878861 0 0.00041699002735968993 -0.00032850281233917211 0 0.00033695273735667258 0.00011892074142864013 0 0.00032481224911402412 8.162686855639954e-05 0 0.0004438576308423402 0.00043397422496201744 0 0.00039319932712511075 0.00039702886351484465 0 0.00041699002735968993 -0.00032850281233917211 0 0.0004945019163889253 -2.2912318300043942e-05 0 0.00033695273735667258 0.00011892074142864013 0 0.00089214163515483763 -0.00032026227209678773 0 0.00057769906678306116 -0.00067114186108488015 0 0.00041699002735968993 -0.00032850281233917211 0 0.00089214163515483763 -0.00032026227209678773 0 0.00041699002735968993 -0.00032850281233917211 0 0.00068645068102643524 8.3465295216451099e-06 0 0.00041699002735968993 -0.00032850281233917211 0 0.0004945019163889253 -2.2912318300043942e-05 0 0.00068645068102643524 8.3465295216451099e-06 0 0.00066029187135194971 0.0008791285604843786 0 0.00063092812551675801 0.00087671758584761917 0 0.00053643894615242884 0.00010790931225333116 0 0.00061181120429239797 0.00031955057510610498 0 0.00033695273735667258 0.00011892074142864013 0 0.0004438576308423402 0.00043397422496201744 0 0.00039319932712511075 0.00039702886351484465 0 0.00046448830283926765 0.00073639423478405323 0 0.00068645068102643524 8.3465295216451099e-06 0 0.00053643894615242884 0.00010790931225333116 0 0.00061181120429239797 0.00031955057510610498 0 0.0004945019163889253 -2.2912318300043942e-05 0 0.00068645068102643524 8.3465295216451099e-06 0 0.00053643894615242884 0.00010790931225333116 0 0.0004945019163889253 -2.2912318300043942e-05 0 0.00053643894615242884 0.00010790931225333116 0 0.00033695273735667258 0.00011892074142864013 0 0.00083210688247885875 0.0011169536855984751 0 0.00085591300933203431 0.0010947859447732996 0 0.00081863500803877414 0.0010756109411725607 0 0.00089269564089071809 0.0011156016307402282 0 0.00085591300933203431 0.0010947859447732996 0 0.0008966922850244301 0.0010771227430090527 0 0.00083210688247885875 0.0011169536855984751 0 0.00089269564089071809 0.0011156016307402282 0 0.00085591300933203431 0.0010947859447732996 0 0.00085591300933203431 0.0010947859447732996 0 0.00085434407543542087 0.0010756691250427164 0 0.00081863500803877414 0.0010756109411725607 0 0.00085591300933203431 0.0010947859447732996 0 0.00085434407543542087 0.0010756691250427164 0 0.0008966922850244301 0.0010771227430090527 0 0.00085434407543542087 0.0010756691250427164 0 0.00087366328538108432 0.0010667116666492613 0 0.0008966922850244301 0.0010771227430090527 0 0.0008346552173538759 0.0010669795916487357 0 0.00085434407543542087 0.0010756691250427164 0 0.00087366328538108432 0.0010667116666492613 0 0.0008346552173538759 0.0010669795916487357 0 0.00085434407543542087 0.0010756691250427164 0 0.00081863500803877414 0.0010756109411725607 0 0.00058167726826920292 0.00083737392352594645 0 0.00037796839925631151 0.00018133829560653279 0 0.00058271004204172195 0.00081914495590199434 0 0.0004438576308423402 0.00043397422496201744 0 0.00046448830283926765 0.00073639423478405323 0 0.00058271004204172195 0.00081914495590199434 0 0.00061181120429239797 0.00031955057510610498 0 0.00033695273735667258 0.00011892074142864013 0 0.00058271004204172195 0.00081914495590199434 0 0.00075165205199522161 0.00061542814950776045 0 0.00061181120429239797 0.00031955057510610498 0 0.00091768901403149088 0.0010544334654217574 0 0.00099349653290849616 0.0010521238973652119 0 0.0008966922850244301 0.0010771227430090527 0 0.00091768901403149088 0.0010544334654217574 0 0.00087366328538108432 0.0010667116666492613 0 0.0008966922850244301 0.0010771227430090527 0 0.00089269564089071809 0.0011156016307402282 0 0.0008966922850244301 0.0010771227430090527 0 0.00096107784301693508 0.0010907601101676368 0 0.00099349653290849616 0.0010521238973652119 0 0.0008966922850244301 0.0010771227430090527 0 0.00096107784301693508 0.0010907601101676368 0 0.00089269564089071809 0.0011156016307402282 0 0.00096107784301693508 0.0010907601101676368 0 0.0009746051394321515 0.001155110526411004 0 0.00099349653290849616 0.0010521238973652119 0 0.0010431681586354801 0.0010904936813136209 0 0.0011259884704831655 0.0010457573530140683 0 0.00099349653290849616 0.0010521238973652119 0 0.00096107784301693508 0.0010907601101676368 0 0.0010431681586354801 0.0010904936813136209 0 0.0010431681586354801 0.0010904936813136209 0 0.0009746051394321515 0.001155110526411004 0 0.0011328121745459612 0.0011605350643323494 0 0.00096107784301693508 0.0010907601101676368 0 0.0010431681586354801 0.0010904936813136209 0 0.0009746051394321515 0.001155110526411004 0 0.00082367625941876551 0.0012525573307049489 0 0.00089269564089071809 0.0011156016307402282 0 0.0009746051394321515 0.001155110526411004 0 0.00082367625941876551 0.0012525573307049489 0 0.0009746051394321515 0.001155110526411004 0 0.00099718832784916707 0.0012967495694513362 0 0.0011625627544411502 0.0013421296295381441 0 0.00099718832784916707 0.0012967495694513362 0 0.0011328121745459612 0.0011605350643323494 0 0.0009746051394321515 0.001155110526411004 0 0.00099718832784916707 0.0012967495694513362 0 0.0011328121745459612 0.0011605350643323494 0 0.0012934558360741511 0.0013026850834052951 0 0.0011328121745459612 0.0011605350643323494 0 0.0012936016496934899 0.00099458173315062574 0 0.0011625627544411502 0.0013421296295381441 0 0.0012934558360741511 0.0013026850834052951 0 0.0011328121745459612 0.0011605350643323494 0 0.0010431681586354801 0.0010904936813136209 0 0.0011328121745459612 0.0011605350643323494 0 0.0011259884704831655 0.0010457573530140683 0 0.0011328121745459612 0.0011605350643323494 0 0.0012936016496934899 0.00099458173315062574 0 0.0011259884704831655 0.0010457573530140683 0 0.0012934558360741511 0.0013026850834052951 0 0.0012936016496934899 0.00099458173315062574 0 0.0014776043142606277 0.001362990684725467 0 0.0012936016496934899 0.00099458173315062574 0 0.0014776043142606277 0.001362990684725467 0 0.0017226362614346897 0.0011457101724253764 0 0.0014776043142606277 0.001362990684725467 0 0.0018811614523684154 0.0014085298546046134 0 0.0017226362614346897 0.0011457101724253764 0 0.0018811614523684154 0.0014085298546046134 0 0.0017226362614346897 0.0011457101724253764 0 0.0021492389760268201 0.0010792401986472351 0 0.0023903370878161326 0.0014568713110579149 0 0.0025732169584955821 0.0010100630048243153 0 0.0030150626271943067 0.0013418489738956417 0 0.0018811614523684154 0.0014085298546046134 0 0.0023903370878161326 0.0014568713110579149 0 0.0021492389760268201 0.0010792401986472351 0 0.0023903370878161326 0.0014568713110579149 0 0.0021492389760268201 0.0010792401986472351 0 0.0025732169584955821 0.0010100630048243153 0 0.0017405122344295954 0.00075301799281746369 0 0.0011151039853161456 0.0012302891712284996 0 0.0025732169584955821 0.0010100630048243153 0 0.0021525388629920973 0.00063662215650166524 0 0.0029241265776762588 0.00048226446702902227 0 0.0021492389760268201 0.0010792401986472351 0 0.0025732169584955821 0.0010100630048243153 0 0.0021525388629920973 0.00063662215650166524 0 0.0012432025655632153 0.00097858399530124408 0 0.0017405122344295954 0.00075301799281746369 0 0.0012936016496934899 0.00099458173315062574 0 0.0017226362614346897 0.0011457101724253764 0 0.0021525388629920973 0.00063662215650166524 0 0.0012936016496934899 0.00099458173315062574 0 0.00098622600655419554 0.00096425024083081562 0 0.0010615496998339776 0.0010571442877736383 0 0.0017226362614346897 0.0011457101724253764 0 0.0021492389760268201 0.0010792401986472351 0 0.0021525388629920973 0.00063662215650166524 0 0.0010615496998339776 0.0010571442877736383 0 0.00090701767674495812 0.001046635170639326 0 0.00092561134354090309 0.0010841304184472603 0 0.00098622600655419554 0.00096425024083081562 0 0.0010615496998339776 0.0010571442877736383 0 0.00090701767674495812 0.001046635170639326 0 0.00098622600655419554 0.00096425024083081562 0 0.00090701767674495812 0.001046635170639326 0 0.00082204271588811749 0.00099389920737385476 0 0.00090701767674495812 0.001046635170639326 0 0.00092561134354090309 0.0010841304184472603 0 0.00084309101698004977 0.0011273474311884635 0 0.00092561134354090309 0.0010841304184472603 0 0.00093114987564101991 0.001074964909619569 0 0.00084110478497599801 0.0010985234501876839 0 0.00092561134354090309 0.0010841304184472603 0 0.00084309101698004977 0.0011273474311884635 0 0.00084110478497599801 0.0010985234501876839 0 0.0010615496998339776 0.0010571442877736383 0 0.00092561134354090309 0.0010841304184472603 0 0.00093114987564101991 0.001074964909619569 0 0.0010615496998339776 0.0010571442877736383 0 0.00093114987564101991 0.001074964909619569 0 0.00099630931122635341 0.0010564719381438343 0 0.0010615496998339776 0.0010571442877736383 0 0.00099630931122635341 0.0010564719381438343 0 0.0010458802387170796 0.0010500603558427192 0 0.00099630931122635341 0.0010564719381438343 0 0.0010458802387170796 0.0010500603558427192 0 0.00099105730837508008 0.0010420001838588465 0 0.00099349653290849616 0.0010521238973652119 0 0.0010458802387170796 0.0010500603558427192 0 0.00099105730837508008 0.0010420001838588465 0 0.00099349653290849616 0.0010521238973652119 0 0.0010458802387170796 0.0010500603558427192 0 0.0011259884704831655 0.0010457573530140683 0 0.0012936016496934899 0.00099458173315062574 0 0.0010615496998339776 0.0010571442877736383 0 0.0011259884704831655 0.0010457573530140683 0 0.0010615496998339776 0.0010571442877736383 0 0.0010458802387170796 0.0010500603558427192 0 0.0011259884704831655 0.0010457573530140683 0 0.0028224657049510399 0.001154518280998206 0 0.0015686336414874431 0.0013860501069645433 0 0.0013364871971823708 0.0013540508518125303 0 0.0014547976234962254 0.00145661132820151 0 0.001350119714734376 0.0013638545329055357 0 0.005641981734861949 0.0018342751057911569 0 0.0032124064212800006 0.0020186519160933299 0 0.0074542292554556589 0.0014287452069789647 0 0.0066914739763890676 0.0019703783993759946 0 0.0058241035631812731 0.0015272731563557098 0 0.0036766584566017137 0.0023162007200265653 0 0.0014547976234962254 0.00145661132820151 0 0.00082783569594848717 0.0023228974634773611 0 0.0074542292554556589 0.0014287452069789647 0 0.0072714495953507697 0.0019890026912397717 0 0.0066914739763890676 0.0019703783993759946 0 0.0061005961901848763 0.0024184309304053084 0 0.0066914739763890676 0.0019703783993759946 0 0.0058241035631812731 0.0015272731563557098 0 0.0014547976234962254 0.00145661132820151 0 0.00088651914275969859 0.0014963253075518745 0 0.0011505835536887179 0.0012120876772979264 0 0.00082783569594848717 0.0023228974634773611 0 0.00088651914275969859 0.0014963253075518745 0 0.00036110771569975277 0.0018032129062324101 0 0.0014547976234962254 0.00145661132820151 0 0.00082783569594848717 0.0023228974634773611 0 0.00088651914275969859 0.0014963253075518745 0 0.00036110771569975277 0.0018032129062324101 0 -0.00018468160527369175 0.0013967770287481533 0 0.0005280246930198946 0.0012011339626022282 0 0.00088651914275969859 0.0014963253075518745 0 0.00036110771569975277 0.0018032129062324101 0 0.0005280246930198946 0.0012011339626022282 0 0.00082783569594848717 0.0023228974634773611 0 0.00036110771569975277 0.0018032129062324101 0 -6.476283467190714e-05 0.0022956629161521485 0 0.0051985308141569613 0.0024246282456049507 0 0.0058241035631812731 0.0015272731563557098 0 0.0042231153758589971 0.0017278348685015167 0 0.0032124064212800006 0.0020186519160933299 0 0.0026632232613898565 0.0014795871480231492 0 0.0028253250797197651 0.0013721117264760847 0 0.0026632232613898565 0.0014795871480231492 0 0.0033599800470871634 0.0018927051337809015 0 0.0023903370878161326 0.0014568713110579149 0 0.0040847306909962975 0.0011683862060831167 0 0.0025732169584955821 0.0010100630048243153 0 0.0030150626271943067 0.0013418489738956417 0 0.0029241265776762588 0.00048226446702902227 0 0.00036110771569975277 0.0018032129062324101 0 -6.476283467190714e-05 0.0022956629161521485 0 -0.00018468160527369175 0.0013967770287481533 0 0.0026632232613898565 0.0014795871480231492 0 0.0011151039853161456 0.0012302891712284996 0 0.0011151039853161456 0.0012302891712284996 0 0.00081565517507374661 0.0010843981500121239 0 0.00090701767674495812 0.001046635170639326 0 0.00082204271588811749 0.00099389920737385476 0 0.00084309101698004977 0.0011273474311884635 0 0.0008498158534014415 0.0012739205741842084 0 0.00084309101698004977 0.0011273474311884635 0 0.00096776079005804645 0.0012563652262796926 0 0.00084309101698004977 0.0011273474311884635 0 0.00094011045158635736 0.0011494989111500303 0 0.00083754411555036709 0.0010970012546118264 0 0.00084309101698004977 0.0011273474311884635 0 0.00094011045158635736 0.0011494989111500303 0 0.00096776079005804645 0.0012563652262796926 0 0.0011151039853161456 0.0012302891712284996 0 0.00060449261867255425 0.0012741843665485617 0 0.00088651914275969859 0.0014963253075518745 0 0.0005280246930198946 0.0012011339626022282 0 0.0011505835536887179 0.0012120876772979264 0 0.00094011045158635736 0.0011494989111500303 0 0.00096776079005804645 0.0012563652262796926 0 0.0011505835536887179 0.0012120876772979264 0 0.00060449261867255425 0.0012741843665485617 0 0.0011490005446130915 0.0011882326310698544 0 0.00094011045158635736 0.0011494989111500303 0 0.0010593175911317225 0.001152487215077051 0 0.00092696772828974438 0.0011098327633368046 0 0.00094011045158635736 0.0011494989111500303 0 0.0011505835536887179 0.0012120876772979264 0 0.0010593175911317225 0.001152487215077051 0 0.0011505835536887179 0.0012120876772979264 0 0.0010593175911317225 0.001152487215077051 0 0.0011746062971081765 0.0011951255941886525 0 0.0010593175911317225 0.001152487215077051 0 0.0011746062971081765 0.0011951255941886525 0 0.0011372395312783193 0.0011354222174464867 0 0.0012550327850307014 0.0012045965298197487 0 0.0011746062971081765 0.0011951255941886525 0 0.0011372395312783193 0.0011354222174464867 0 0.0012871250854154803 0.0012745984059065578 0 0.0011505835536887179 0.0012120876772979264 0 0.001350119714734376 0.0013638545329055357 0 0.0014547976234962254 0.00145661132820151 0 0.0011505835536887179 0.0012120876772979264 0 0.001350119714734376 0.0013638545329055357 0 0.0012871250854154803 0.0012745984059065578 0 0.0011505835536887179 0.0012120876772979264 0 0.0011746062971081765 0.0011951255941886525 0 0.0010857116178484155 0.0010601251572813493 0 0.0011372395312783193 0.0011354222174464867 0 0.00099686371396561424 0.0010908524402283412 0 0.0010857116178484155 0.0010601251572813493 0 0.00099686371396561424 0.0010908524402283412 0 0.00089935680322297232 0.0010366252515897217 0 0.0010593175911317225 0.001152487215077051 0 0.0011372395312783193 0.0011354222174464867 0 0.00099686371396561424 0.0010908524402283412 0 0.0010593175911317225 0.001152487215077051 0 0.00099686371396561424 0.0010908524402283412 0 0.00092696772828974438 0.0011098327633368046 0 0.00099686371396561424 0.0010908524402283412 0 0.00085823334015891516 0.0010680805009689366 0 0.00089935680322297232 0.0010366252515897217 0 0.00099686371396561424 0.0010908524402283412 0 0.00085823334015891516 0.0010680805009689366 0 0.00092696772828974438 0.0011098327633368046 0 0.00085823334015891516 0.0010680805009689366 0 0.00083754411555036709 0.0010970012546118264 0 0.00077215953466843086 0.0010531461995605784 0 0.00085823334015891516 0.0010680805009689366 0 0.00077215953466843086 0.0010531461995605784 0 0.00075798543602328483 0.0010121672459592671 0 0.00094011045158635736 0.0011494989111500303 0 0.00092696772828974438 0.0011098327633368046 0 0.00083754411555036709 0.0010970012546118264 0 0.00085823334015891516 0.0010680805009689366 0 0.00092696772828974438 0.0011098327633368046 0 0.00083754411555036709 0.0010970012546118264 0 0.00083754411555036709 0.0010970012546118264 0 0.00084110478497599801 0.0010985234501876839 0 0.00078569265043077548 0.0010751415927462353 0 0.00084309101698004977 0.0011273474311884635 0 0.00083754411555036709 0.0010970012546118264 0 0.00084110478497599801 0.0010985234501876839 0 0.00083754411555036709 0.0010970012546118264 0 0.00077215953466843086 0.0010531461995605784 0 0.00078569265043077548 0.0010751415927462353 0 0.00077215953466843086 0.0010531461995605784 0 0.00078569265043077548 0.0010751415927462353 0 0.00072169102166719918 0.0010445197183786181 0 0.00077215953466843086 0.0010531461995605784 0 0.00069011497824975174 0.001001141590891723 0 0.00072169102166719918 0.0010445197183786181 0 0.00077215953466843086 0.0010531461995605784 0 0.00069011497824975174 0.001001141590891723 0 0.00075798543602328483 0.0010121672459592671 0 0.00069011497824975174 0.001001141590891723 0 0.00063248962156927551 0.00093000789337708699 0 0.00075798543602328483 0.0010121672459592671 0 0.00069011497824975174 0.001001141590891723 0 0.00063248962156927551 0.00093000789337708699 0 0.00055760410359609086 0.00092301219948929907 0 0.00063248962156927551 0.00093000789337708699 0 0.00077510438305375504 0.00097048948115787141 0 0.00063497269613028724 0.00087234106760979472 0 0.00063248962156927551 0.00093000789337708699 0 0.00075798543602328483 0.0010121672459592671 0 0.00077510438305375504 0.00097048948115787141 0 0.00085823334015891516 0.0010680805009689366 0 0.00075798543602328483 0.0010121672459592671 0 0.00089935680322297232 0.0010366252515897217 0 0.00075798543602328483 0.0010121672459592671 0 0.00089935680322297232 0.0010366252515897217 0 0.00077510438305375504 0.00097048948115787141 0 0.00089935680322297232 0.0010366252515897217 0 0.00077510438305375504 0.00097048948115787141 0 0.00098634667863077303 0.00098772914165101027 0 0.00077510438305375504 0.00097048948115787141 0 0.00098634667863077303 0.00098772914165101027 0 0.00063497269613028724 0.00087234106760979472 0 0.0010943187168535014 0.00094764505189589448 0 0.00098634667863077303 0.00098772914165101027 0 0.0010020847742730459 0.0008542037033471095 0 0.0010857116178484155 0.0010601251572813493 0 0.00089935680322297232 0.0010366252515897217 0 0.00098634667863077303 0.00098772914165101027 0 0.00090191740437272597 0.0010618536385638391 0 0.00095823768601235859 0.0010433902862348561 0 0.0009326821367009405 0.0010515888661018894 0 0.00085347285586567366 0.0010627150373123805 0 0.00090191740437272597 0.0010618536385638391 0 0.0009326821367009405 0.0010515888661018894 0 0.00090191740437272597 0.0010618536385638391 0 0.00079921497000377698 0.0010761457833283901 0 0.00083882929629111775 0.001131121159849535 0 0.00085347285586567366 0.0010627150373123805 0 0.00090191740437272597 0.0010618536385638391 0 0.00079921497000377698 0.0010761457833283901 0 0.00090191740437272597 0.0010618536385638391 0 0.00095823768601235859 0.0010433902862348561 0 0.00096465094162070518 0.0010528591574144037 0 0.00095469523645846563 0.001035866953530435 0 0.00095823768601235859 0.0010433902862348561 0 0.00099105730837508008 0.0010420001838588465 0 0.00095823768601235859 0.0010433902862348561 0 0.00099105730837508008 0.0010420001838588465 0 0.0009326821367009405 0.0010515888661018894 0 0.00099630931122635341 0.0010564719381438343 0 0.00099105730837508008 0.0010420001838588465 0 0.0009326821367009405 0.0010515888661018894 0 0.00093114987564101991 0.001074964909619569 0 0.00099630931122635341 0.0010564719381438343 0 0.0009326821367009405 0.0010515888661018894 0 0.00093114987564101991 0.001074964909619569 0 0.00085370542197504883 0.0010730690115867997 0 0.00084110478497599801 0.0010985234501876839 0 0.00085347285586567366 0.0010627150373123805 0 0.0009326821367009405 0.0010515888661018894 0 0.00085370542197504883 0.0010730690115867997 0 0.00093114987564101991 0.001074964909619569 0 0.0009326821367009405 0.0010515888661018894 0 0.00085370542197504883 0.0010730690115867997 0 0.00084110478497599801 0.0010985234501876839 0 0.00078569265043077548 0.0010751415927462353 0 0.00079979956812268737 0.0010795110187659391 0 0.00085370542197504883 0.0010730690115867997 0 0.00084110478497599801 0.0010985234501876839 0 0.00079979956812268737 0.0010795110187659391 0 0.00078569265043077548 0.0010751415927462353 0 0.00079979956812268737 0.0010795110187659391 0 0.0007501564247780209 0.0010685197370783426 0 0.00078569265043077548 0.0010751415927462353 0 0.0007501564247780209 0.0010685197370783426 0 0.00072169102166719918 0.0010445197183786181 0 0.00085347285586567366 0.0010627150373123805 0 0.00085370542197504883 0.0010730690115867997 0 0.00079090404625460945 0.001070291542083112 0 0.00079979956812268737 0.0010795110187659391 0 0.0007501564247780209 0.0010685197370783426 0 0.00079090404625460945 0.001070291542083112 0 0.00085370542197504883 0.0010730690115867997 0 0.00079979956812268737 0.0010795110187659391 0 0.00079090404625460945 0.001070291542083112 0 0.0007501564247780209 0.0010685197370783426 0 0.00079090404625460945 0.001070291542083112 0 0.00073110417113333515 0.0010726612197791067 0 0.00085347285586567366 0.0010627150373123805 0 0.00079090404625460945 0.001070291542083112 0 0.00079921497000377698 0.0010761457833283901 0 0.00079090404625460945 0.001070291542083112 0 0.00079921497000377698 0.0010761457833283901 0 0.00073110417113333515 0.0010726612197791067 0 0.00079921497000377698 0.0010761457833283901 0 0.00066663121954883809 0.0010688277036609111 0 0.00073955997163669079 0.001083071463762118 0 0.00079921497000377698 0.0010761457833283901 0 0.00073110417113333515 0.0010726612197791067 0 0.00066663121954883809 0.0010688277036609111 0 0.00067349195906885224 0.0011084709779617238 0 0.00066143338711489614 0.0011305735762514235 0 0.0007501564247780209 0.0010685197370783426 0 0.00073110417113333515 0.0010726612197791067 0 0.00068720144664188702 0.0010463311538059373 0 0.00073110417113333515 0.0010726612197791067 0 0.00066663121954883809 0.0010688277036609111 0 0.00068720144664188702 0.0010463311538059373 0 0.00066663121954883809 0.0010688277036609111 0 0.00068720144664188702 0.0010463311538059373 0 0.00059205285659203713 0.00097659247276443641 0 0.0007501564247780209 0.0010685197370783426 0 0.00072169102166719918 0.0010445197183786181 0 0.00068720144664188702 0.0010463311538059373 0 0.00072169102166719918 0.0010445197183786181 0 0.00068720144664188702 0.0010463311538059373 0 0.00064882855863355364 0.0009988370695211417 0 0.00069011497824975174 0.001001141590891723 0 0.00072169102166719918 0.0010445197183786181 0 0.00064882855863355364 0.0009988370695211417 0 0.00064882855863355364 0.0009988370695211417 0 0.00059205285659203713 0.00097659247276443641 0 0.00055760410359609086 0.00092301219948929907 0 0.00069011497824975174 0.001001141590891723 0 0.00064882855863355364 0.0009988370695211417 0 0.00055760410359609086 0.00092301219948929907 0 0.00068720144664188702 0.0010463311538059373 0 0.00064882855863355364 0.0009988370695211417 0 0.00059205285659203713 0.00097659247276443641 0 0.00059205285659203713 0.00097659247276443641 0 0.00047675881046046532 0.00094763293141385903 0 0.00048114520950103928 0.00089756679850388284 0 0.00066663121954883809 0.0010688277036609111 0 0.00059205285659203713 0.00097659247276443641 0 0.00047675881046046532 0.00094763293141385903 0 0.00050379214456840161 0.0011865047310814466 0 0.0005070591192919135 0.0011943773942702245 0 0.00049857614267093358 0.0011903306444461185 0 0.00048404274231685345 0.0010598316206214956 0 0.00066143338711489614 0.0011305735762514235 0 0.00066663121954883809 0.0010688277036609111 0 0.00047675881046046532 0.00094763293141385903 0 0.00059584797938623535 0.0010851209094380498 0 0.00090191740437272597 0.0010618536385638391 0 0.00083882929629111775 0.001131121159849535 0 0.00096465094162070518 0.0010528591574144037 0 0.00072576476250690489 0.0010926545485124221 0 0.00066143338711489614 0.0011305735762514235 0 0.0005070591192919135 0.0011943773942702245 0 0.00049175625227978624 0.0011935145159059502 0 0.00049857614267093358 0.0011903306444461185 0 0.00049431410563224973 0.0011913272518153655 0 0.00049175625227978624 0.0011935145159059502 0 0.00049857614267093358 0.0011903306444461185 0 0.00066143338711489614 0.0011305735762514235 0 0.00072451651859349825 0.0011263915012898222 0 0.00050379214456840161 0.0011865047310814466 0 0.00049857614267093358 0.0011903306444461185 0 0.00049960064784102442 0.0011853782942778492 0 0.00049431410563224973 0.0011913272518153655 0 0.00049857614267093358 0.0011903306444461185 0 0.00049960064784102442 0.0011853782942778492 0 0.00049960064784102442 0.0011853782942778492 0 0.00049959786830783216 0.0011786781961458288 0 0.00050351276227652501 0.0011796567929682035 0 0.00049960064784102442 0.0011853782942778492 0 0.00049959786830783216 0.0011786781961458288 0 0.00049746873495889045 0.001184054737287837 0 0.00049959786830783216 0.0011786781961458288 0 0.00050351276227652501 0.0011796567929682035 0 0.00050125708805857743 0.001170975330141977 0 0.00047829193525852741 0.0010341577538143455 0 0.0002781368418677963 0.0010383492125127672 0 0.00049959786830783216 0.0011786781961458288 0 0.00050125708805857743 0.001170975330141977 0 0.00049550108603298886 0.0011728080711227676 0 0.00042194363299694868 0.00087757983882273487 0 0.00040474492635293301 0.0008667815441014945 0 0.00043043282978710634 0.00088396875181536631 0 0.00042194363299694868 0.00087757983882273487 0 0.00048114520950103928 0.00089756679850388284 0 0.00040474492635293301 0.0008667815441014945 0 0.00047675881046046532 0.00094763293141385903 0 0.00042194363299694868 0.00087757983882273487 0 0.00048114520950103928 0.00089756679850388284 0 0.00048404274231685345 0.0010598316206214956 0 0.00047829193525852741 0.0010341577538143455 0 0.00050379214456840161 0.0011865047310814466 0 0.00049960064784102442 0.0011853782942778492 0 0.00050351276227652501 0.0011796567929682035 0 0.00059205285659203713 0.00097659247276443641 0 0.00048114520950103928 0.00089756679850388284 0 0.00055760410359609086 0.00092301219948929907 0 0.00048114520950103928 0.00089756679850388284 0 0.00055760410359609086 0.00092301219948929907 0 0.00042191067531404487 0.00086530133363951322 0 0.00042191067531404487 0.00086530133363951322 0 0.00033669004420957199 0.00083439656215602849 0 0.00047262089859739315 0.00085980367868975969 0 0.00055760410359609086 0.00092301219948929907 0 0.00042191067531404487 0.00086530133363951322 0 0.00047262089859739315 0.00085980367868975969 0 0.00048114520950103928 0.00089756679850388284 0 0.00042191067531404487 0.00086530133363951322 0 0.00040474492635293301 0.0008667815441014945 0 0.00042191067531404487 0.00086530133363951322 0 0.00040474492635293301 0.0008667815441014945 0 0.00031069844762247228 0.0008788037965814674 0 0.00042191067531404487 0.00086530133363951322 0 0.00031069844762247228 0.0008788037965814674 0 0.00033669004420957199 0.00083439656215602849 0 0.00031069844762247228 0.0008788037965814674 0 0.00033669004420957199 0.00083439656215602849 0 0.00024161176081807667 0.00080549175978156359 0 0.00033669004420957199 0.00083439656215602849 0 0.00024161176081807667 0.00080549175978156359 0 0.00026052318285508098 0.0007919864062012372 0 0.00031069844762247228 0.0008788037965814674 0 0.00019283977372022874 0.00084988977629116063 0 0.00019836261818668329 0.0007907125851796678 0 0.00031069844762247228 0.0008788037965814674 0 0.00024161176081807667 0.00080549175978156359 0 0.00019836261818668329 0.0007907125851796678 0 0.00031069844762247228 0.0008788037965814674 0 0.00019283977372022874 0.00084988977629116063 0 6.5250849809682382e-05 0.0010233353473581052 0 0.00019283977372022874 0.00084988977629116063 0 6.5250849809682382e-05 0.0010233353473581052 0 0.00014631125829893076 0.00078713393953103194 0 7.3901077027010729e-05 0.0010210222702502099 0 4.8621734795778837e-05 0.0010063917188263933 0 5.415431184754209e-05 0.0010860271760630865 0 6.5250849809682382e-05 0.0010233353473581052 0 6.6774788480672649e-06 0.0011821758858253908 0 5.415431184754209e-05 0.0010860271760630865 0 6.6774788480672649e-06 0.0011821758858253908 0 3.2628993835311254e-05 0.0011591726432848407 0 5.415431184754209e-05 0.0010860271760630865 0 3.2628993835311254e-05 0.0011591726432848407 0 7.8519374412320197e-05 0.0011221467667484773 0 5.415431184754209e-05 0.0010860271760630865 0 7.2064839139848502e-05 0.0010954744125807265 0 7.8519374412320197e-05 0.0011221467667484773 0 5.415431184754209e-05 0.0010860271760630865 0 6.5250849809682382e-05 0.0010233353473581052 0 5.3320136288437171e-05 0.0010451795872184354 0 0.0002781368418677963 0.0010383492125127672 0 0.00029470407735110975 0.0011310843289189358 0 7.5839614065545256e-05 0.001066615212783138 0 0.0002781368418677963 0.0010383492125127672 0 7.2064839139848502e-05 0.0010954744125807265 0 5.1924431484097339e-05 0.0010859034361443273 0 0.00010142964351335067 0.0010712590169250423 0 5.415431184754209e-05 0.0010860271760630865 0 7.2064839139848502e-05 0.0010954744125807265 0 5.1924431484097339e-05 0.0010859034361443273 0 0.00040474492635293301 0.0008667815441014945 0 0.00031069844762247228 0.0008788037965814674 0 0.00043043282978710634 0.00088396875181536631 0 0.00031069844762247228 0.0008788037965814674 0 6.5250849809682382e-05 0.0010233353473581052 0 5.3320136288437171e-05 0.0010451795872184354 0 0.00029756566829949405 0.00086800076116052812 0 0.0002781368418677963 0.0010383492125127672 0 0.00052161921305267367 0.00089780142415721038 0 0.00045601874007110394 0.00083380796402615209 0 0.00051634078543455703 0.00082456227903562852 0 0.00052161921305267367 0.00089780142415721038 0 0.00052170468205212258 0.00090034069824189509 0 0.00045601874007110394 0.00083380796402615209 0 0.00063521360730816353 0.00091452507655547194 0 0.00052161921305267367 0.00089780142415721038 0 0.00051983012317978006 0.0009805837731596107 0 0.00098634667863077303 0.00098772914165101027 0 0.0010020847742730459 0.0008542037033471095 0 0.00063497269613028724 0.00087234106760979472 0 0.00052161921305267367 0.00089780142415721038 0 0.00051983012317978006 0.0009805837731596107 0 0.00052170468205212258 0.00090034069824189509 0 0.00076776697040037401 0.00092450874446192255 0 0.00064823711645904441 0.0008788613688068982 0 0.00051983012317978006 0.0009805837731596107 0 0.00063497269613028724 0.00087234106760979472 0 0.00052170468205212258 0.00090034069824189509 0 0.00046556698596593985 0.00085294113173706577 0 0.00052170468205212258 0.00090034069824189509 0 0.00045601874007110394 0.00083380796402615209 0 0.00063497269613028724 0.00087234106760979472 0 0.00046556698596593985 0.00085294113173706577 0 0.00052170468205212258 0.00090034069824189509 0 0.00063497269613028724 0.00087234106760979472 0 0.00046556698596593985 0.00085294113173706577 0 0.00047262089859739315 0.00085980367868975969 0 0.00063248962156927551 0.00093000789337708699 0 0.00063497269613028724 0.00087234106760979472 0 0.00047262089859739315 0.00085980367868975969 0 0.00063248962156927551 0.00093000789337708699 0 0.00055760410359609086 0.00092301219948929907 0 0.00047262089859739315 0.00085980367868975969 0 0.00033669004420957199 0.00083439656215602849 0 0.00047262089859739315 0.00085980367868975969 0 0.00034841557869025319 0.00080976676549963586 0 0.00033669004420957199 0.00083439656215602849 0 0.00026052318285508098 0.0007919864062012372 0 0.00034841557869025319 0.00080976676549963586 0 0.00034841557869025319 0.00080976676549963586 0 0.00034644995237029583 0.00077676566968157626 0 0.00022794136387259127 0.00075336724312540741 0 0.00026052318285508098 0.0007919864062012372 0 0.00034841557869025319 0.00080976676549963586 0 0.00022794136387259127 0.00075336724312540741 0 0.00046556698596593985 0.00085294113173706577 0 0.00047262089859739315 0.00085980367868975969 0 0.00034841557869025319 0.00080976676549963586 0 0.00046556698596593985 0.00085294113173706577 0 0.00034841557869025319 0.00080976676549963586 0 0.00034644995237029583 0.00077676566968157626 0 0.00034644995237029583 0.00077676566968157626 0 0.0004076700270690954 0.00073259792716201966 0 0.00045601874007110394 0.00083380796402615209 0 0.00046556698596593985 0.00085294113173706577 0 0.00034644995237029583 0.00077676566968157626 0 0.00045601874007110394 0.00083380796402615209 0 0.00034644995237029583 0.00077676566968157626 0 0.0004076700270690954 0.00073259792716201966 0 0.00026521688020612227 0.00068875799734095106 0 0.00034644995237029583 0.00077676566968157626 0 0.00026521688020612227 0.00068875799734095106 0 0.00022794136387259127 0.00075336724312540741 0 0.00037109301872625066 0.00059568370226400309 0 0.0004076700270690954 0.00073259792716201966 0 0.00026521688020612227 0.00068875799734095106 0 0.0004076700270690954 0.00073259792716201966 0 0.00045601874007110394 0.00083380796402615209 0 0.00051634078543455703 0.00082456227903562852 0 0.00017172464537517623 0.00066684550164442435 0 0.00020211448743809264 0.00063703723886744407 0 6.7130637318788214e-05 0.00075928056231748509 0 0.00037109301872625066 0.00059568370226400309 0 0.00020211448743809264 0.00063703723886744407 0 0.00026521688020612227 0.00068875799734095106 0 0.00026521688020612227 0.00068875799734095106 0 0.00010126667508789776 0.00074090991115948422 0 0.00022794136387259127 0.00075336724312540741 0 0.00020211448743809264 0.00063703723886744407 0 0.00026521688020612227 0.00068875799734095106 0 0.00010126667508789776 0.00074090991115948422 0 0.00020211448743809264 0.00063703723886744407 0 0.00010126667508789776 0.00074090991115948422 0 5.3406665367046565e-05 0.00076020789017819639 0 0.00010126667508789776 0.00074090991115948422 0 9.3973828587333365e-05 0.00076895973164261286 0 -3.325647499254687e-05 0.00080778492613165236 0 0.00010126667508789776 0.00074090991115948422 0 0.00022794136387259127 0.00075336724312540741 0 9.3973828587333365e-05 0.00076895973164261286 0 0.00026052318285508098 0.0007919864062012372 0 0.00022794136387259127 0.00075336724312540741 0 9.3973828587333365e-05 0.00076895973164261286 0 0.00026052318285508098 0.0007919864062012372 0 9.3973828587333365e-05 0.00076895973164261286 0 0.00014704224096605357 0.00078197466712694446 0 9.3973828587333365e-05 0.00076895973164261286 0 4.2267836870331763e-06 0.00080695333828262447 0 0.00014704224096605357 0.00078197466712694446 0 9.3973828587333365e-05 0.00076895973164261286 0 4.2267836870331763e-06 0.00080695333828262447 0 -3.325647499254687e-05 0.00080778492613165236 0 4.2267836870331763e-06 0.00080695333828262447 0 -0.00017004990842340778 0.00086108405493871289 0 -0.00013944771383363289 0.00090230312009217614 0 4.2267836870331763e-06 0.00080695333828262447 0 -0.00017004990842340778 0.00086108405493871289 0 -3.325647499254687e-05 0.00080778492613165236 0 -0.00013944771383363289 0.00090230312009217614 0 -0.00037731547169121753 0.00097287465237076254 0 -0.00036051386534963626 0.0010292084804652752 0 -0.00017004990842340778 0.00086108405493871289 0 -0.00013944771383363289 0.00090230312009217614 0 -0.00037731547169121753 0.00097287465237076254 0 -0.00017004990842340778 0.00086108405493871289 0 -0.00037731547169121753 0.00097287465237076254 0 -0.00024481263709294569 0.00090727198014488764 0 -0.00037731547169121753 0.00097287465237076254 0 -0.00024481263709294569 0.00090727198014488764 0 -0.00036707254796126076 0.00097610755123376126 0 -0.00037731547169121753 0.00097287465237076254 0 -0.00036707254796126076 0.00097610755123376126 0 -0.00054739573545202372 0.0010691751125271821 0 -0.00036707254796126076 0.00097610755123376126 0 -0.00019216120649917677 0.00089019336138951516 0 -0.00023978014483936314 0.00091393997022382598 0 -0.00024481263709294569 0.00090727198014488764 0 -0.00036707254796126076 0.00097610755123376126 0 -0.00019216120649917677 0.00089019336138951516 0 -0.00024481263709294569 0.00090727198014488764 0 -0.00019216120649917677 0.00089019336138951516 0 -7.8428258251382602e-05 0.00082561649879101114 0 0.00010126667508789776 0.00074090991115948422 0 -7.8428258251382602e-05 0.00082561649879101114 0 -3.325647499254687e-05 0.00080778492613165236 0 -0.00017004990842340778 0.00086108405493871289 0 -0.00024481263709294569 0.00090727198014488764 0 -7.8428258251382602e-05 0.00082561649879101114 0 -0.00017004990842340778 0.00086108405493871289 0 -7.8428258251382602e-05 0.00082561649879101114 0 -3.325647499254687e-05 0.00080778492613165236 0 0.00010126667508789776 0.00074090991115948422 0 -7.8428258251382602e-05 0.00082561649879101114 0 5.3406665367046565e-05 0.00076020789017819639 0 -6.0666275295910347e-05 0.00082739835021700342 0 -3.2107991426601239e-05 0.00081551736658788091 0 6.7130637318788214e-05 0.00075928056231748509 0 5.3406665367046565e-05 0.00076020789017819639 0 -6.0666275295910347e-05 0.00082739835021700342 0 6.7130637318788214e-05 0.00075928056231748509 0 -0.00019216120649917677 0.00089019336138951516 0 -7.8428258251382602e-05 0.00082561649879101114 0 -6.0666275295910347e-05 0.00082739835021700342 0 -7.8428258251382602e-05 0.00082561649879101114 0 5.3406665367046565e-05 0.00076020789017819639 0 -6.0666275295910347e-05 0.00082739835021700342 0 -0.00019216120649917677 0.00089019336138951516 0 -6.0666275295910347e-05 0.00082739835021700342 0 -0.00013625278267466589 0.00086605490250642951 0 -0.00023978014483936314 0.00091393997022382598 0 -0.00013625278267466589 0.00086605490250642951 0 -0.00018464020354051603 0.00087378341586932925 0 -0.00019216120649917677 0.00089019336138951516 0 -0.00023978014483936314 0.00091393997022382598 0 -0.00013625278267466589 0.00086605490250642951 0 -0.00013625278267466589 0.00086605490250642951 0 -3.2107991426601239e-05 0.00081551736658788091 0 -5.9453552700335431e-05 0.00081687133215846181 0 -0.00013625278267466589 0.00086605490250642951 0 -5.9453552700335431e-05 0.00081687133215846181 0 -0.00018464020354051603 0.00087378341586932925 0 -6.0666275295910347e-05 0.00082739835021700342 0 -0.00013625278267466589 0.00086605490250642951 0 -3.2107991426601239e-05 0.00081551736658788091 0 -3.2107991426601239e-05 0.00081551736658788091 0 -5.9453552700335431e-05 0.00081687133215846181 0 2.6036238005176446e-05 0.00078284661619150442 0 -3.2107991426601239e-05 0.00081551736658788091 0 2.6036238005176446e-05 0.00078284661619150442 0 6.7130637318788214e-05 0.00075928056231748509 0 3.2438112135582426e-05 0.00076138001450096865 0 -5.9453552700335431e-05 0.00081687133215846181 0 2.6036238005176446e-05 0.00078284661619150442 0 8.4690658621635438e-05 0.00074513127918126589 0 2.6036238005176446e-05 0.00078284661619150442 0 6.7130637318788214e-05 0.00075928056231748509 0 0.00020211448743809264 0.00063703723886744407 0 5.3406665367046565e-05 0.00076020789017819639 0 6.7130637318788214e-05 0.00075928056231748509 0 0.00014631125829893076 0.00078713393953103194 0 0.00016428605671682517 0.00080169321980411569 0 0.00020257017852351778 0.00082498901589165327 0 4.8621734795778837e-05 0.0010063917188263933 0 0.00034258068462782529 0.00091628389693691661 0 6.6774788480672649e-06 0.0011821758858253908 0 1.7572251982119107e-05 0.0011398707043833863 0 -5.7327608343522857e-05 0.0011676809146809681 0 6.6774788480672649e-06 0.0011821758858253908 0 -5.7327608343522857e-05 0.0011676809146809681 0 -1.3099257130669732e-05 0.0011905195573477206 0 6.6774788480672649e-06 0.0011821758858253908 0 -1.3099257130669732e-05 0.0011905195573477206 0 3.2628993835311254e-05 0.0011591726432848407 0 0.00014631125829893076 0.00078713393953103194 0 0.00019836261818668329 0.0007907125851796678 0 0.00016428605671682517 0.00080169321980411569 0 0.00019283977372022874 0.00084988977629116063 0 0.00014631125829893076 0.00078713393953103194 0 0.00019836261818668329 0.0007907125851796678 0 0.00024161176081807667 0.00080549175978156359 0 0.00019836261818668329 0.0007907125851796678 0 0.00014704224096605357 0.00078197466712694446 0 0.00024161176081807667 0.00080549175978156359 0 0.00026052318285508098 0.0007919864062012372 0 0.00014704224096605357 0.00078197466712694446 0 0.00019836261818668329 0.0007907125851796678 0 0.00014704224096605357 0.00078197466712694446 0 9.5845583762965554e-05 0.00081137396250085994 0 4.2267836870331763e-06 0.00080695333828262447 0 0.00014704224096605357 0.00078197466712694446 0 9.5845583762965554e-05 0.00081137396250085994 0 0.00019836261818668329 0.0007907125851796678 0 0.00016428605671682517 0.00080169321980411569 0 9.5845583762965554e-05 0.00081137396250085994 0 0.00016428605671682517 0.00080169321980411569 0 0.00015061764160423998 0.00087939258603604608 0 9.5845583762965554e-05 0.00081137396250085994 0 0.00015061764160423998 0.00087939258603604608 0 9.5845583762965554e-05 0.00081137396250085994 0 6.5342386179549167e-05 0.00091833422817620995 0 4.2267836870331763e-06 0.00080695333828262447 0 -0.00013944771383363289 0.00090230312009217614 0 9.5845583762965554e-05 0.00081137396250085994 0 -0.00013944771383363289 0.00090230312009217614 0 9.5845583762965554e-05 0.00081137396250085994 0 6.5342386179549167e-05 0.00091833422817620995 0 -0.00013944771383363289 0.00090230312009217614 0 6.5342386179549167e-05 0.00091833422817620995 0 -1.673052474852611e-05 0.0011195725449868277 0 -0.00013944771383363289 0.00090230312009217614 0 -1.673052474852611e-05 0.0011195725449868277 0 -0.00036051386534963626 0.0010292084804652752 0 0.00015061764160423998 0.00087939258603604608 0 6.5342386179549167e-05 0.00091833422817620995 0 0.00013004245835664693 0.0010123641959690073 0 6.5342386179549167e-05 0.00091833422817620995 0 0.00013004245835664693 0.0010123641959690073 0 -1.673052474852611e-05 0.0011195725449868277 0 0.00015061764160423998 0.00087939258603604608 0 0.00021926818911285941 0.0009656895899391141 0 0.00013004245835664693 0.0010123641959690073 0 -0.0017468689921007587 0.0012442088546807753 0 -0.0016359005074371878 0.001432652912830657 0 0.00016428605671682517 0.00080169321980411569 0 0.00015061764160423998 0.00087939258603604608 0 0.00020257017852351778 0.00082498901589165327 0 0.00015061764160423998 0.00087939258603604608 0 0.00020257017852351778 0.00082498901589165327 0 0.00021926818911285941 0.0009656895899391141 0 -2.4969440135813274e-05 0.0010433369953988679 0 1.7572251982119107e-05 0.0011398707043833863 0 3.2910271555437569e-05 0.00095398801088191984 0 -2.4969440135813274e-05 0.0010433369953988679 0 1.7572251982119107e-05 0.0011398707043833863 0 -5.7327608343522857e-05 0.0011676809146809681 0 0.00034258068462782529 0.00091628389693691661 0 -0.0017468689921007587 0.0012442088546807753 0 -2.4969440135813274e-05 0.0010433369953988679 0 3.2910271555437569e-05 0.00095398801088191984 0 -0.00012877976786434094 0.0009520615564660754 0 -0.0033610249312052247 0.0013905716322725381 0 -0.0023782975044360968 0.0010415012820732853 0 -0.0028594012393799214 0.0017738498254012876 0 -0.0017468689921007587 0.0012442088546807753 0 -0.0012200191721414002 0.0010110033948807597 0 -0.0012200191721414002 0.0010110033948807597 0 -0.00073238699021717065 0.0010003579862373916 0 -0.00065538591282263223 0.001017144961847893 0 -0.00094220497230797565 0.0015763417914786599 0 -0.0018879382470874859 0.0016529245902991284 0 -0.0023782975044360968 0.0010415012820732853 0 -0.00065538591282263223 0.001017144961847893 0 -0.0018879382470874859 0.0016529245902991284 0 -0.00012877976786434094 0.0009520615564660754 0 -0.00024785041842568124 0.0011779817760227576 0 -0.00065538591282263223 0.001017144961847893 0 -0.00024785041842568124 0.0011779817760227576 0 -0.00065538591282263223 0.001017144961847893 0 -0.00045034525456518604 0.0011189179481274657 0 -0.00012877976786434094 0.0009520615564660754 0 -0.00024785041842568124 0.0011779817760227576 0 -5.7327608343522857e-05 0.0011676809146809681 0 -2.4969440135813274e-05 0.0010433369953988679 0 -0.00012877976786434094 0.0009520615564660754 0 -5.7327608343522857e-05 0.0011676809146809681 0 -0.00017488926711694151 0.0013233407191286677 0 -0.0002799518661208516 0.0013906270982177939 0 -0.00030051967148870537 0.0012110332683388234 0 -0.00017488926711694151 0.0013233407191286677 0 -0.00030051967148870537 0.0012110332683388234 0 -0.00011265758268937414 0.0012625369118257391 0 -0.00017488926711694151 0.0013233407191286677 0 -0.0002799518661208516 0.0013906270982177939 0 -9.6954432205464201e-05 0.0014377277532931013 0 -0.0002799518661208516 0.0013906270982177939 0 -0.00047371956577632374 0.0013335565837560819 0 -0.00039245972729653241 0.001727691693962028 0 -0.0002799518661208516 0.0013906270982177939 0 -0.00047371956577632374 0.0013335565837560819 0 -0.00030051967148870537 0.0012110332683388234 0 -0.00047371956577632374 0.0013335565837560819 0 -0.00065538591282263223 0.001017144961847893 0 -0.00030051967148870537 0.0012110332683388234 0 -0.00047371956577632374 0.0013335565837560819 0 -0.00065538591282263223 0.001017144961847893 0 -0.00094220497230797565 0.0015763417914786599 0 -0.00065538591282263223 0.001017144961847893 0 -0.00045034525456518604 0.0011189179481274657 0 -0.00030051967148870537 0.0012110332683388234 0 -0.00024785041842568124 0.0011779817760227576 0 -0.00045034525456518604 0.0011189179481274657 0 -0.00037908826210616796 0.0011035522232052636 0 -0.00045034525456518604 0.0011189179481274657 0 -0.00030051967148870537 0.0012110332683388234 0 -0.00022398649127126845 0.0011224335069127402 0 -0.00030051967148870537 0.0012110332683388234 0 -0.00022398649127126845 0.0011224335069127402 0 -0.00010157779365308265 0.0011819987351737123 0 -0.00030051967148870537 0.0012110332683388234 0 -0.00011265758268937414 0.0012625369118257391 0 -0.00010157779365308265 0.0011819987351737123 0 -0.00022398649127126845 0.0011224335069127402 0 -0.00037908826210616796 0.0011035522232052636 0 -6.6142467835672713e-05 0.00098618743636989868 0 -0.00045034525456518604 0.0011189179481274657 0 -0.00022398649127126845 0.0011224335069127402 0 -0.00037908826210616796 0.0011035522232052636 0 0.00011210462636134624 0.0012173954846119732 0 0.0002727984229629658 0.001146661109895453 0 0.0001929326741951168 0.0011521451633283283 0 0.00011210462636134624 0.0012173954846119732 0 4.5697491787755823e-05 0.0011813785954810441 0 0.0001929326741951168 0.0011521451633283283 0 -0.00022398649127126845 0.0011224335069127402 0 -6.6142467835672713e-05 0.00098618743636989868 0 -1.0233498097153519e-05 0.0010951213332008754 0 -0.00012422711261270399 0.0011520591908348128 0 9.8256437575512204e-05 0.0010819044594455223 0 -0.00024785041842568124 0.0011779817760227576 0 -5.7327608343522857e-05 0.0011676809146809681 0 -1.3099257130669732e-05 0.0011905195573477206 0 -0.00021964858234264676 0.0011672475376459186 0 -0.00012422711261270399 0.0011520591908348128 0 -0.00024785041842568124 0.0011779817760227576 0 0.00011210462636134624 0.0012173954846119732 0 4.5697491787755823e-05 0.0011813785954810441 0 -0.00024785041842568124 0.0011779817760227576 0 4.5697491787755823e-05 0.0011813785954810441 0 -1.3099257130669732e-05 0.0011905195573477206 0 4.5697491787755823e-05 0.0011813785954810441 0 9.8468190881073107e-05 0.0011506636788105326 0 0.0001929326741951168 0.0011521451633283283 0 4.5697491787755823e-05 0.0011813785954810441 0 -1.3099257130669732e-05 0.0011905195573477206 0 9.8468190881073107e-05 0.0011506636788105326 0 -1.3099257130669732e-05 0.0011905195573477206 0 3.2628993835311254e-05 0.0011591726432848407 0 9.8468190881073107e-05 0.0011506636788105326 0 3.2628993835311254e-05 0.0011591726432848407 0 7.8519374412320197e-05 0.0011221467667484773 0 9.8468190881073107e-05 0.0011506636788105326 0 7.8519374412320197e-05 0.0011221467667484773 0 0.00014771358111845436 0.001112642940832718 0 9.8468190881073107e-05 0.0011506636788105326 0 7.2064839139848502e-05 0.0010954744125807265 0 0.00014771358111845436 0.001112642940832718 0 0.00010142964351335067 0.0010712590169250423 0 7.2064839139848502e-05 0.0010954744125807265 0 7.8519374412320197e-05 0.0011221467667484773 0 0.00014771358111845436 0.001112642940832718 0 0.00014771358111845436 0.001112642940832718 0 9.8468190881073107e-05 0.0011506636788105326 0 0.00030060509113190022 0.0011307992527286232 0 0.00014771358111845436 0.001112642940832718 0 0.00030060509113190022 0.0011307992527286232 0 0.00023974214219338869 0.0010841780768246424 0 9.8468190881073107e-05 0.0011506636788105326 0 0.0001929326741951168 0.0011521451633283283 0 0.00030060509113190022 0.0011307992527286232 0 0.0002727984229629658 0.001146661109895453 0 0.0001929326741951168 0.0011521451633283283 0 0.00030060509113190022 0.0011307992527286232 0 0.0002727984229629658 0.001146661109895453 0 0.00030060509113190022 0.0011307992527286232 0 0.00029990516648384298 0.001081218670502474 0 0.00030060509113190022 0.0011307992527286232 0 0.00040276216039180306 0.0011605420323847998 0 0.00029990516648384298 0.001081218670502474 0 0.00041080309878582609 0.0011542979094770255 0 0.00035898061859212209 0.0011322976459105349 0 0.00030060509113190022 0.0011307992527286232 0 0.00043147008912506962 0.0011643417777917199 0 0.00023974214219338869 0.0010841780768246424 0 0.00030060509113190022 0.0011307992527286232 0 0.00040276216039180306 0.0011605420323847998 0 0.00043147008912506962 0.0011643417777917199 0 0.00040276216039180306 0.0011605420323847998 0 0.00052394744983944161 0.0012414693507167428 0 0.00043147008912506962 0.0011643417777917199 0 0.00051100684074511659 0.0012261721493198356 0 0.00052394744983944161 0.0012414693507167428 0 0.00043147008912506962 0.0011643417777917199 0 0.00051100684074511659 0.0012261721493198356 0 0.00043147008912506962 0.0011643417777917199 0 0.00049610232811260545 0.0011983525376181433 0 0.00049610232811260545 0.0011983525376181433 0 0.00049746873495889045 0.001184054737287837 0 0.00048588426039535422 0.0011665925213801217 0 0.00043147008912506962 0.0011643417777917199 0 0.00049610232811260545 0.0011983525376181433 0 0.00048588426039535422 0.0011665925213801217 0 0.00049431410563224973 0.0011913272518153655 0 0.00049960064784102442 0.0011853782942778492 0 0.00049746873495889045 0.001184054737287837 0 0.00049431410563224973 0.0011913272518153655 0 0.00049610232811260545 0.0011983525376181433 0 0.00049746873495889045 0.001184054737287837 0 0.00049959786830783216 0.0011786781961458288 0 0.00049746873495889045 0.001184054737287837 0 0.00049550108603298886 0.0011728080711227676 0 0.00049746873495889045 0.001184054737287837 0 0.00049550108603298886 0.0011728080711227676 0 0.00048588426039535422 0.0011665925213801217 0 0.00029470407735110975 0.0011310843289189358 0 0.00035898061859212209 0.0011322976459105349 0 0.00014771358111845436 0.001112642940832718 0 0.00010142964351335067 0.0010712590169250423 0 0.00023974214219338869 0.0010841780768246424 0 0.0003088841093794031 0.0012021333150613331 0 0.00043459150920747367 0.0012440431838402664 0 0.00035310874387832307 0.0011222884979189606 0 0.0003088841093794031 0.0012021333150613331 0 0.00035310874387832307 0.0011222884979189606 0 0.00018455599046583691 0.0010445941345221038 0 0.00016520794103025554 0.0012685145458562704 0 0.0003088841093794031 0.0012021333150613331 0 0.00018455599046583691 0.0010445941345221038 0 0.00016520794103025554 0.0012685145458562704 0 0.0003088841093794031 0.0012021333150613331 0 0.00036298861472691901 0.0013507389841409363 0 0.00016520794103025554 0.0012685145458562704 0 0.00020688953469589602 0.001577917638821864 0 0.00036298861472691901 0.0013507389841409363 0 0.00057787469337624295 0.0013460928574202727 0 0.00036298861472691901 0.0013507389841409363 0 0.00043459150920747367 0.0012440431838402664 0 0.0003088841093794031 0.0012021333150613331 0 0.00036298861472691901 0.0013507389841409363 0 0.00043459150920747367 0.0012440431838402664 0 0.00048304355588008892 0.0012214526644030116 0 0.00029990516648384298 0.001081218670502474 0 0.00035310874387832307 0.0011222884979189606 0 0.00057787469337624295 0.0013460928574202727 0 0.00043459150920747367 0.0012440431838402664 0 0.00048304355588008892 0.0012214526644030116 0 0.00040276216039180306 0.0011605420323847998 0 0.00048304355588008892 0.0012214526644030116 0 0.00029990516648384298 0.001081218670502474 0 0.00040276216039180306 0.0011605420323847998 0 0.00052394744983944161 0.0012414693507167428 0 0.00048304355588008892 0.0012214526644030116 0 0.00068563551749239277 0.0013719552110397978 0 0.00052394744983944161 0.0012414693507167428 0 0.00048304355588008892 0.0012214526644030116 0 0.00043459150920747367 0.0012440431838402664 0 0.00048304355588008892 0.0012214526644030116 0 0.00035310874387832307 0.0011222884979189606 0 0.00029990516648384298 0.001081218670502474 0 0.00021427793649203412 0.0010494991671287604 0 0.00035310874387832307 0.0011222884979189606 0 -6.6142467835672713e-05 0.00098618743636989868 0 0.00029990516648384298 0.001081218670502474 0 0.00012078249012232144 0.0010419894037312645 0 9.8256437575512204e-05 0.0010819044594455223 0 0.00026331699985766307 0.0010778218624012317 0 0.00029990516648384298 0.001081218670502474 0 0.00021427793649203412 0.0010494991671287604 0 0.00012078249012232144 0.0010419894037312645 0 0.00021427793649203412 0.0010494991671287604 0 0.00021843469678585009 0.001052246859492846 0 0.00035310874387832307 0.0011222884979189606 0 0.00035337795124575143 0.00099099875337230734 0 0.00031395984784255793 0.0010898326813134726 0 0.00029657942937741133 0.00085694475195256207 0 0.00035310874387832307 0.0011222884979189606 0 0.00018455599046583691 0.0010445941345221038 0 0.00029657942937741133 0.00085694475195256207 0 0.00018455599046583691 0.0010445941345221038 0 0.00015472868057097314 0.00089983596089130639 0 5.064912629751311e-06 0.00090611765425396232 0 0.00015472868057097314 0.00089983596089130639 0 0.00016061259574434326 0.00076323744833019561 0 0.00029657942937741133 0.00085694475195256207 0 0.00015472868057097314 0.00089983596089130639 0 0.00016061259574434326 0.00076323744833019561 0 1.1557241614188807e-05 0.0006938623182415689 0 0.00016061259574434326 0.00076323744833019561 0 8.4754168517624736e-05 0.00060075928471989206 0 0.00024426355110987046 0.00063279767002110288 0 -0.0004335398216584426 0.00075388889562015289 0 0.00029657942937741133 0.00085694475195256207 0 0.00016061259574434326 0.00076323744833019561 0 0.00022489901071198862 0.00057718126949606963 0 0.00021427793649203412 0.0010494991671287604 0 0.00021843469678585009 0.001052246859492846 0 0.0001826341233402886 0.0010818969104141429 0 0.00021843469678585009 0.001052246859492846 0 0.0001826341233402886 0.0010818969104141429 0 0.00021633209815104227 0.001123185780896592 0 0.00035337795124575143 0.00099099875337230734 0 -0.0004335398216584426 0.00075388889562015289 0 0.0001826341233402886 0.0010818969104141429 0 0.00015217043364638101 0.0011486058440892876 0 0.00021633209815104227 0.001123185780896592 0 0.00015217043364638101 0.0011486058440892876 0 0.00021633209815104227 0.001123185780896592 0 0.00020089151514479748 0.0011746167490189828 0 -0.0004335398216584426 0.00075388889562015289 0 -0.001185838257048354 0.00086610090934140997 0 0.00016061259574434326 0.00076323744833019561 0 8.4754168517624736e-05 0.00060075928471989206 0 0.00017990677155262482 0.00060079575788319272 0 8.4754168517624736e-05 0.00060075928471989206 0 0.00017990677155262482 0.00060079575788319272 0 0.00012402594085634359 0.00044729403245129311 0 -6.6142467835672713e-05 0.00098618743636989868 0 0.00012078249012232144 0.0010419894037312645 0 -1.0233498097153519e-05 0.0010951213332008754 0 0.00012078249012232144 0.0010419894037312645 0 0.00012505399443053295 0.0010861228488330964 0 -1.0233498097153519e-05 0.0010951213332008754 0 0.00021427793649203412 0.0010494991671287604 0 0.00012078249012232144 0.0010419894037312645 0 0.00012505399443053295 0.0010861228488330964 0 0.00021427793649203412 0.0010494991671287604 0 0.0001826341233402886 0.0010818969104141429 0 0.00012505399443053295 0.0010861228488330964 0 0.00015217043364638101 0.0011486058440892876 0 4.7278594175757583e-05 0.0011534108123423099 0 7.3633801841203208e-05 0.0012193262011940581 0 0.00015217043364638101 0.0011486058440892876 0 0.00012505399443053295 0.0010861228488330964 0 4.7278594175757583e-05 0.0011534108123423099 0 0.0001826341233402886 0.0010818969104141429 0 0.00015217043364638101 0.0011486058440892876 0 0.00012505399443053295 0.0010861228488330964 0 0.00012505399443053295 0.0010861228488330964 0 4.7278594175757583e-05 0.0011534108123423099 0 -1.0233498097153519e-05 0.0010951213332008754 0 -0.00022398649127126845 0.0011224335069127402 0 -1.0233498097153519e-05 0.0010951213332008754 0 -0.00010157779365308265 0.0011819987351737123 0 4.7278594175757583e-05 0.0011534108123423099 0 -1.0233498097153519e-05 0.0010951213332008754 0 -0.00010157779365308265 0.0011819987351737123 0 -0.00011265758268937414 0.0012625369118257391 0 -0.00010157779365308265 0.0011819987351737123 0 -5.8397105270185288e-06 0.0012521462698320467 0 4.7278594175757583e-05 0.0011534108123423099 0 -0.00010157779365308265 0.0011819987351737123 0 -5.8397105270185288e-06 0.0012521462698320467 0 -5.8397105270185288e-06 0.0012521462698320467 0 7.3633801841203208e-05 0.0012193262011940581 0 7.7028177739155325e-05 0.001271550957820518 0 4.7278594175757583e-05 0.0011534108123423099 0 -5.8397105270185288e-06 0.0012521462698320467 0 7.3633801841203208e-05 0.0012193262011940581 0 0.00015217043364638101 0.0011486058440892876 0 7.3633801841203208e-05 0.0012193262011940581 0 0.00012525081623976714 0.0012319358110686274 0 7.3633801841203208e-05 0.0012193262011940581 0 7.7028177739155325e-05 0.001271550957820518 0 0.00012525081623976714 0.0012319358110686274 0 7.7028177739155325e-05 0.001271550957820518 0 3.1664801507075784e-05 0.0013457945331975436 0 0.00015233690401163442 0.0012804625970982311 0 -0.0062592940036727508 0.0025858685057153466 0 -0.0063152937450871192 0.0025453652181540313 0 -0.0061278061601259936 0.0024519138646869102 0 -0.0029453325384018289 0.0018887004108549214 0 -0.0045401449149673504 0.0015090452520225245 0 -0.0062592940036727508 0.0025858685057153466 0 -0.0063078404214641009 0.0026142108842728416 0 -0.0063152937450871192 0.0025453652181540313 0 -0.0063078404214641009 0.0026142108842728416 0 -0.0063152937450871192 0.0025453652181540313 0 -0.0063462054959068049 0.0026363581775894255 0 -5.8397105270185288e-06 0.0012521462698320467 0 7.7028177739155325e-05 0.001271550957820518 0 3.1664801507075784e-05 0.0013457945331975436 0 3.1664801507075784e-05 0.0013457945331975436 0 -7.4179628519678518e-05 0.0013526118548803157 0 -0.00012896316993154521 0.0014261511952806086 0 -0.0063152937450871192 0.0025453652181540313 0 -0.0063938463591002564 0.0026496663024047746 0 -0.0063462054959068049 0.0026363581775894255 0 -0.0029453325384018289 0.0018887004108549214 0 -0.0029520346860373542 0.0022736659334941854 0 -5.8397105270185288e-06 0.0012521462698320467 0 3.1664801507075784e-05 0.0013457945331975436 0 -7.4179628519678518e-05 0.0013526118548803157 0 -0.00011265758268937414 0.0012625369118257391 0 -5.8397105270185288e-06 0.0012521462698320467 0 -7.4179628519678518e-05 0.0013526118548803157 0 -0.00017488926711694151 0.0013233407191286677 0 -7.4179628519678518e-05 0.0013526118548803157 0 -9.6954432205464201e-05 0.0014377277532931013 0 -0.00085009623112396995 0.00085746455565666841 0 -0.0029520346860373542 0.0022736659334941854 0 -0.00017488926711694151 0.0013233407191286677 0 -0.00011265758268937414 0.0012625369118257391 0 -7.4179628519678518e-05 0.0013526118548803157 0 -0.0022663091407725162 0.00031051323398112896 0 -0.0021359526164510911 0.001025287702943121 0 -0.00240401409876275 0.00064781466545089374 0 1.4836311830912039e-05 0.00049629753234385046 0 8.4754168517624736e-05 0.00060075928471989206 0 0.00012402594085634359 0.00044729403245129311 0 -0.0037238899780808804 -0.00025971006452519722 0 -0.0039840019199852373 -0.00014927518177576716 0 -0.0038043940325773336 0.00011021325989638345 0 -0.0004335398216584426 0.00075388889562015289 0 -0.0031000888651124096 0.00043538196458414887 0 -0.0023674693329650337 -0.00025981317171984745 0 -0.0031000888651124096 0.00043538196458414887 0 -0.001185838257048354 0.00086610090934140997 0 -0.0025482253830254888 0.00089457103798905725 0 -0.0021359526164510911 0.001025287702943121 0 -0.00240401409876275 0.00064781466545089374 0 -0.0025695961451114688 0.0010503501959780181 0 0.00015217043364638101 0.0011486058440892876 0 0.00020089151514479748 0.0011746167490189828 0 0.00016967744561214825 0.0012437215925809684 0 0.00015217043364638101 0.0011486058440892876 0 0.00012525081623976714 0.0012319358110686274 0 0.00016967744561214825 0.0012437215925809684 0 7.7028177739155325e-05 0.001271550957820518 0 0.00012525081623976714 0.0012319358110686274 0 0.00015233690401163442 0.0012804625970982311 0 0.00012525081623976714 0.0012319358110686274 0 0.00015233690401163442 0.0012804625970982311 0 0.00016967744561214825 0.0012437215925809684 0 -0.0031000888651124096 0.00043538196458414887 0 -0.0045401449149673504 0.0015090452520225245 0 -0.0021359526164510911 0.001025287702943121 0 -0.0026478610327054968 0.0012461394352909253 0 -0.0025695961451114688 0.0010503501959780181 0 -0.0045401449149673504 0.0015090452520225245 0 -0.0025482253830254888 0.00089457103798905725 0 -0.0066504375958921598 0.00073589828035441776 0 -0.0066760765805073223 0.00079215033258831738 0 -0.0067437258689850375 0.00082765497494014656 0 -0.0062592940036727508 0.0025858685057153466 0 -0.0061278061601259936 0.0024519138646869102 0 -0.0062735357075028846 0.0026743729447820928 0 -0.0065767642611693558 0.00070156299737449807 0 -0.0066504375958921598 0.00073589828035441776 0 -0.0066311666517165834 0.00077115628362793153 0 -0.0045401449149673504 0.0015090452520225245 0 -0.006755945115644744 0.0023094487481778521 0 -0.0045401449149673504 0.0015090452520225245 0 -0.0070291898030563306 0.0012040574401043706 0 -0.0066504375958921598 0.00073589828035441776 0 -0.0066760765805073223 0.00079215033258831738 0 -0.0066311666517165834 0.00077115628362793153 0 -0.0066311666517165834 0.00077115628362793153 0 -0.0066641423420478862 0.00080381636766869828 0 -0.0066343245649517508 0.00083812623923670165 0 -0.0066760765805073223 0.00079215033258831738 0 -0.0066311666517165834 0.00077115628362793153 0 -0.0066641423420478862 0.00080381636766869828 0 -0.0031000888651124096 0.00043538196458414887 0 -0.0052984668123737064 0.00042475032149706703 0 -0.0039840019199852373 -0.00014927518177576716 0 -0.0038043940325773336 0.00011021325989638345 0 -0.0039333024049068004 0.00016392982877744191 0 -0.0066311666517165834 0.00077115628362793153 0 -0.0065808332550742407 0.00079160406550915182 0 -0.0066343245649517508 0.00083812623923670165 0 -0.0065767642611693558 0.00070156299737449807 0 -0.0066311666517165834 0.00077115628362793153 0 -0.0065808332550742407 0.00079160406550915182 0 -0.003672103410123982 -0.00025003876805351131 0 -0.005257271492572351 0.00043715411662898911 0 -0.0065808332550742407 0.00079160406550915182 0 -0.0065938290719700018 0.00090187764203218776 0 -0.0066343245649517508 0.00083812623923670165 0 -0.0052984668123737064 0.00042475032149706703 0 -0.005257271492572351 0.00043715411662898911 0 -0.0038043940325773336 0.00011021325989638345 0 -0.0039333024049068004 0.00016392982877744191 0 -0.0038944966974472812 0.00047127080146618582 0 -0.0065938290719700018 0.00090187764203218776 0 -0.0066464177922183759 0.00089869602602467096 0 -0.0066343245649517508 0.00083812623923670165 0 -0.0066641423420478862 0.00080381636766869828 0 -0.0066906355512428963 0.00081991382609559972 0 -0.0066737759782047037 0.00086298411598589734 0 -0.0066641423420478862 0.00080381636766869828 0 -0.0066343245649517508 0.00083812623923670165 0 -0.0066737759782047037 0.00086298411598589734 0 -0.0064660715389236187 0.0014980835579545401 0 -0.0067754829384307005 0.0016093371832275516 0 -0.0067953950506590612 0.0016213589404585184 0 -0.0066760765805073223 0.00079215033258831738 0 -0.0066906355512428963 0.00081991382609559972 0 -0.0067437258689850375 0.00082765497494014656 0 -0.0066760765805073223 0.00079215033258831738 0 -0.0066641423420478862 0.00080381636766869828 0 -0.0066906355512428963 0.00081991382609559972 0 -0.0066906355512428963 0.00081991382609559972 0 -0.0067045684535092208 0.00086179743634045647 0 -0.0067437258689850375 0.00082765497494014656 0 -0.0066906355512428963 0.00081991382609559972 0 -0.0067045684535092208 0.00086179743634045647 0 -0.0066737759782047037 0.00086298411598589734 0 -0.0067045684535092208 0.00086179743634045647 0 -0.0066737759782047037 0.00086298411598589734 0 -0.0067026430574390755 0.00093021580337529822 0 -0.0067045684535092208 0.00086179743634045647 0 -0.0067292795861500793 0.00092217016949663541 0 -0.0067437258689850375 0.00082765497494014656 0 -0.0067045684535092208 0.00086179743634045647 0 -0.0067292795861500793 0.00092217016949663541 0 -0.0067026430574390755 0.00093021580337529822 0 -0.0066737759782047037 0.00086298411598589734 0 -0.0066738596591005761 0.00093971590984180708 0 -0.0067026430574390755 0.00093021580337529822 0 -0.0066464177922183759 0.00089869602602467096 0 -0.0066343245649517508 0.00083812623923670165 0 -0.0066737759782047037 0.00086298411598589734 0 -0.0066464177922183759 0.00089869602602467096 0 -0.0066737759782047037 0.00086298411598589734 0 -0.0066738596591005761 0.00093971590984180708 0 -0.0066738596591005761 0.00093971590984180708 0 -0.0066809172065599772 0.00097062925175231711 0 -0.0066541899033618858 0.0009392442532930134 0 -0.0067292795861500793 0.00092217016949663541 0 -0.0067026430574390755 0.00093021580337529822 0 -0.0067795514032201907 0.0010903188181456359 0 -0.0066738596591005761 0.00093971590984180708 0 -0.0067026430574390755 0.00093021580337529822 0 -0.0067034925153157511 0.00099821983090892462 0 -0.0067026430574390755 0.00093021580337529822 0 -0.0067034925153157511 0.00099821983090892462 0 -0.0067795514032201907 0.0010903188181456359 0 -0.0067034925153157511 0.00099821983090892462 0 -0.0067795514032201907 0.0010903188181456359 0 -0.0067003025321475378 0.00096677034154417417 0 -0.0066738596591005761 0.00093971590984180708 0 -0.0067034925153157511 0.00099821983090892462 0 -0.0066809172065599772 0.00097062925175231711 0 -0.0067034925153157511 0.00099821983090892462 0 -0.0066809172065599772 0.00097062925175231711 0 -0.0067003025321475378 0.00096677034154417417 0 -0.0066809172065599772 0.00097062925175231711 0 -0.0066730867687532719 0.00095884539071221524 0 -0.0066541899033618858 0.0009392442532930134 0 -0.005257271492572351 0.00043715411662898911 0 -0.0057527439470951361 0.00033257637204227612 0 -0.0066586668921954431 0.0010181815851374391 0 -0.0066730867687532719 0.00095884539071221524 0 -0.0067340686876298421 0.00090038128248654762 0 -0.005257271492572351 0.00043715411662898911 0 -0.0065543398626953502 0.0011845966417005913 0 -0.0065938290719700018 0.00090187764203218776 0 -0.0066730867687532719 0.00095884539071221524 0 -0.0066541899033618858 0.0009392442532930134 0 -0.0065938290719700018 0.00090187764203218776 0 -0.0066464177922183759 0.00089869602602467096 0 -0.0066541899033618858 0.0009392442532930134 0 -0.0066464177922183759 0.00089869602602467096 0 -0.0066738596591005761 0.00093971590984180708 0 -0.0066541899033618858 0.0009392442532930134 0 -0.0063684123030517056 0.0027024943407576003 0 -0.0063817433655372399 0.0026894467763726609 0 -0.0063909188876845055 0.0026981901306893773 0 -0.0063817433655372399 0.0026894467763726609 0 -0.0063807177121410763 0.0026796416317197511 0 -0.0063744682060135928 0.0026720285747825088 0 -0.0063684123030517056 0.0027024943407576003 0 -0.0063817433655372399 0.0026894467763726609 0 -0.0063807177121410763 0.0026796416317197511 0 -0.0063938463591002564 0.0026496663024047746 0 -0.0063807177121410763 0.0026796416317197511 0 -0.0063744682060135928 0.0026720285747825088 0 -0.0063938463591002564 0.0026496663024047746 0 -0.0063684123030517056 0.0027024943407576003 0 -0.0063807177121410763 0.0026796416317197511 0 -0.0063938463591002564 0.0026496663024047746 0 -0.0063744682060135928 0.0026720285747825088 0 -0.0063462054959068049 0.0026363581775894255 0 -0.0063744682060135928 0.0026720285747825088 0 -0.0063599618489558803 0.0026715992909151242 0 -0.0063462054959068049 0.0026363581775894255 0 -0.0063744682060135928 0.0026720285747825088 0 -0.0063816397955757985 0.0026874909491625197 0 -0.0063599618489558803 0.0026715992909151242 0 -0.0063817433655372399 0.0026894467763726609 0 -0.0063744682060135928 0.0026720285747825088 0 -0.0063816397955757985 0.0026874909491625197 0 -0.0063817433655372399 0.0026894467763726609 0 -0.0063816397955757985 0.0026874909491625197 0 -0.0063909188876845055 0.0026981901306893773 0 -0.0067754829384307005 0.0016093371832275516 0 -0.0067953950506590612 0.0016213589404585184 0 -0.0069585865868951862 0.0016943243117996452 0 -0.0063765089366000331 0.0026862710383958291 0 -0.0063436531332653279 0.0026766306974182249 0 -0.0063599618489558803 0.0026715992909151242 0 -0.0063816397955757985 0.0026874909491625197 0 -0.0063765089366000331 0.0026862710383958291 0 -0.0063599618489558803 0.0026715992909151242 0 -0.0063436531332653279 0.0026766306974182249 0 -0.0063497546375758003 0.0026821454225928773 0 -0.0063766230281151011 0.0026862935281282579 0 -0.0063765089366000331 0.0026862710383958291 0 -0.0063436531332653279 0.0026766306974182249 0 -0.0063766230281151011 0.0026862935281282579 0 -0.0063436531332653279 0.0026766306974182249 0 -0.0063599618489558803 0.0026715992909151242 0 -0.006319225303965172 0.0026547130083942518 0 -0.0063599618489558803 0.0026715992909151242 0 -0.0063462054959068049 0.0026363581775894255 0 -0.006319225303965172 0.0026547130083942518 0 -0.0063078404214641009 0.0026142108842728416 0 -0.0063462054959068049 0.0026363581775894255 0 -0.006319225303965172 0.0026547130083942518 0 -0.0062998922413050398 0.0026611252996167991 0 -0.0062735357075028846 0.0026743729447820928 0 -0.0063135875705550432 0.0026710980919330738 0 -0.0062592940036727508 0.0025858685057153466 0 -0.0062933162186934689 0.00263711866749457 0 -0.0062735357075028846 0.0026743729447820928 0 -0.0062998922413050398 0.0026611252996167991 0 -0.0062933162186934689 0.00263711866749457 0 -0.0062735357075028846 0.0026743729447820928 0 -0.006319225303965172 0.0026547130083942518 0 -0.0062998922413050398 0.0026611252996167991 0 -0.0063135875705550432 0.0026710980919330738 0 -0.006319225303965172 0.0026547130083942518 0 -0.0062998922413050398 0.0026611252996167991 0 -0.0062933162186934689 0.00263711866749457 0 -0.0063078404214641009 0.0026142108842728416 0 -0.006319225303965172 0.0026547130083942518 0 -0.0062933162186934689 0.00263711866749457 0 -0.0062592940036727508 0.0025858685057153466 0 -0.0063078404214641009 0.0026142108842728416 0 -0.0062933162186934689 0.00263711866749457 0 -0.0062735357075028846 0.0026743729447820928 0 -0.0063135875705550432 0.0026710980919330738 0 -0.0063497546375758003 0.0026821454225928773 0 -0.0063436531332653279 0.0026766306974182249 0 -0.0063135875705550432 0.0026710980919330738 0 -0.0063497546375758003 0.0026821454225928773 0 -0.0063436531332653279 0.0026766306974182249 0 -0.006319225303965172 0.0026547130083942518 0 -0.0063135875705550432 0.0026710980919330738 0 -0.0067292795861500793 0.00092217016949663541 0 -0.0067437258689850375 0.00082765497494014656 0 -0.0067795514032201907 0.0010903188181456359 0 -0.0067437258689850375 0.00082765497494014656 0 -0.0067795514032201907 0.0010903188181456359 0 -0.0069454088495024867 0.0012868200777847939 0 -0.0070291898030563306 0.0012040574401043706 0 -0.0069054199740518187 0.0014959504288203072 0 -0.0067953950506590612 0.0016213589404585184 0 -0.0069585865868951862 0.0016943243117996452 0 -0.0069756120104532658 0.0017114580496493108 0 -0.006755945115644744 0.0023094487481778521 0 -0.006665975049638658 0.0021456075551267162 0 -0.0062735357075028846 0.0026743729447820928 0 -0.0063497546375758003 0.0026821454225928773 0 -0.0064507856121605901 0.0026935383630942518 0 -0.0064507856121605901 0.0026935383630942518 0 -0.0064098574612998531 0.0026899735245698307 0 -0.0063766230281151011 0.0026862935281282579 0 -0.0064507856121605901 0.0026935383630942518 0 -0.0064244418849093285 0.0026900940309254524 0 -0.0064397619183229025 0.002677546254413906 0 -0.0064507856121605901 0.0026935383630942518 0 -0.0064244418849093285 0.0026900940309254524 0 -0.0064098574612998531 0.0026899735245698307 0 -0.0064244418849093285 0.0026900940309254524 0 -0.0063984259192459737 0.0026901248774835462 0 -0.0064003349011370076 0.002693092558437072 0 -0.0063497546375758003 0.0026821454225928773 0 -0.0064507856121605901 0.0026935383630942518 0 -0.0063766230281151011 0.0026862935281282579 0 -0.0064244418849093285 0.0026900940309254524 0 -0.0063984259192459737 0.0026901248774835462 0 -0.0064098574612998531 0.0026899735245698307 0 -0.0063984259192459737 0.0026901248774835462 0 -0.0064098574612998531 0.0026899735245698307 0 -0.0063766230281151011 0.0026862935281282579 0 -0.0063765089366000331 0.0026862710383958291 0 -0.0063984259192459737 0.0026901248774835462 0 -0.0064003349011370076 0.002693092558437072 0 -0.0063765089366000331 0.0026862710383958291 0 -0.0063984259192459737 0.0026901248774835462 0 -0.0063766230281151011 0.0026862935281282579 0 -0.0063816397955757985 0.0026874909491625197 0 -0.0063765089366000331 0.0026862710383958291 0 -0.0064003349011370076 0.002693092558437072 0 -0.0063816397955757985 0.0026874909491625197 0 -0.0064003349011370076 0.002693092558437072 0 -0.0063909188876845055 0.0026981901306893773 0 -0.0064003349011370076 0.002693092558437072 0 -0.0064143688022318419 0.0026913564987299343 0 -0.0063909188876845055 0.0026981901306893773 0 -0.0064244418849093285 0.0026900940309254524 0 -0.0064003349011370076 0.002693092558437072 0 -0.0064143688022318419 0.0026913564987299343 0 -0.0064244418849093285 0.0026900940309254524 0 -0.0064397619183229025 0.002677546254413906 0 -0.0064143688022318419 0.0026913564987299343 0 -0.0064397619183229025 0.002677546254413906 0 -0.0064143688022318419 0.0026913564987299343 0 -0.0064224887571055584 0.0026691581756696139 0 -0.0064224887571055584 0.0026691581756696139 0 -0.0064068020657192483 0.0026413102026470181 0 -0.006374864120307429 0.0027053337878197121 0 -0.0064143688022318419 0.0026913564987299343 0 -0.0064224887571055584 0.0026691581756696139 0 -0.006374864120307429 0.0027053337878197121 0 -0.0063684123030517056 0.0027024943407576003 0 -0.0063909188876845055 0.0026981901306893773 0 -0.006374864120307429 0.0027053337878197121 0 -0.0064143688022318419 0.0026913564987299343 0 -0.0063909188876845055 0.0026981901306893773 0 -0.006374864120307429 0.0027053337878197121 0 -0.0064507856121605901 0.0026935383630942518 0 -0.0064676662488263991 0.0026358704427355676 0 -0.0066063787704511677 0.0024590299247983769 0 -0.0064771590705798108 0.0025575226726170987 0 -0.0064676662488263991 0.0026358704427355676 0 -0.0066063787704511677 0.0024590299247983769 0 -0.006665975049638658 0.0021456075551267162 0 -0.0067853236299430172 0.0020920811732687266 0 -0.0064771590705798108 0.0025575226726170987 0 -0.0064068020657192483 0.0026413102026470181 0 -0.0063970833527933705 0.0025496221155302764 0 -0.0064771590705798108 0.0025575226726170987 0 -0.006493111727983108 0.0024672362465520052 0 -0.0063970833527933705 0.0025496221155302764 0 -0.0064771590705798108 0.0025575226726170987 0 -0.0064068020657192483 0.0026413102026470181 0 -0.0064676662488263991 0.0026358704427355676 0 -0.0064224887571055584 0.0026691581756696139 0 -0.0064068020657192483 0.0026413102026470181 0 -0.0064676662488263991 0.0026358704427355676 0 -0.0064507856121605901 0.0026935383630942518 0 -0.0064397619183229025 0.002677546254413906 0 -0.0064676662488263991 0.0026358704427355676 0 -0.0064397619183229025 0.002677546254413906 0 -0.0064224887571055584 0.0026691581756696139 0 -0.0064676662488263991 0.0026358704427355676 0 -0.0067751016287004419 0.0010880578366884493 0 -0.0067710184182161806 0.0012595587874143985 0 -0.0069585865868951862 0.0016943243117996452 0 -0.0069756120104532658 0.0017114580496493108 0 -0.0069896790485424179 0.0017593592666724071 0 -0.0067795514032201907 0.0010903188181456359 0 -0.0069454088495024867 0.0012868200777847939 0 -0.0068429715120739793 0.0016966579109616289 0 -0.0069454088495024867 0.0012868200777847939 0 -0.0069199646927106439 0.0016640221772351632 0 -0.0068429715120739793 0.0016966579109616289 0 -0.0069454088495024867 0.0012868200777847939 0 -0.0069199646927106439 0.0016640221772351632 0 -0.0069543374777561624 0.0017800783088546869 0 -0.0069199646927106439 0.0016640221772351632 0 -0.0068429715120739793 0.0016966579109616289 0 -0.0069663732022709575 0.0017395789733241564 0 -0.0069199646927106439 0.0016640221772351632 0 -0.0069543374777561624 0.0017800783088546869 0 -0.0069663732022709575 0.0017395789733241564 0 -0.0066063787704511677 0.0024590299247983769 0 -0.0065159065006734213 0.0022919028244173718 0 -0.0067336344175759327 0.0018448578253182463 0 -0.0069756120104532658 0.0017114580496493108 0 -0.0069896790485424179 0.0017593592666724071 0 -0.0069543374777561624 0.0017800783088546869 0 -0.0069054199740518187 0.0014959504288203072 0 -0.0069787361173563635 0.0017590262707297809 0 -0.0064771590705798108 0.0025575226726170987 0 -0.0066063787704511677 0.0024590299247983769 0 -0.006493111727983108 0.0024672362465520052 0 -0.0066063787704511677 0.0024590299247983769 0 -0.0065159065006734213 0.0022919028244173718 0 -0.006493111727983108 0.0024672362465520052 0 -0.006698507008211489 0.00092720735572074191 0 -0.0067024432524980873 0.00083310912753950094 0 -0.0067340686876298421 0.00090038128248654762 0 -0.006698507008211489 0.00092720735572074191 0 -0.0067003025321475378 0.00096677034154417417 0 -0.0067024432524980873 0.00083310912753950094 0 -0.0066730867687532719 0.00095884539071221524 0 -0.006698507008211489 0.00092720735572074191 0 -0.0067340686876298421 0.00090038128248654762 0 -0.0066809172065599772 0.00097062925175231711 0 -0.0066730867687532719 0.00095884539071221524 0 -0.006698507008211489 0.00092720735572074191 0 -0.0066809172065599772 0.00097062925175231711 0 -0.006698507008211489 0.00092720735572074191 0 -0.0067003025321475378 0.00096677034154417417 0 -0.0067795514032201907 0.0010903188181456359 0 -0.0067003025321475378 0.00096677034154417417 0 -0.0066540678039456284 0.00086420755687402636 0 -0.0067003025321475378 0.00096677034154417417 0 -0.0066540678039456284 0.00086420755687402636 0 -0.0067024432524980873 0.00083310912753950094 0 -0.0067024432524980873 0.00083310912753950094 0 -0.0067340686876298421 0.00090038128248654762 0 -0.0066898248835755543 0.00074247155372939467 0 -0.0067024432524980873 0.00083310912753950094 0 -0.0067085761383854194 0.00074161536393077402 0 -0.0067653663952297431 0.00075091056951603885 0 -0.0067024432524980873 0.00083310912753950094 0 -0.0067085761383854194 0.00074161536393077402 0 -0.0066898248835755543 0.00074247155372939467 0 -0.0067085761383854194 0.00074161536393077402 0 -0.0067653663952297431 0.00075091056951603885 0 -0.0067380806739208796 0.00086045801839459448 0 -0.0066540678039456284 0.00086420755687402636 0 -0.0067024432524980873 0.00083310912753950094 0 -0.0067653663952297431 0.00075091056951603885 0 -0.0067710184182161806 0.0012595587874143985 0 -0.0069922641412646569 0.0011898901452116878 0 -0.0072268089567923931 0.0016391291184919097 0 -0.0069663732022709575 0.0017395789733241564 0 -0.0070280136488779042 0.001656985801129957 0 -0.0068429715120739793 0.0016966579109616289 0 -0.0072268089567923931 0.0016391291184919097 0 -0.0069663732022709575 0.0017395789733241564 0 -0.0069663732022709575 0.0017395789733241564 0 -0.0069267201153020075 0.001766387485393667 0 -0.0070280136488779042 0.001656985801129957 0 -0.0069896790485424179 0.0017593592666724071 0 -0.0069543374777561624 0.0017800783088546869 0 -0.0067336344175759327 0.0018448578253182463 0 -0.0067853236299430172 0.0020920811732687266 0 -0.006719420309993375 0.001828745769189261 0 -0.0069543374777561624 0.0017800783088546869 0 -0.0069267201153020075 0.001766387485393667 0 -0.0067336344175759327 0.0018448578253182463 0 -0.0069543374777561624 0.0017800783088546869 0 -0.0069663732022709575 0.0017395789733241564 0 -0.0069267201153020075 0.001766387485393667 0 -0.0069362947239312786 0.0015736396825636672 0 -0.0071127342177377045 0.0013954809037373089 0 -0.0067823310200243528 0.0014041335396432718 0 -0.0067336344175759327 0.0018448578253182463 0 -0.0069362947239312786 0.0015736396825636672 0 -0.0067823310200243528 0.0014041335396432718 0 -0.0069267201153020075 0.001766387485393667 0 -0.0069362947239312786 0.0015736396825636672 0 -0.0070280136488779042 0.001656985801129957 0 -0.0069267201153020075 0.001766387485393667 0 -0.0067336344175759327 0.0018448578253182463 0 -0.0069362947239312786 0.0015736396825636672 0 -0.0072268089567923931 0.0016391291184919097 0 -0.0070280136488779042 0.001656985801129957 0 -0.0071127342177377045 0.0013954809037373089 0 -0.0069362947239312786 0.0015736396825636672 0 -0.0070280136488779042 0.001656985801129957 0 -0.0071127342177377045 0.0013954809037373089 0 -0.0071127342177377045 0.0013954809037373089 0 -0.0069105917802616762 0.0010506032835698601 0 -0.0067823310200243528 0.0014041335396432718 0 -0.0071127342177377045 0.0013954809037373089 0 -0.0069105917802616762 0.0010506032835698601 0 -0.0073200233773899779 0.00096337443407179459 0 -0.0071127342177377045 0.0013954809037373089 0 -0.0074738972332531175 0.0011726040089131611 0 -0.0073200233773899779 0.00096337443407179459 0 -0.006939952693190388 0.0009813433323321197 0 -0.0067920393746687272 0.0011020136514417768 0 -0.0071116652907758067 0.0013806320046878141 0 -0.006939952693190388 0.0009813433323321197 0 -0.0067920393746687272 0.0011020136514417768 0 -0.0067380806739208796 0.00086045801839459448 0 -0.0067653663952297431 0.00075091056951603885 0 -0.006939952693190388 0.0009813433323321197 0 -0.0067380806739208796 0.00086045801839459448 0 -0.0069922641412646569 0.0011898901452116878 0 -0.0071976335465332971 0.0010846768837112068 0 -0.0072268089567923931 0.0016391291184919097 0 -0.0071127342177377045 0.0013954809037373089 0 -0.0074738972332531175 0.0011726040089131611 0 -0.0054034071987763659 0.0011251896447369081 0 -0.0048851291155602872 0.0018800465047012387 0 -0.0039956895425525977 0.0010810849623573118 0 -0.0054034071987763659 0.0011251896447369081 0 -0.0045223630303110806 0.00037451017633353424 0 -0.0039956895425525977 0.0010810849623573118 0 -0.0054034071987763659 0.0011251896447369081 0 -0.0045223630303110806 0.00037451017633353424 0 -0.00573281681487736 0.00014414063428184611 0 -0.0061682483767231096 0.00094852975331394382 0 -0.0063878117694528185 0.00046726759872708744 0 -0.00573281681487736 0.00014414063428184611 0 -0.0054034071987763659 0.0011251896447369081 0 -0.0061682483767231096 0.00094852975331394382 0 -0.00573281681487736 0.00014414063428184611 0 -0.0061682483767231096 0.00094852975331394382 0 -0.0067436770129017639 0.00061102689009086427 0 -0.0063878117694528185 0.00046726759872708744 0 -0.0061682483767231096 0.00094852975331394382 0 -0.0067436770129017639 0.00061102689009086427 0 -0.0066272034028530564 0.0013927203287146638 0 -0.0061682483767231096 0.00094852975331394382 0 -0.0066272034028530564 0.0013927203287146638 0 -0.006177501200476174 0.0014087713922541077 0 -0.0068356086951665814 0.00082440871935405961 0 -0.0066966041561280307 0.0014133795571559201 0 -0.0054034071987763659 0.0011251896447369081 0 -0.0061682483767231096 0.00094852975331394382 0 -0.006177501200476174 0.0014087713922541077 0 -0.0054034071987763659 0.0011251896447369081 0 -0.006177501200476174 0.0014087713922541077 0 -0.0058394116196324357 0.0018557648374254324 0 -0.006177501200476174 0.0014087713922541077 0 -0.0058394116196324357 0.0018557648374254324 0 -0.0063083927257698274 0.0017521263571050789 0 -0.0066272034028530564 0.0013927203287146638 0 -0.006177501200476174 0.0014087713922541077 0 -0.0063083927257698274 0.0017521263571050789 0 -0.0067336344175759327 0.0018448578253182463 0 -0.0067823310200243528 0.0014041335396432718 0 -0.0065392875341429429 0.002039651666395042 0 -0.0066966041561280307 0.0014133795571559201 0 -0.0065660563197811337 0.0020128942294230828 0 -0.0066272034028530564 0.0013927203287146638 0 -0.0063083927257698274 0.0017521263571050789 0 -0.0065392875341429429 0.002039651666395042 0 -0.0065159065006734213 0.0022919028244173718 0 -0.0067336344175759327 0.0018448578253182463 0 -0.0065392875341429429 0.002039651666395042 0 -0.0063083927257698274 0.0017521263571050789 0 -0.0062198895833463245 0.0020220815279715304 0 -0.0065392875341429429 0.002039651666395042 0 -0.0062198895833463245 0.0020220815279715304 0 -0.0060481570459004269 0.0021874572494840041 0 -0.0063351713072414681 0.0022601248704073903 0 -0.0062198895833463245 0.0020220815279715304 0 -0.0065392875341429429 0.002039651666395042 0 -0.0063351713072414681 0.0022601248704073903 0 -0.0065159065006734213 0.0022919028244173718 0 -0.0065392875341429429 0.002039651666395042 0 -0.0063351713072414681 0.0022601248704073903 0 -0.0058394116196324357 0.0018557648374254324 0 -0.0060481570459004269 0.0021874572494840041 0 -0.0055336504094100512 0.0023460511965897302 0 -0.0058394116196324357 0.0018557648374254324 0 -0.0062198895833463245 0.0020220815279715304 0 -0.0060481570459004269 0.0021874572494840041 0 -0.0058394116196324357 0.0018557648374254324 0 -0.0063083927257698274 0.0017521263571050789 0 -0.0062198895833463245 0.0020220815279715304 0 -0.0058394116196324357 0.0018557648374254324 0 -0.0048851291155602872 0.0018800465047012387 0 -0.0055336504094100512 0.0023460511965897302 0 -0.0042455652550180004 0.0015798672687181699 0 -0.0045644562752718233 0.0020201836436396022 0 -0.0054034071987763659 0.0011251896447369081 0 -0.0058394116196324357 0.0018557648374254324 0 -0.0048851291155602872 0.0018800465047012387 0 -0.0042455652550180004 0.0015798672687181699 0 -0.0039802655323804724 0.0010931790606334929 0 -0.0036400371435597496 0.0013690435486899736 0 -0.0033966264869830882 0.0017547518981369432 0 -0.0035846060741754589 0.0017054895831159769 0 -0.0036400371435597496 0.0013690435486899736 0 -0.0033966264869830882 0.0017547518981369432 0 -0.0034649509990719637 0.001530771072733606 0 -0.0033966264869830882 0.0017547518981369432 0 -0.0035846060741754589 0.0017054895831159769 0 -0.0033690575156103443 0.0020226641759887279 0 -0.0035846060741754589 0.0017054895831159769 0 -0.0033690575156103443 0.0020226641759887279 0 -0.0037265894717378677 0.0020299379602704217 0 -0.0045644562752718233 0.0020201836436396022 0 -0.0048074701713281039 0.0022743240008097536 0 -0.0033690575156103443 0.0020226641759887279 0 -0.0037265894717378677 0.0020299379602704217 0 -0.0034979553274112306 0.0024821962551914403 0 -0.0033690575156103443 0.0020226641759887279 0 -0.0031509245230788305 0.0020644628920850651 0 -0.0029216198625084452 0.0022971778901047552 0 -0.0033966264869830882 0.0017547518981369432 0 -0.0033690575156103443 0.0020226641759887279 0 -0.0031509245230788305 0.0020644628920850651 0 -0.0065159065006734213 0.0022919028244173718 0 -0.006493111727983108 0.0024672362465520052 0 -0.0063499390213776711 0.0024493376346751976 0 -0.006493111727983108 0.0024672362465520052 0 -0.0063499390213776711 0.0024493376346751976 0 -0.0063970833527933705 0.0025496221155302764 0 -0.0065159065006734213 0.0022919028244173718 0 -0.0063499390213776711 0.0024493376346751976 0 -0.0063351713072414681 0.0022601248704073903 0 -0.0063499390213776711 0.0024493376346751976 0 -0.0063351713072414681 0.0022601248704073903 0 -0.0061086046755367872 0.0024334882502563943 0 -0.0063499390213776711 0.0024493376346751976 0 -0.0061086046755367872 0.0024334882502563943 0 -0.0062935016270520179 0.0026286084153878779 0 -0.0055336504094100512 0.0023460511965897302 0 -0.0061086046755367872 0.0024334882502563943 0 -0.0060268518833367316 0.0026454274072781089 0 -0.0060481570459004269 0.0021874572494840041 0 -0.0055336504094100512 0.0023460511965897302 0 -0.0061086046755367872 0.0024334882502563943 0 -0.0060481570459004269 0.0021874572494840041 0 -0.0063351713072414681 0.0022601248704073903 0 -0.0061086046755367872 0.0024334882502563943 0 -0.0061086046755367872 0.0024334882502563943 0 -0.0060268518833367316 0.0026454274072781089 0 -0.0062935016270520179 0.0026286084153878779 0 -0.0060268518833367316 0.0026454274072781089 0 -0.0062935016270520179 0.0026286084153878779 0 -0.0063244986040265306 0.0027476227146860607 0 -0.0064068020657192483 0.0026413102026470181 0 -0.0062935016270520179 0.0026286084153878779 0 -0.006374864120307429 0.0027053337878197121 0 -0.0063499390213776711 0.0024493376346751976 0 -0.0062935016270520179 0.0026286084153878779 0 -0.0063970833527933705 0.0025496221155302764 0 -0.0064068020657192483 0.0026413102026470181 0 -0.0062935016270520179 0.0026286084153878779 0 -0.0063970833527933705 0.0025496221155302764 0 -0.0062935016270520179 0.0026286084153878779 0 -0.006374864120307429 0.0027053337878197121 0 -0.0063244986040265306 0.0027476227146860607 0 -0.0063684123030517056 0.0027024943407576003 0 -0.006374864120307429 0.0027053337878197121 0 -0.0063244986040265306 0.0027476227146860607 0 -0.0048074701713281039 0.0022743240008097536 0 -0.0054618573129904952 0.0027579816730403249 0 -0.0037265894717378677 0.0020299379602704217 0 -0.0039277880107909122 0.0024134635606579786 0 -0.0037291713112954723 0.0024175827714500498 0 -0.0037265894717378677 0.0020299379602704217 0 -0.0037291713112954723 0.0024175827714500498 0 -0.0034979553274112306 0.0024821962551914403 0 -0.0039277880107909122 0.0024134635606579786 0 -0.0037291713112954723 0.0024175827714500498 0 -0.003835548130690862 0.0025807899611308841 0 -0.0019652692870482128 0.0021002700432426131 0 -0.0024896263488446389 0.0023248133482538678 0 -0.0037291713112954723 0.0024175827714500498 0 -0.003835548130690862 0.0025807899611308841 0 -0.0034979553274112306 0.0024821962551914403 0 -0.00094220497230797565 0.0015763417914786599 0 -0.00039245972729653241 0.001727691693962028 0 -0.0014032513373758392 0.0022185409310826634 0 -0.00047371956577632374 0.0013335565837560819 0 -0.00094220497230797565 0.0015763417914786599 0 -0.00039245972729653241 0.001727691693962028 0 -0.0040813717684532709 0.0026802328247421958 0 -0.0039277880107909122 0.0024134635606579786 0 -0.003835548130690862 0.0025807899611308841 0 -0.0063938463591002564 0.0026496663024047746 0 -0.0063684123030517056 0.0027024943407576003 0 -0.0063244986040265306 0.0027476227146860607 0 -0.0029520346860373542 0.0022736659334941854 0 -0.0019652692870482128 0.0021002700432426131 0 -0.0029520346860373542 0.0022736659334941854 0 -0.0054618573129904952 0.0027579816730403249 0 -0.0002799518661208516 0.0013906270982177939 0 -9.6954432205464201e-05 0.0014377277532931013 0 -0.00039245972729653241 0.001727691693962028 0 -0.0033690575156103443 0.0020226641759887279 0 -0.0029216198625084452 0.0022971778901047552 0 -0.0034979553274112306 0.0024821962551914403 0 -0.0028174383009062632 0.0023197780731011712 0 -0.0024896263488446389 0.0023248133482538678 0 -0.0029216198625084452 0.0022971778901047552 0 -0.0014032513373758392 0.0022185409310826634 0 -0.0018879382470874859 0.0016529245902991284 0 -0.00094220497230797565 0.0015763417914786599 0 -0.0014032513373758392 0.0022185409310826634 0 -0.0018879382470874859 0.0016529245902991284 0 -0.0029216198625084452 0.0022971778901047552 0 -0.0018879382470874859 0.0016529245902991284 0 -0.0028594012393799214 0.0017738498254012876 0 -0.0023782975044360968 0.0010415012820732853 0 -0.0018879382470874859 0.0016529245902991284 0 -0.0028594012393799214 0.0017738498254012876 0 -0.0033610249312052247 0.0013905716322725381 0 -0.0028594012393799214 0.0017738498254012876 0 -0.0031875451029890357 0.002159378570997125 0 -0.0017468689921007587 0.0012442088546807753 0 -0.0038544420341379568 0.0016097377997705141 0 -0.0029216198625084452 0.0022971778901047552 0 -0.0028594012393799214 0.0017738498254012876 0 -0.0031875451029890357 0.002159378570997125 0 -0.0031509245230788305 0.0020644628920850651 0 -0.0029216198625084452 0.0022971778901047552 0 -0.0031875451029890357 0.002159378570997125 0 -0.0041283092421496893 0.0009245119394739261 0 -0.0035449220173564447 0.0011592928609397979 0 -0.0036339085494341136 0.00042466773177249513 0 -0.0041378004670932335 0.0019417499187696079 0 -0.0035449220173564447 0.0011592928609397979 0 -0.0033106256376187028 0.0018005256653036165 0 -0.0041378004670932335 0.0019417499187696079 0 -0.0041283092421496893 0.0009245119394739261 0 -0.0035449220173564447 0.0011592928609397979 0 -0.0016359005074371878 0.001432652912830657 0 -0.0011861993788257112 0.0013783300298767286 0 -0.0033106256376187028 0.0018005256653036165 0 -0.0023782180308061659 0.0016900678532703885 0 -0.0029172014379683551 0.00092299334811036778 0 -0.0035449220173564447 0.0011592928609397979 0 -0.0033106256376187028 0.0018005256653036165 0 -0.0029172014379683551 0.00092299334811036778 0 -0.0023782180308061659 0.0016900678532703885 0 -0.0020664455015616426 0.00090049863556831489 0 -0.0014951307776125062 0.0010300821057260623 0 -0.0020664455015616426 0.00090049863556831489 0 -0.0023329907326477325 0.00056714369801395804 0 -0.0029172014379683551 0.00092299334811036778 0 -0.0023782180308061659 0.0016900678532703885 0 -0.0020664455015616426 0.00090049863556831489 0 -0.0029172014379683551 0.00092299334811036778 0 -0.0035449220173564447 0.0011592928609397979 0 -0.0029172014379683551 0.00092299334811036778 0 -0.0036339085494341136 0.00042466773177249513 0 -0.0029172014379683551 0.00092299334811036778 0 -0.0030064743058156873 0.00022348578552238303 0 -0.0036339085494341136 0.00042466773177249513 0 -0.0030064743058156873 0.00022348578552238303 0 -0.0035910217617666444 1.5139146341900177e-05 0 -0.0036339085494341136 0.00042466773177249513 0 -0.0023329907326477325 0.00056714369801395804 0 -0.0030064743058156873 0.00022348578552238303 0 -0.0021225400613007327 0.00022976222500861309 0 -0.0023329907326477325 0.00056714369801395804 0 -0.0029172014379683551 0.00092299334811036778 0 -0.0030064743058156873 0.00022348578552238303 0 -0.0030064743058156873 0.00022348578552238303 0 -0.0027580043139612143 -0.00022251700584637168 0 -0.0035685942285797558 -0.0002013070264628365 0 -0.0030064743058156873 0.00022348578552238303 0 -0.0027580043139612143 -0.00022251700584637168 0 -0.0021225400613007327 0.00022976222500861309 0 -0.0030064743058156873 0.00022348578552238303 0 -0.0035910217617666444 1.5139146341900177e-05 0 -0.0035685942285797558 -0.0002013070264628365 0 -0.0035910217617666444 1.5139146341900177e-05 0 -0.0035685942285797558 -0.0002013070264628365 0 -0.0037741206012547272 -7.5374500659638747e-05 0 -0.0035685942285797558 -0.0002013070264628365 0 -0.0037741206012547272 -7.5374500659638747e-05 0 -0.0038415043022894629 -0.0002647340958788078 0 -0.0037741206012547272 -7.5374500659638747e-05 0 -0.003826504282389764 -7.6616278189686588e-06 0 -0.0039040020307506717 0.00011030204619673565 0 -0.0037741206012547272 -7.5374500659638747e-05 0 -0.0039040020307506717 0.00011030204619673565 0 -0.0038415043022894629 -0.0002647340958788078 0 -0.0039040020307506717 0.00011030204619673565 0 -0.0039727886538529125 -8.0168329434239689e-05 0 -0.0037851091084713478 0.0004271022409978379 0 -0.0035282857372283183 0.00096572318374154881 0 -0.0035475851146326842 0.0010068672586290332 0 -0.0035910217617666444 1.5139146341900177e-05 0 -0.0037741206012547272 -7.5374500659638747e-05 0 -0.003826504282389764 -7.6616278189686588e-06 0 -0.003826504282389764 -7.6616278189686588e-06 0 -0.0039040020307506717 0.00011030204619673565 0 -0.0039727886538529125 -8.0168329434239689e-05 0 -0.0033966264869830882 0.0017547518981369432 0 -0.0031509245230788305 0.0020644628920850651 0 -0.0032137127147802143 0.0019046053854448418 0 -0.0032879999834518215 0.0017516512190415146 0 -0.0031072999872274617 0.0019813427657738528 0 -0.0032635731806026501 0.0015431303443961752 0 -0.0033966264869830882 0.0017547518981369432 0 -0.0032879999834518215 0.0017516512190415146 0 -0.0032137127147802143 0.0019046053854448418 0 -0.0032879999834518215 0.0017516512190415146 0 -0.0032137127147802143 0.0019046053854448418 0 -0.0031072999872274617 0.0019813427657738528 0 -0.0038544420341379568 0.0016097377997705141 0 -0.0035282857372283183 0.00096572318374154881 0 -0.0031509245230788305 0.0020644628920850651 0 -0.0032137127147802143 0.0019046053854448418 0 -0.0031072999872274617 0.0019813427657738528 0 -0.0031509245230788305 0.0020644628920850651 0 -0.0031875451029890357 0.002159378570997125 0 -0.0031072999872274617 0.0019813427657738528 0 -0.0041283092421496893 0.0009245119394739261 0 -0.0036339085494341136 0.00042466773177249513 0 -0.0039727886538529125 -8.0168329434239689e-05 0 -0.0035910217617666444 1.5139146341900177e-05 0 -0.003826504282389764 -7.6616278189686588e-06 0 -0.0036339085494341136 0.00042466773177249513 0 -0.003826504282389764 -7.6616278189686588e-06 0 -0.0036339085494341136 0.00042466773177249513 0 -0.0039727886538529125 -8.0168329434239689e-05 0 -4.2329217525029145e-05 0.00060197915752426511 0 -4.9100518906844564e-05 0.00069102200498257784 0 1.4796695540968295e-05 0.00063489090603256998 0 -4.2329217525029145e-05 0.00060197915752426511 0 -0.00012493297352774964 0.00062818235929039542 0 -4.9100518906844564e-05 0.00069102200498257784 0 -4.2329217525029145e-05 0.00060197915752426511 0 -0.00012493297352774964 0.00062818235929039542 0 -0.00011358653009282309 0.00051054324436475393 0 -0.00012493297352774964 0.00062818235929039542 0 -0.00025305524500973377 0.00056311086136814252 0 -0.00011358653009282309 0.00051054324436475393 0 -0.00012493297352774964 0.00062818235929039542 0 -0.00011158610608420067 0.00071274596871816664 0 -0.00019010403288577927 0.00075867048901209289 0 -0.00012493297352774964 0.00062818235929039542 0 -0.00011158610608420067 0.00071274596871816664 0 -4.9100518906844564e-05 0.00069102200498257784 0 -0.00011158610608420067 0.00071274596871816664 0 -4.9100518906844564e-05 0.00069102200498257784 0 -9.711434704428802e-05 0.00075784552279753675 0 -4.9100518906844564e-05 0.00069102200498257784 0 -3.1537516161984194e-05 0.00076392073859787813 0 1.2384502849199261e-05 0.00068803860876289825 0 -4.9100518906844564e-05 0.00069102200498257784 0 -3.1537516161984194e-05 0.00076392073859787813 0 -9.711434704428802e-05 0.00075784552279753675 0 3.2438112135582426e-05 0.00076138001450096865 0 -5.9453552700335431e-05 0.00081687133215846181 0 -3.1537516161984194e-05 0.00076392073859787813 0 -5.9453552700335431e-05 0.00081687133215846181 0 -3.1537516161984194e-05 0.00076392073859787813 0 -0.00014346374420996056 0.00082020893454486413 0 -0.00011158610608420067 0.00071274596871816664 0 -9.711434704428802e-05 0.00075784552279753675 0 -0.00019010403288577927 0.00075867048901209289 0 -3.1537516161984194e-05 0.00076392073859787813 0 -9.711434704428802e-05 0.00075784552279753675 0 -0.00014346374420996056 0.00082020893454486413 0 -0.00014346374420996056 0.00082020893454486413 0 -0.00023929565487419656 0.00085427934825542124 0 -0.00019010403288577927 0.00075867048901209289 0 -9.711434704428802e-05 0.00075784552279753675 0 -0.00014346374420996056 0.00082020893454486413 0 -0.00019010403288577927 0.00075867048901209289 0 -0.00014346374420996056 0.00082020893454486413 0 -0.00018464020354051603 0.00087378341586932925 0 -0.00023929565487419656 0.00085427934825542124 0 -5.9453552700335431e-05 0.00081687133215846181 0 -0.00014346374420996056 0.00082020893454486413 0 -0.00018464020354051603 0.00087378341586932925 0 -0.00018464020354051603 0.00087378341586932925 0 -0.00030963474869236655 0.00092763665642467126 0 -0.00023929565487419656 0.00085427934825542124 0 -0.00023978014483936314 0.00091393997022382598 0 -0.00018464020354051603 0.00087378341586932925 0 -0.00030963474869236655 0.00092763665642467126 0 -0.00023929565487419656 0.00085427934825542124 0 -0.00031763240946018758 0.00074765688767271059 0 -0.00037192250189058997 0.00088835639251090841 0 -0.00030963474869236655 0.00092763665642467126 0 -0.00023929565487419656 0.00085427934825542124 0 -0.00037192250189058997 0.00088835639251090841 0 -0.00023929565487419656 0.00085427934825542124 0 -0.00031763240946018758 0.00074765688767271059 0 -0.00019010403288577927 0.00075867048901209289 0 -0.00031763240946018758 0.00074765688767271059 0 -0.00019010403288577927 0.00075867048901209289 0 -0.00025305524500973377 0.00056311086136814252 0 -0.00012493297352774964 0.00062818235929039542 0 -0.00019010403288577927 0.00075867048901209289 0 -0.00025305524500973377 0.00056311086136814252 0 -0.00031763240946018758 0.00074765688767271059 0 -0.0004468070475406515 0.00061210951749856766 0 -0.00025305524500973377 0.00056311086136814252 0 -0.0004468070475406515 0.00061210951749856766 0 -0.00087692918119453261 0.00098992290032351936 0 -0.00055289257216762256 0.00040772520839088561 0 -0.00097243572751538128 0.0010150520391617528 0 -0.00079005787066033879 0.00036534065780304231 0 -0.00087692918119453261 0.00098992290032351936 0 -0.0015786088072930681 0.00061251493954768313 0 -0.0013720921898479892 0.00035509037326173604 0 -0.0004468070475406515 0.00061210951749856766 0 -0.00052983174195342256 0.0008557654246018143 0 -0.00087692918119453261 0.00098992290032351936 0 -0.00031763240946018758 0.00074765688767271059 0 -0.00052983174195342256 0.0008557654246018143 0 -0.00037192250189058997 0.00088835639251090841 0 -0.00031763240946018758 0.00074765688767271059 0 -0.0004468070475406515 0.00061210951749856766 0 -0.00052983174195342256 0.0008557654246018143 0 -0.00052983174195342256 0.0008557654246018143 0 -0.00037192250189058997 0.00088835639251090841 0 -0.0004934853200267977 0.0010016334470741755 0 -0.00030963474869236655 0.00092763665642467126 0 -0.00037192250189058997 0.00088835639251090841 0 -0.0004934853200267977 0.0010016334470741755 0 -0.00036707254796126076 0.00097610755123376126 0 -0.00030963474869236655 0.00092763665642467126 0 -0.0004934853200267977 0.0010016334470741755 0 -0.00036707254796126076 0.00097610755123376126 0 -0.00023978014483936314 0.00091393997022382598 0 -0.00030963474869236655 0.00092763665642467126 0 -0.00036707254796126076 0.00097610755123376126 0 -0.0004934853200267977 0.0010016334470741755 0 -0.00054739573545202372 0.0010691751125271821 0 -0.00054739573545202372 0.0010691751125271821 0 -0.00065318480871720162 0.0010838151890363295 0 -0.00079902792945212454 0.0012342062463711174 0 -0.00065318480871720162 0.0010838151890363295 0 -0.00087692918119453261 0.00098992290032351936 0 -0.00079902792945212454 0.0012342062463711174 0 -0.00052983174195342256 0.0008557654246018143 0 -0.00062578901202198841 0.00099266988360835928 0 -0.00087692918119453261 0.00098992290032351936 0 -0.00052983174195342256 0.0008557654246018143 0 -0.0004934853200267977 0.0010016334470741755 0 -0.00062578901202198841 0.00099266988360835928 0 -0.0004934853200267977 0.0010016334470741755 0 -0.00065318480871720162 0.0010838151890363295 0 -0.00062578901202198841 0.00099266988360835928 0 -0.0004934853200267977 0.0010016334470741755 0 -0.00054739573545202372 0.0010691751125271821 0 -0.00065318480871720162 0.0010838151890363295 0 -0.00065318480871720162 0.0010838151890363295 0 -0.00062578901202198841 0.00099266988360835928 0 -0.00087692918119453261 0.00098992290032351936 0 -0.00087692918119453261 0.00098992290032351936 0 -0.00079902792945212454 0.0012342062463711174 0 -0.0014951307776125062 0.0010300821057260623 0 -1.673052474852611e-05 0.0011195725449868277 0 -0.00079902792945212454 0.0012342062463711174 0 -0.00036051386534963626 0.0010292084804652752 0 -0.0011861993788257112 0.0013783300298767286 0 -0.00084121865778837902 0.0012688681795079274 0 -0.0023782180308061659 0.0016900678532703885 0 -0.00079902792945212454 0.0012342062463711174 0 -0.0014951307776125062 0.0010300821057260623 0 -0.00079902792945212454 0.0012342062463711174 0 -0.00053330519244050513 0.0010686414998809872 0 -0.00036051386534963626 0.0010292084804652752 0 -0.00054739573545202372 0.0010691751125271821 0 -0.00079902792945212454 0.0012342062463711174 0 -0.00053330519244050513 0.0010686414998809872 0 -0.00037731547169121753 0.00097287465237076254 0 -0.00053330519244050513 0.0010686414998809872 0 -0.00036051386534963626 0.0010292084804652752 0 -0.00037731547169121753 0.00097287465237076254 0 -0.00054739573545202372 0.0010691751125271821 0 -0.00053330519244050513 0.0010686414998809872 0 -0.0020664455015616426 0.00090049863556831489 0 -0.0014951307776125062 0.0010300821057260623 0 -0.0015786088072930681 0.00061251493954768313 0 -0.00087692918119453261 0.00098992290032351936 0 -0.0014951307776125062 0.0010300821057260623 0 -0.0015786088072930681 0.00061251493954768313 0 -0.0020664455015616426 0.00090049863556831489 0 -0.0023329907326477325 0.00056714369801395804 0 -0.0015786088072930681 0.00061251493954768313 0 -0.0015786088072930681 0.00061251493954768313 0 -0.0021225400613007327 0.00022976222500861309 0 -0.0013720921898479892 0.00035509037326173604 0 -0.0021225400613007327 0.00022976222500861309 0 -0.001796275119202167 -0.00012818721713891686 0 -0.0013720921898479892 0.00035509037326173604 0 -0.0023329907326477325 0.00056714369801395804 0 -0.0015786088072930681 0.00061251493954768313 0 -0.0021225400613007327 0.00022976222500861309 0 -0.0027580043139612143 -0.00022251700584637168 0 -0.0021225400613007327 0.00022976222500861309 0 -0.001796275119202167 -0.00012818721713891686 0 -0.0027580043139612143 -0.00022251700584637168 0 -0.001796275119202167 -0.00012818721713891686 0 -0.0018376757281770653 -0.00078086450483191481 0 -0.001796275119202167 -0.00012818721713891686 0 -0.0012174367822535657 -0.00041369835217711705 0 -0.0018376757281770653 -0.00078086450483191481 0 -0.0021723319695450649 -0.00011754794501226083 0 -0.00079005787066033879 0.00036534065780304231 0 -0.001796275119202167 -0.00012818721713891686 0 -0.0012174367822535657 -0.00041369835217711705 0 -0.0013720921898479892 0.00035509037326173604 0 -0.00044031673927884122 0.00011242150813095529 0 -0.00055289257216762256 0.00040772520839088561 0 -0.00038323105675147948 0.00035145179936878077 0 -0.0004468070475406515 0.00061210951749856766 0 -0.00055289257216762256 0.00040772520839088561 0 -0.00038323105675147948 0.00035145179936878077 0 -0.0004468070475406515 0.00061210951749856766 0 -0.00025305524500973377 0.00056311086136814252 0 -0.00038323105675147948 0.00035145179936878077 0 -0.00025305524500973377 0.00056311086136814252 0 -0.00022129813199877829 0.00034988736265482501 0 -0.00011358653009282309 0.00051054324436475393 0 -0.00025305524500973377 0.00056311086136814252 0 -0.00022129813199877829 0.00034988736265482501 0 -0.00038323105675147948 0.00035145179936878077 0 -0.00022129813199877829 0.00034988736265482501 0 -0.00038323105675147948 0.00035145179936878077 0 -0.00031600203736571497 0.00027267517105387522 0 -0.00044031673927884122 0.00011242150813095529 0 -0.00038323105675147948 0.00035145179936878077 0 -0.00034479016774419146 0.00020373214786631477 0 -0.00038323105675147948 0.00035145179936878077 0 -0.00031600203736571497 0.00027267517105387522 0 -0.00034479016774419146 0.00020373214786631477 0 -0.00031600203736571497 0.00027267517105387522 0 -0.00034479016774419146 0.00020373214786631477 0 -0.00031137114005843827 0.00018133154919545771 0 -0.0021723319695450649 -0.00011754794501226083 0 -0.0017358162895156487 0.00023605838371920101 0 -0.0030791006008437584 -2.6840398230171336e-05 0 -0.0032241978756565098 -0.00011063814874292764 0 -0.0032712735900933131 9.0307153868400485e-05 0 -0.00044031673927884122 0.00011242150813095529 0 -0.00034479016774419146 0.00020373214786631477 0 -0.0003180811340000752 0.00018369470486332695 0 -0.0014929964870162757 0.00012466945154676203 0 -0.0017358162895156487 0.00023605838371920101 0 -0.0017358162895156487 0.00023605838371920101 0 -0.0027533913082084089 0.00015044886307262679 0 -0.00022129813199877829 0.00034988736265482501 0 -0.00031600203736571497 0.00027267517105387522 0 -0.00031137114005843827 0.00018133154919545771 0 -0.0021019448264663087 0.0003135320529192773 0 -0.0021200750288859309 0.00027269249895525032 0 -0.002089215269984253 0.00028887111885673924 0 -0.0017358162895156487 0.00023605838371920101 0 -0.0010653621610313033 0.00034614414290825749 0 -0.0021395559351372992 0.00029037778653044784 0 -0.0021019448264663087 0.0003135320529192773 0 -0.0021200750288859309 0.00027269249895525032 0 -0.00022129813199877829 0.00034988736265482501 0 -0.00031137114005843827 0.00018133154919545771 0 -6.1054058802766261e-05 0.00037365078069478459 0 -6.1054058802766261e-05 0.00037365078069478459 0 -0.00011358653009282309 0.00051054324436475393 0 -1.4038614859046663e-05 0.00051812630197162928 0 -0.00022129813199877829 0.00034988736265482501 0 -6.1054058802766261e-05 0.00037365078069478459 0 -0.00011358653009282309 0.00051054324436475393 0 -4.2329217525029145e-05 0.00060197915752426511 0 -0.00011358653009282309 0.00051054324436475393 0 -1.4038614859046663e-05 0.00051812630197162928 0 -0.0050651935610940245 0.00051183946460593385 0 -0.0051387591204967494 0.00049030862008649144 0 -0.0051266473592802989 0.0005566777571016882 0 -0.0042655717622199774 0.0004401854530277124 0 -0.003783213648405104 0.00037597252111978553 0 -0.0050651935610940245 0.00051183946460593385 0 -0.0051266473592802989 0.0005566777571016882 0 -0.0050316959865189092 0.00063530934955193679 0 -0.0034452387265243565 0.00032532378926839259 0 -0.0034356345094319909 3.5450102169918109e-05 0 -0.0036427755954656599 0.0001803192185473942 0 -0.0021200750288859309 0.00027269249895525032 0 -0.002089215269984253 0.00028887111885673924 0 -0.0021022989424239443 0.00025315998279781636 0 -0.0034452387265243565 0.00032532378926839259 0 -0.0034356345094319909 3.5450102169918109e-05 0 -0.0032712735900933131 9.0307153868400485e-05 0 -0.0027533913082084089 0.00015044886307262679 0 -0.003783213648405104 0.00037597252111978553 0 -0.0034452387265243565 0.00032532378926839259 0 -0.0032712735900933131 9.0307153868400485e-05 0 -0.0031678378921056664 0.00022357236399171189 0 -0.0032241978756565098 -0.00011063814874292764 0 -0.0034356345094319909 3.5450102169918109e-05 0 -0.0032712735900933131 9.0307153868400485e-05 0 -0.0030791006008437584 -2.6840398230171336e-05 0 -0.0032712735900933131 9.0307153868400485e-05 0 -0.0031678378921056664 0.00022357236399171189 0 -0.0021723319695450649 -0.00011754794501226083 0 -0.0034965514013873518 0.00020518286847242753 0 -0.0034965514013873518 0.00020518286847242753 0 -0.0047095483350133721 0.00037702310888400829 0 -0.0034452387265243565 0.00032532378926839259 0 -0.0031678378921056664 0.00022357236399171189 0 -0.0032345219491599496 0.00048262334509336713 0 -0.0051387591204967494 0.00049030862008649144 0 -0.0052248207826774314 0.00048051805218560163 0 -0.0052127091094246979 0.00047662616692932042 0 -0.0051387591204967494 0.00049030862008649144 0 -0.0051266473592802989 0.0005566777571016882 0 -0.0052248207826774314 0.00048051805218560163 0 -0.0042655717622199774 0.0004401854530277124 0 -0.0047095483350133721 0.00037702310888400829 0 -0.0047095483350133721 0.00037702310888400829 0 -0.0050804269813196435 0.00046687431911135647 0 -0.0038422808533211711 0.00011632298801945313 0 -0.0038624278352609111 0.00016997209882400522 0 -0.0037972901310226828 0.00014404913901197843 0 -0.0038422808533211711 0.00011632298801945313 0 -0.0037972901310226828 0.00014404913901197843 0 -0.0037804744959332136 9.8088593699017872e-05 0 -0.0047095483350133721 0.00037702310888400829 0 -0.0048748713464066814 0.00026086843349082769 0 -0.0021723319695450649 -0.00011754794501226083 0 -0.0027574056981739081 -0.00031688193355585803 0 -0.0038188749861894074 7.185623695723828e-05 0 -0.0038422808533211711 0.00011632298801945313 0 -0.0037804744959332136 9.8088593699017872e-05 0 -0.0027574056981739081 -0.00031688193355585803 0 -0.0041605549991748985 -0.00019891534497454045 0 -0.0027580043139612143 -0.00022251700584637168 0 -0.0018376757281770653 -0.00078086450483191481 0 -0.0026753425312746209 -0.0011640058340674131 0 -0.0037972901310226828 0.00014404913901197843 0 -0.0037804744959332136 9.8088593699017872e-05 0 -0.0037451034465303267 0.00011993013982394824 0 -0.0048748713464066814 0.00026086843349082769 0 -0.0041605549991748985 -0.00019891534497454045 0 -0.005704123199047317 0.00030196140639597325 0 -0.0054575180768531538 0.00059065304273638313 0 -0.005354075012488111 9.5275288686789316e-05 0 -0.0054575180768531538 0.00059065304273638313 0 -0.0053432136173460374 0.00062796326575980906 0 -0.0053458863311197386 0.00072296785401867807 0 -0.0054445666949261649 0.00059068421983755036 0 -0.0058244317739340433 0.00038018539339010338 0 -0.0054575180768531538 0.00059065304273638313 0 -0.0053432136173460374 0.00062796326575980906 0 -0.0055176793878018836 0.0006008216336573902 0 -0.0060547344393499973 0.00017176446463760861 0 -0.0060624038987653625 0.00014760242811465976 0 -0.006032117942421888 0.00013849836836590692 0 -0.0057197476922808983 0.00039720143134486577 0 -0.0058244317739340433 0.00038018539339010338 0 -0.0060624038987653625 0.00014760242811465976 0 -0.0059712033301977012 0.00011167488995939356 0 -0.006032117942421888 0.00013849836836590692 0 -0.0060547344393499973 0.00017176446463760861 0 -0.0060652759877428547 0.00012466334370209048 0 -0.0060624038987653625 0.00014760242811465976 0 -0.0061339862418306025 0.00016864082156510049 0 -0.005835958459772507 0.00030304353450736309 0 -0.0061519677654273252 0.00019722419006671052 0 -0.0060624038987653625 0.00014760242811465976 0 -0.0062073047202416938 0.00054049229706291046 0 -0.0060849764515960771 0.0004454375969965824 0 -0.005704123199047317 0.00030196140639597325 0 -0.0058221110730638124 0.00065144733797458353 0 -0.005704123199047317 0.00030196140639597325 0 -0.0054575180768531538 0.00059065304273638313 0 -0.0058221110730638124 0.00065144733797458353 0 -0.0061519677654273252 0.00019722419006671052 0 -0.0060652759877428547 0.00012466334370209048 0 -0.0060624038987653625 0.00014760242811465976 0 -0.0047095483350133721 0.00037702310888400829 0 -0.0058244317739340433 0.00038018539339010338 0 -0.0058244317739340433 0.00038018539339010338 0 -0.0058505397230946624 0.00024567984038701091 0 -0.0056126837158407862 0.00037727581181093423 0 -0.0053980785640307845 0.00042772687041175267 0 -0.0053996987590704919 0.00033076722882517396 0 -0.0054183768370065881 0.00049587893849915626 0 -0.0053980785640307845 0.00042772687041175267 0 -0.0051788316909099699 0.00041693085925999772 0 -0.0054389496744517212 0.00050377206618510621 0 -0.0056126837158407862 0.00037727581181093423 0 -0.0053980785640307845 0.00042772687041175267 0 -0.0061519677654273252 0.00019722419006671052 0 -0.0060652759877428547 0.00012466334370209048 0 -0.0062431271525054191 0.00014894888600204212 0 -0.0054389496744517212 0.00050377206618510621 0 -0.0054179207255368967 0.00049676927320582698 0 -0.0053980785640307845 0.00042772687041175267 0 -0.0050804269813196435 0.00046687431911135647 0 -0.005180172424353288 0.00049550646876862401 0 -0.0053980785640307845 0.00042772687041175267 0 -0.0053996987590704919 0.00033076722882517396 0 -0.0053091582039089483 0.00037862453870306218 0 -0.0061519677654273252 0.00019722419006671052 0 -0.0062431271525054191 0.00014894888600204212 0 -0.0062687088820862135 0.0002577293626422455 0 -0.0061519677654273252 0.00019722419006671052 0 -0.0064227534185868334 0.00031085908064965679 0 -0.0062073047202416938 0.00054049229706291046 0 -0.0061915275883624166 0.0002111295110907224 0 -0.0063040189351919454 0.00026696209727516593 0 -0.0062431271525054191 0.00014894888600204212 0 -0.0062687088820862135 0.0002577293626422455 0 -0.0063629546342299642 0.00017724099416666404 0 -0.0055514397869408198 0.00033809831133471967 0 -0.0070762862677217807 -5.155148092825653e-05 0 -0.0062687088820862135 0.0002577293626422455 0 -0.0063629546342299642 0.00017724099416666404 0 -0.0063772562108988431 0.00031961154438296435 0 -0.0054262032865254779 0.00032714719061760196 0 -0.00538601325237331 -7.9900771109925605e-05 0 -0.0052430955062604274 7.4495058371779386e-05 0 -0.0058505397230946624 0.00024567984038701091 0 -0.0055514397869408198 0.00033809831133471967 0 -0.0050804269813196435 0.00046687431911135647 0 -0.0051671014022980008 0.00042761935992531949 0 -0.0051864340545576936 0.00028211892533572919 0 -0.0052601380335823046 0.00033918236035975895 0 -0.0051788316909099699 0.00041693085925999772 0 -0.0053980785640307845 0.00042772687041175267 0 -0.0053091582039089483 0.00037862453870306218 0 -0.0051788316909099699 0.00041693085925999772 0 -0.0051387591204967494 0.00049030862008649144 0 -0.0052127091094246979 0.00047662616692932042 0 -0.0050741724995071553 0.00042240350967985476 0 -0.0053996987590704919 0.00033076722882517396 0 -0.0051864340545576936 0.00028211892533572919 0 -0.0052601380335823046 0.00033918236035975895 0 -0.0053091582039089483 0.00037862453870306218 0 -0.0052601380335823046 0.00033918236035975895 0 -0.0051788316909099699 0.00041693085925999772 0 -0.0053996987590704919 0.00033076722882517396 0 -0.0053091582039089483 0.00037862453870306218 0 -0.0052601380335823046 0.00033918236035975895 0 -0.0050651935610940245 0.00051183946460593385 0 -0.0051387591204967494 0.00049030862008649144 0 -0.0050741724995071553 0.00042240350967985476 0 -0.0035475851146326842 0.0010068672586290332 0 -0.0036504823278017897 0.0010136249752154163 0 -0.003767550621222018 0.00081981518391219472 0 -0.0037851091084713478 0.0004271022409978379 0 -0.0036876779468508073 0.00098356718160502146 0 -0.0037227225681451489 -0.00017265038873499325 0 -0.0039841560838718799 -4.8795505218820207e-06 0 -0.0038254789727667693 -0.00019894035931014345 0 -0.0039841560838718799 -4.8795505218820207e-06 0 -0.0038254789727667693 -0.00019894035931014345 0 -0.0039934119085975528 -0.00021928355386871103 0 -0.0037227225681451489 -0.00017265038873499325 0 -0.0039841560838718799 -4.8795505218820207e-06 0 -0.0041093409128825382 0.00046151958021938829 0 -0.003622075334795736 0.0012941223958499134 0 -0.0032635731806026501 0.0015431303443961752 0 -0.0036876779468508073 0.00098356718160502146 0 -0.0036400371435597496 0.0013690435486899736 0 -0.003622075334795736 0.0012941223958499134 0 -0.0039956895425525977 0.0010810849623573118 0 -0.003622075334795736 0.0012941223958499134 0 -0.0036876779468508073 0.00098356718160502146 0 -0.0039956895425525977 0.0010810849623573118 0 -0.0036400371435597496 0.0013690435486899736 0 -0.003622075334795736 0.0012941223958499134 0 -0.0034649509990719637 0.001530771072733606 0 -0.003622075334795736 0.0012941223958499134 0 -0.0034649509990719637 0.001530771072733606 0 -0.0032635731806026501 0.0015431303443961752 0 -0.0033966264869830882 0.0017547518981369432 0 -0.0032879999834518215 0.0017516512190415146 0 -0.0034649509990719637 0.001530771072733606 0 -0.0032879999834518215 0.0017516512190415146 0 -0.0034649509990719637 0.001530771072733606 0 -0.0032635731806026501 0.0015431303443961752 0 -0.0039040020307506717 0.00011030204619673565 0 -0.0038254789727667693 -0.00019894035931014345 0 -0.0038415043022894629 -0.0002647340958788078 0 -0.0039040020307506717 0.00011030204619673565 0 -0.0037227225681451489 -0.00017265038873499325 0 -0.0038254789727667693 -0.00019894035931014345 0 -0.0039040020307506717 0.00011030204619673565 0 -0.003767550621222018 0.00081981518391219472 0 -0.0037851091084713478 0.0004271022409978379 0 -0.0039245630402725525 8.9045021417316853e-05 0 -0.0035512380257436702 0.0004020982680713398 0 -0.0038254789727667693 -0.00019894035931014345 0 -0.0038415043022894629 -0.0002647340958788078 0 -0.0039934119085975528 -0.00021928355386871103 0 -0.0035685942285797558 -0.0002013070264628365 0 -0.0038415043022894629 -0.0002647340958788078 0 -0.0039614373453020464 -0.00053251215874697147 0 -0.0027580043139612143 -0.00022251700584637168 0 -0.0035685942285797558 -0.0002013070264628365 0 -0.0039614373453020464 -0.00053251215874697147 0 -0.0038415043022894629 -0.0002647340958788078 0 -0.0039614373453020464 -0.00053251215874697147 0 -0.0039934119085975528 -0.00021928355386871103 0 -0.0038052665451800897 -0.00065563834234603059 0 -0.0041605549991748985 -0.00019891534497454045 0 -0.0027580043139612143 -0.00022251700584637168 0 -0.0039614373453020464 -0.00053251215874697147 0 -0.0026753425312746209 -0.0011640058340674131 0 -0.0054575180768531538 0.00059065304273638313 0 -0.005354075012488111 9.5275288686789316e-05 0 -0.0052640029701618079 0.00052762082221119325 0 -0.005354075012488111 9.5275288686789316e-05 0 -0.0046363937215799407 0.00021311890825702063 0 -0.0052640029701618079 0.00052762082221119325 0 -0.0039614373453020464 -0.00053251215874697147 0 -0.0050420683223941255 -0.00025405055006325256 0 -0.0046363937215799407 0.00021311890825702063 0 -0.0041605549991748985 -0.00019891534497454045 0 -0.0049653647850196403 0.00011683785103248795 0 -0.0039614373453020464 -0.00053251215874697147 0 -0.0039934119085975528 -0.00021928355386871103 0 -0.0046363937215799407 0.00021311890825702063 0 -0.0039841560838718799 -4.8795505218820207e-06 0 -0.0046363937215799407 0.00021311890825702063 0 -0.0041093409128825382 0.00046151958021938829 0 -0.0039841560838718799 -4.8795505218820207e-06 0 -0.0039934119085975528 -0.00021928355386871103 0 -0.0046363937215799407 0.00021311890825702063 0 -0.0046363937215799407 0.00021311890825702063 0 -0.0051759386306382375 0.00081793031293897803 0 -0.0041093409128825382 0.00046151958021938829 0 -0.0051725776259753187 0.0009006247448243085 0 -0.0051461077923472508 0.00087485396474683882 0 -0.0054575180768531538 0.00059065304273638313 0 -0.0052640029701618079 0.00052762082221119325 0 -0.0053458863311197386 0.00072296785401867807 0 -0.0046363937215799407 0.00021311890825702063 0 -0.0051759386306382375 0.00081793031293897803 0 -0.0052640029701618079 0.00052762082221119325 0 -0.0051759386306382375 0.00081793031293897803 0 -0.0052640029701618079 0.00052762082221119325 0 -0.0053458863311197386 0.00072296785401867807 0 -0.0053432136173460374 0.00062796326575980906 0 -0.0057788755725354315 0.0005800480962139603 0 -0.006124905586873358 0.00022949545989129665 0 -0.0053432136173460374 0.00062796326575980906 0 -0.0053458863311197386 0.00072296785401867807 0 -0.0057788755725354315 0.0005800480962139603 0 -0.0051759386306382375 0.00081793031293897803 0 -0.0053458863311197386 0.00072296785401867807 0 -0.0057788755725354315 0.0005800480962139603 0 -0.0051759386306382375 0.00081793031293897803 0 -0.0057788755725354315 0.0005800480962139603 0 -0.0065202183974157075 0.00081549647284031646 0 -0.0051461077923472508 0.00087485396474683882 0 -0.0069391608843196156 0.00018238044229267988 0 -0.0057788755725354315 0.0005800480962139603 0 -0.0065202183974157075 0.00081549647284031646 0 -0.0067849305628549586 0.00023590471191138637 0 -0.0037227225681451489 -0.00017265038873499325 0 -0.0035900918768446656 0.0013755318358119814 0 -0.0041093409128825382 0.00046151958021938829 0 -0.0051759386306382375 0.00081793031293897803 0 -0.0035900918768446656 0.0013755318358119814 0 -0.0041093409128825382 0.00046151958021938829 0 -0.0035512380257436702 0.0004020982680713398 0 -0.0051461077923472508 0.00087485396474683882 0 -0.003767550621222018 0.00081981518391219472 0 -0.0036413675080437099 0.00097350358015591454 0 -0.0036876779468508073 0.00098356718160502146 0 -0.0036413675080437099 0.00097350358015591454 0 -0.0036876779468508073 0.00098356718160502146 0 -0.0039956895425525977 0.0010810849623573118 0 -0.0071710514778151116 0.00026195247614748199 0 -0.006798389961712132 0.0004931015919403107 0 -0.0067849305628549586 0.00023590471191138637 0 -0.0058662687319024883 0.00031023237060135101 0 -0.0051461077923472508 0.00087485396474683882 0 -0.0045223630303110806 0.00037451017633353424 0 -0.0036413675080437099 0.00097350358015591454 0 -0.0039956895425525977 0.0010810849623573118 0 -0.0071710514778151116 0.00026195247614748199 0 -0.0072430395574977768 6.4032442016698904e-05 0 -0.0067849305628549586 0.00023590471191138637 0 -0.0072430395574977768 6.4032442016698904e-05 0 -0.0068286987523493532 5.9832493020960136e-05 0 -0.0067849305628549586 0.00023590471191138637 0 -0.0072430395574977768 6.4032442016698904e-05 0 -0.0068286987523493532 5.9832493020960136e-05 0 -0.0074779248355455238 -0.0001061108689126076 0 -0.0068286987523493532 5.9832493020960136e-05 0 -0.0067849305628549586 0.00023590471191138637 0 -0.006124905586873358 0.00022949545989129665 0 -0.0057788755725354315 0.0005800480962139603 0 -0.0067849305628549586 0.00023590471191138637 0 -0.006124905586873358 0.00022949545989129665 0 -0.0060547344393499973 0.00017176446463760861 0 -0.006124905586873358 0.00022949545989129665 0 -0.0060610485841414838 0.00010418957320165644 0 -0.0057197476922808983 0.00039720143134486577 0 -0.0060858970818014413 0.00023125869491558677 0 -0.006124905586873358 0.00022949545989129665 0 -0.006325644668771723 -0.00021684954838970813 0 -0.0060610485841414838 0.00010418957320165644 0 -0.0068286987523493532 5.9832493020960136e-05 0 -0.006124905586873358 0.00022949545989129665 0 -0.006325644668771723 -0.00021684954838970813 0 -0.007517773315493235 -0.00014657085062010707 0 -0.007472132423820786 -0.00012297228969804675 0 -0.0087102780183986508 -0.00012623660669528895 0 -0.0090087107489218235 0.00028552335332610924 0 -0.0093134615813859501 2.3752176363441526e-06 0 -0.006325644668771723 -0.00021684954838970813 0 -0.0060610485841414838 0.00010418957320165644 0 -0.0060494629502171561 -9.5368503469660642e-05 0 -0.007517773315493235 -0.00014657085062010707 0 -0.007681110085426335 -0.00010293405521035125 0 -0.0087102780183986508 -0.00012623660669528895 0 -0.0090087107489218235 0.00028552335332610924 0 -0.0083248077563059155 0.00048380720311347623 0 -0.0087102780183986508 -0.00012623660669528895 0 -0.0074779248355455238 -0.0001061108689126076 0 -0.0083248077563059155 0.00048380720311347623 0 -0.0074779248355455238 -0.0001061108689126076 0 -0.0079516559376487002 0.00064236326110561431 0 -0.0083248077563059155 0.00048380720311347623 0 -0.0074779248355455238 -0.0001061108689126076 0 -0.0079516559376487002 0.00064236326110561431 0 -0.0073824096147464512 0.00010824562062688223 0 -0.0072430395574977768 6.4032442016698904e-05 0 -0.0074779248355455238 -0.0001061108689126076 0 -0.0073824096147464512 0.00010824562062688223 0 -0.0068286987523493532 5.9832493020960136e-05 0 -0.006325644668771723 -0.00021684954838970813 0 -0.0074779248355455238 -0.0001061108689126076 0 -0.0067213529853024203 0.0007208387885495887 0 -0.0064910506534054824 0.00064671429795128685 0 -0.0066882310604503966 0.00044759061143866797 0 -0.0067213529853024203 0.0007208387885495887 0 -0.0064910506534054824 0.00064671429795128685 0 -0.0065484969219346779 0.00087250857406842824 0 -0.0081377330445008556 0.00040820532026304907 0 -0.0070762862677217807 -5.155148092825653e-05 0 -0.0064227534185868334 0.00031085908064965679 0 -0.0064910506534054824 0.00064671429795128685 0 -0.0066882310604503966 0.00044759061143866797 0 -0.0063040189351919454 0.00026696209727516593 0 -0.0070762862677217807 -5.155148092825653e-05 0 -0.0064227534185868334 0.00031085908064965679 0 -0.0064910506534054824 0.00064671429795128685 0 -0.0062073047202416938 0.00054049229706291046 0 -0.0064910506534054824 0.00064671429795128685 0 -0.0062073047202416938 0.00054049229706291046 0 -0.0063602764746019417 0.0010032550169027168 0 -0.0064910506534054824 0.00064671429795128685 0 -0.0063602764746019417 0.0010032550169027168 0 -0.0065484969219346779 0.00087250857406842824 0 -0.005835958459772507 0.00030304353450736309 0 -0.00783322264256083 0.00037761234800715759 0 -0.0059894831823877857 1.9539142644037099e-05 0 -0.0059712033301977012 0.00011167488995939356 0 -0.0059226504183166251 -4.2550849519769761e-05 0 -0.0059894831823877857 1.9539142644037099e-05 0 -0.0060161803500213889 9.6567825553269936e-05 0 -0.0059712033301977012 0.00011167488995939356 0 -0.0060161803500213889 9.6567825553269936e-05 0 -0.0059712033301977012 0.00011167488995939356 0 -0.006032117942421888 0.00013849836836590692 0 -0.0060161803500213889 9.6567825553269936e-05 0 -0.006032117942421888 0.00013849836836590692 0 -0.0060610485841414838 0.00010418957320165644 0 -0.0060547344393499973 0.00017176446463760861 0 -0.006032117942421888 0.00013849836836590692 0 -0.0060610485841414838 0.00010418957320165644 0 -0.0059894831823877857 1.9539142644037099e-05 0 -0.0060610485841414838 0.00010418957320165644 0 -0.0060494629502171561 -9.5368503469660642e-05 0 -0.0059894831823877857 1.9539142644037099e-05 0 -0.0060161803500213889 9.6567825553269936e-05 0 -0.0060610485841414838 0.00010418957320165644 0 -0.0090087107489218235 0.00028552335332610924 0 -0.0093134615813859501 2.3752176363441526e-06 0 -0.0093307419411358793 0.00048443320651819826 0 -0.0093134615813859501 2.3752176363441526e-06 0 -0.0095613542746982826 0.00028961025886409079 0 -0.0093307419411358793 0.00048443320651819826 0 -0.007681110085426335 -0.00010293405521035125 0 -0.00783322264256083 0.00037761234800715759 0 -0.0059894831823877857 1.9539142644037099e-05 0 -0.0060494629502171561 -9.5368503469660642e-05 0 -0.0059226504183166251 -4.2550849519769761e-05 0 -0.0093134615813859501 2.3752176363441526e-06 0 -0.0095613542746982826 0.00028961025886409079 0 -0.0097473376788061485 5.8957422577591203e-05 0 -0.0095613542746982826 0.00028961025886409079 0 -0.0097473376788061485 5.8957422577591203e-05 0 -0.0098202518916252687 0.00040846827666013181 0 -0.00783322264256083 0.00037761234800715759 0 -0.0099139189301010368 0.00054867633669580188 0 -0.0096881015009805359 0.0004834223204984681 0 -0.0097433267685435778 0.00060004711969377869 0 -0.0097677019771984196 0.00053111804667806432 0 -0.0097433267685435778 0.00060004711969377869 0 -0.0097677019771984196 0.00053111804667806432 0 -0.0098393661961593895 0.00056873184948058033 0 -0.0097677019771984196 0.00053111804667806432 0 -0.0098283166674582451 0.00048422368876729796 0 -0.0098393661961593895 0.00056873184948058033 0 -0.00783322264256083 0.00037761234800715759 0 -0.0088767200315166203 0.00076006173503860043 0 -0.0096881015009805359 0.0004834223204984681 0 -0.0097677019771984196 0.00053111804667806432 0 -0.0098283166674582451 0.00048422368876729796 0 -0.0063602764746019417 0.0010032550169027168 0 -0.0067546981974115506 0.0010002583189417285 0 -0.0065484969219346779 0.00087250857406842824 0 -0.0081377330445008556 0.00040820532026304907 0 -0.0088767200315166203 0.00076006173503860043 0 -0.0067213529853024203 0.0007208387885495887 0 -0.0067546981974115506 0.0010002583189417285 0 -0.0065484969219346779 0.00087250857406842824 0 -0.0098094305392153382 0.00070750690265559437 0 -0.0098529670413280025 0.00064594931793660732 0 -0.0098957865464790132 0.00071469589516203272 0 -0.0098094305392153382 0.00070750690265559437 0 -0.0098957865464790132 0.00071469589516203272 0 -0.0098853972304202807 0.00079515828408666643 0 -0.0098094305392153382 0.00070750690265559437 0 -0.0097973089180350449 0.00082390882281207199 0 -0.0098853972304202807 0.00079515828408666643 0 -0.0097433267685435778 0.00060004711969377869 0 -0.0098393661961593895 0.00056873184948058033 0 -0.0098529670413280025 0.00064594931793660732 0 -0.0099139189301010368 0.00054867633669580188 0 -0.0097868703209149158 0.00065624716549168556 0 -0.0097433267685435778 0.00060004711969377869 0 -0.0098094305392153382 0.00070750690265559437 0 -0.0098529670413280025 0.00064594931793660732 0 -0.0095613542746982826 0.00028961025886409079 0 -0.0098202518916252687 0.00040846827666013181 0 -0.009564105566586099 0.00054247454670468091 0 -0.0098202518916252687 0.00040846827666013181 0 -0.0098094305392153382 0.00070750690265559437 0 -0.0097138774691817639 0.00061391550358366428 0 -0.0098202518916252687 0.00040846827666013181 0 -0.0097138774691817639 0.00061391550358366428 0 -0.009564105566586099 0.00054247454670468091 0 -0.0098094305392153382 0.00070750690265559437 0 -0.0097138774691817639 0.00061391550358366428 0 -0.0096238281290397677 0.00074894006135648675 0 -0.0098094305392153382 0.00070750690265559437 0 -0.0096238281290397677 0.00074894006135648675 0 -0.0096918035979525544 0.00085849011797468108 0 -0.0098094305392153382 0.00070750690265559437 0 -0.0096918035979525544 0.00085849011797468108 0 -0.0097973089180350449 0.00082390882281207199 0 -0.0096238281290397677 0.00074894006135648675 0 -0.0095529787285755698 0.00087047103891112849 0 -0.0096918035979525544 0.00085849011797468108 0 -0.0094653763122941742 0.00072515900007647243 0 -0.0093885388675001326 0.0009137022081874553 0 -0.0095529787285755698 0.00087047103891112849 0 -0.0094653763122941742 0.00072515900007647243 0 -0.0096238281290397677 0.00074894006135648675 0 -0.0095529787285755698 0.00087047103891112849 0 -0.0094653763122941742 0.00072515900007647243 0 -0.0096238281290397677 0.00074894006135648675 0 -0.009564105566586099 0.00054247454670468091 0 -0.0097138774691817639 0.00061391550358366428 0 -0.0096238281290397677 0.00074894006135648675 0 -0.009564105566586099 0.00054247454670468091 0 -0.0095613542746982826 0.00028961025886409079 0 -0.009564105566586099 0.00054247454670468091 0 -0.0093307419411358793 0.00048443320651819826 0 -0.0094653763122941742 0.00072515900007647243 0 -0.009564105566586099 0.00054247454670468091 0 -0.0093307419411358793 0.00048443320651819826 0 -0.0090087107489218235 0.00028552335332610924 0 -0.0093307419411358793 0.00048443320651819826 0 -0.0091082154441881925 0.00059341308560060787 0 -0.0094653763122941742 0.00072515900007647243 0 -0.0093307419411358793 0.00048443320651819826 0 -0.0092773235006032469 0.00070600412877913675 0 -0.0093307419411358793 0.00048443320651819826 0 -0.0092773235006032469 0.00070600412877913675 0 -0.0091082154441881925 0.00059341308560060787 0 -0.0092773235006032469 0.00070600412877913675 0 -0.0091082154441881925 0.00059341308560060787 0 -0.0090840281445297814 0.00080998573654649355 0 -0.0094653763122941742 0.00072515900007647243 0 -0.0092773235006032469 0.00070600412877913675 0 -0.0093885388675001326 0.0009137022081874553 0 -0.0092773235006032469 0.00070600412877913675 0 -0.0093885388675001326 0.0009137022081874553 0 -0.0090840281445297814 0.00080998573654649355 0 -0.0093885388675001326 0.0009137022081874553 0 -0.009259193329617393 0.0010713505007917635 0 -0.0090840281445297814 0.00080998573654649355 0 -0.0093919506170134018 0.00092439226378250691 0 -0.0093928875021534707 0.00095185394402771213 0 -0.0093885388675001326 0.0009137022081874553 0 -0.0094873400967490813 0.00098597447656707674 0 -0.0095241115658061311 0.00094894965228465645 0 -0.0093885388675001326 0.0009137022081874553 0 -0.009259193329617393 0.0010713505007917635 0 -0.0092972164362723868 0.0010249355516414444 0 -0.009259193329617393 0.0010713505007917635 0 -0.0092972164362723868 0.0010249355516414444 0 -0.009502126873261062 0.00086306243726222128 0 -0.0094873400967490813 0.00098597447656707674 0 -0.0096380788874030083 0.001044890716277851 0 -0.0094762806990531662 0.0011701389254794444 0 -0.0093928875021534707 0.00095185394402771213 0 -0.0099389195696682805 0.0011212453619499857 0 -0.0092972164362723868 0.0010249355516414444 0 -0.009502126873261062 0.00086306243726222128 0 -0.0093284628172712897 0.00059553218999557078 0 -0.0095775692622421145 0.0011065434954898069 0 -0.0099389195696682805 0.0011212453619499857 0 -0.0094873400967490813 0.00098597447656707674 0 -0.0096380788874030083 0.001044890716277851 0 -0.0095241115658061311 0.00094894965228465645 0 -0.0096399305211843905 0.00094755717825814687 0 -0.0097323624790787849 0.0010436094306895659 0 -0.0096380788874030083 0.001044890716277851 0 -0.0096250033748506818 0.00094785562673606728 0 -0.0097533320859695179 0.0010529735798995496 0 -0.0096380788874030083 0.001044890716277851 0 -0.0097533320859695179 0.0010529735798995496 0 -0.0097025553828337455 0.0010629407092389515 0 -0.0096380788874030083 0.001044890716277851 0 -0.0096250033748506818 0.00094785562673606728 0 -0.0095241115658061311 0.00094894965228465645 0 -0.0093885388675001326 0.0009137022081874553 0 -0.0095241115658061311 0.00094894965228465645 0 -0.0095529787285755698 0.00087047103891112849 0 -0.0096250033748506818 0.00094785562673606728 0 -0.0095241115658061311 0.00094894965228465645 0 -0.0095529787285755698 0.00087047103891112849 0 -0.0096250033748506818 0.00094785562673606728 0 -0.0095529787285755698 0.00087047103891112849 0 -0.0096918035979525544 0.00085849011797468108 0 -0.0096918035979525544 0.00085849011797468108 0 -0.0097624721668754036 0.00090752508388098783 0 -0.0097973089180350449 0.00082390882281207199 0 -0.0096250033748506818 0.00094785562673606728 0 -0.0096918035979525544 0.00085849011797468108 0 -0.0096948667235826885 0.00093540387381042974 0 -0.0096918035979525544 0.00085849011797468108 0 -0.0097624721668754036 0.00090752508388098783 0 -0.0096948667235826885 0.00093540387381042974 0 -0.0097624721668754036 0.00090752508388098783 0 -0.0097013168485582633 0.0010094830138852567 0 -0.0097920866702616155 0.00098256547363571368 0 -0.0096250033748506818 0.00094785562673606728 0 -0.0096948667235826885 0.00093540387381042974 0 -0.0097013168485582633 0.0010094830138852567 0 -0.0097624721668754036 0.00090752508388098783 0 -0.0096948667235826885 0.00093540387381042974 0 -0.0097013168485582633 0.0010094830138852567 0 -0.0097920866702616155 0.00098256547363571368 0 -0.0099021203285752681 0.00091218719770576784 0 -0.0098668640407701663 0.0010311388699611279 0 -0.0097920866702616155 0.00098256547363571368 0 -0.0098384594667162723 0.00086315725898169484 0 -0.0099021203285752681 0.00091218719770576784 0 -0.0097624721668754036 0.00090752508388098783 0 -0.0097920866702616155 0.00098256547363571368 0 -0.0098384594667162723 0.00086315725898169484 0 -0.0098384594667162723 0.00086315725898169484 0 -0.0098853972304202807 0.00079515828408666643 0 -0.0099021203285752681 0.00091218719770576784 0 -0.0097624721668754036 0.00090752508388098783 0 -0.0098384594667162723 0.00086315725898169484 0 -0.0097973089180350449 0.00082390882281207199 0 -0.0098384594667162723 0.00086315725898169484 0 -0.0097973089180350449 0.00082390882281207199 0 -0.0098853972304202807 0.00079515828408666643 0 -0.0083647074258599886 0.00078351311020301783 0 -0.0086504885889310233 0.00083651572662721101 0 -0.0085875667334926603 0.00097321163243069861 0 -0.0083647074258599886 0.00078351311020301783 0 -0.0085875667334926603 0.00097321163243069861 0 -0.0085026150963660486 0.00097279796673274362 0 -0.0079516559376487002 0.00064236326110561431 0 -0.0085026150963660486 0.00097279796673274362 0 -0.0082752158947644403 0.00082652419283712726 0 -0.0083647074258599886 0.00078351311020301783 0 -0.0079516559376487002 0.00064236326110561431 0 -0.0085026150963660486 0.00097279796673274362 0 -0.0083647074258599886 0.00078351311020301783 0 -0.0079516559376487002 0.00064236326110561431 0 -0.0083248077563059155 0.00048380720311347623 0 -0.0083647074258599886 0.00078351311020301783 0 -0.0083248077563059155 0.00048380720311347623 0 -0.0086504885889310233 0.00083651572662721101 0 -0.0090087107489218235 0.00028552335332610924 0 -0.0083248077563059155 0.00048380720311347623 0 -0.0088256716014846193 0.00062679014793495802 0 -0.0083248077563059155 0.00048380720311347623 0 -0.0088256716014846193 0.00062679014793495802 0 -0.0086504885889310233 0.00083651572662721101 0 -0.0090087107489218235 0.00028552335332610924 0 -0.0088256716014846193 0.00062679014793495802 0 -0.0091082154441881925 0.00059341308560060787 0 -0.0088256716014846193 0.00062679014793495802 0 -0.0091082154441881925 0.00059341308560060787 0 -0.0090840281445297814 0.00080998573654649355 0 -0.0088256716014846193 0.00062679014793495802 0 -0.0090840281445297814 0.00080998573654649355 0 -0.0086504885889310233 0.00083651572662721101 0 -0.0090840281445297814 0.00080998573654649355 0 -0.0086504885889310233 0.00083651572662721101 0 -0.0087874461030168372 0.0010415772214572077 0 -0.0086504885889310233 0.00083651572662721101 0 -0.0087874461030168372 0.0010415772214572077 0 -0.0085875667334926603 0.00097321163243069861 0 -0.009259193329617393 0.0010713505007917635 0 -0.0090840281445297814 0.00080998573654649355 0 -0.0087874461030168372 0.0010415772214572077 0 -0.0093048483364779559 0.0010587994933551272 0 -0.0094378752529604114 0.0010191590442979496 0 -0.009259193329617393 0.0010713505007917635 0 -0.0087874461030168372 0.0010415772214572077 0 -0.0087874759961819732 0.0011937304176762211 0 -0.009502126873261062 0.00086306243726222128 0 -0.010055483986452382 0.00091856818979912599 0 -0.0097593119062342193 0.00055972713137296144 0 -0.009259193329617393 0.0010713505007917635 0 -0.009502126873261062 0.00086306243726222128 0 -0.010055483986452382 0.00091856818979912599 0 -0.009502126873261062 0.00086306243726222128 0 -0.0097593119062342193 0.00055972713137296144 0 -0.0093284628172712897 0.00059553218999557078 0 -0.0087874461030168372 0.0010415772214572077 0 -0.0087874759961819732 0.0011937304176762211 0 -0.0087403575956818205 0.001160952103545676 0 -0.0087874759961819732 0.0011937304176762211 0 -0.0087403575956818205 0.001160952103545676 0 -0.0087397181451538877 0.00094479650730177852 0 -0.0087874461030168372 0.0010415772214572077 0 -0.0087403575956818205 0.001160952103545676 0 -0.0085875667334926603 0.00097321163243069861 0 -0.0087403575956818205 0.001160952103545676 0 -0.0085875667334926603 0.00097321163243069861 0 -0.0085026150963660486 0.00097279796673274362 0 -0.0087403575956818205 0.001160952103545676 0 -0.0085026150963660486 0.00097279796673274362 0 -0.0088620579601375506 0.0012308812503178973 0 -0.0085026150963660486 0.00097279796673274362 0 -0.0088620579601375506 0.0012308812503178973 0 -0.0082752158947644403 0.00082652419283712726 0 -0.0087403575956818205 0.001160952103545676 0 -0.0088620579601375506 0.0012308812503178973 0 -0.0089299493740633111 0.0010814699924492112 0 -0.008949015972080596 0.0012235312918578913 0 -0.0091875594901520957 0.0011830278164184464 0 -0.0088620579601375506 0.0012308812503178973 0 -0.010136942820640546 0.0011689503246824432 0 -0.0093878513150001813 0.00089885606674256955 0 -0.0088620579601375506 0.0012308812503178973 0 -0.0082484243444835882 0.00099403886155040875 0 -0.0082645116783587359 0.0012402403898050061 0 -0.0080536788468514985 0.00099073438231455746 0 -0.0080688914256203011 0.0011920113636856651 0 -0.0082645116783587359 0.0012402403898050061 0 -0.0082484243444835882 0.00099403886155040875 0 -0.0080536788468514985 0.00099073438231455746 0 -0.0082645116783587359 0.0012402403898050061 0 -0.0082484243444835882 0.00099403886155040875 0 -0.0080652863739411693 0.00083034378394380689 0 -0.0080536788468514985 0.00099073438231455746 0 -0.0082484243444835882 0.00099403886155040875 0 -0.0082752158947644403 0.00082652419283712726 0 -0.0080652863739411693 0.00083034378394380689 0 -0.0088620579601375506 0.0012308812503178973 0 -0.0082484243444835882 0.00099403886155040875 0 -0.0082752158947644403 0.00082652419283712726 0 -0.0079516559376487002 0.00064236326110561431 0 -0.0082752158947644403 0.00082652419283712726 0 -0.0081311307128449015 0.00072470319585208785 0 -0.0082752158947644403 0.00082652419283712726 0 -0.0080652863739411693 0.00083034378394380689 0 -0.0081311307128449015 0.00072470319585208785 0 -0.0080652863739411693 0.00083034378394380689 0 -0.0080173589746632724 0.00073016463943690756 0 -0.0081311307128449015 0.00072470319585208785 0 -0.0080173589746632724 0.00073016463943690756 0 -0.0081311307128449015 0.00072470319585208785 0 -0.0080994089749128056 0.00070698302973182768 0 -0.0079193920798789272 0.00063801859166920198 0 -0.0076610810481154328 0.00054307888533354552 0 -0.0079516559376487002 0.00064236326110561431 0 -0.0081311307128449015 0.00072470319585208785 0 -0.0080994089749128056 0.00070698302973182768 0 -0.0078749175687953966 0.00073597987598055642 0 -0.0078153555753362018 0.00076158887823657634 0 -0.0077373460751790678 0.00075292546177922542 0 -0.0078749175687953966 0.00073597987598055642 0 -0.0077373460751790678 0.00075292546177922542 0 -0.007726851600545993 0.00073619396834564781 0 -0.0078749175687953966 0.00073597987598055642 0 -0.007930534868369284 0.00077620630759155042 0 -0.0078153555753362018 0.00076158887823657634 0 -0.0080173589746632724 0.00073016463943690756 0 -0.0078749175687953966 0.00073597987598055642 0 -0.007930534868369284 0.00077620630759155042 0 -0.0080652863739411693 0.00083034378394380689 0 -0.007930534868369284 0.00077620630759155042 0 -0.0079110914246277655 0.00082917745605005531 0 -0.0080652863739411693 0.00083034378394380689 0 -0.0080173589746632724 0.00073016463943690756 0 -0.007930534868369284 0.00077620630759155042 0 -0.007930534868369284 0.00077620630759155042 0 -0.0078153555753362018 0.00076158887823657634 0 -0.0079110914246277655 0.00082917745605005531 0 -0.0078153555753362018 0.00076158887823657634 0 -0.0079110914246277655 0.00082917745605005531 0 -0.0078405542949849336 0.00076586439599626356 0 -0.0079110914246277655 0.00082917745605005531 0 -0.0080536788468514985 0.00099073438231455746 0 -0.0078900957465226785 0.00090689839663742619 0 -0.0079110914246277655 0.00082917745605005531 0 -0.0078900957465226785 0.00090689839663742619 0 -0.0078405542949849336 0.00076586439599626356 0 -0.0080652863739411693 0.00083034378394380689 0 -0.0079110914246277655 0.00082917745605005531 0 -0.0080536788468514985 0.00099073438231455746 0 -0.0080536788468514985 0.00099073438231455746 0 -0.0078900957465226785 0.00090689839663742619 0 -0.0080688914256203011 0.0011920113636856651 0 -0.0078796323668038071 0.00065238461251876834 0 -0.0078876182055370812 0.00076922987683406073 0 -0.0079830756527448261 0.00082881914587791951 0 -0.0078900957465226785 0.00090689839663742619 0 -0.0078876182055370812 0.00076922987683406073 0 -0.0079830756527448261 0.00082881914587791951 0 -0.0076910173646954098 0.00072068730350222121 0 -0.008179248090662606 0.00086878393305114181 0 -0.0078796323668038071 0.00065238461251876834 0 -0.007885679710406027 0.00059927788503374719 0 -0.0079830756527448261 0.00082881914587791951 0 -0.0078796323668038071 0.00065238461251876834 0 -0.0078317169775151806 0.00068582916915948958 0 -0.0078876182055370812 0.00076922987683406073 0 -0.0078796323668038071 0.00065238461251876834 0 -0.0078317169775151806 0.00068582916915948958 0 -0.0078756300545629807 0.00058585436139688498 0 -0.0078317169775151806 0.00068582916915948958 0 -0.0078405542949849336 0.00076586439599626356 0 -0.0078876182055370812 0.00076922987683406073 0 -0.0078900957465226785 0.00090689839663742619 0 -0.0078405542949849336 0.00076586439599626356 0 -0.0078876182055370812 0.00076922987683406073 0 -0.0076910173646954098 0.00072068730350222121 0 -0.010337614745723648 0.00084420039849493467 0 -0.0083260192974926057 0.00099471208013696979 0 -0.0087326712645820776 0.0011397640776771838 0 -0.0084668746834545023 0.00078845412698721345 0 -0.013287967051462681 0.0010513725285910892 0 -0.013405387662491648 0.0010956252274370722 0 -0.013310166686439452 0.0012313428325441485 0 -0.010337614745723648 0.00084420039849493467 0 -0.011051216014652161 0.0010076324042555536 0 -0.0078796323668038071 0.00065238461251876834 0 -0.007885679710406027 0.00059927788503374719 0 -0.0079390685775760639 0.00053147447064123539 0 -0.007885679710406027 0.00059927788503374719 0 -0.0079390685775760639 0.00053147447064123539 0 -0.0081106999010077067 0.00036877124368196057 0 -0.0078796323668038071 0.00065238461251876834 0 -0.0078756300545629807 0.00058585436139688498 0 -0.0079390685775760639 0.00053147447064123539 0 -0.0078756300545629807 0.00058585436139688498 0 -0.0079390685775760639 0.00053147447064123539 0 -0.0080206968352319503 0.00046287909304288457 0 -0.0079390685775760639 0.00053147447064123539 0 -0.0080206968352319503 0.00046287909304288457 0 -0.0081106999010077067 0.00036877124368196057 0 -0.0080206968352319503 0.00046287909304288457 0 -0.0081610294441759566 0.00038531260582677342 0 -0.0081106999010077067 0.00036877124368196057 0 -0.0080206968352319503 0.00046287909304288457 0 -0.0081610294441759566 0.00038531260582677342 0 -0.0081107393642348008 0.00044599956969913724 0 -0.0081107393642348008 0.00044599956969913724 0 -0.0082562208944658884 0.00038854617302796379 0 -0.008261612428920536 0.00045460675158076516 0 -0.0081107393642348008 0.00044599956969913724 0 -0.0079799271080492895 0.00058609042880796672 0 -0.008261612428920536 0.00045460675158076516 0 -0.0081610294441759566 0.00038531260582677342 0 -0.0081107393642348008 0.00044599956969913724 0 -0.0082562208944658884 0.00038854617302796379 0 -0.0080206968352319503 0.00046287909304288457 0 -0.0081107393642348008 0.00044599956969913724 0 -0.0079549455375131552 0.00053591062849985796 0 -0.0081107393642348008 0.00044599956969913724 0 -0.0079549455375131552 0.00053591062849985796 0 -0.0079799271080492895 0.00058609042880796672 0 -0.0078756300545629807 0.00058585436139688498 0 -0.0078237296533884056 0.0006460540982931918 0 -0.0077841639518905527 0.00067748657042733843 0 -0.0078756300545629807 0.00058585436139688498 0 -0.0079549455375131552 0.00053591062849985796 0 -0.0078237296533884056 0.0006460540982931918 0 -0.0079549455375131552 0.00053591062849985796 0 -0.0078237296533884056 0.0006460540982931918 0 -0.0079799271080492895 0.00058609042880796672 0 -0.0078756300545629807 0.00058585436139688498 0 -0.0080206968352319503 0.00046287909304288457 0 -0.0079549455375131552 0.00053591062849985796 0 -0.0078237296533884056 0.0006460540982931918 0 -0.0077841639518905527 0.00067748657042733843 0 -0.0076954078945022002 0.0007622735867471082 0 -0.0078237296533884056 0.0006460540982931918 0 -0.0078092695526602827 0.00072168352504775027 0 -0.0076954078945022002 0.0007622735867471082 0 -0.0078092695526602827 0.00072168352504775027 0 -0.0076954078945022002 0.0007622735867471082 0 -0.0077280726880856188 0.00085617570956985831 0 -0.0078092695526602827 0.00072168352504775027 0 -0.0078979764560191037 0.00076644320227407467 0 -0.0077280726880856188 0.00085617570956985831 0 -0.0078237296533884056 0.0006460540982931918 0 -0.0078092695526602827 0.00072168352504775027 0 -0.0079799271080492895 0.00058609042880796672 0 -0.0078092695526602827 0.00072168352504775027 0 -0.0079799271080492895 0.00058609042880796672 0 -0.0078979764560191037 0.00076644320227407467 0 -0.0079799271080492895 0.00058609042880796672 0 -0.0078979764560191037 0.00076644320227407467 0 -0.0081940461751625251 0.0006435695421240597 0 -0.0078979764560191037 0.00076644320227407467 0 -0.0081940461751625251 0.0006435695421240597 0 -0.0081452117484332454 0.00084567977592501142 0 -0.0079799271080492895 0.00058609042880796672 0 -0.0081940461751625251 0.0006435695421240597 0 -0.008261612428920536 0.00045460675158076516 0 -0.0078153555753362018 0.00076158887823657634 0 -0.0078405542949849336 0.00076586439599626356 0 -0.0077773335659118165 0.00073023906575427294 0 -0.0078317169775151806 0.00068582916915948958 0 -0.0078405542949849336 0.00076586439599626356 0 -0.0077773335659118165 0.00073023906575427294 0 -0.0078317169775151806 0.00068582916915948958 0 -0.0077773335659118165 0.00073023906575427294 0 -0.0077841639518905527 0.00067748657042733843 0 -0.0078317169775151806 0.00068582916915948958 0 -0.0078756300545629807 0.00058585436139688498 0 -0.0077841639518905527 0.00067748657042733843 0 -0.0077773335659118165 0.00073023906575427294 0 -0.0077841639518905527 0.00067748657042733843 0 -0.0077173072324540383 0.00074107829258441486 0 -0.0077841639518905527 0.00067748657042733843 0 -0.0077173072324540383 0.00074107829258441486 0 -0.0076954078945022002 0.0007622735867471082 0 -0.0077173072324540383 0.00074107829258441486 0 -0.0076954078945022002 0.0007622735867471082 0 -0.0076519442159596425 0.0007702545979172017 0 -0.0077173072324540383 0.00074107829258441486 0 -0.0077373460751790678 0.00075292546177922542 0 -0.0076519442159596425 0.0007702545979172017 0 -0.0077773335659118165 0.00073023906575427294 0 -0.0077173072324540383 0.00074107829258441486 0 -0.0077373460751790678 0.00075292546177922542 0 -0.0078153555753362018 0.00076158887823657634 0 -0.0077773335659118165 0.00073023906575427294 0 -0.0077373460751790678 0.00075292546177922542 0 -0.007726851600545993 0.00073619396834564781 0 -0.007697183588478599 0.00069972926625773261 0 -0.0075580524386630954 0.00073858869700785289 0 -0.007726851600545993 0.00073619396834564781 0 -0.0076519442159596425 0.0007702545979172017 0 -0.0075580524386630954 0.00073858869700785289 0 -0.0077373460751790678 0.00075292546177922542 0 -0.007726851600545993 0.00073619396834564781 0 -0.0076519442159596425 0.0007702545979172017 0 -0.0076954078945022002 0.0007622735867471082 0 -0.0076024335112245866 0.00082182897320783044 0 -0.007641457062143535 0.00087095566966268183 0 -0.0076954078945022002 0.0007622735867471082 0 -0.0076519442159596425 0.0007702545979172017 0 -0.0076024335112245866 0.00082182897320783044 0 -0.0076024335112245866 0.00082182897320783044 0 -0.0075461374759909217 0.00082497732852408452 0 -0.0075930211922993103 0.00096815242035706882 0 -0.0076519442159596425 0.0007702545979172017 0 -0.0076024335112245866 0.00082182897320783044 0 -0.0075580524386630954 0.00073858869700785289 0 -0.0076024335112245866 0.00082182897320783044 0 -0.0075461374759909217 0.00082497732852408452 0 -0.0075580524386630954 0.00073858869700785289 0 -0.0075461374759909217 0.00082497732852408452 0 -0.0074771485802934134 0.00072181577504497275 0 -0.0075580524386630954 0.00073858869700785289 0 -0.0074771485802934134 0.00072181577504497275 0 -0.0075580524386630954 0.00073858869700785289 0 -0.0073736536639381848 0.00055065618922538098 0 -0.0075461374759909217 0.00082497732852408452 0 -0.0074771485802934134 0.00072181577504497275 0 -0.0075492465200387654 0.00087247167315678009 0 -0.007697183588478599 0.00069972926625773261 0 -0.0073736536639381848 0.00055065618922538098 0 -0.0077982580219955267 0.00059574932052316261 0 -0.0073792404136394131 0.00052706145691232211 0 -0.0073387019997392207 0.00043505853201147827 0 -0.007697183588478599 0.00069972926625773261 0 -0.0075580524386630954 0.00073858869700785289 0 -0.0073736536639381848 0.00055065618922538098 0 -0.0078632468286058219 0.0012240936922627696 0 -0.0077770521242135808 0.00099601903166080517 0 -0.0083760184440921925 0.001120597509822633 0 -0.0081452117484332454 0.00084567977592501142 0 -0.0077770521242135808 0.00099601903166080517 0 -0.0083760184440921925 0.001120597509822633 0 -0.0078979764560191037 0.00076644320227407467 0 -0.0077770521242135808 0.00099601903166080517 0 -0.0077280726880856188 0.00085617570956985831 0 -0.0078979764560191037 0.00076644320227407467 0 -0.0081452117484332454 0.00084567977592501142 0 -0.0077770521242135808 0.00099601903166080517 0 -0.0078632468286058219 0.0012240936922627696 0 -0.0077770521242135808 0.00099601903166080517 0 -0.0075897903645656831 0.0013085494223276494 0 -0.0077770521242135808 0.00099601903166080517 0 -0.0076389460585520571 0.0010490229904543684 0 -0.0075897903645656831 0.0013085494223276494 0 -0.0077770521242135808 0.00099601903166080517 0 -0.0076389460585520571 0.0010490229904543684 0 -0.0077280726880856188 0.00085617570956985831 0 -0.0076389460585520571 0.0010490229904543684 0 -0.007641457062143535 0.00087095566966268183 0 -0.0075930211922993103 0.00096815242035706882 0 -0.0076389460585520571 0.0010490229904543684 0 -0.0077280726880856188 0.00085617570956985831 0 -0.007641457062143535 0.00087095566966268183 0 -0.0076954078945022002 0.0007622735867471082 0 -0.0077280726880856188 0.00085617570956985831 0 -0.007641457062143535 0.00087095566966268183 0 -0.0076024335112245866 0.00082182897320783044 0 -0.007641457062143535 0.00087095566966268183 0 -0.0075930211922993103 0.00096815242035706882 0 -0.0075930211922993103 0.00096815242035706882 0 -0.0075492465200387654 0.00087247167315678009 0 -0.0075894724846030407 0.001052783883986969 0 -0.0075461374759909217 0.00082497732852408452 0 -0.0075930211922993103 0.00096815242035706882 0 -0.0075492465200387654 0.00087247167315678009 0 -0.0075492465200387654 0.00087247167315678009 0 -0.0075894724846030407 0.001052783883986969 0 -0.007567896849459496 0.0009229130717016955 0 -0.0075894724846030407 0.001052783883986969 0 -0.0075897903645656831 0.0013085494223276494 0 -0.007567896849459496 0.0009229130717016955 0 -0.0076389460585520571 0.0010490229904543684 0 -0.0075930211922993103 0.00096815242035706882 0 -0.0076047716566458494 0.0010999750311366759 0 -0.0075894724846030407 0.001052783883986969 0 -0.0076047716566458494 0.0010999750311366759 0 -0.0075897903645656831 0.0013085494223276494 0 -0.0075930211922993103 0.00096815242035706882 0 -0.0075894724846030407 0.001052783883986969 0 -0.0076047716566458494 0.0010999750311366759 0 -0.0078632468286058219 0.0012240936922627696 0 -0.0075891262344776004 0.0014630221005095937 0 -0.0088197759386345175 0.0018562178929716231 0 -0.0075897903645656831 0.0013085494223276494 0 -0.0075891262344776004 0.0014630221005095937 0 -0.0071116652907758067 0.0013806320046878141 0 -0.0076389460585520571 0.0010490229904543684 0 -0.0076047716566458494 0.0010999750311366759 0 -0.0075897903645656831 0.0013085494223276494 0 -0.0078632468286058219 0.0012240936922627696 0 -0.0075897903645656831 0.0013085494223276494 0 -0.0075891262344776004 0.0014630221005095937 0 -0.0075379332943051082 0.0013041263331699333 0 -0.0073409006105209429 0.0011127837659344558 0 -0.0071626878749626701 0.0014112708133768158 0 -0.0071116652907758067 0.0013806320046878141 0 -0.0068941777498087156 0.0012984071711455724 0 -0.0075891262344776004 0.0014630221005095937 0 -0.0071626878749626701 0.0014112708133768158 0 -0.0071116652907758067 0.0013806320046878141 0 -0.0075897903645656831 0.0013085494223276494 0 -0.007567896849459496 0.0009229130717016955 0 -0.0075325967030287766 0.00080165059215189707 0 -0.007567896849459496 0.0009229130717016955 0 -0.0075325967030287766 0.00080165059215189707 0 -0.007474143789507913 0.00077846498136644284 0 -0.0075492465200387654 0.00087247167315678009 0 -0.007567896849459496 0.0009229130717016955 0 -0.007474143789507913 0.00077846498136644284 0 -0.0075325967030287766 0.00080165059215189707 0 -0.007474143789507913 0.00077846498136644284 0 -0.0073200233773899779 0.00096337443407179459 0 -0.0074738972332531175 0.0011726040089131611 0 -0.0075325967030287766 0.00080165059215189707 0 -0.0073200233773899779 0.00096337443407179459 0 -0.0071976335465332971 0.0010846768837112068 0 -0.0073409006105209429 0.0011127837659344558 0 -0.0067920393746687272 0.0011020136514417768 0 -0.0071116652907758067 0.0013806320046878141 0 -0.0068941777498087156 0.0012984071711455724 0 -0.0069900208652476379 0.00042665125543983802 0 -0.0073736536639381848 0.00055065618922538098 0 -0.0068610360996609714 0.00024141579941855545 0 -0.0069900208652476379 0.00042665125543983802 0 -0.0073736536639381848 0.00055065618922538098 0 -0.0072539073090853758 0.00075024065525597947 0 -0.0074771485802934134 0.00072181577504497275 0 -0.0073736536639381848 0.00055065618922538098 0 -0.007474143789507913 0.00077846498136644284 0 -0.0074771485802934134 0.00072181577504497275 0 -0.0075492465200387654 0.00087247167315678009 0 -0.007474143789507913 0.00077846498136644284 0 -0.0073736536639381848 0.00055065618922538098 0 -0.007474143789507913 0.00077846498136644284 0 -0.0072539073090853758 0.00075024065525597947 0 -0.007474143789507913 0.00077846498136644284 0 -0.0073200233773899779 0.00096337443407179459 0 -0.0072539073090853758 0.00075024065525597947 0 -0.0069105917802616762 0.0010506032835698601 0 -0.0073200233773899779 0.00096337443407179459 0 -0.0072539073090853758 0.00075024065525597947 0 -0.0068356086951665814 0.00082440871935405961 0 -0.0069626295930610722 0.00043631618141049764 0 -0.0069105917802616762 0.0010506032835698601 0 -0.0069900208652476379 0.00042665125543983802 0 -0.0072539073090853758 0.00075024065525597947 0 -0.0067436770129017639 0.00061102689009086427 0 -0.0069900208652476379 0.00042665125543983802 0 -0.0067952827153572853 0.00029445929584658991 0 -0.0067436770129017639 0.00061102689009086427 0 -0.0067952827153572853 0.00029445929584658991 0 -0.0063878117694528185 0.00046726759872708744 0 -0.0069900208652476379 0.00042665125543983802 0 -0.0067952827153572853 0.00029445929584658991 0 -0.0068610360996609714 0.00024141579941855545 0 -0.0067952827153572853 0.00029445929584658991 0 -0.0069736561368325036 0.00022891587757338213 0 -0.0068610360996609714 0.00024141579941855545 0 -0.0067952827153572853 0.00029445929584658991 0 -0.0069736561368325036 0.00022891587757338213 0 -0.0071169975672277803 0.00011249067478673749 0 -0.0067952827153572853 0.00029445929584658991 0 -0.0063878117694528185 0.00046726759872708744 0 -0.00573281681487736 0.00014414063428184611 0 -0.0067418756223332384 0.00025397419278361195 0 -0.0064014374964665843 0.00016909075998326653 0 -0.0072430395574977768 6.4032442016698904e-05 0 -0.0071169975672277803 0.00011249067478673749 0 -0.0071621238786472126 0.00015319571036064177 0 -0.0071710514778151116 0.00026195247614748199 0 -0.0072430395574977768 6.4032442016698904e-05 0 -0.0071169975672277803 0.00011249067478673749 0 -0.0058662687319024883 0.00031023237060135101 0 -0.0064014374964665843 0.00016909075998326653 0 -0.0069736561368325036 0.00022891587757338213 0 -0.0071169975672277803 0.00011249067478673749 0 -0.0071621238786472126 0.00015319571036064177 0 -0.0069736561368325036 0.00022891587757338213 0 -0.0071621238786472126 0.00015319571036064177 0 -0.0070086547129984697 0.00030905059539164127 0 -0.0072430395574977768 6.4032442016698904e-05 0 -0.0071621238786472126 0.00015319571036064177 0 -0.0073824096147464512 0.00010824562062688223 0 -0.0079516559376487002 0.00064236326110561431 0 -0.0073824096147464512 0.00010824562062688223 0 -0.0072067395510320509 0.00038131332930034116 0 -0.0071621238786472126 0.00015319571036064177 0 -0.0073824096147464512 0.00010824562062688223 0 -0.0072067395510320509 0.00038131332930034116 0 -0.0076610810481154328 0.00054307888533354552 0 -0.0074863025859415342 0.00047477410637613833 0 -0.0071621238786472126 0.00015319571036064177 0 -0.0072067395510320509 0.00038131332930034116 0 -0.0070086547129984697 0.00030905059539164127 0 -0.0080173589746632724 0.00073016463943690756 0 -0.0080994089749128056 0.00070698302973182768 0 -0.007971396798924002 0.00064337157132732584 0 -0.0080173589746632724 0.00073016463943690756 0 -0.0078749175687953966 0.00073597987598055642 0 -0.007971396798924002 0.00064337157132732584 0 -0.0078749175687953966 0.00073597987598055642 0 -0.007971396798924002 0.00064337157132732584 0 -0.0078243187250268947 0.00069355637309280059 0 -0.0078749175687953966 0.00073597987598055642 0 -0.007726851600545993 0.00073619396834564781 0 -0.0078243187250268947 0.00069355637309280059 0 -0.007971396798924002 0.00064337157132732584 0 -0.0078243187250268947 0.00069355637309280059 0 -0.0077982580219955267 0.00059574932052316261 0 -0.007726851600545993 0.00073619396834564781 0 -0.007697183588478599 0.00069972926625773261 0 -0.0078243187250268947 0.00069355637309280059 0 -0.007697183588478599 0.00069972926625773261 0 -0.0078243187250268947 0.00069355637309280059 0 -0.0077982580219955267 0.00059574932052316261 0 -0.0069736561368325036 0.00022891587757338213 0 -0.0070086547129984697 0.00030905059539164127 0 -0.0068610360996609714 0.00024141579941855545 0 -0.0074863025859415342 0.00047477410637613833 0 -0.0073387019997392207 0.00043505853201147827 0 -0.0046105605649169028 -0.00016308097751392028 0 -0.0054505432287276613 -0.00012174180559655627 0 -0.004835782586095831 -0.00016556387771339445 0 -0.0046105605649169028 -0.00016308097751392028 0 -0.004835782586095831 -0.00016556387771339445 0 -0.0043629660405861683 -0.00018747530957603762 0 -0.0046105605649169028 -0.00016308097751392028 0 -0.0050701937506788738 -2.0381265111122448e-07 0 -0.0054505432287276613 -0.00012174180559655627 0 -0.0050701937506788738 -2.0381265111122448e-07 0 -0.0054505432287276613 -0.00012174180559655627 0 -0.00652089290049865 -6.5231546711561701e-07 0 -0.0054505432287276613 -0.00012174180559655627 0 -0.004835782586095831 -0.00016556387771339445 0 -0.0052154829020950649 -7.7776282189785857e-05 0 -0.0045124160667599647 -0.00012418657091118739 0 -0.004835782586095831 -0.00016556387771339445 0 -0.0052154829020950649 -7.7776282189785857e-05 0 -0.0045124160667599647 -0.00012418657091118739 0 -0.0048092674090201935 5.3289206563789935e-05 0 -0.0052154829020950649 -7.7776282189785857e-05 0 -0.0045124160667599647 -0.00012418657091118739 0 -0.0044787230038067028 4.5130350695771478e-05 0 -0.0048092674090201935 5.3289206563789935e-05 0 -0.0045124160667599647 -0.00012418657091118739 0 -0.0040887886499141584 -0.00016391786086077172 0 -0.0041606903830437806 -0.00013600373301404681 0 -0.0045124160667599647 -0.00012418657091118739 0 -0.0043629660405861683 -0.00018747530957603762 0 -0.0040887886499141584 -0.00016391786086077172 0 -0.0045124160667599647 -0.00012418657091118739 0 -0.004835782586095831 -0.00016556387771339445 0 -0.0043629660405861683 -0.00018747530957603762 0 -0.0043629660405861683 -0.00018747530957603762 0 -0.0039689525379641424 -0.00015729300730476224 0 -0.004032223801786629 -0.00016790324546191689 0 -0.0040887886499141584 -0.00016391786086077172 0 -0.003844814416695905 -0.00015152401662802369 0 -0.0041606903830437806 -0.00013600373301404681 0 -0.0043629660405861683 -0.00018747530957603762 0 -0.0040887886499141584 -0.00016391786086077172 0 -0.0039689525379641424 -0.00015729300730476224 0 -0.0040887886499141584 -0.00016391786086077172 0 -0.0039689525379641424 -0.00015729300730476224 0 -0.003844814416695905 -0.00015152401662802369 0 -0.0039689525379641424 -0.00015729300730476224 0 -0.003657045001954678 -6.8274120186921522e-05 0 -0.003844814416695905 -0.00015152401662802369 0 -0.003657045001954678 -6.8274120186921522e-05 0 -0.0034757759028869488 -8.2084820430784028e-05 0 -0.003844814416695905 -0.00015152401662802369 0 -0.0039689525379641424 -0.00015729300730476224 0 -0.0037917680753463633 -0.00016470037129675795 0 -0.004032223801786629 -0.00016790324546191689 0 -0.0039689525379641424 -0.00015729300730476224 0 -0.0037917680753463633 -0.00016470037129675795 0 -0.003657045001954678 -6.8274120186921522e-05 0 -0.004032223801786629 -0.00016790324546191689 0 -0.0036199686790030477 -4.073114075233584e-07 0 -0.0034297594906987968 -0.00018151901892444176 0 -0.0037917680753463633 -0.00016470037129675795 0 -0.004032223801786629 -0.00016790324546191689 0 -0.0034297594906987968 -0.00018151901892444176 0 -0.0046105605649169028 -0.00016308097751392028 0 -0.0043629660405861683 -0.00018747530957603762 0 -0.004032223801786629 -0.00016790324546191689 0 -0.0046105605649169028 -0.00016308097751392028 0 -0.004032223801786629 -0.00016790324546191689 0 -0.0036199686790030477 -4.073114075233584e-07 0 -0.0046105605649169028 -0.00016308097751392028 0 -0.0050701937506788738 -2.0381265111122448e-07 0 -0.0036199686790030477 -4.073114075233584e-07 0 -0.0036199686790030477 -4.073114075233584e-07 0 -0.002940042428594641 -0.00010979282359395923 0 -0.0034297594906987968 -0.00018151901892444176 0 -0.002940042428594641 -0.00010979282359395923 0 -0.0034297594906987968 -0.00018151901892444176 0 -0.0028773824115530928 -2.6875877446465576e-05 0 -0.0036199686790030477 -4.073114075233584e-07 0 -0.002940042428594641 -0.00010979282359395923 0 -0.0021687278128702204 -6.365853807662227e-07 0 -0.0028773824115530928 -2.6875877446465576e-05 0 -0.0026711337438243875 0.00068823692060880723 0 -0.0037977183417188102 -0.00011989832285812757 0 -0.0034297594906987968 -0.00018151901892444176 0 -0.0028773824115530928 -2.6875877446465576e-05 0 -0.0037977183417188102 -0.00011989832285812757 0 -0.002940042428594641 -0.00010979282359395923 0 -0.0021687278128702204 -6.365853807662227e-07 0 -0.0028773824115530928 -2.6875877446465576e-05 0 -0.0021687278128702204 -6.365853807662227e-07 0 -0.0028773824115530928 -2.6875877446465576e-05 0 -0.0014494274797157982 1.7108021786221782e-06 0 -0.0014155438881316594 -9.6277821494658092e-05 0 -0.0028277563387436406 -0.00038361947806457266 0 -0.001855838011786569 -0.00092404989355876499 0 -0.0029504543349492011 -0.00038699725375618949 0 -0.00081227010663403854 -0.0002726629134393964 0 -0.0028773824115530928 -2.6875877446465576e-05 0 -0.0014494274797157982 1.7108021786221782e-06 0 -0.0026711337438243875 0.00068823692060880723 0 -0.0028277563387436406 -0.00038361947806457266 0 -0.00023414423903420577 8.0315170688144763e-05 0 -0.0014455827680420294 1.2812765055588797e-08 0 -0.0011161015049994589 -2.6233737156516299e-06 0 -0.00072091286382090704 -1.7497478837764198e-08 0 -0.0053668797048743392 -0.0010883017096357474 0 -0.0040862314290186852 -0.0010105383438893654 0 -0.0037977183417188102 -0.00011989832285812757 0 -0.0028277563387436406 -0.00038361947806457266 0 -0.0042632887123450081 -0.00013968557254351636 0 -0.0053668797048743392 -0.0010883017096357474 0 -0.0045570999519663532 -0.0014616709678746411 0 -0.0040862314290186852 -0.0010105383438893654 0 -0.0028277563387436406 -0.00038361947806457266 0 -0.0027918368520195623 -0.0010886816298712704 0 0.001033999735362862 1.5446661638623166e-05 0 0.00050676203958620932 -9.1759638506149863e-05 0 0.00086921167598396287 0.00042360826965044272 0 0.00050676203958620932 -9.1759638506149863e-05 0 0.00086921167598396287 0.00042360826965044272 0 -0.00071638029177757679 1.3847764851268915e-06 0 -0.0027918368520195623 -0.0010886816298712704 0 -0.00023414423903420577 8.0315170688144763e-05 0 -0.0024271834997701613 -0.0031187988593385212 0 -0.0035283982989272435 -0.0024893373371351075 0 -0.0014062723752068138 -0.0021706695837338248 0 -0.0015463080847453426 -0.0047125334897367031 0 -0.0024271834997701613 -0.0031187988593385212 0 -0.0036310012736391964 -0.0035350964119890234 0 -0.0024271834997701613 -0.0031187988593385212 0 -0.0036310012736391964 -0.0035350964119890234 0 -0.0035283982989272435 -0.0024893373371351075 0 -0.0027918368520195623 -0.0010886816298712704 0 -0.0011387298710472543 -0.0018042650155552394 0 -0.005411686225261109 -0.0025686473479639791 0 -0.0036310012736391964 -0.0035350964119890234 0 -0.0035283982989272435 -0.0024893373371351075 0 0.001033999735362862 1.5446661638623166e-05 0 0.00086921167598396287 0.00042360826965044272 0 0.0012843421877074958 9.3899251182488156e-05 0 -0.0027918368520195623 -0.0010886816298712704 0 -0.0038925355168768138 -0.0021290340407985114 0 -0.0045570999519663532 -0.0014616709678746411 0 -0.0040862314290186852 -0.0010105383438893654 0 -0.0034819602594463673 -0.0015593565919793978 0 -0.0040862314290186852 -0.0010105383438893654 0 -0.0035203235145562701 -0.00076629485665321044 0 -0.0034819602594463673 -0.0015593565919793978 0 -0.0040862314290186852 -0.0010105383438893654 0 -0.0035203235145562701 -0.00076629485665321044 0 -0.0037977183417188102 -0.00011989832285812757 0 -0.0038925355168768138 -0.0021290340407985114 0 -0.0013306506019692239 -0.0020965032906203303 0 -0.0035203235145562701 -0.00076629485665321044 0 -0.0027133944311873823 -0.001019623268235947 0 -0.0032599203725363879 -0.00026341047644356917 0 -0.0035203235145562701 -0.00076629485665321044 0 -0.0034819602594463673 -0.0015593565919793978 0 -0.0027133944311873823 -0.001019623268235947 0 -0.0034819602594463673 -0.0015593565919793978 0 -0.0027133944311873823 -0.001019623268235947 0 -0.0014062723752068138 -0.0021706695837338248 0 -0.0032599203725363879 -0.00026341047644356917 0 -0.0037977183417188102 -0.00011989832285812757 0 -0.0032902552594832688 -2.0991791613755862e-05 0 -0.0027133944311873823 -0.001019623268235947 0 -0.0032599203725363879 -0.00026341047644356917 0 -0.0026277026833810757 6.5711883985661467e-05 0 -0.0032599203725363879 -0.00026341047644356917 0 -0.0032902552594832688 -2.0991791613755862e-05 0 -0.0026277026833810757 6.5711883985661467e-05 0 -0.0035203235145562701 -0.00076629485665321044 0 -0.0032599203725363879 -0.00026341047644356917 0 -0.0037977183417188102 -0.00011989832285812757 0 -0.0037917680753463633 -0.00016470037129675795 0 -0.0034297594906987968 -0.00018151901892444176 0 -0.0037977183417188102 -0.00011989832285812757 0 -0.0037917680753463633 -0.00016470037129675795 0 -0.0037977183417188102 -0.00011989832285812757 0 -0.003657045001954678 -6.8274120186921522e-05 0 -0.0037977183417188102 -0.00011989832285812757 0 -0.0032902552594832688 -2.0991791613755862e-05 0 -0.003657045001954678 -6.8274120186921522e-05 0 -0.0032902552594832688 -2.0991791613755862e-05 0 -0.003657045001954678 -6.8274120186921522e-05 0 -0.0034757759028869488 -8.2084820430784028e-05 0 -0.0034757759028869488 -8.2084820430784028e-05 0 -0.0035490987269487951 -0.0001130387654457689 0 -0.003035386916232694 1.1130693910358229e-05 0 -0.0032902552594832688 -2.0991791613755862e-05 0 -0.0034757759028869488 -8.2084820430784028e-05 0 -0.003035386916232694 1.1130693910358229e-05 0 -0.0035490987269487951 -0.0001130387654457689 0 -0.003035386916232694 1.1130693910358229e-05 0 -0.0038523895082025234 4.8809710254223363e-06 0 -0.0030698465762955822 3.1692684225840463e-05 0 -0.0032999518007634674 8.2608965709134248e-05 0 -0.0035490987269487951 -0.0001130387654457689 0 -0.0038523895082025234 4.8809710254223363e-06 0 -0.0038003160520488845 -0.00014405864525647347 0 -0.00078247080172224594 1.3567801217775966e-05 0 -0.0024836125292205091 6.5089235173706585e-05 0 -0.0029676033053002283 -6.3240516685175928e-06 0 -0.003035386916232694 1.1130693910358229e-05 0 -0.0028233018883829916 0.00018464941334822002 0 0.0015454759186578264 0.00011730168790051304 0 -0.0026277026833810757 6.5711883985661467e-05 0 -0.00068510321152456626 -0.00078139052192672978 0 -0.0029676033053002283 -6.3240516685175928e-06 0 -0.003035386916232694 1.1130693910358229e-05 0 -0.0026277026833810757 6.5711883985661467e-05 0 -0.0032902552594832688 -2.0991791613755862e-05 0 -0.003035386916232694 1.1130693910358229e-05 0 -0.0026277026833810757 6.5711883985661467e-05 0 -0.0026277026833810757 6.5711883985661467e-05 0 -0.0018920403934028801 -0.00097279793564068848 0 -0.00068510321152456626 -0.00078139052192672978 0 -0.0027133944311873823 -0.001019623268235947 0 -0.0018920403934028801 -0.00097279793564068848 0 -0.0014062723752068138 -0.0021706695837338248 0 -0.0027133944311873823 -0.001019623268235947 0 -0.0026277026833810757 6.5711883985661467e-05 0 -0.0018920403934028801 -0.00097279793564068848 0 -0.0018920403934028801 -0.00097279793564068848 0 -0.0014062723752068138 -0.0021706695837338248 0 -0.00068510321152456626 -0.00078139052192672978 0 -0.0014062723752068138 -0.0021706695837338248 0 -0.00068510321152456626 -0.00078139052192672978 0 0.001145014369248142 -0.0013564512426419064 0 0.0015454759186578264 0.00011730168790051304 0 -0.00068510321152456626 -0.00078139052192672978 0 0.001145014369248142 -0.0013564512426419064 0 0.0015454759186578264 0.00011730168790051304 0 0.001145014369248142 -0.0013564512426419064 0 0.0022515145061642742 -0.00081838490222824623 0 0.001145014369248142 -0.0013564512426419064 0 0.0020114138933124189 -0.0014360858690533711 0 0.0019129493871381379 -0.0013546779642914582 0 -0.0014062723752068138 -0.0021706695837338248 0 0.001145014369248142 -0.0013564512426419064 0 -0.00054057765099971744 -0.0033192854137431144 0 0.0012739316990945891 -0.001367197792531282 0 0.0008753859169749722 -0.0024093410364983284 0 0.001145014369248142 -0.0013564512426419064 0 0.0020114138933124189 -0.0014360858690533711 0 0.0024103561686634935 -0.0014819986408655503 0 0.0020114138933124189 -0.0014360858690533711 0 0.0021977827301188899 -0.001387950761550014 0 0.0019129493871381379 -0.0013546779642914582 0 0.0025045143486976153 -0.0013284469378541169 0 0.0020114138933124189 -0.0014360858690533711 0 0.0021977827301188899 -0.001387950761550014 0 0.0025045143486976153 -0.0013284469378541169 0 0.0020114138933124189 -0.0014360858690533711 0 0.0024103561686634935 -0.0014819986408655503 0 -0.0015463080847453426 -0.0047125334897367031 0 -0.001545088221109437 -0.0032058311913713252 0 -0.00054057765099971744 -0.0033192854137431144 0 0.0030445565393407092 -0.0013064995058423648 0 0.0025045143486976153 -0.0013284469378541169 0 0.0024103561686634935 -0.0014819986408655503 0 0.00047092151599222444 -0.0016427649476035435 0 0.0008753859169749722 -0.0024093410364983284 0 -0.0015463080847453426 -0.0047125334897367031 0 -0.0024271834997701613 -0.0031187988593385212 0 -0.001545088221109437 -0.0032058311913713252 0 -0.0024271834997701613 -0.0031187988593385212 0 -0.0014062723752068138 -0.0021706695837338248 0 -0.001545088221109437 -0.0032058311913713252 0 -0.0014062723752068138 -0.0021706695837338248 0 -0.001545088221109437 -0.0032058311913713252 0 -0.00054057765099971744 -0.0033192854137431144 0 0.0024574004873251132 -0.0012839251235763497 0 0.0024827174229934161 -0.0011230225825831696 0 0.0022821600662102349 -0.0012644832431613581 0 0.0024574004873251132 -0.0012839251235763497 0 0.0024827174229934161 -0.0011230225825831696 0 0.0025386082527314047 -0.0011981977231874338 0 0.0024827174229934161 -0.0011230225825831696 0 0.0025386082527314047 -0.0011981977231874338 0 0.0026199067615484922 -0.0010578257831504352 0 0.0024574004873251132 -0.0012839251235763497 0 0.0023758359270233437 -0.0013183700298095484 0 0.0022821600662102349 -0.0012644832431613581 0 0.0025355197511885978 -0.0012507657363648363 0 0.0021977827301188899 -0.001387950761550014 0 0.0023758359270233437 -0.0013183700298095484 0 0.0021977827301188899 -0.001387950761550014 0 0.0023758359270233437 -0.0013183700298095484 0 0.0022821600662102349 -0.0012644832431613581 0 0.0021977827301188899 -0.001387950761550014 0 0.0022821600662102349 -0.0012644832431613581 0 0.0019129493871381379 -0.0013546779642914582 0 0.001145014369248142 -0.0013564512426419064 0 0.0019129493871381379 -0.0013546779642914582 0 0.0022515145061642742 -0.00081838490222824623 0 0.0024827174229934161 -0.0011230225825831696 0 0.0022821600662102349 -0.0012644832431613581 0 0.0022515145061642742 -0.00081838490222824623 0 0.0022821600662102349 -0.0012644832431613581 0 0.0019129493871381379 -0.0013546779642914582 0 0.0022515145061642742 -0.00081838490222824623 0 0.0022515145061642742 -0.00081838490222824623 0 0.0025884817882737689 -0.00081845562566144263 0 0.0025602601703469128 -0.00058248203040161118 0 0.0024827174229934161 -0.0011230225825831696 0 0.0022515145061642742 -0.00081838490222824623 0 0.0025884817882737689 -0.00081845562566144263 0 0.0024827174229934161 -0.0011230225825831696 0 0.0025884817882737689 -0.00081845562566144263 0 0.0026199067615484922 -0.0010578257831504352 0 -0.0029676033053002283 -6.3240516685175928e-06 0 -0.002465657693690137 -0.0001207370858222599 0 -0.0028233018883829916 0.00018464941334822002 0 -0.00078247080172224594 1.3567801217775966e-05 0 -1.8785421135249368e-05 -0.00031786967055626934 0 0.0015454759186578264 0.00011730168790051304 0 0.0022515145061642742 -0.00081838490222824623 0 0.0025602601703469128 -0.00058248203040161118 0 -0.0038523895082025234 4.8809710254223363e-06 0 -0.0038713392024096057 -0.0001032611145163963 0 -0.0038003160520488845 -0.00014405864525647347 0 -0.002465657693690137 -0.0001207370858222599 0 -0.0028233018883829916 0.00018464941334822002 0 -0.0021009572252943033 0.000374173066230047 0 -0.0032999518007634674 8.2608965709134248e-05 0 -0.0030424010617077779 0.00013669089274079857 0 -0.0038523895082025234 4.8809710254223363e-06 0 -0.0038713392024096057 -0.0001032611145163963 0 -0.0038730724196186029 -0.00011127187004385054 0 -0.0038713392024096057 -0.0001032611145163963 0 -0.0038664961075879582 -0.00013559661732463486 0 -0.0038636105806308758 -0.0001112257075012392 0 -0.0038713392024096057 -0.0001032611145163963 0 -0.0038636105806308758 -0.0001112257075012392 0 -0.0038730724196186029 -0.00011127187004385054 0 -0.0038768489453830431 -0.00011234467081194059 0 -0.0038664961075879582 -0.00013559661732463486 0 -0.0038636105806308758 -0.0001112257075012392 0 -0.0038768489453830431 -0.00011234467081194059 0 -0.0038940901005123253 -0.00014930379512238432 0 -0.0038664961075879582 -0.00013559661732463486 0 -0.0038713392024096057 -0.0001032611145163963 0 -0.0038664961075879582 -0.00013559661732463486 0 -0.0038003160520488845 -0.00014405864525647347 0 -0.0038940901005123253 -0.00014930379512238432 0 -0.0038664961075879582 -0.00013559661732463486 0 -0.0038003160520488845 -0.00014405864525647347 0 -0.0038940901005123253 -0.00014930379512238432 0 -0.0038003160520488845 -0.00014405864525647347 0 -0.0037541868447903298 -0.00016007260756729146 0 -0.0035490987269487951 -0.0001130387654457689 0 -0.0038003160520488845 -0.00014405864525647347 0 -0.0037541868447903298 -0.00016007260756729146 0 -0.0034757759028869488 -8.2084820430784028e-05 0 -0.0037541868447903298 -0.00016007260756729146 0 -0.003844814416695905 -0.00015152401662802369 0 -0.0034757759028869488 -8.2084820430784028e-05 0 -0.0035490987269487951 -0.0001130387654457689 0 -0.0037541868447903298 -0.00016007260756729146 0 -0.0037541868447903298 -0.00016007260756729146 0 -0.003844814416695905 -0.00015152401662802369 0 -0.0040120292332315073 -0.000131742862209908 0 -0.003844814416695905 -0.00015152401662802369 0 -0.0040120292332315073 -0.000131742862209908 0 -0.0041606903830437806 -0.00013600373301404681 0 -0.0038940901005123253 -0.00014930379512238432 0 -0.0037541868447903298 -0.00016007260756729146 0 -0.0040120292332315073 -0.000131742862209908 0 -0.0038940901005123253 -0.00014930379512238432 0 -0.0040120292332315073 -0.000131742862209908 0 -0.00398847508333718 -5.4817008868412054e-05 0 -0.0040120292332315073 -0.000131742862209908 0 -0.004122931857369911 3.2269697472335921e-05 0 -0.00398847508333718 -5.4817008868412054e-05 0 -0.0040120292332315073 -0.000131742862209908 0 -0.0042483854261505857 -2.3656051667959386e-05 0 -0.004122931857369911 3.2269697472335921e-05 0 -0.0040120292332315073 -0.000131742862209908 0 -0.0041606903830437806 -0.00013600373301404681 0 -0.0042483854261505857 -2.3656051667959386e-05 0 -0.0045124160667599647 -0.00012418657091118739 0 -0.0041606903830437806 -0.00013600373301404681 0 -0.0042483854261505857 -2.3656051667959386e-05 0 -0.0045124160667599647 -0.00012418657091118739 0 -0.0042483854261505857 -2.3656051667959386e-05 0 -0.0044787230038067028 4.5130350695771478e-05 0 -0.0042483854261505857 -2.3656051667959386e-05 0 -0.0044787230038067028 4.5130350695771478e-05 0 -0.0043591725621376651 0.0001739908369327919 0 -0.004122931857369911 3.2269697472335921e-05 0 -0.0040981826063001174 0.00024232794371453688 0 -0.00398847508333718 -5.4817008868412054e-05 0 -0.0042483854261505857 -2.3656051667959386e-05 0 -0.004122931857369911 3.2269697472335921e-05 0 -0.004176936499158521 0.00013440667594352227 0 -0.004122931857369911 3.2269697472335921e-05 0 -0.0040981826063001174 0.00024232794371453688 0 -0.004176936499158521 0.00013440667594352227 0 -0.0040981826063001174 0.00024232794371453688 0 -0.0036554296273023823 1.7416520323966782e-05 0 -0.00398847508333718 -5.4817008868412054e-05 0 -0.0040981826063001174 0.00024232794371453688 0 -0.0048087646578858457 0.00086633224276795595 0 -0.0043562255055310571 0.00019346225691299789 0 -0.0041279597109991229 0.00032156182422026061 0 -0.0042265772405298023 0.00024373501657504447 0 -0.0048087646578858457 0.00086633224276795595 0 -0.0047233970740361937 0.00019508396892057152 0 -0.0043562255055310571 0.00019346225691299789 0 -0.0048087646578858457 0.00086633224276795595 0 -0.0051062803222638887 0.00047561862953493251 0 -0.0047233970740361937 0.00019508396892057152 0 -0.0038768489453830431 -0.00011234467081194059 0 -0.0038735427535596702 -5.0411488235026791e-05 0 -0.0038492717650739699 -8.7160504596853897e-05 0 -0.0038768489453830431 -0.00011234467081194059 0 -0.0038735427535596702 -5.0411488235026791e-05 0 -0.00398847508333718 -5.4817008868412054e-05 0 -0.0038768489453830431 -0.00011234467081194059 0 -0.0038940901005123253 -0.00014930379512238432 0 -0.00398847508333718 -5.4817008868412054e-05 0 -0.0042265772405298023 0.00024373501657504447 0 -0.0038139303964161734 -6.1819840996579843e-05 0 -0.0043299233351238916 0.00023981039490079555 0 -0.00432708517707897 0.00023927364791172665 0 -0.0043222813539131348 0.00023770139835353627 0 -0.0043330460014988836 0.00028537905314043123 0 -0.0036127798812243457 0.00029591791861050069 0 -0.0043299233351238916 0.00023981039490079555 0 -0.0043519350118008766 0.00024853118443665575 0 -0.0043323537754695581 0.00025939818975934353 0 -0.0043299233351238916 0.00023981039490079555 0 -0.00432708517707897 0.00023927364791172665 0 -0.0043301852497244402 0.00023491856339808353 0 -0.0042265772405298023 0.00024373501657504447 0 -0.0041132917176572407 6.9837081033164637e-05 0 -0.0043238232720826143 0.00023752405304477257 0 -0.00432708517707897 0.00023927364791172665 0 -0.0043301852497244402 0.00023491856339808353 0 -0.0051062803222638887 0.00047561862953493251 0 -0.0057066106226302945 0.00071344728076156827 0 -0.0054310036795168588 0.0002516267316077199 0 -0.0048087646578858457 0.00086633224276795595 0 -0.0051062803222638887 0.00047561862953493251 0 -0.0057066106226302945 0.00071344728076156827 0 -0.0042265772405298023 0.00024373501657504447 0 -0.0050817077551923153 0.00049789660371802442 0 -0.0043299233351238916 0.00023981039490079555 0 -0.0043301852497244402 0.00023491856339808353 0 -0.0043535819337290329 0.00022138114671844307 0 -0.0050817077551923153 0.00049789660371802442 0 -0.0053910324708288746 0.00035377491792385564 0 -0.0057066106226302945 0.00071344728076156827 0 -0.006463787718345001 0.00049326390525812559 0 -0.0062644807738748438 0.00017260917981732677 0 -0.0043535819337290329 0.00022138114671844307 0 -0.004379742804901149 0.00023609512938105136 0 -0.0043960109051946394 0.00016714256692548928 0 -0.0053910324708288746 0.00035377491792385564 0 -0.0057032464977645591 0.00021901534139026402 0 -0.0043535819337290329 0.00022138114671844307 0 -0.004379742804901149 0.00023609512938105136 0 -0.0043519350118008766 0.00024853118443665575 0 -0.004379742804901149 0.00023609512938105136 0 -0.0043754431073291678 0.00025916541951392377 0 -0.0043519350118008766 0.00024853118443665575 0 -0.0043299233351238916 0.00023981039490079555 0 -0.0043535819337290329 0.00022138114671844307 0 -0.0043519350118008766 0.00024853118443665575 0 -0.0043519350118008766 0.00024853118443665575 0 -0.0043599138384916858 0.00026844022257711602 0 -0.0043323537754695581 0.00025939818975934353 0 -0.0030087914601868628 0.00032183424336659463 0 -0.0036127798812243457 0.00029591791861050069 0 -0.0043754431073291678 0.00025916541951392377 0 -0.0043599138384916858 0.00026844022257711602 0 -0.00438448580131846 0.00026566352595206702 0 -0.0043754431073291678 0.00025916541951392377 0 -0.0043519350118008766 0.00024853118443665575 0 -0.0043599138384916858 0.00026844022257711602 0 -0.0018348626586974642 0.00039844290230107911 0 -0.001799276806127643 0.00032877672142575455 0 -0.0016837639960601664 0.00028018566899428468 0 -0.0030087914601868628 0.00032183424336659463 0 -0.0032194441480955893 0.00030481470976225774 0 -0.001799276806127643 0.00032877672142575455 0 -0.0018646741113604777 0.00029990183353392769 0 -0.0017944899744106557 0.00027870435747247714 0 -0.0016922544672389674 0.00034540150449527022 0 -0.0023155095972372244 0.00017319527934762051 0 -0.0018348626586974642 0.00039844290230107911 0 -0.0020774069245798328 0.00023357882742351541 0 -0.0021998327786711706 0.00061553643796086145 0 -0.0018348626586974642 0.00039844290230107911 0 -0.001799276806127643 0.00032877672142575455 0 -0.0020774069245798328 0.00023357882742351541 0 -0.003814547537758456 -0.00012030926632261013 0 -0.0038477277030079297 -0.00010901120500129109 0 -0.0038730724196186029 -0.00011127187004385054 0 -0.0023155095972372244 0.00017319527934762051 0 -0.0036127798812243457 0.00029591791861050069 0 -0.003814547537758456 -0.00012030926632261013 0 -0.0038477277030079297 -0.00010901120500129109 0 -0.0038323089951150663 -9.0407983154842928e-05 0 -0.0041132917176572407 6.9837081033164637e-05 0 -0.0036127798812243457 0.00029591791861050069 0 -0.0038492717650739699 -8.7160504596853897e-05 0 -0.0038323089951150663 -9.0407983154842928e-05 0 -0.0038636105806308758 -0.0001112257075012392 0 -0.0038477277030079297 -0.00010901120500129109 0 -0.0038323089951150663 -9.0407983154842928e-05 0 -0.0038636105806308758 -0.0001112257075012392 0 -0.0038768489453830431 -0.00011234467081194059 0 -0.0038492717650739699 -8.7160504596853897e-05 0 -0.0038636105806308758 -0.0001112257075012392 0 -0.0038477277030079297 -0.00010901120500129109 0 -0.0038636105806308758 -0.0001112257075012392 0 -0.0038730724196186029 -0.00011127187004385054 0 -0.0023155095972372244 0.00017319527934762051 0 -0.0030424010617077779 0.00013669089274079857 0 -0.0013206566804619055 0.00053900239210103861 0 -0.0018004317254607792 -0.00013693174898409379 0 -0.0011321792813844191 -0.0001261837158243607 0 -0.0013206566804619055 0.00053900239210103861 0 -0.0021009572252943033 0.000374173066230047 0 -0.0018004317254607792 -0.00013693174898409379 0 0.00055782575794663522 -0.00048305531274929855 0 -0.00033803916905905689 -0.00028076010427300095 0 0.0025387287404817359 -0.00080857797321314602 0 0.0023332839110057819 -0.00072383834800248683 0 0.0022815386910541831 -0.0008498344477929228 0 -1.8785421135249368e-05 -0.00031786967055626934 0 0.00055782575794663522 -0.00048305531274929855 0 -0.002465657693690137 -0.0001207370858222599 0 -0.0021009572252943033 0.000374173066230047 0 -0.0018004317254607792 -0.00013693174898409379 0 0.0025884817882737689 -0.00081845562566144263 0 0.0025602601703469128 -0.00058248203040161118 0 0.0025387287404817359 -0.00080857797321314602 0 0.0025191654773404361 -0.00080512146358846038 0 0.0027346283900122614 -0.00089624808413849607 0 0.0025884817882737689 -0.00081845562566144263 0 0.0025387287404817359 -0.00080857797321314602 0 0.0024857401786772195 -0.00068988692454425519 0 0.0025884817882737689 -0.00081845562566144263 0 0.002730009726547794 -0.0010227067292977433 0 0.0026199067615484922 -0.0010578257831504352 0 0.0025387287404817359 -0.00080857797321314602 0 0.0024857401786772195 -0.00068988692454425519 0 0.0023332839110057819 -0.00072383834800248683 0 0.0027346283900122614 -0.00089624808413849607 0 0.0019652788597609291 -0.00055117626502683675 0 0.0027010000172412378 -0.0012093677160690949 0 0.0019652788597609291 -0.00055117626502683675 0 0.002703002229493618 -0.0012041164963617677 0 0.002730009726547794 -0.0010227067292977433 0 0.0028804590480411116 -0.0010713140427193472 0 0.002703002229493618 -0.0012041164963617677 0 0.002730009726547794 -0.0010227067292977433 0 0.0026199067615484922 -0.0010578257831504352 0 0.002703002229493618 -0.0012041164963617677 0 0.0025386082527314047 -0.0011981977231874338 0 0.0026199067615484922 -0.0010578257831504352 0 0.00010341638930627945 0.00065438382733733441 0 0.00011890946792722417 0.00064462212776762436 0 0.00011941547251341249 0.0006400447078559944 0 0.00019795037134876255 0.00069114358713176516 0 0.00019485653227048635 0.00063703281378927321 0 0.00023329340321730907 0.0005810625220044989 0 0.0013933176839365578 -0.00031379802199616493 0 0.00079007661701237426 -0.00017456415618556442 0 5.2169187976680552e-06 0.00064421942053760237 0 0.00079007661701237426 -0.00017456415618556442 0 0.00015331182821303306 0.00065029577830475306 0 0.00015541956492686108 0.00061119518716847292 0 0.00019485653227048635 0.00063703281378927321 0 0.00015541956492686108 0.00061119518716847292 0 0.00019485653227048635 0.00063703281378927321 0 0.00023329340321730907 0.0005810625220044989 0 0.0021595658397285424 -0.0009944631940200547 0 0.0023006422012406386 -0.0011382181102483056 0 0.0022105941698196824 -0.0012516112196700653 0 0.0025388555415029393 -0.0010977254632263799 0 0.0023006422012406386 -0.0011382181102483056 0 0.0022726202401888076 -0.0012699087332787688 0 0.0023006422012406386 -0.0011382181102483056 0 0.0022726202401888076 -0.0012699087332787688 0 0.0022105941698196824 -0.0012516112196700653 0 0.0019652788597609291 -0.00055117626502683675 0 0.00027996646405264097 -0.00016376140353196612 0 0.0019652788597609291 -0.00055117626502683675 0 0.00079007661701237426 -0.00017456415618556442 0 0.00079007661701237426 -0.00017456415618556442 0 0.00027996646405264097 -0.00016376140353196612 0 0.00086199416728954467 -0.00034263322640630029 0 0.00084865300410757528 -0.0003392935191117698 0 0.0008509791970962861 -0.00034877334196909706 0 0.0022264834544087741 -0.00062685086126608675 0 0.0023332839110057819 -0.00072383834800248683 0 0.0022815386910541831 -0.0008498344477929228 0 0.00027996646405264097 -0.00016376140353196612 0 -0.00033803916905905689 -0.00028076010427300095 0 0.0024857401786772195 -0.00068988692454425519 0 0.0022676994924197141 -0.00059914138779584283 0 0.0023332839110057819 -0.00072383834800248683 0 0.0022676994924197141 -0.00059914138779584283 0 0.0022264834544087741 -0.00062685086126608675 0 0.0023332839110057819 -0.00072383834800248683 0 0.00010341638930627945 0.00065438382733733441 0 0.00011941547251341249 0.0006400447078559944 0 9.2802079479106968e-05 0.00063148898621248248 0 0.00027996646405264097 -0.00016376140353196612 0 -0.00075936119242620047 0.00049639093942965514 0 -0.0017447421641140326 0.00011761562610749248 0 -0.0017581068775782969 0.00018243174332792993 0 -0.0016893961835583223 0.0001644692588546574 0 -0.0017581068775782969 0.00018243174332792993 0 -0.0017206362077703354 0.0002013314510763464 0 -0.0016893961835583223 0.0001644692588546574 0 -0.0017581068775782969 0.00018243174332792993 0 -0.0017206362077703354 0.0002013314510763464 0 -0.0017482201230835798 0.00024499598386011916 0 -0.0017447421641140326 0.00011761562610749248 0 -0.0017581068775782969 0.00018243174332792993 0 -0.0017715291396808921 0.00017880961155052847 0 -0.0018707818812583553 -3.1040834604375859e-05 0 -0.00033803916905905689 -0.00028076010427300095 0 -0.0017581068775782969 0.00018243174332792993 0 -0.001818419530405332 0.00017874127819460714 0 -0.0017983442487934118 0.00023879052351016215 0 -0.0018646741113604777 0.00029990183353392769 0 -0.0017983442487934118 0.00023879052351016215 0 -0.0017944899744106557 0.00027870435747247714 0 -0.0023155095972372244 0.00017319527934762051 0 -0.00033803916905905689 -0.00028076010427300095 0 -0.0018646741113604777 0.00029990183353392769 0 -0.001818419530405332 0.00017874127819460714 0 -0.0017983442487934118 0.00023879052351016215 0 -0.001799276806127643 0.00032877672142575455 0 -0.0017482201230835798 0.00024499598386011916 0 -0.0016837639960601664 0.00028018566899428468 0 -0.0017206362077703354 0.0002013314510763464 0 -0.0017482201230835798 0.00024499598386011916 0 -0.0016878272830305775 0.00022157017782661152 0 -0.0017581068775782969 0.00018243174332792993 0 -0.0017983442487934118 0.00023879052351016215 0 -0.0017482201230835798 0.00024499598386011916 0 -0.001799276806127643 0.00032877672142575455 0 -0.0017482201230835798 0.00024499598386011916 0 -0.0017944899744106557 0.00027870435747247714 0 -0.0017983442487934118 0.00023879052351016215 0 -0.0017482201230835798 0.00024499598386011916 0 -0.0017944899744106557 0.00027870435747247714 0 -0.0016837639960601664 0.00028018566899428468 0 -0.0016878272830305775 0.00022157017782661152 0 -0.0016097091383524848 0.00022727150877056054 0 -0.0017482201230835798 0.00024499598386011916 0 -0.0016837639960601664 0.00028018566899428468 0 -0.0016878272830305775 0.00022157017782661152 0 -0.0032194441480955893 0.00030481470976225774 0 -0.0019398549924790824 0.00036097058568787738 0 -0.0043656715133735232 0.00025338950056658105 0 -0.0043321283574729221 0.00023063718534780319 0 -0.0043519786467781816 0.00025286954084870601 0 -0.0019398549924790824 0.00036097058568787738 0 -0.00075936119242620047 0.00049639093942965514 0 6.0317403447544292e-05 0.00061360941746260256 0 9.2802079479106968e-05 0.00063148898621248248 0 7.7939931222332536e-05 0.00063811575905634845 0 6.0317403447544292e-05 0.00061360941746260256 0 7.7939931222332536e-05 0.00063811575905634845 0 6.981261449480457e-05 0.00063875269959596636 0 -0.0016878272830305775 0.00022157017782661152 0 -0.0016097091383524848 0.00022727150877056054 0 -0.0016893961835583223 0.0001644692588546574 0 -0.0017206362077703354 0.0002013314510763464 0 -0.0016878272830305775 0.00022157017782661152 0 -0.0016893961835583223 0.0001644692588546574 0 0.00010341638930627945 0.00065438382733733441 0 9.2802079479106968e-05 0.00063148898621248248 0 8.8507938747429209e-05 0.0006532873436554935 0 9.2802079479106968e-05 0.00063148898621248248 0 7.7939931222332536e-05 0.00063811575905634845 0 8.8507938747429209e-05 0.0006532873436554935 0 7.7939931222332536e-05 0.00063811575905634845 0 7.6338956507006521e-05 0.00066296932684480005 0 6.981261449480457e-05 0.00063875269959596636 0 7.7939931222332536e-05 0.00063811575905634845 0 8.8507938747429209e-05 0.0006532873436554935 0 7.6338956507006521e-05 0.00066296932684480005 0 8.8507938747429209e-05 0.0006532873436554935 0 8.1780217283199211e-05 0.00068014787857101713 0 9.4905602194310368e-05 0.00066151150730855567 0 8.8507938747429209e-05 0.0006532873436554935 0 8.1780217283199211e-05 0.00068014787857101713 0 7.6338956507006521e-05 0.00066296932684480005 0 0.00010341638930627945 0.00065438382733733441 0 8.8507938747429209e-05 0.0006532873436554935 0 9.4905602194310368e-05 0.00066151150730855567 0 0.00015331182821303306 0.00065029577830475306 0 0.00015541956492686108 0.00061119518716847292 0 9.4905602194310368e-05 0.00066151150730855567 0 5.2169187976680552e-06 0.00064421942053760237 0 0.00013495426964636574 0.00064042484133862833 0 4.2230039775061737e-05 0.00069369847269905652 0 5.1986651645527476e-05 0.00071937875675649699 0 6.1666084550175091e-05 0.00068085529597725102 0 4.2230039775061737e-05 0.00069369847269905652 0 2.4093249556570095e-05 0.0007275638232888778 0 5.1986651645527476e-05 0.00071937875675649699 0 4.2230039775061737e-05 0.00069369847269905652 0 2.4093249556570095e-05 0.0007275638232888778 0 1.2384502849199261e-05 0.00068803860876289825 0 -3.1537516161984194e-05 0.00076392073859787813 0 2.4093249556570095e-05 0.0007275638232888778 0 1.2384502849199261e-05 0.00068803860876289825 0 3.2438112135582426e-05 0.00076138001450096865 0 2.4093249556570095e-05 0.0007275638232888778 0 5.1986651645527476e-05 0.00071937875675649699 0 3.2438112135582426e-05 0.00076138001450096865 0 -3.1537516161984194e-05 0.00076392073859787813 0 2.4093249556570095e-05 0.0007275638232888778 0 6.9125907337027655e-05 0.00073263155686472824 0 5.1986651645527476e-05 0.00071937875675649699 0 7.0554724449264157e-05 0.00070075520673034319 0 8.1780217283199211e-05 0.00068014787857101713 0 7.0554724449264157e-05 0.00070075520673034319 0 7.6338956507006521e-05 0.00066296932684480005 0 7.0554724449264157e-05 0.00070075520673034319 0 6.1666084550175091e-05 0.00068085529597725102 0 7.6338956507006521e-05 0.00066296932684480005 0 5.1986651645527476e-05 0.00071937875675649699 0 7.0554724449264157e-05 0.00070075520673034319 0 6.1666084550175091e-05 0.00068085529597725102 0 6.1666084550175091e-05 0.00068085529597725102 0 6.5509904962906979e-05 0.00065011226555469705 0 5.3407689321887377e-05 0.00064150128001029788 0 6.5509904962906979e-05 0.00065011226555469705 0 7.6338956507006521e-05 0.00066296932684480005 0 6.981261449480457e-05 0.00063875269959596636 0 6.1666084550175091e-05 0.00068085529597725102 0 6.5509904962906979e-05 0.00065011226555469705 0 7.6338956507006521e-05 0.00066296932684480005 0 6.5509904962906979e-05 0.00065011226555469705 0 6.981261449480457e-05 0.00063875269959596636 0 6.0364858291535981e-05 0.00063063835576128576 0 6.5509904962906979e-05 0.00065011226555469705 0 6.0364858291535981e-05 0.00063063835576128576 0 5.3407689321887377e-05 0.00064150128001029788 0 6.0364858291535981e-05 0.00063063835576128576 0 5.3407689321887377e-05 0.00064150128001029788 0 5.2166129338639423e-05 0.0005994649888718534 0 5.3407689321887377e-05 0.00064150128001029788 0 4.5968475877718813e-05 0.0005885436792909815 0 5.2166129338639423e-05 0.0005994649888718534 0 4.2230039775061737e-05 0.00069369847269905652 0 5.3407689321887377e-05 0.00064150128001029788 0 1.2384502849199261e-05 0.00068803860876289825 0 4.2230039775061737e-05 0.00069369847269905652 0 6.1666084550175091e-05 0.00068085529597725102 0 5.3407689321887377e-05 0.00064150128001029788 0 5.3407689321887377e-05 0.00064150128001029788 0 1.2384502849199261e-05 0.00068803860876289825 0 1.4796695540968295e-05 0.00063489090603256998 0 -4.9100518906844564e-05 0.00069102200498257784 0 1.2384502849199261e-05 0.00068803860876289825 0 1.4796695540968295e-05 0.00063489090603256998 0 -4.2329217525029145e-05 0.00060197915752426511 0 1.4796695540968295e-05 0.00063489090603256998 0 4.5968475877718813e-05 0.0005885436792909815 0 5.3407689321887377e-05 0.00064150128001029788 0 1.4796695540968295e-05 0.00063489090603256998 0 4.5968475877718813e-05 0.0005885436792909815 0 -0.0021019448264663087 0.0003135320529192773 0 -0.0020574012338646988 0.00033823212520558879 0 -0.002089215269984253 0.00028887111885673924 0 -4.2329217525029145e-05 0.00060197915752426511 0 -1.4038614859046663e-05 0.00051812630197162928 0 4.5968475877718813e-05 0.0005885436792909815 0 -6.1054058802766261e-05 0.00037365078069478459 0 -1.4038614859046663e-05 0.00051812630197162928 0 0.00011942096370182981 0.00054372184656362708 0 -1.4038614859046663e-05 0.00051812630197162928 0 4.5968475877718813e-05 0.0005885436792909815 0 0.00011942096370182981 0.00054372184656362708 0 -0.0010653621610313033 0.00034614414290825749 0 -0.00060734176746502649 0.00048341359375413578 0 -0.00012604523380422547 0.00039264272854503578 0 -0.00060734176746502649 0.00048341359375413578 0 6.0317403447544292e-05 0.00061360941746260256 0 6.981261449480457e-05 0.00063875269959596636 0 6.0364858291535981e-05 0.00063063835576128576 0 6.0317403447544292e-05 0.00061360941746260256 0 6.0364858291535981e-05 0.00063063835576128576 0 4.8887460213033109e-05 0.00062586493305077787 0 -0.0019398549924790824 0.00036097058568787738 0 -0.00060734176746502649 0.00048341359375413578 0 3.3173310693503811e-05 0.0007191835304741469 0 -0.00060734176746502649 0.00048341359375413578 0 -0.0019398549924790824 0.00036097058568787738 0 -0.0032953472354742839 0.00019752827661145497 0 -0.0043321283574729221 0.00023063718534780319 0 -0.0043192401654563286 0.00024199307032079622 0 -0.0043519786467781816 0.00025286954084870601 0 -0.002013324348776286 0.00030695361714373607 0 -0.0020574012338646988 0.00033823212520558879 0 -0.0020576175313186331 0.00027799676554666146 0 -0.0020574012338646988 0.00033823212520558879 0 -0.0020576175313186331 0.00027799676554666146 0 -0.002089215269984253 0.00028887111885673924 0 -0.0020576175313186331 0.00027799676554666146 0 -0.002089215269984253 0.00028887111885673924 0 -0.0021022989424239443 0.00025315998279781636 0 -0.0043192401654563286 0.00024199307032079622 0 -0.0042921767242779284 0.00026022960802899592 0 -0.0043478940448016925 0.00027946572083166379 0 -0.0032953472354742839 0.00019752827661145497 0 -0.003783213648405104 0.00037597252111978553 0 -0.0050316959865189092 0.00063530934955193679 0 -0.0048106296808080708 0.00051356976548796974 0 -0.0049650143626004065 0.00047378479439905076 0 -0.003783213648405104 0.00037597252111978553 0 -0.0047637626881483798 0.00044305989027431546 0 -0.0050651935610940245 0.00051183946460593385 0 -0.0050316959865189092 0.00063530934955193679 0 -0.0049650143626004065 0.00047378479439905076 0 -0.0043192401654563286 0.00024199307032079622 0 -0.0043478940448016925 0.00027946572083166379 0 -0.0043519786467781816 0.00025286954084870601 0 -0.0043599138384916858 0.00026844022257711602 0 -0.0043656715133735232 0.00025338950056658105 0 -0.00438448580131846 0.00026566352595206702 0 -0.0043656715133735232 0.00025338950056658105 0 -0.0043519786467781816 0.00025286954084870601 0 -0.00438448580131846 0.00026566352595206702 0 -0.0043478940448016925 0.00027946572083166379 0 -0.0043519786467781816 0.00025286954084870601 0 -0.00438448580131846 0.00026566352595206702 0 -0.0047637626881483798 0.00044305989027431546 0 -0.0043609936197097554 0.0002449418651301904 0 -0.0043478940448016925 0.00027946572083166379 0 -0.00438448580131846 0.00026566352595206702 0 -0.0044349427672718839 0.000269946709423867 0 -0.0048106296808080708 0.00051356976548796974 0 -0.0047009940887302176 0.0003084830685835552 0 -0.0044349427672718839 0.000269946709423867 0 -0.0043754431073291678 0.00025916541951392377 0 -0.00438448580131846 0.00026566352595206702 0 -0.0044349427672718839 0.000269946709423867 0 -0.004379742804901149 0.00023609512938105136 0 -0.0043754431073291678 0.00025916541951392377 0 -0.0044349427672718839 0.000269946709423867 0 -0.0044349427672718839 0.000269946709423867 0 -0.0043960109051946394 0.00016714256692548928 0 -0.0045756886002110047 0.00017932476779514408 0 -0.004379742804901149 0.00023609512938105136 0 -0.0044349427672718839 0.000269946709423867 0 -0.0043960109051946394 0.00016714256692548928 0 -0.0043960109051946394 0.00016714256692548928 0 -0.0045756886002110047 0.00017932476779514408 0 -0.004669084740018703 3.0242248649254713e-05 0 -0.0047009940887302176 0.0003084830685835552 0 -0.0044349427672718839 0.000269946709423867 0 -0.0045756886002110047 0.00017932476779514408 0 -0.0057032464977645591 0.00021901534139026402 0 -0.0061515389544624316 0.00010726119320933764 0 -0.0047009940887302176 0.0003084830685835552 0 -0.0045756886002110047 0.00017932476779514408 0 -0.0047554840779338537 0.00017303678968317055 0 -0.0045756886002110047 0.00017932476779514408 0 -0.0047554840779338537 0.00017303678968317055 0 -0.004669084740018703 3.0242248649254713e-05 0 -0.0047554840779338537 0.00017303678968317055 0 -0.0049331243924835054 7.475931074729612e-05 0 -0.004669084740018703 3.0242248649254713e-05 0 -0.0047009940887302176 0.0003084830685835552 0 -0.0047554840779338537 0.00017303678968317055 0 -0.0048293006058617808 0.0002882411982288814 0 -0.0047554840779338537 0.00017303678968317055 0 -0.0048293006058617808 0.0002882411982288814 0 -0.0049120912946680568 0.00020970030946617678 0 -0.0048293006058617808 0.0002882411982288814 0 -0.0049120912946680568 0.00020970030946617678 0 -0.0049294318645499973 0.00033409132988274608 0 -0.0047554840779338537 0.00017303678968317055 0 -0.0049120912946680568 0.00020970030946617678 0 -0.0049331243924835054 7.475931074729612e-05 0 -0.0054262032865254779 0.00032714719061760196 0 -0.0049120912946680568 0.00020970030946617678 0 -0.0052430955062604274 7.4495058371779386e-05 0 -0.0051864340545576936 0.00028211892533572919 0 -0.0049120912946680568 0.00020970030946617678 0 -0.0049294318645499973 0.00033409132988274608 0 -0.0049120912946680568 0.00020970030946617678 0 -0.0049331243924835054 7.475931074729612e-05 0 -0.0052430955062604274 7.4495058371779386e-05 0 -0.0055514397869408198 0.00033809831133471967 0 -0.0048378755996433993 0.00019849449026800107 0 -0.0050741724995071553 0.00042240350967985476 0 -0.0049650143626004065 0.00047378479439905076 0 -0.0049294318645499973 0.00033409132988274608 0 -0.0051864340545576936 0.00028211892533572919 0 -0.0051788316909099699 0.00041693085925999772 0 -0.0049294318645499973 0.00033409132988274608 0 -0.0051671014022980008 0.00042761935992531949 0 -0.0049264638361871957 0.00033884038740411576 0 -0.0050651935610940245 0.00051183946460593385 0 -0.0050741724995071553 0.00042240350967985476 0 -0.0049650143626004065 0.00047378479439905076 0 -0.0048106296808080708 0.00051356976548796974 0 -0.0047009940887302176 0.0003084830685835552 0 -0.0048482937422968751 0.00040066451043781681 0 -0.0048106296808080708 0.00051356976548796974 0 -0.0049650143626004065 0.00047378479439905076 0 -0.0048482937422968751 0.00040066451043781681 0 -0.0049650143626004065 0.00047378479439905076 0 -0.0048482937422968751 0.00040066451043781681 0 -0.0049294318645499973 0.00033409132988274608 0 -0.0047009940887302176 0.0003084830685835552 0 -0.0048293006058617808 0.0002882411982288814 0 -0.0048482937422968751 0.00040066451043781681 0 -0.0048293006058617808 0.0002882411982288814 0 -0.0048482937422968751 0.00040066451043781681 0 -0.0049294318645499973 0.00033409132988274608 0 -0.0076948390709147309 6.0195039477992844e-05 0 -0.0089387513014639198 -0.00010632142838965533 0 -0.0078476882723346186 -0.00013634529601403179 0 -0.0074737845452196956 -0.00015054367471954065 0 -0.0073853676616094091 -0.00044520906737222798 0 -0.0097899860767935894 0.00018386653361857533 0 -0.009826211761295469 -7.324839312054427e-05 0 -0.01000147933515139 0.0003508561155641073 0 -0.0077823607919724836 -0.00019806162419193918 0 -0.0073853676616094091 -0.00044520906737222798 0 -0.0076056079713257407 -0.00057557799725403529 0 -0.0076948390709147309 6.0195039477992844e-05 0 -0.0074328963792437575 -0.00049834604158294432 0 -0.0095572845071925025 6.4187682339177132e-05 0 -0.0097899860767935894 0.00018386653361857533 0 -0.0096930466100276901 0.00024886039826782296 0 -0.0095572845071925025 6.4187682339177132e-05 0 -0.0097899860767935894 0.00018386653361857533 0 -0.009826211761295469 -7.324839312054427e-05 0 -0.0076948390709147309 6.0195039477992844e-05 0 -0.0061711869473600484 -0.00033118788771124114 0 -0.0095572845071925025 6.4187682339177132e-05 0 -0.0095123198103889712 -0.00026149518999725907 0 -0.009826211761295469 -7.324839312054427e-05 0 -0.00538601325237331 -7.9900771109925605e-05 0 -0.005163396996326476 -0.00020009236148353499 0 -0.0052146872243682705 -6.846813830853911e-05 0 -0.0070762862677217807 -5.155148092825653e-05 0 -0.0076948390709147309 6.0195039477992844e-05 0 -0.005644673491898464 -0.00016873090290811198 0 -0.0061711869473600484 -0.00033118788771124114 0 -0.00538601325237331 -7.9900771109925605e-05 0 -0.0052430955062604274 7.4495058371779386e-05 0 -0.0052146872243682705 -6.846813830853911e-05 0 -0.0049331243924835054 7.475931074729612e-05 0 -0.0052430955062604274 7.4495058371779386e-05 0 -0.0051475593932917311 -0.00010154504038634105 0 -0.0061711869473600484 -0.00033118788771124114 0 -0.0061515389544624316 0.00010726119320933764 0 -0.0078476882723346186 -0.00013634529601403179 0 -0.0079166851396525184 3.0911082500292862e-05 0 -0.0074825246934482354 0.00012527463114192822 0 -0.0049331243924835054 7.475931074729612e-05 0 -0.0051475593932917311 -0.00010154504038634105 0 -0.004669084740018703 3.0242248649254713e-05 0 -0.0078476882723346186 -0.00013634529601403179 0 -0.0074825246934482354 0.00012527463114192822 0 -0.0074737845452196956 -0.00015054367471954065 0 -0.0074825246934482354 0.00012527463114192822 0 -0.0071885157178416823 -0.00014953206724682594 0 -0.0074737845452196956 -0.00015054367471954065 0 -0.0070332091078451463 0.00027360616180122549 0 -0.0074825246934482354 0.00012527463114192822 0 -0.0071885157178416823 -0.00014953206724682594 0 -0.0070332091078451463 0.00027360616180122549 0 -0.0071885157178416823 -0.00014953206724682594 0 -0.0067452970291232654 6.6040443856248894e-06 0 -0.0071885157178416823 -0.00014953206724682594 0 -0.0071301105865619998 -0.00043321752731805013 0 -0.0068491073197205574 -0.00036277205943368077 0 -0.0071885157178416823 -0.00014953206724682594 0 -0.0071301105865619998 -0.00043321752731805013 0 -0.0073853676616094091 -0.00044520906737222798 0 -0.0071885157178416823 -0.00014953206724682594 0 -0.0074737845452196956 -0.00015054367471954065 0 -0.0073853676616094091 -0.00044520906737222798 0 -0.0073853676616094091 -0.00044520906737222798 0 -0.0071352888813721984 -0.00069181256629753478 0 -0.007367787029135789 -0.00070156789431869565 0 -0.0073853676616094091 -0.00044520906737222798 0 -0.007367787029135789 -0.00070156789431869565 0 -0.0076056079713257407 -0.00057557799725403529 0 -0.0071301105865619998 -0.00043321752731805013 0 -0.0073853676616094091 -0.00044520906737222798 0 -0.0071352888813721984 -0.00069181256629753478 0 -0.0071301105865619998 -0.00043321752731805013 0 -0.0071352888813721984 -0.00069181256629753478 0 -0.0069272191017996209 -0.00065263265211627645 0 -0.0071352888813721984 -0.00069181256629753478 0 -0.007367787029135789 -0.00070156789431869565 0 -0.0071443990262320331 -0.00094158577015661588 0 -0.0071352888813721984 -0.00069181256629753478 0 -0.0071443990262320331 -0.00094158577015661588 0 -0.0069925569833405449 -0.00094115065094378051 0 -0.007367787029135789 -0.00070156789431869565 0 -0.0073697174638734939 -0.00089675108496839516 0 -0.0071443990262320331 -0.00094158577015661588 0 -0.007367787029135789 -0.00070156789431869565 0 -0.0076056079713257407 -0.00057557799725403529 0 -0.0073697174638734939 -0.00089675108496839516 0 -0.0089387513014639198 -0.00010632142838965533 0 -0.0087026249671815822 -0.00016997646444855675 0 -0.0099416582485882792 0.00051755048113402518 0 -0.01000147933515139 0.0003508561155641073 0 -0.01007866226095528 0.00057037041142005769 0 -0.0099416582485882792 0.00051755048113402518 0 -0.01000147933515139 0.0003508561155641073 0 -0.0098360796609291406 0.00036679091294587128 0 -0.0095572845071925025 6.4187682339177132e-05 0 -0.0095912122589302002 0.00038319519332846247 0 -0.0096930466100276901 0.00024886039826782296 0 -0.0095912122589302002 0.00038319519332846247 0 -0.0096930466100276901 0.00024886039826782296 0 -0.0098360796609291406 0.00036679091294587128 0 -0.0097899860767935894 0.00018386653361857533 0 -0.0096930466100276901 0.00024886039826782296 0 -0.0098360796609291406 0.00036679091294587128 0 -0.0097899860767935894 0.00018386653361857533 0 -0.01000147933515139 0.0003508561155641073 0 -0.0098360796609291406 0.00036679091294587128 0 -0.0088767200315166203 0.00076006173503860043 0 -0.0099326938831197104 0.00048433790117687297 0 -0.0097598497458872245 0.00037765243130750547 0 -0.0098360796609291406 0.00036679091294587128 0 -0.0097947004176580036 0.00050851114459010856 0 -0.0099416582485882792 0.00051755048113402518 0 -0.0097947004176580036 0.00050851114459010856 0 -0.0098529670413280025 0.00064594931793660732 0 -0.0088767200315166203 0.00076006173503860043 0 -0.0097765036449643013 0.00049954748180714836 0 -0.0099416582485882792 0.00051755048113402518 0 -0.0098360796609291406 0.00036679091294587128 0 -0.0097947004176580036 0.00050851114459010856 0 -0.0099416582485882792 0.00051755048113402518 0 -0.0098529670413280025 0.00064594931793660732 0 -0.0099728851147808193 0.00065227697256818205 0 -0.0097765036449643013 0.00049954748180714836 0 -0.0098380310949844427 0.00063973144639934245 0 -0.0098529670413280025 0.00064594931793660732 0 -0.0099728851147808193 0.00065227697256818205 0 -0.0098957865464790132 0.00071469589516203272 0 -0.0099416582485882792 0.00051755048113402518 0 -0.0099728851147808193 0.00065227697256818205 0 -0.01007866226095528 0.00057037041142005769 0 -0.0099728851147808193 0.00065227697256818205 0 -0.0099918931738133387 0.00076744100898627201 0 -0.010149487194344808 0.00073856031046024332 0 -0.0099728851147808193 0.00065227697256818205 0 -0.0099918931738133387 0.00076744100898627201 0 -0.0098957865464790132 0.00071469589516203272 0 -0.0099918931738133387 0.00076744100898627201 0 -0.0098957865464790132 0.00071469589516203272 0 -0.0098853972304202807 0.00079515828408666643 0 -0.0099918931738133387 0.00076744100898627201 0 -0.009965779682469535 0.00084426768757698623 0 -0.0098853972304202807 0.00079515828408666643 0 -0.009965779682469535 0.00084426768757698623 0 -0.0098853972304202807 0.00079515828408666643 0 -0.0099021203285752681 0.00091218719770576784 0 -0.0099918931738133387 0.00076744100898627201 0 -0.009965779682469535 0.00084426768757698623 0 -0.010068786385672039 0.00083866907874847617 0 -0.009965779682469535 0.00084426768757698623 0 -0.010068786385672039 0.00083866907874847617 0 -0.010023447680540214 0.00091343505508885328 0 -0.010023447680540214 0.00091343505508885328 0 -0.0099635232947564833 0.0010139364571359684 0 -0.010116473056783428 0.00099731849951516867 0 -0.010068786385672039 0.00083866907874847617 0 -0.010023447680540214 0.00091343505508885328 0 -0.010129110467846191 0.00091533353469645568 0 -0.010023447680540214 0.00091343505508885328 0 -0.010129110467846191 0.00091533353469645568 0 -0.010116473056783428 0.00099731849951516867 0 -0.0099021203285752681 0.00091218719770576784 0 -0.0099635232947564833 0.0010139364571359684 0 -0.0098668640407701663 0.0010311388699611279 0 -0.010023447680540214 0.00091343505508885328 0 -0.0099021203285752681 0.00091218719770576784 0 -0.0099635232947564833 0.0010139364571359684 0 -0.009965779682469535 0.00084426768757698623 0 -0.010023447680540214 0.00091343505508885328 0 -0.0099021203285752681 0.00091218719770576784 0 -0.01018106225140321 0.00086938281281272157 0 -0.010186326434946342 0.00091311531629167616 0 -0.010166403575051185 0.00090596991276223305 0 -0.01018106225140321 0.00086938281281272157 0 -0.010129110467846191 0.00091533353469645568 0 -0.010166403575051185 0.00090596991276223305 0 -0.0084724862206278177 -0.00016178342681887815 0 -0.010168662181451908 0.00028276303061834288 0 -0.010117257511873177 0.00090504366614082947 0 -0.010224969414363745 0.00095542611494830131 0 -0.01018106225140321 0.00086938281281272157 0 -0.010129110467846191 0.00091533353469645568 0 -0.010135302142956782 0.00084417525252189214 0 -0.010068786385672039 0.00083866907874847617 0 -0.010135302142956782 0.00084417525252189214 0 -0.010149487194344808 0.00073856031046024332 0 -0.010068786385672039 0.00083866907874847617 0 -0.010129110467846191 0.00091533353469645568 0 -0.010135302142956782 0.00084417525252189214 0 -0.01018106225140321 0.00086938281281272157 0 -0.010135302142956782 0.00084417525252189214 0 -0.010149487194344808 0.00073856031046024332 0 -0.0084724862206278177 -0.00016178342681887815 0 -0.0087114971824571313 -8.9752774122723501e-05 0 -0.0071724553131639014 -0.00095459522353299922 0 -0.0071956263548303328 -0.00099201564315704147 0 -0.007150950769957737 -0.00097240734027506551 0 -0.0071956263548303328 -0.00099201564315704147 0 -0.0071443990262320331 -0.00094158577015661588 0 -0.007150950769957737 -0.00097240734027506551 0 -0.0099918931738133387 0.00076744100898627201 0 -0.010068786385672039 0.00083866907874847617 0 -0.010149487194344808 0.00073856031046024332 0 -0.0099728851147808193 0.00065227697256818205 0 -0.010149487194344808 0.00073856031046024332 0 -0.01007866226095528 0.00057037041142005769 0 -0.0087114971824571313 -8.9752774122723501e-05 0 -0.0087026249671815822 -0.00016997646444855675 0 -0.0071956263548303328 -0.00099201564315704147 0 -0.0073697174638734939 -0.00089675108496839516 0 -0.0071443990262320331 -0.00094158577015661588 0 -0.0071443990262320331 -0.00094158577015661588 0 -0.007092194984396197 -0.0009449978169451419 0 -0.007150950769957737 -0.00097240734027506551 0 -0.0071443990262320331 -0.00094158577015661588 0 -0.007092194984396197 -0.0009449978169451419 0 -0.0069925569833405449 -0.00094115065094378051 0 -0.007092194984396197 -0.0009449978169451419 0 -0.0071224369310929772 -0.00093223788218290316 0 -0.0069925569833405449 -0.00094115065094378051 0 -0.010590688778675484 -0.00043556271965193474 0 -0.010149983185031885 -0.00057650454754351772 0 -0.013586552292278186 -0.00014288966489669753 0 -0.01347766393102112 -0.00010912082540933066 0 -0.013511818877681504 -0.00014046522718542687 0 -0.007092194984396197 -0.0009449978169451419 0 -0.0071224369310929772 -0.00093223788218290316 0 -0.0071518921101508693 -0.00095150255013491788 0 -0.007092194984396197 -0.0009449978169451419 0 -0.0071518921101508693 -0.00095150255013491788 0 -0.007150950769957737 -0.00097240734027506551 0 -0.0071724553131639014 -0.00095459522353299922 0 -0.007150950769957737 -0.00097240734027506551 0 -0.0071787583676373185 -0.00095576103627328002 0 -0.0071518921101508693 -0.00095150255013491788 0 -0.007150950769957737 -0.00097240734027506551 0 -0.0071787583676373185 -0.00095576103627328002 0 -0.01347766393102112 -0.00010912082540933066 0 -0.013560975864778368 3.8679635782486032e-05 0 -0.013432786167172304 0.00014944807402711814 0 -0.0071518921101508693 -0.00095150255013491788 0 -0.0071787583676373185 -0.00095576103627328002 0 -0.0072157901673365237 -0.00094374855713225971 0 -0.010149983185031885 -0.00057650454754351772 0 -0.011767860573565811 -7.9777802673514981e-05 0 -0.01347766393102112 -0.00010912082540933066 0 -0.013560975864778368 3.8679635782486032e-05 0 -0.01357817794348108 -4.2775087428694895e-05 0 -0.013624166283768722 -0.00028248170018952491 0 -0.011767860573565811 -7.9777802673514981e-05 0 -0.013560975864778368 3.8679635782486032e-05 0 -0.013540069242116721 9.4166365791817388e-05 0 -0.013618006810435955 0.00012679185223257833 0 -0.013540069242116721 9.4166365791817388e-05 0 -0.013618006810435955 0.00012679185223257833 0 -0.013577953310342063 0.00014369886441992544 0 -0.011767860573565811 -7.9777802673514981e-05 0 -0.012099366378221003 -8.1655767255156127e-05 0 -0.013540069242116721 9.4166365791817388e-05 0 -0.013577953310342063 0.00014369886441992544 0 -0.013535003862662754 0.00011864286954399999 0 -0.013577953310342063 0.00014369886441992544 0 -0.013535003862662754 0.00011864286954399999 0 -0.013558927972114524 0.00018617929378333508 0 -0.011767860573565811 -7.9777802673514981e-05 0 -0.010168662181451908 0.00028276303061834288 0 -0.01354290140834225 7.0449995495572765e-05 0 -0.013535003862662754 0.00011864286954399999 0 -0.013341095911831875 0.00023751625610864271 0 -0.0072157901673365237 -0.00094374855713225971 0 -0.0071941362423659496 -0.00094090523772301057 0 -0.0072136616319184417 -0.00090306994362617779 0 -0.0071724553131639014 -0.00095459522353299922 0 -0.0071941362423659496 -0.00094090523772301057 0 -0.0072136616319184417 -0.00090306994362617779 0 -0.0071724553131639014 -0.00095459522353299922 0 -0.0071787583676373185 -0.00095576103627328002 0 -0.0071941362423659496 -0.00094090523772301057 0 -0.0071787583676373185 -0.00095576103627328002 0 -0.0072157901673365237 -0.00094374855713225971 0 -0.0071941362423659496 -0.00094090523772301057 0 -0.013776396333170668 0.00014618955874578425 0 -0.013792102326919239 6.3045314418400011e-05 0 -0.013871937886820068 0.00019801098464862989 0 -0.013776396333170668 0.00014618955874578425 0 -0.013685589135711147 5.0494871659980653e-05 0 -0.013792102326919239 6.3045314418400011e-05 0 -0.013776396333170668 0.00014618955874578425 0 -0.013670012683691647 0.00010425770498949255 0 -0.013728202530861365 0.00017994756960076978 0 -0.013618006810435955 0.00012679185223257833 0 -0.013670012683691647 0.00010425770498949255 0 -0.013728202530861365 0.00017994756960076978 0 -0.013560975864778368 3.8679635782486032e-05 0 -0.013670012683691647 0.00010425770498949255 0 -0.013685589135711147 5.0494871659980653e-05 0 -0.013560975864778368 3.8679635782486032e-05 0 -0.013618006810435955 0.00012679185223257833 0 -0.013670012683691647 0.00010425770498949255 0 -0.013776396333170668 0.00014618955874578425 0 -0.013670012683691647 0.00010425770498949255 0 -0.013685589135711147 5.0494871659980653e-05 0 -0.013560975864778368 3.8679635782486032e-05 0 -0.013685589135711147 5.0494871659980653e-05 0 -0.01357817794348108 -4.2775087428694895e-05 0 -0.013685589135711147 5.0494871659980653e-05 0 -0.01357817794348108 -4.2775087428694895e-05 0 -0.01365332836981323 -4.6478366942092364e-05 0 -0.013792102326919239 6.3045314418400011e-05 0 -0.013742762078593379 -7.8460106454559704e-05 0 -0.01365332836981323 -4.6478366942092364e-05 0 -0.013685589135711147 5.0494871659980653e-05 0 -0.013792102326919239 6.3045314418400011e-05 0 -0.01365332836981323 -4.6478366942092364e-05 0 -0.013742762078593379 -7.8460106454559704e-05 0 -0.01365332836981323 -4.6478366942092364e-05 0 -0.013597138969894345 -0.00013529749405285493 0 -0.01347766393102112 -0.00010912082540933066 0 -0.01357817794348108 -4.2775087428694895e-05 0 -0.013511818877681504 -0.00014046522718542687 0 -0.01357817794348108 -4.2775087428694895e-05 0 -0.01365332836981323 -4.6478366942092364e-05 0 -0.013511818877681504 -0.00014046522718542687 0 -0.01365332836981323 -4.6478366942092364e-05 0 -0.013597138969894345 -0.00013529749405285493 0 -0.013511818877681504 -0.00014046522718542687 0 -0.013597138969894345 -0.00013529749405285493 0 -0.013511818877681504 -0.00014046522718542687 0 -0.013412421577309874 -0.00019457005792297469 0 -0.013586552292278186 -0.00014288966489669753 0 -0.013511818877681504 -0.00014046522718542687 0 -0.013412421577309874 -0.00019457005792297469 0 -0.013586552292278186 -0.00014288966489669753 0 -0.013412421577309874 -0.00019457005792297469 0 -0.012987877652578438 0.00042530765338100781 0 -0.013742762078593379 -7.8460106454559704e-05 0 -0.013597138969894345 -0.00013529749405285493 0 -0.013726072039768148 -0.00025948144131245039 0 -0.013127167410647055 -0.00016358515830659586 0 -0.013559232042408031 -0.00026061402274452371 0 -0.013412421577309874 -0.00019457005792297469 0 -0.012191996174961807 -0.00011423444305961302 0 -0.012987877652578438 0.00042530765338100781 0 -0.013597138969894345 -0.00013529749405285493 0 -0.013412421577309874 -0.00019457005792297469 0 -0.013726072039768148 -0.00025948144131245039 0 -0.012191996174961807 -0.00011423444305961302 0 -0.012279810946075165 0.00088862814120058739 0 -0.012987877652578438 0.00042530765338100781 0 -0.012279810946075165 0.00088862814120058739 0 -0.012746820357904956 0.0013573598479889423 0 -0.012987877652578438 0.00042530765338100781 0 -0.012279810946075165 0.00088862814120058739 0 -0.012746820357904956 0.0013573598479889423 0 -0.011965081276771282 0.0018028274416207236 0 -0.0056443082308177059 -0.00067045264026550672 0 -0.0059202564276394668 -0.00058280430712454609 0 -0.0062001700319030493 -0.00090321509523172503 0 -0.012746820357904956 0.0013573598479889423 0 -0.013463805075462805 0.00089842013324082238 0 -0.012987877652578438 0.00042530765338100781 0 -0.009601974989404299 0.00016641428141995411 0 -0.0080961376226904077 -0.00062710338480456414 0 -0.0061529749995221979 -0.00066809711199573277 0 -0.0059202564276394668 -0.00058280430712454609 0 -0.0062001700319030493 -0.00090321509523172503 0 -0.0061529749995221979 -0.00066809711199573277 0 -0.0062207306212301132 -0.00080309558019657306 0 -0.0063409181106100837 -0.00062777852010992188 0 -0.0072926573423302398 -0.00056114089040515663 0 -0.0080961376226904077 -0.00062710338480456414 0 -0.013586552292278186 -0.00014288966489669753 0 -0.013463805075462805 0.00089842013324082238 0 -0.012987877652578438 0.00042530765338100781 0 -0.010590688778675484 -0.00043556271965193474 0 -0.0080961376226904077 -0.00062710338480456414 0 -0.0071224369310929772 -0.00093223788218290316 0 -0.0071526665312185919 -0.0010444211826301725 0 -0.0069925569833405449 -0.00094115065094378051 0 -0.0080961376226904077 -0.00062710338480456414 0 -0.0064182558923532003 -0.00094308133094654807 0 -0.0071352888813721984 -0.00069181256629753478 0 -0.0069925569833405449 -0.00094115065094378051 0 -0.0069272191017996209 -0.00065263265211627645 0 -0.0069925569833405449 -0.00094115065094378051 0 -0.0069272191017996209 -0.00065263265211627645 0 -0.0065888776202141699 -0.00061717922978656123 0 -0.0069272191017996209 -0.00065263265211627645 0 -0.0065888776202141699 -0.00061717922978656123 0 -0.0068491073197205574 -0.00036277205943368077 0 -0.0071301105865619998 -0.00043321752731805013 0 -0.0069272191017996209 -0.00065263265211627645 0 -0.0068491073197205574 -0.00036277205943368077 0 -0.0062207306212301132 -0.00080309558019657306 0 -0.0069925569833405449 -0.00094115065094378051 0 -0.0065888776202141699 -0.00061717922978656123 0 -0.0065888776202141699 -0.00061717922978656123 0 -0.0063409181106100837 -0.00062777852010992188 0 -0.0062775653159850156 -0.00044872607917587206 0 -0.0062207306212301132 -0.00080309558019657306 0 -0.0065888776202141699 -0.00061717922978656123 0 -0.0063409181106100837 -0.00062777852010992188 0 -0.0061529749995221979 -0.00066809711199573277 0 -0.0063409181106100837 -0.00062777852010992188 0 -0.0062775653159850156 -0.00044872607917587206 0 -0.0062775653159850156 -0.00044872607917587206 0 -0.0064432004811614601 -0.00027267285800775215 0 -0.0060093239557736161 -0.00036535972226547664 0 -0.0065888776202141699 -0.00061717922978656123 0 -0.0062775653159850156 -0.00044872607917587206 0 -0.0064432004811614601 -0.00027267285800775215 0 -0.0064432004811614601 -0.00027267285800775215 0 -0.0068491073197205574 -0.00036277205943368077 0 -0.0067452970291232654 6.6040443856248894e-06 0 -0.0071885157178416823 -0.00014953206724682594 0 -0.0068491073197205574 -0.00036277205943368077 0 -0.0067452970291232654 6.6040443856248894e-06 0 -0.0065888776202141699 -0.00061717922978656123 0 -0.0064432004811614601 -0.00027267285800775215 0 -0.0068491073197205574 -0.00036277205943368077 0 -0.006463787718345001 0.00049326390525812559 0 -0.0070332091078451463 0.00027360616180122549 0 -0.0067452970291232654 6.6040443856248894e-06 0 -0.006463787718345001 0.00049326390525812559 0 -0.0067452970291232654 6.6040443856248894e-06 0 -0.0062644807738748438 0.00017260917981732677 0 -0.0064432004811614601 -0.00027267285800775215 0 -0.0067452970291232654 6.6040443856248894e-06 0 -0.0062644807738748438 0.00017260917981732677 0 -0.0064432004811614601 -0.00027267285800775215 0 -0.0062644807738748438 0.00017260917981732677 0 -0.0058653643419206338 -7.8819606846931275e-07 0 -0.0057066106226302945 0.00071344728076156827 0 -0.0058653643419206338 -7.8819606846931275e-07 0 -0.0054310036795168588 0.0002516267316077199 0 -0.0057066106226302945 0.00071344728076156827 0 -0.0062644807738748438 0.00017260917981732677 0 -0.0058653643419206338 -7.8819606846931275e-07 0 -0.0054310036795168588 0.0002516267316077199 0 -0.0054305437184764436 -5.5337060235436893e-05 0 -0.0050732108902291307 7.1500702996642266e-05 0 -0.0051062803222638887 0.00047561862953493251 0 -0.0054310036795168588 0.0002516267316077199 0 -0.0050732108902291307 7.1500702996642266e-05 0 -0.0054305437184764436 -5.5337060235436893e-05 0 -0.005166133135628451 -0.00025091323205954342 0 -0.0050732108902291307 7.1500702996642266e-05 0 -0.0058653643419206338 -7.8819606846931275e-07 0 -0.0054305437184764436 -5.5337060235436893e-05 0 -0.0055885244446199946 -0.00033693936698636439 0 -0.0058653643419206338 -7.8819606846931275e-07 0 -0.0054310036795168588 0.0002516267316077199 0 -0.0054305437184764436 -5.5337060235436893e-05 0 -0.009601974989404299 0.00016641428141995411 0 -0.0069570698113951938 0.00068909807434383477 0 -0.0056443082308177059 -0.00067045264026550672 0 -0.0055885244446199946 -0.00033693936698636439 0 -0.0050762704105115266 -0.00043207714711869467 0 -0.0054305437184764436 -5.5337060235436893e-05 0 -0.0055885244446199946 -0.00033693936698636439 0 -0.005166133135628451 -0.00025091323205954342 0 -0.0055885244446199946 -0.00033693936698636439 0 -0.005166133135628451 -0.00025091323205954342 0 -0.0050762704105115266 -0.00043207714711869467 0 -0.0064432004811614601 -0.00027267285800775215 0 -0.0058653643419206338 -7.8819606846931275e-07 0 -0.0060093239557736161 -0.00036535972226547664 0 -0.0056443082308177059 -0.00067045264026550672 0 -0.0059202564276394668 -0.00058280430712454609 0 -0.0055885244446199946 -0.00033693936698636439 0 -0.0059202564276394668 -0.00058280430712454609 0 -0.0055885244446199946 -0.00033693936698636439 0 -0.0060093239557736161 -0.00036535972226547664 0 -0.0061529749995221979 -0.00066809711199573277 0 -0.0059202564276394668 -0.00058280430712454609 0 -0.0060093239557736161 -0.00036535972226547664 0 -0.0061529749995221979 -0.00066809711199573277 0 -0.0062775653159850156 -0.00044872607917587206 0 -0.0060093239557736161 -0.00036535972226547664 0 -0.0058653643419206338 -7.8819606846931275e-07 0 -0.0055885244446199946 -0.00033693936698636439 0 -0.0060093239557736161 -0.00036535972226547664 0 -0.0040478202968051297 0.00039949027382213615 0 -0.0037320782319161653 0.00039185073445430462 0 -0.0041443671822091891 9.6583654106663046e-05 0 -0.0040478202968051297 0.00039949027382213615 0 -0.0041443671822091891 9.6583654106663046e-05 0 -0.0042488288343328412 0.00027772754100179059 0 -0.0040478202968051297 0.00039949027382213615 0 -0.0042488288343328412 0.00027772754100179059 0 -0.0042131767030045486 0.00052652913721328812 0 -0.0040478202968051297 0.00039949027382213615 0 -0.0037320782319161653 0.00039185073445430462 0 -0.0039197124442228995 0.00071893583783256502 0 -0.0069570698113951938 0.00068909807434383477 0 -0.0032195329571518294 6.5989971585761831e-05 0 -0.005166133135628451 -0.00025091323205954342 0 -0.0050277711849719044 -0.00046212198098116383 0 -0.0050732108902291307 7.1500702996642266e-05 0 -0.0058353275808516345 -0.00044071164603322517 0 -0.0069570698113951938 0.00068909807434383477 0 -0.0050277711849719044 -0.00046212198098116383 0 -0.0047233970740361937 0.00019508396892057152 0 -0.0041443671822091891 9.6583654106663046e-05 0 -0.0050277711849719044 -0.00046212198098116383 0 -0.0050732108902291307 7.1500702996642266e-05 0 -0.0047233970740361937 0.00019508396892057152 0 -0.0051062803222638887 0.00047561862953493251 0 -0.0050732108902291307 7.1500702996642266e-05 0 -0.0047233970740361937 0.00019508396892057152 0 -0.0047233970740361937 0.00019508396892057152 0 -0.0043562255055310571 0.00019346225691299789 0 -0.0041443671822091891 9.6583654106663046e-05 0 -0.0040981826063001174 0.00024232794371453688 0 -0.0043562255055310571 0.00019346225691299789 0 -0.0041443671822091891 9.6583654106663046e-05 0 -0.0040981826063001174 0.00024232794371453688 0 -0.0041443671822091891 9.6583654106663046e-05 0 -0.004176936499158521 0.00013440667594352227 0 -0.0041443671822091891 9.6583654106663046e-05 0 -0.004176936499158521 0.00013440667594352227 0 -0.0042488288343328412 0.00027772754100179059 0 -0.0042483854261505857 -2.3656051667959386e-05 0 -0.004176936499158521 0.00013440667594352227 0 -0.0043591725621376651 0.0001739908369327919 0 -0.004176936499158521 0.00013440667594352227 0 -0.0043591725621376651 0.0001739908369327919 0 -0.0042488288343328412 0.00027772754100179059 0 -0.0044787230038067028 4.5130350695771478e-05 0 -0.0043591725621376651 0.0001739908369327919 0 -0.0047197394851630345 0.00028100132684231435 0 -0.0043591725621376651 0.0001739908369327919 0 -0.0044665032668556835 0.00052020637542772791 0 -0.0047197394851630345 0.00028100132684231435 0 -0.0044665032668556835 0.00052020637542772791 0 -0.0047969942585232659 0.00070279478004970633 0 -0.0047197394851630345 0.00028100132684231435 0 -0.0043591725621376651 0.0001739908369327919 0 -0.0044665032668556835 0.00052020637542772791 0 -0.0042488288343328412 0.00027772754100179059 0 -0.0044665032668556835 0.00052020637542772791 0 -0.0042488288343328412 0.00027772754100179059 0 -0.0042131767030045486 0.00052652913721328812 0 -0.0044665032668556835 0.00052020637542772791 0 -0.0044710665521271393 0.0010019317440705829 0 -0.0042384490721605397 0.0008116302722306043 0 -0.0044665032668556835 0.00052020637542772791 0 -0.0042131767030045486 0.00052652913721328812 0 -0.0042384490721605397 0.0008116302722306043 0 -0.0044665032668556835 0.00052020637542772791 0 -0.0044710665521271393 0.0010019317440705829 0 -0.0047969942585232659 0.00070279478004970633 0 -0.0044710665521271393 0.0010019317440705829 0 -0.0049729030836806109 0.0010667824720516294 0 -0.0047969942585232659 0.00070279478004970633 0 -0.010401209341140374 0.00011518012043423186 0 -0.01049623134722984 0.00015300688852894833 0 -0.010556924602420784 0.00012788273713915026 0 -0.0068879673874120253 0.00066924882654020477 0 -0.0078907992999775693 0.00059262999224818759 0 -0.0044710665521271393 0.0010019317440705829 0 -0.0042384490721605397 0.0008116302722306043 0 -0.0041075434606047921 0.0010232004657679107 0 -0.0068879673874120253 0.00066924882654020477 0 -0.0097486846232518482 0.00010327968019652591 0 -0.0097486846232518482 0.00010327968019652591 0 -0.0076370646615470713 0.00090333273944256064 0 -0.0042384490721605397 0.0008116302722306043 0 -0.0041075434606047921 0.0010232004657679107 0 -0.0039197124442228995 0.00071893583783256502 0 -0.0042131767030045486 0.00052652913721328812 0 -0.0042384490721605397 0.0008116302722306043 0 -0.0039197124442228995 0.00071893583783256502 0 -0.0040478202968051297 0.00039949027382213615 0 -0.0042131767030045486 0.00052652913721328812 0 -0.0039197124442228995 0.00071893583783256502 0 -0.0069570698113951938 0.00068909807434383477 0 -0.0076370646615470713 0.00090333273944256064 0 -0.012279810946075165 0.00088862814120058739 0 -0.011965081276771282 0.0018028274416207236 0 -0.011500407583343152 0.00095983696720808298 0 -0.012191996174961807 -0.00011423444305961302 0 -0.0110050650243925 9.3113736060721963e-05 0 -0.011500407583343152 0.00095983696720808298 0 -0.012191996174961807 -0.00011423444305961302 0 -0.012279810946075165 0.00088862814120058739 0 -0.011500407583343152 0.00095983696720808298 0 -0.013559232042408031 -0.00026061402274452371 0 -0.0097486846232518482 0.00010327968019652591 0 -0.013742762078593379 -7.8460106454559704e-05 0 -0.013726072039768148 -0.00025948144131245039 0 -0.013839500605623447 -0.00014954300942566568 0 -0.013726072039768148 -0.00025948144131245039 0 -0.013886163465044616 -0.00027278814577334852 0 -0.013839500605623447 -0.00014954300942566568 0 -0.013886163465044616 -0.00027278814577334852 0 -0.013839500605623447 -0.00014954300942566568 0 -0.013980168451066238 -0.0001227683682887167 0 -0.0097486846232518482 0.00010327968019652591 0 -0.01239158599139714 0.00016256489563843315 0 -0.013839500605623447 -0.00014954300942566568 0 -0.013854590737623244 1.1481113092753128e-05 0 -0.013980168451066238 -0.0001227683682887167 0 -0.013742762078593379 -7.8460106454559704e-05 0 -0.013839500605623447 -0.00014954300942566568 0 -0.013854590737623244 1.1481113092753128e-05 0 -0.013792102326919239 6.3045314418400011e-05 0 -0.013742762078593379 -7.8460106454559704e-05 0 -0.013854590737623244 1.1481113092753128e-05 0 -0.013792102326919239 6.3045314418400011e-05 0 -0.013854590737623244 1.1481113092753128e-05 0 -0.013926448030766163 0.00014509274788692146 0 -0.013854590737623244 1.1481113092753128e-05 0 -0.013967519719158539 4.2551350665041532e-05 0 -0.013926448030766163 0.00014509274788692146 0 -0.013854590737623244 1.1481113092753128e-05 0 -0.013967519719158539 4.2551350665041532e-05 0 -0.013980168451066238 -0.0001227683682887167 0 -0.013967519719158539 4.2551350665041532e-05 0 -0.013926448030766163 0.00014509274788692146 0 -0.014020740524304482 0.00013315428014642794 0 -0.013792102326919239 6.3045314418400011e-05 0 -0.013926448030766163 0.00014509274788692146 0 -0.013871937886820068 0.00019801098464862989 0 -0.010495085914428513 0.00041142410086124614 0 -0.010504357144755574 0.00045911774744058213 0 -0.010538274812329345 0.00037270412767515632 0 -0.010504357144755574 0.00045911774744058213 0 -0.010538274812329345 0.00037270412767515632 0 -0.010539011817392559 0.00049706768668317605 0 -0.014106441593698019 0.0001492208664996605 0 -0.014020740524304482 0.00013315428014642794 0 -0.014106738471048095 0.00019816501437647336 0 -0.014106441593698019 0.0001492208664996605 0 -0.014020740524304482 0.00013315428014642794 0 -0.014051655963624111 2.3784206096805506e-05 0 -0.011183490443044538 0.00042896058501677698 0 -0.011983361109318167 0.00036655806404877335 0 -0.011983361109318167 0.00036655806404877335 0 -0.013319132726418496 0.00026208895476716984 0 -0.011983361109318167 0.00036655806404877335 0 -0.012284734704298497 0.00053826143063514522 0 -0.012325703621314027 0.00031827852666499803 0 -0.012327775307834486 0.00063661511913879908 0 -0.012520929767066242 0.00066228392731514779 0 -0.010504357144755574 0.00045911774744058213 0 -0.010539011817392559 0.00049706768668317605 0 -0.010538848937930364 0.00050547005673336177 0 -0.014020740524304482 0.00013315428014642794 0 -0.01399585514832165 0.0002244978259674043 0 -0.014106738471048095 0.00019816501437647336 0 -0.013926448030766163 0.00014509274788692146 0 -0.014020740524304482 0.00013315428014642794 0 -0.01399585514832165 0.0002244978259674043 0 -0.013967519719158539 4.2551350665041532e-05 0 -0.014051655963624111 2.3784206096805506e-05 0 -0.013980168451066238 -0.0001227683682887167 0 -0.013967519719158539 4.2551350665041532e-05 0 -0.014020740524304482 0.00013315428014642794 0 -0.014051655963624111 2.3784206096805506e-05 0 -0.010495085914428513 0.00041142410086124614 0 -0.010504577063769338 0.00046310299485627794 0 -0.010423214615703096 0.00035750145990432044 0 -0.011983361109318167 0.00036655806404877335 0 -0.012237129044422743 0.00016683436282808554 0 -0.010423214615703096 0.00035750145990432044 0 -0.010482877388932393 0.0003538786986471568 0 -0.010480797694249826 0.00029515465149313369 0 -0.010495085914428513 0.00041142410086124614 0 -0.010423214615703096 0.00035750145990432044 0 -0.010482877388932393 0.0003538786986471568 0 -0.010495085914428513 0.00041142410086124614 0 -0.010482877388932393 0.0003538786986471568 0 -0.010538274812329345 0.00037270412767515632 0 -0.010482877388932393 0.0003538786986471568 0 -0.010480797694249826 0.00029515465149313369 0 -0.010538274812329345 0.00037270412767515632 0 -0.010480797694249826 0.00029515465149313369 0 -0.010344875541233678 0.00025126758335021238 0 -0.010435409512151377 0.00021630065155124541 0 -0.010480797694249826 0.00029515465149313369 0 -0.010435409512151377 0.00021630065155124541 0 -0.010544555668388725 0.00023764418817725299 0 -0.012237129044422743 0.00016683436282808554 0 -0.01239158599139714 0.00016256489563843315 0 -0.010423214615703096 0.00035750145990432044 0 -0.010480797694249826 0.00029515465149313369 0 -0.010344875541233678 0.00025126758335021238 0 -0.010401209341140374 0.00011518012043423186 0 -0.010344875541233678 0.00025126758335021238 0 -0.010435409512151377 0.00021630065155124541 0 -0.010401209341140374 0.00011518012043423186 0 -0.010265426651200829 0.00014160952771302647 0 -0.010344875541233678 0.00025126758335021238 0 -0.010401209341140374 0.00011518012043423186 0 -0.010435409512151377 0.00021630065155124541 0 -0.01049623134722984 0.00015300688852894833 0 -0.010435409512151377 0.00021630065155124541 0 -0.01049623134722984 0.00015300688852894833 0 -0.010544555668388725 0.00023764418817725299 0 -0.01049623134722984 0.00015300688852894833 0 -0.010544555668388725 0.00023764418817725299 0 -0.010530340317668016 9.8048392228619992e-05 0 -0.010420223649368357 -0.00011194468488580874 0 -0.010451927412088311 -0.00019063899177620947 0 -0.010530340317668016 9.8048392228619992e-05 0 -0.010510761662210578 2.630553454001498e-05 0 -0.010517162558110993 0.00010395047897594278 0 -0.010420223649368357 -0.00011194468488580874 0 -0.010299699696759789 -0.00017422725645522668 0 -0.010318086496065632 8.0480276116148543e-05 0 -0.010420223649368357 -0.00011194468488580874 0 -0.010482703622705156 -0.00019752674192666711 0 -0.010451927412088311 -0.00019063899177620947 0 -0.010420223649368357 -0.00011194468488580874 0 -0.010482703622705156 -0.00019752674192666711 0 -0.010299699696759789 -0.00017422725645522668 0 -0.010482703622705156 -0.00019752674192666711 0 -0.010749111980058694 -0.00017850684441346975 0 -0.010299699696759789 -0.00017422725645522668 0 -0.010510761662210578 2.630553454001498e-05 0 -0.010290811225095366 0.00023689730590090158 0 -0.010482703622705156 -0.00019752674192666711 0 -0.010451927412088311 -0.00019063899177620947 0 -0.010310815392513613 -7.9830336211783355e-06 0 -0.010480797694249826 0.00029515465149313369 0 -0.010544555668388725 0.00023764418817725299 0 -0.010538274812329345 0.00037270412767515632 0 -0.010482703622705156 -0.00019752674192666711 0 -0.010310815392513613 -7.9830336211783355e-06 0 -0.010498794966955735 -7.3517363881644918e-06 0 -0.010310815392513613 -7.9830336211783355e-06 0 -0.010498794966955735 -7.3517363881644918e-06 0 -0.010407520880750651 0.00016597472041143975 0 -0.010482703622705156 -0.00019752674192666711 0 -0.010498794966955735 -7.3517363881644918e-06 0 -0.010749111980058694 -0.00017850684441346975 0 -0.010498794966955735 -7.3517363881644918e-06 0 -0.01064666885655878 0.00036730068062266341 0 -0.010749111980058694 -0.00017850684441346975 0 -0.010498794966955735 -7.3517363881644918e-06 0 -0.01064666885655878 0.00036730068062266341 0 -0.010407520880750651 0.00016597472041143975 0 -0.011642943129481763 0.00015440797503912446 0 -0.011723637616089461 0.00034481330805602483 0 -0.010290811225095366 0.00023689730590090158 0 -0.011723637616089461 0.00034481330805602483 0 -0.010310815392513613 -7.9830336211783355e-06 0 -0.010407520880750651 0.00016597472041143975 0 -0.010202248631420087 0.00036985247565082027 0 -0.01064666885655878 0.00036730068062266341 0 -0.010407520880750651 0.00016597472041143975 0 -0.010202248631420087 0.00036985247565082027 0 -0.01196635601675276 7.6682524788264895e-05 0 -0.012325340250144737 1.5305275234034153e-07 0 -0.010873984994769277 -3.7212163681536125e-07 0 -0.01196635601675276 7.6682524788264895e-05 0 -0.012325340250144737 1.5305275234034153e-07 0 -0.012712761603290792 -0.00010901253651516014 0 -0.01064666885655878 0.00036730068062266341 0 -0.01196635601675276 7.6682524788264895e-05 0 -0.010749111980058694 -0.00017850684441346975 0 -0.012772656077699566 -1.5723340098437729e-06 0 -0.01196635601675276 7.6682524788264895e-05 0 -0.012712761603290792 -0.00010901253651516014 0 -0.011642943129481763 0.00015440797503912446 0 -0.011983619005415853 9.3965937351539336e-05 0 -0.01196635601675276 7.6682524788264895e-05 0 -0.011095815949067455 -6.1065259978616677e-05 0 -0.010873984994769277 -3.7212163681536125e-07 0 -0.01196635601675276 7.6682524788264895e-05 0 -0.010749111980058694 -0.00017850684441346975 0 -0.011095815949067455 -6.1065259978616677e-05 0 -0.01033162398236232 -0.00015173772025105112 0 -0.010873984994769277 -3.7212163681536125e-07 0 -0.0094236625341997619 -2.3602082240733675e-07 0 -0.011095815949067455 -6.1065259978616677e-05 0 -0.01033162398236232 -0.00015173772025105112 0 -0.010873984994769277 -3.7212163681536125e-07 0 -0.010749111980058694 -0.00017850684441346975 0 -0.011095815949067455 -6.1065259978616677e-05 0 -0.01033162398236232 -0.00015173772025105112 0 -0.010749111980058694 -0.00017850684441346975 0 -0.01033162398236232 -0.00015173772025105112 0 -0.010299699696759789 -0.00017422725645522668 0 -0.01033162398236232 -0.00015173772025105112 0 -0.010299699696759789 -0.00017422725645522668 0 -0.0095395634293576996 2.5602581554069301e-06 0 -0.01033162398236232 -0.00015173772025105112 0 -0.0094236625341997619 -2.3602082240733675e-07 0 -0.0095395634293576996 2.5602581554069301e-06 0 -0.0094236625341997619 -2.3602082240733675e-07 0 -0.0095395634293576996 2.5602581554069301e-06 0 -0.00830957795817437 0.00018832390645116636 0 -0.0095395634293576996 2.5602581554069301e-06 0 -0.00830957795817437 0.00018832390645116636 0 -0.010080961050750074 0.00039249955034668612 0 -0.008321179175881566 0.0003051104748885704 0 -0.0080094222135515796 0.00068319904090903159 0 -0.00830957795817437 0.00018832390645116636 0 -0.0059981713889588114 0.0011347797848148891 0 -0.0069109182292864052 6.7816858747281078e-05 0 -0.0094236625341997619 -2.3602082240733675e-07 0 -0.00830957795817437 0.00018832390645116636 0 -0.0079717339048085145 1.4998280808506665e-06 0 -0.00830957795817437 0.00018832390645116636 0 -0.0079717339048085145 1.4998280808506665e-06 0 -0.0069109182292864052 6.7816858747281078e-05 0 -0.0059981713889588114 0.0011347797848148891 0 -0.0057048885060981078 0.00045205365565489746 0 -0.0069109182292864052 6.7816858747281078e-05 0 -0.010299699696759789 -0.00017422725645522668 0 -0.0095395634293576996 2.5602581554069301e-06 0 -0.010318086496065632 8.0480276116148543e-05 0 -0.0095395634293576996 2.5602581554069301e-06 0 -0.010080961050750074 0.00039249955034668612 0 -0.010318086496065632 8.0480276116148543e-05 0 -0.0080094222135515796 0.00068319904090903159 0 -0.0078907992999775693 0.00059262999224818759 0 -0.010080961050750074 0.00039249955034668612 0 -0.010318086496065632 8.0480276116148543e-05 0 -0.010556924602420784 0.00012788273713915026 0 -0.010318086496065632 8.0480276116148543e-05 0 -0.010530340317668016 9.8048392228619992e-05 0 -0.010556924602420784 0.00012788273713915026 0 -0.010420223649368357 -0.00011194468488580874 0 -0.010318086496065632 8.0480276116148543e-05 0 -0.010530340317668016 9.8048392228619992e-05 0 -0.01049623134722984 0.00015300688852894833 0 -0.010530340317668016 9.8048392228619992e-05 0 -0.010556924602420784 0.00012788273713915026 0 -0.0049729030836806109 0.0010667824720516294 0 -0.0047969942585232659 0.00070279478004970633 0 -0.0052687464607643489 0.00077605199806273395 0 -0.0047969942585232659 0.00070279478004970633 0 -0.0052687464607643489 0.00077605199806273395 0 -0.0051506191304674463 0.00048438294594423326 0 -0.0059981713889588114 0.0011347797848148891 0 -0.0052687464607643489 0.00077605199806273395 0 -0.0057048885060981078 0.00045205365565489746 0 -0.0059981713889588114 0.0011347797848148891 0 -0.0049729030836806109 0.0010667824720516294 0 -0.0052687464607643489 0.00077605199806273395 0 -0.0052687464607643489 0.00077605199806273395 0 -0.0057048885060981078 0.00045205365565489746 0 -0.0051506191304674463 0.00048438294594423326 0 -0.0057048885060981078 0.00045205365565489746 0 -0.005236245418515249 0.00017582598609984032 0 -0.0060329300764558318 -5.1503700428104007e-06 0 -0.0057048885060981078 0.00045205365565489746 0 -0.0051506191304674463 0.00048438294594423326 0 -0.005236245418515249 0.00017582598609984032 0 -0.0047969942585232659 0.00070279478004970633 0 -0.0051506191304674463 0.00048438294594423326 0 -0.0047197394851630345 0.00028100132684231435 0 -0.0051506191304674463 0.00048438294594423326 0 -0.005236245418515249 0.00017582598609984032 0 -0.0047197394851630345 0.00028100132684231435 0 -0.0044787230038067028 4.5130350695771478e-05 0 -0.0047197394851630345 0.00028100132684231435 0 -0.0048092674090201935 5.3289206563789935e-05 0 -0.005236245418515249 0.00017582598609984032 0 -0.0047197394851630345 0.00028100132684231435 0 -0.0048092674090201935 5.3289206563789935e-05 0 -0.005236245418515249 0.00017582598609984032 0 -0.0052154829020950649 -7.7776282189785857e-05 0 -0.0060329300764558318 -5.1503700428104007e-06 0 -0.005236245418515249 0.00017582598609984032 0 -0.0048092674090201935 5.3289206563789935e-05 0 -0.0052154829020950649 -7.7776282189785857e-05 0 -0.0054505432287276613 -0.00012174180559655627 0 -0.0052154829020950649 -7.7776282189785857e-05 0 -0.0060329300764558318 -5.1503700428104007e-06 0 -0.0054505432287276613 -0.00012174180559655627 0 -0.0060329300764558318 -5.1503700428104007e-06 0 -0.00652089290049865 -6.5231546711561701e-07 0 -0.0060329300764558318 -5.1503700428104007e-06 0 -0.00652089290049865 -6.5231546711561701e-07 0 -0.0069109182292864052 6.7816858747281078e-05 0 -0.0079717339048085145 1.4998280808506665e-06 0 -0.00652089290049865 -6.5231546711561701e-07 0 -0.0069109182292864052 6.7816858747281078e-05 0 -0.0057048885060981078 0.00045205365565489746 0 -0.0060329300764558318 -5.1503700428104007e-06 0 -0.0069109182292864052 6.7816858747281078e-05 0 -0.01721154930740133 -7.1714066564702519e-05 0 -0.017495599101990958 -6.4748796806186364e-05 0 -0.017169150543650445 -9.3112892998173223e-05 0 -0.018151482708172628 -6.8825396652038721e-07 0 -0.016692927723969655 -1.6790538619936254e-07 0 -0.017169150543650445 -9.3112892998173223e-05 0 -0.018151482708172628 -6.8825396652038721e-07 0 -0.018139622032676425 -0.00010816396211707174 0 -0.017169150543650445 -9.3112892998173223e-05 0 -0.018139622032676425 -0.00010816396211707174 0 -0.017914754484245697 -0.00012465024188084683 0 -0.018139622032676425 -0.00010816396211707174 0 -0.017914754484245697 -0.00012465024188084683 0 -0.017972933829369805 9.8455969642346984e-05 0 -0.017495599101990958 -6.4748796806186364e-05 0 -0.016882583620302507 0.00017522868474871507 0 -0.015266685701628108 -0.00015020806185126359 0 -0.015040602449011021 -0.00040559557887391985 0 -0.016960377124981989 0.000105296872932713 0 -0.016865196109798985 9.1112738222986028e-05 0 -0.016893144825180985 0.00013647149423085184 0 -0.013569434234909361 -0.00037907335382361012 0 -0.013591762593449261 2.938131948802047e-05 0 -0.013857468194407 -0.00013718737831232685 0 -0.013569434234909361 -0.00037907335382361012 0 -0.013258710026749214 3.9532830832465597e-05 0 -0.013591762593449261 2.938131948802047e-05 0 -0.015266685701628108 -0.00015020806185126359 0 -0.015069999972271288 -2.1357244938310576e-05 0 -0.016960377124981989 0.000105296872932713 0 -0.016865196109798985 9.1112738222986028e-05 0 -0.016901095009979869 -8.455402572179983e-05 0 -0.017169150543650445 -9.3112892998173223e-05 0 -0.016960377124981989 0.000105296872932713 0 -0.016901095009979869 -8.455402572179983e-05 0 -0.015069999972271288 -2.1357244938310576e-05 0 -0.014792661464324492 0.0001821238784858184 0 -0.013258710026749214 3.9532830832465597e-05 0 -0.013477245981551809 0.00028737405982378055 0 -0.013224930722575117 0.00039413885127062434 0 -0.013591762593449261 2.938131948802047e-05 0 -0.013477245981551809 0.00028737405982378055 0 -0.013783319136450194 0.00031623255731625007 0 -0.013258710026749214 3.9532830832465597e-05 0 -0.013591762593449261 2.938131948802047e-05 0 -0.013477245981551809 0.00028737405982378055 0 -0.013477245981551809 0.00028737405982378055 0 -0.013604338486822512 0.00042915690502672802 0 -0.013783319136450194 0.00031623255731625007 0 -0.013477245981551809 0.00028737405982378055 0 -0.013483208192834209 0.00044180031231037982 0 -0.013604338486822512 0.00042915690502672802 0 -0.013477245981551809 0.00028737405982378055 0 -0.013367615377900663 0.00044086541570728655 0 -0.013483208192834209 0.00044180031231037982 0 -0.013367615377900663 0.00044086541570728655 0 -0.013420707990763031 0.00053994861323981022 0 -0.013483208192834209 0.00044180031231037982 0 -0.013420707990763031 0.00053994861323981022 0 -0.013483208192834209 0.00044180031231037982 0 -0.013543822366118785 0.00053165211638473515 0 -0.013483208192834209 0.00044180031231037982 0 -0.013543822366118785 0.00053165211638473515 0 -0.013604338486822512 0.00042915690502672802 0 -0.013543822366118785 0.00053165211638473515 0 -0.013604338486822512 0.00042915690502672802 0 -0.013649779396775551 0.00053106986461848706 0 -0.013258710026749214 3.9532830832465597e-05 0 -0.013224930722575117 0.00039413885127062434 0 -0.012987560305014932 0.00049044035821084984 0 -0.013477245981551809 0.00028737405982378055 0 -0.013367615377900663 0.00044086541570728655 0 -0.013224930722575117 0.00039413885127062434 0 -0.013367615377900663 0.00044086541570728655 0 -0.013420707990763031 0.00053994861323981022 0 -0.013238145963271331 0.00057684098798005878 0 -0.013367615377900663 0.00044086541570728655 0 -0.013224930722575117 0.00039413885127062434 0 -0.013238145963271331 0.00057684098798005878 0 -0.013224930722575117 0.00039413885127062434 0 -0.013003038590558501 0.00053389035416580028 0 -0.013238145963271331 0.00057684098798005878 0 -0.013224930722575117 0.00039413885127062434 0 -0.012987560305014932 0.00049044035821084984 0 -0.013003038590558501 0.00053389035416580028 0 -0.017169150543650445 -9.3112892998173223e-05 0 -0.016609201037142377 -6.7359462373249555e-05 0 -0.016217103160981506 -6.7150516703815292e-05 0 -0.017169150543650445 -9.3112892998173223e-05 0 -0.016901095009979869 -8.455402572179983e-05 0 -0.016609201037142377 -6.7359462373249555e-05 0 -0.017169150543650445 -9.3112892998173223e-05 0 -0.016692927723969655 -1.6790538619936254e-07 0 -0.016217103160981506 -6.7150516703815292e-05 0 -0.016692927723969655 -1.6790538619936254e-07 0 -0.016217103160981506 -6.7150516703815292e-05 0 -0.015234919233781844 -8.6058886210774567e-08 0 -0.016217103160981506 -6.7150516703815292e-05 0 -0.015234919233781844 -8.6058886210774567e-08 0 -0.015506516802654826 0.00012314214600526766 0 -0.013003038590558501 0.00053389035416580028 0 -0.012926657457672306 0.0003622032197041794 0 -0.013106323659904757 0.00049782707212274837 0 -0.014792661464324492 0.0001821238784858184 0 -0.014341980137130931 0.00021370597282392663 0 -0.016609201037142377 -6.7359462373249555e-05 0 -0.016217103160981506 -6.7150516703815292e-05 0 -0.015506516802654826 0.00012314214600526766 0 -0.012987560305014932 0.00049044035821084984 0 -0.013003038590558501 0.00053389035416580028 0 -0.013106323659904757 0.00049782707212274837 0 -0.012926657457672306 0.0003622032197041794 0 -0.013106323659904757 0.00049782707212274837 0 -0.013001454715568449 0.00014356565188649147 0 -0.012926657457672306 0.0003622032197041794 0 -0.013001454715568449 0.00014356565188649147 0 -0.01279424583863855 5.1263476259294772e-05 0 -0.014341980137130931 0.00021370597282392663 0 -0.013776386595877346 -1.2553859856371948e-07 0 -0.015234919233781844 -8.6058886210774567e-08 0 -0.015506516802654826 0.00012314214600526766 0 -0.013777063073410131 6.4748070136675142e-07 0 -0.013106323659904757 0.00049782707212274837 0 -0.013773629394695138 2.2632439566825469e-07 0 -0.013001454715568449 0.00014356565188649147 0 -0.013773629394695138 2.2632439566825469e-07 0 -0.013001454715568449 0.00014356565188649147 0 -0.012712761603290792 -0.00010901253651516014 0 -0.013001454715568449 0.00014356565188649147 0 -0.012712761603290792 -0.00010901253651516014 0 -0.01279424583863855 5.1263476259294772e-05 0 -0.012772656077699566 -1.5723340098437729e-06 0 -0.012712761603290792 -0.00010901253651516014 0 -0.01279424583863855 5.1263476259294772e-05 0 -0.012325340250144737 1.5305275234034153e-07 0 -0.013773629394695138 2.2632439566825469e-07 0 -0.012712761603290792 -0.00010901253651516014 0 -0.012772656077699566 -1.5723340098437729e-06 0 -0.012706650000535348 2.1621488842369818e-05 0 -0.012635371215492439 -7.6590212225343744e-06 0 -0.013160315443464202 0.00068390100584222091 0 -0.012284734704298497 0.00053826143063514522 0 -0.012706650000535348 2.1621488842369818e-05 0 -0.012666741654811117 8.458325847215076e-05 0 -0.012634204870373237 1.0292730413286148e-07 0 -0.012706650000535348 2.1621488842369818e-05 0 -0.012635371215492439 -7.6590212225343744e-06 0 -0.012634204870373237 1.0292730413286148e-07 0 -0.012772656077699566 -1.5723340098437729e-06 0 -0.012706650000535348 2.1621488842369818e-05 0 -0.01279424583863855 5.1263476259294772e-05 0 -0.01279424583863855 5.1263476259294772e-05 0 -0.012666741654811117 8.458325847215076e-05 0 -0.012742576383289244 0.00032392356361686064 0 -0.012706650000535348 2.1621488842369818e-05 0 -0.01279424583863855 5.1263476259294772e-05 0 -0.012666741654811117 8.458325847215076e-05 0 -0.013457950687621758 0.0011324122299799886 0 -0.013668237999207024 0.0010529005486122399 0 -0.013580968238586573 0.0013526686736199491 0 -0.013457950687621758 0.0011324122299799886 0 -0.013584793213206894 0.00089231621594216398 0 -0.013668237999207024 0.0010529005486122399 0 -0.013160315443464202 0.00068390100584222091 0 -0.012999034782363226 0.00057483379915262696 0 -0.013584793213206894 0.00089231621594216398 0 -0.013277738960777705 0.00088421524429904631 0 -0.01348057049768854 0.00076360006286702736 0 -0.013457950687621758 0.0011324122299799886 0 -0.013584793213206894 0.00089231621594216398 0 -0.013277738960777705 0.00088421524429904631 0 -0.012926657457672306 0.0003622032197041794 0 -0.01279424583863855 5.1263476259294772e-05 0 -0.012742576383289244 0.00032392356361686064 0 -0.012997853356934133 0.00053924784343309059 0 -0.012999034782363226 0.00057483379915262696 0 -0.013003038590558501 0.00053389035416580028 0 -0.012926657457672306 0.0003622032197041794 0 -0.012742576383289244 0.00032392356361686064 0 -0.013277738960777705 0.00088421524429904631 0 -0.013238145963271331 0.00057684098798005878 0 -0.013379195407297907 0.00067826742851114007 0 -0.013003038590558501 0.00053389035416580028 0 -0.013277738960777705 0.00088421524429904631 0 -0.013238145963271331 0.00057684098798005878 0 -0.013420707990763031 0.00053994861323981022 0 -0.013238145963271331 0.00057684098798005878 0 -0.013379195407297907 0.00067826742851114007 0 -0.013584793213206894 0.00089231621594216398 0 -0.013599705319060743 0.00073909803229030323 0 -0.01348057049768854 0.00076360006286702736 0 -0.013599705319060743 0.00073909803229030323 0 -0.01348057049768854 0.00076360006286702736 0 -0.013587354294474694 0.00062017584586282579 0 -0.013277738960777705 0.00088421524429904631 0 -0.013379195407297907 0.00067826742851114007 0 -0.01348057049768854 0.00076360006286702736 0 -0.013379195407297907 0.00067826742851114007 0 -0.01348057049768854 0.00076360006286702736 0 -0.013481690231531779 0.00061656765089688158 0 -0.013420707990763031 0.00053994861323981022 0 -0.013379195407297907 0.00067826742851114007 0 -0.013481690231531779 0.00061656765089688158 0 -0.013420707990763031 0.00053994861323981022 0 -0.013543822366118785 0.00053165211638473515 0 -0.013481690231531779 0.00061656765089688158 0 -0.01348057049768854 0.00076360006286702736 0 -0.013481690231531779 0.00061656765089688158 0 -0.013587354294474694 0.00062017584586282579 0 -0.013543822366118785 0.00053165211638473515 0 -0.013481690231531779 0.00061656765089688158 0 -0.013587354294474694 0.00062017584586282579 0 -0.013599705319060743 0.00073909803229030323 0 -0.013587354294474694 0.00062017584586282579 0 -0.013637842442840102 0.00065468347475257512 0 -0.013543822366118785 0.00053165211638473515 0 -0.013587354294474694 0.00062017584586282579 0 -0.013649779396775551 0.00053106986461848706 0 -0.013587354294474694 0.00062017584586282579 0 -0.013637842442840102 0.00065468347475257512 0 -0.013649779396775551 0.00053106986461848706 0 -0.013637842442840102 0.00065468347475257512 0 -0.013716073199683199 0.00072457628545984478 0 -0.013649779396775551 0.00053106986461848706 0 -0.013947290384319116 0.00060732818694181822 0 -0.013879803323552754 0.0006330718884437858 0 -0.013875866272176744 0.00028537654507258906 0 -0.013584793213206894 0.00089231621594216398 0 -0.013599705319060743 0.00073909803229030323 0 -0.013716073199683199 0.00072457628545984478 0 -0.013599705319060743 0.00073909803229030323 0 -0.013637842442840102 0.00065468347475257512 0 -0.013716073199683199 0.00072457628545984478 0 -0.013956341439852053 0.00027598161725624824 0 -0.013990296835297926 0.00027833935080713118 0 -0.01400916611134603 0.00021441358087961437 0 -0.013956341439852053 0.00027598161725624824 0 -0.013982577277859084 0.00028375998137670469 0 -0.013990296835297926 0.00027833935080713118 0 -0.013947290384319116 0.00060732818694181822 0 -0.013879803323552754 0.0006330718884437858 0 -0.013871569692924432 0.00093384157706274994 0 -0.013975567514752676 0.00040330398259290535 0 -0.013769826620041592 0.00074880736762349012 0 -0.013798382129947931 0.00072690738085397092 0 -0.013769826620041592 0.00074880736762349012 0 -0.013584793213206894 0.00089231621594216398 0 -0.013716073199683199 0.00072457628545984478 0 -0.013668237999207024 0.0010529005486122399 0 -0.013956341439852053 0.00027598161725624824 0 -0.013995024507074398 0.00027542856597711774 0 -0.013982577277859084 0.00028375998137670469 0 -0.013995024507074398 0.00027542856597711774 0 -0.013982577277859084 0.00028375998137670469 0 -0.01399585514832165 0.0002244978259674043 0 -0.014267065535814086 0.00018392836848041584 0 -0.013319132726418496 0.00026208895476716984 0 -0.013769826620041592 0.00074880736762349012 0 -0.013319132726418496 0.00026208895476716984 0 -0.013242059981946702 0.00071896396694494467 0 -0.013227962061527839 0.00035311373361152716 0 -0.0132951607973245 0.00036221446159085644 0 -0.013995024507074398 0.00027542856597711774 0 -0.01399585514832165 0.0002244978259674043 0 -0.014006247646298915 0.00022979351482565888 0 -0.013769826620041592 0.00074880736762349012 0 -0.012284734704298497 0.00053826143063514522 0 -0.013319132726418496 0.00026208895476716984 0 -0.012284734704298497 0.00053826143063514522 0 -0.011723637616089461 0.00034481330805602483 0 -0.012284734704298497 0.00053826143063514522 0 -0.013871937886820068 0.00019801098464862989 0 -0.013948342230871413 0.00025024539659309188 0 -0.013934633841501084 0.00029058143644459855 0 -0.013926448030766163 0.00014509274788692146 0 -0.013871937886820068 0.00019801098464862989 0 -0.013948342230871413 0.00025024539659309188 0 -0.013926448030766163 0.00014509274788692146 0 -0.01399585514832165 0.0002244978259674043 0 -0.013948342230871413 0.00025024539659309188 0 -0.013982577277859084 0.00028375998137670469 0 -0.01399585514832165 0.0002244978259674043 0 -0.013948342230871413 0.00025024539659309188 0 -0.013982577277859084 0.00028375998137670469 0 -0.013948342230871413 0.00025024539659309188 0 -0.013970590935644794 0.00029637321540123911 0 -0.013948342230871413 0.00025024539659309188 0 -0.013970590935644794 0.00029637321540123911 0 -0.013934633841501084 0.00029058143644459855 0 -0.013970590935644794 0.00029637321540123911 0 -0.013934633841501084 0.00029058143644459855 0 -0.013988105913042916 0.00032308973791814855 0 -0.013970590935644794 0.00029637321540123911 0 -0.014000074154555141 0.0002924042433662614 0 -0.013988105913042916 0.00032308973791814855 0 -0.013982577277859084 0.00028375998137670469 0 -0.013970590935644794 0.00029637321540123911 0 -0.013990296835297926 0.00027833935080713118 0 -0.013970590935644794 0.00029637321540123911 0 -0.014000074154555141 0.0002924042433662614 0 -0.013990296835297926 0.00027833935080713118 0 -0.013990296835297926 0.00027833935080713118 0 -0.014049244167549213 0.00025981956293815947 0 -0.01400916611134603 0.00021441358087961437 0 -0.014000074154555141 0.0002924042433662614 0 -0.014049244167549213 0.00025981956293815947 0 -0.013988105913042916 0.00032308973791814855 0 -0.014000074154555141 0.0002924042433662614 0 -0.013990296835297926 0.00027833935080713118 0 -0.014049244167549213 0.00025981956293815947 0 -0.014049244167549213 0.00025981956293815947 0 -0.014113075820901457 0.00017445627824035201 0 -0.01400916611134603 0.00021441358087961437 0 -0.014082653315237968 0.00011198000556152198 0 -0.014113075820901457 0.00017445627824035201 0 -0.014169870877186141 7.0793723516451434e-05 0 -0.014082653315237968 0.00011198000556152198 0 -0.014113075820901457 0.00017445627824035201 0 -0.01400916611134603 0.00021441358087961437 0 -0.014082653315237968 0.00011198000556152198 0 -0.014000612640143219 0.00012493084780746004 0 -0.01400916611134603 0.00021441358087961437 0 -0.013956341439852053 0.00027598161725624824 0 -0.01400916611134603 0.00021441358087961437 0 -0.013939572042632607 0.0001884712426018066 0 -0.013716073199683199 0.00072457628545984478 0 -0.013649779396775551 0.00053106986461848706 0 -0.013783319136450194 0.00031623255731625007 0 -0.013947290384319116 0.00060732818694181822 0 -0.013875866272176744 0.00028537654507258906 0 -0.014037926674159552 0.0002243885578844913 0 -0.013798382129947931 0.00072690738085397092 0 -0.013829673927057624 0.00027682237860421517 0 -0.013975567514752676 0.00040330398259290535 0 -0.013981419835628131 0.00020733559001910105 0 -0.013604338486822512 0.00042915690502672802 0 -0.013649779396775551 0.00053106986461848706 0 -0.013783319136450194 0.00031623255731625007 0 -0.013591762593449261 2.938131948802047e-05 0 -0.013783319136450194 0.00031623255731625007 0 -0.013857468194407 -0.00013718737831232685 0 -0.013829673927057624 0.00027682237860421517 0 -0.013851352679997599 -0.00010643343224796865 0 -0.013875866272176744 0.00028537654507258906 0 -0.014037926674159552 0.0002243885578844913 0 -0.013857468194407 -0.00013718737831232685 0 -0.014000612640143219 0.00012493084780746004 0 -0.013939572042632607 0.0001884712426018066 0 -0.013943653112579911 4.1743645407742133e-05 0 -0.013981419835628131 0.00020733559001910105 0 -0.014103351940471591 -8.7245862628577845e-05 0 -0.014000612640143219 0.00012493084780746004 0 -0.01400916611134603 0.00021441358087961437 0 -0.013939572042632607 0.0001884712426018066 0 -0.014037926674159552 0.0002243885578844913 0 -0.014156572657287739 -0.00024615816881606411 0 -0.013857468194407 -0.00013718737831232685 0 -0.013569434234909361 -0.00037907335382361012 0 -0.013857468194407 -0.00013718737831232685 0 -0.013918269838995504 -0.00046572462565683042 0 -0.014156572657287739 -0.00024615816881606411 0 -0.013857468194407 -0.00013718737831232685 0 -0.013918269838995504 -0.00046572462565683042 0 -0.013569434234909361 -0.00037907335382361012 0 -0.013918269838995504 -0.00046572462565683042 0 -0.013886546729285581 -0.00079237893279659457 0 -0.013943653112579911 4.1743645407742133e-05 0 -0.014093542783096635 -1.120739142093308e-05 0 -0.013991891928648765 -0.00013979721142246522 0 -0.014156572657287739 -0.00024615816881606411 0 -0.013918269838995504 -0.00046572462565683042 0 -0.014304112180315706 -0.00074065967115546211 0 -0.014103351940471591 -8.7245862628577845e-05 0 -0.013704382940233484 -0.00056969272740255096 0 -0.014093542783096635 -1.120739142093308e-05 0 -0.014235656287254062 -3.4825630390984008e-05 0 -0.01419408886729911 -0.00011554321266821297 0 -0.014093542783096635 -1.120739142093308e-05 0 -0.014169870877186141 7.0793723516451434e-05 0 -0.014235656287254062 -3.4825630390984008e-05 0 -0.014082653315237968 0.00011198000556152198 0 -0.014093542783096635 -1.120739142093308e-05 0 -0.014169870877186141 7.0793723516451434e-05 0 -0.014082653315237968 0.00011198000556152198 0 -0.014000612640143219 0.00012493084780746004 0 -0.014093542783096635 -1.120739142093308e-05 0 -0.014000612640143219 0.00012493084780746004 0 -0.013943653112579911 4.1743645407742133e-05 0 -0.014093542783096635 -1.120739142093308e-05 0 -0.014385532354364339 1.7825346894671421e-05 0 -0.014323042914022572 0.00010624564907367687 0 -0.014400296795466744 6.6473786252198831e-05 0 -0.014385532354364339 1.7825346894671421e-05 0 -0.014323042914022572 0.00010624564907367687 0 -0.0142691369493795 5.4045617488036047e-05 0 -0.014323042914022572 0.00010624564907367687 0 -0.0142691369493795 5.4045617488036047e-05 0 -0.014217484133092508 0.00014248308942545185 0 -0.014169870877186141 7.0793723516451434e-05 0 -0.0142691369493795 5.4045617488036047e-05 0 -0.014235656287254062 -3.4825630390984008e-05 0 -0.014169870877186141 7.0793723516451434e-05 0 -0.0142691369493795 5.4045617488036047e-05 0 -0.014217484133092508 0.00014248308942545185 0 -0.0142691369493795 5.4045617488036047e-05 0 -0.014235656287254062 -3.4825630390984008e-05 0 -0.014365511655585209 -8.2756748443889091e-05 0 -0.014385532354364339 1.7825346894671421e-05 0 -0.0142691369493795 5.4045617488036047e-05 0 -0.014365511655585209 -8.2756748443889091e-05 0 -0.014385532354364339 1.7825346894671421e-05 0 -0.014365511655585209 -8.2756748443889091e-05 0 -0.014479802789363075 -7.0847620811828385e-05 0 -0.014479802789363075 -7.0847620811828385e-05 0 -0.014587877104286853 -4.2492211218698469e-05 0 -0.014585968370134145 -0.00015766552968372332 0 -0.014479802789363075 -7.0847620811828385e-05 0 -0.014587877104286853 -4.2492211218698469e-05 0 -0.014463387480221973 1.8742598984432307e-05 0 -0.014385532354364339 1.7825346894671421e-05 0 -0.014479802789363075 -7.0847620811828385e-05 0 -0.014463387480221973 1.8742598984432307e-05 0 -0.014430568364577833 0.00024808320913123069 0 -0.014405550547364913 0.00025382155147502547 0 -0.014482946173663283 0.00021777460206971044 0 -0.014430568364577833 0.00024808320913123069 0 -0.014405550547364913 0.00025382155147502547 0 -0.014401348946626275 0.00025789784140748821 0 -0.014430568364577833 0.00024808320913123069 0 -0.014401348946626275 0.00025789784140748821 0 -0.014413506945210135 0.00026818912593180454 0 -0.014405550547364913 0.00025382155147502547 0 -0.014362082199641399 0.00026595215954092232 0 -0.014332423419962909 0.00025944706877892575 0 -0.014405550547364913 0.00025382155147502547 0 -0.014401348946626275 0.00025789784140748821 0 -0.014362082199641399 0.00026595215954092232 0 -0.014401348946626275 0.00025789784140748821 0 -0.014362082199641399 0.00026595215954092232 0 -0.014413506945210135 0.00026818912593180454 0 -0.014346044455562378 0.00041068253402339652 0 -0.013949971493634635 0.00056393138671282262 0 -0.014362082199641399 0.00026595215954092232 0 -0.014404400880668413 0.00029663520237330508 0 -0.014413506945210135 0.00026818912593180454 0 -0.014463387480221973 1.8742598984432307e-05 0 -0.014400296795466744 6.6473786252198831e-05 0 -0.014428872173614434 0.00012126649218066465 0 -0.014587877104286853 -4.2492211218698469e-05 0 -0.014463387480221973 1.8742598984432307e-05 0 -0.014428872173614434 0.00012126649218066465 0 -0.014580321872805347 6.4859131032334773e-05 0 -0.014366306420232667 0.00019800573658751379 0 -0.014385532354364339 1.7825346894671421e-05 0 -0.014463387480221973 1.8742598984432307e-05 0 -0.014400296795466744 6.6473786252198831e-05 0 -0.014323042914022572 0.00010624564907367687 0 -0.014400296795466744 6.6473786252198831e-05 0 -0.014428872173614434 0.00012126649218066465 0 -0.014323042914022572 0.00010624564907367687 0 -0.014428872173614434 0.00012126649218066465 0 -0.014280548851713527 0.00017294012062137986 0 -0.014366306420232667 0.00019800573658751379 0 -0.014281203473994091 0.00023659697494236726 0 -0.014332423419962909 0.00025944706877892575 0 -0.014321406061231327 0.00025303447006666053 0 -0.014256493835818704 0.00024403083240190118 0 -0.014428872173614434 0.00012126649218066465 0 -0.014256493835818704 0.00024403083240190118 0 -0.014280548851713527 0.00017294012062137986 0 -0.014329603561477321 0.00025998789027083062 0 -0.014321406061231327 0.00025303447006666053 0 -0.014309071191946254 0.000252411840584828 0 -0.013949971493634635 0.00056393138671282262 0 -0.013673539859997271 0.00067042458322004244 0 -0.014362082199641399 0.00026595215954092232 0 -0.014329603561477321 0.00025998789027083062 0 -0.014321406061231327 0.00025303447006666053 0 -0.014362082199641399 0.00026595215954092232 0 -0.014332423419962909 0.00025944706877892575 0 -0.014321406061231327 0.00025303447006666053 0 -0.014321406061231327 0.00025303447006666053 0 -0.014309071191946254 0.000252411840584828 0 -0.014256493835818704 0.00024403083240190118 0 -0.014256493835818704 0.00024403083240190118 0 -0.014171432928020615 0.00021906378296060927 0 -0.014280548851713527 0.00017294012062137986 0 -0.014256493835818704 0.00024403083240190118 0 -0.014171432928020615 0.00021906378296060927 0 -0.014101006234235144 0.00028117573882892164 0 -0.014171432928020615 0.00021906378296060927 0 -0.014280548851713527 0.00017294012062137986 0 -0.014217484133092508 0.00014248308942545185 0 -0.014323042914022572 0.00010624564907367687 0 -0.014280548851713527 0.00017294012062137986 0 -0.014217484133092508 0.00014248308942545185 0 -0.014113075820901457 0.00017445627824035201 0 -0.014169870877186141 7.0793723516451434e-05 0 -0.014217484133092508 0.00014248308942545185 0 -0.014113075820901457 0.00017445627824035201 0 -0.014171432928020615 0.00021906378296060927 0 -0.014217484133092508 0.00014248308942545185 0 -0.014049244167549213 0.00025981956293815947 0 -0.014113075820901457 0.00017445627824035201 0 -0.014171432928020615 0.00021906378296060927 0 -0.014049244167549213 0.00025981956293815947 0 -0.014171432928020615 0.00021906378296060927 0 -0.014101006234235144 0.00028117573882892164 0 -0.014049244167549213 0.00025981956293815947 0 -0.014101006234235144 0.00028117573882892164 0 -0.013988105913042916 0.00032308973791814855 0 -0.014256493835818704 0.00024403083240190118 0 -0.014101006234235144 0.00028117573882892164 0 -0.014088516704256648 0.00032107218683296608 0 -0.014088516704256648 0.00032107218683296608 0 -0.013988105913042916 0.00032308973791814855 0 -0.013956529765631678 0.00038275293011845088 0 -0.014088516704256648 0.00032107218683296608 0 -0.013956529765631678 0.00038275293011845088 0 -0.014191295440088514 0.00035532216745838639 0 -0.013988105913042916 0.00032308973791814855 0 -0.013944563962076686 0.00032796553712005871 0 -0.013956529765631678 0.00038275293011845088 0 -0.014101006234235144 0.00028117573882892164 0 -0.014088516704256648 0.00032107218683296608 0 -0.013988105913042916 0.00032308973791814855 0 -0.013934633841501084 0.00029058143644459855 0 -0.013988105913042916 0.00032308973791814855 0 -0.013944563962076686 0.00032796553712005871 0 -0.013944563962076686 0.00032796553712005871 0 -0.013956529765631678 0.00038275293011845088 0 -0.013870287613532248 0.00027106637397597148 0 -0.013934633841501084 0.00029058143644459855 0 -0.013944563962076686 0.00032796553712005871 0 -0.013870287613532248 0.00027106637397597148 0 -0.013956529765631678 0.00038275293011845088 0 -0.013782052717770565 0.00027462160996360281 0 -0.013870287613532248 0.00027106637397597148 0 -0.013915049667400379 0.00038585101160144473 0 -0.013942562806309757 0.00044414567554167675 0 -0.013956529765631678 0.00038275293011845088 0 -0.013782052717770565 0.00027462160996360281 0 -0.013653783114330799 0.00035847102391408297 0 -0.013782052717770565 0.00027462160996360281 0 -0.013728202530861365 0.00017994756960076978 0 -0.013870287613532248 0.00027106637397597148 0 -0.013782052717770565 0.00027462160996360281 0 -0.013646099297503978 0.00021040374251813174 0 -0.013653783114330799 0.00035847102391408297 0 -0.013782052717770565 0.00027462160996360281 0 -0.013728202530861365 0.00017994756960076978 0 -0.013646099297503978 0.00021040374251813174 0 -0.013618006810435955 0.00012679185223257833 0 -0.013728202530861365 0.00017994756960076978 0 -0.013646099297503978 0.00021040374251813174 0 -0.013776396333170668 0.00014618955874578425 0 -0.013871937886820068 0.00019801098464862989 0 -0.013870287613532248 0.00027106637397597148 0 -0.013871937886820068 0.00019801098464862989 0 -0.013934633841501084 0.00029058143644459855 0 -0.013870287613532248 0.00027106637397597148 0 -0.013776396333170668 0.00014618955874578425 0 -0.013728202530861365 0.00017994756960076978 0 -0.013870287613532248 0.00027106637397597148 0 -0.013535003862662754 0.00011864286954399999 0 -0.013341095911831875 0.00023751625610864271 0 -0.01346904774368927 0.00019965756527972093 0 -0.01341706573188463 0.00046694304758007648 0 -0.010168662181451908 0.00028276303061834288 0 -0.013447089508266841 0.00030398520942214764 0 -0.013341095911831875 0.00023751625610864271 0 -0.01346904774368927 0.00019965756527972093 0 -0.01341706573188463 0.00046694304758007648 0 -0.013462201655060265 0.000218801886402864 0 -0.012352560759765051 0.00055880095901993164 0 -0.011640908479611259 0.00012502782327578814 0 -0.012001050137171598 0.00088747010868408084 0 -0.010168662181451908 0.00028276303061834288 0 -0.012062786754860111 0.0010453446605000738 0 -0.013535003862662754 0.00011864286954399999 0 -0.01346904774368927 0.00019965756527972093 0 -0.013558927972114524 0.00018617929378333508 0 -0.01346904774368927 0.00019965756527972093 0 -0.013558927972114524 0.00018617929378333508 0 -0.013559179776102062 0.0002484355422834088 0 -0.013618006810435955 0.00012679185223257833 0 -0.013577953310342063 0.00014369886441992544 0 -0.013646099297503978 0.00021040374251813174 0 -0.013577953310342063 0.00014369886441992544 0 -0.013558927972114524 0.00018617929378333508 0 -0.013646099297503978 0.00021040374251813174 0 -0.013558927972114524 0.00018617929378333508 0 -0.013646099297503978 0.00021040374251813174 0 -0.013559179776102062 0.0002484355422834088 0 -0.013646099297503978 0.00021040374251813174 0 -0.013559179776102062 0.0002484355422834088 0 -0.013653783114330799 0.00035847102391408297 0 -0.013464574371828308 0.00029006469381068223 0 -0.013559179776102062 0.0002484355422834088 0 -0.013653783114330799 0.00035847102391408297 0 -0.013464574371828308 0.00029006469381068223 0 -0.01346904774368927 0.00019965756527972093 0 -0.013559179776102062 0.0002484355422834088 0 -0.014125409158573677 0.0004868486277145326 0 -0.014206859444191467 0.00044234755808559965 0 -0.014256234816157613 0.0004665651503596388 0 -0.014240117141055542 0.0005479505058148703 0 -0.014125409158573677 0.0004868486277145326 0 -0.014256234816157613 0.0004665651503596388 0 -0.014125409158573677 0.0004868486277145326 0 -0.014206859444191467 0.00044234755808559965 0 -0.014191295440088514 0.00035532216745838639 0 -0.01341706573188463 0.00046694304758007648 0 -0.013942562806309757 0.00044414567554167675 0 -0.013956529765631678 0.00038275293011845088 0 -0.014125409158573677 0.0004868486277145326 0 -0.014191295440088514 0.00035532216745838639 0 -0.014206859444191467 0.00044234755808559965 0 -0.014256234816157613 0.0004665651503596388 0 -0.014191295440088514 0.00035532216745838639 0 -0.01307489688725455 0.001112160721402182 0 -0.013075384278807266 0.0011195473634649786 0 -0.013090375336034967 0.0011009177264415925 0 -0.010418671136336604 0.00075694790705476518 0 -0.010462556838274217 0.0008524701480090934 0 -0.010280924998494301 0.00089105608256011899 0 -0.01341706573188463 0.00046694304758007648 0 -0.013048390802003512 0.00090728905560846275 0 -0.012352560759765051 0.00055880095901993164 0 -0.012225593361265418 0.0013678600526347122 0 -0.012001050137171598 0.00088747010868408084 0 -0.013048390802003512 0.00090728905560846275 0 -0.012062786754860111 0.0010453446605000738 0 -0.014256234816157613 0.0004665651503596388 0 -0.014191295440088514 0.00035532216745838639 0 -0.014281144474543619 0.00031021636875839306 0 -0.013048390802003512 0.00090728905560846275 0 -0.013752608937523718 0.00065998576527654936 0 -0.01307489688725455 0.001112160721402182 0 -0.013090375336034967 0.0011009177264415925 0 -0.013089017358815817 0.0010861863705013538 0 -0.014256493835818704 0.00024403083240190118 0 -0.014088516704256648 0.00032107218683296608 0 -0.014191295440088514 0.00035532216745838639 0 -0.014256493835818704 0.00024403083240190118 0 -0.014191295440088514 0.00035532216745838639 0 -0.014281144474543619 0.00031021636875839306 0 -0.013673539859997271 0.00067042458322004244 0 -0.013752608937523718 0.00065998576527654936 0 -0.014309071191946254 0.000252411840584828 0 -0.014256493835818704 0.00024403083240190118 0 -0.014281144474543619 0.00031021636875839306 0 -0.013098809783694081 0.0010430543813668761 0 -0.013089017358815817 0.0010861863705013538 0 -0.013122455693864468 0.0010789688584866802 0 -0.013122455693864468 0.0010789688584866802 0 -0.013118586939065945 0.0010890056535772991 0 -0.013125708089078604 0.0010863358162374729 0 -0.011654404536681916 0.0010304492115711917 0 -0.011526835835955762 0.0010777257249139408 0 -0.013122455693864468 0.0010789688584866802 0 -0.013104809349899231 0.0011019299826793122 0 -0.013118586939065945 0.0010890056535772991 0 -0.010201477303789744 0.00098272685344551018 0 -0.010251494823324613 0.00097673750614878682 0 -0.010178219259645044 0.00099617478487432141 0 -0.010201477303789744 0.00098272685344551018 0 -0.010183431066260169 0.00099149569308983293 0 -0.010178219259645044 0.00099617478487432141 0 -0.013090375336034967 0.0011009177264415925 0 -0.013122455693864468 0.0010789688584866802 0 -0.013104809349899231 0.0011019299826793122 0 -0.013090375336034967 0.0011009177264415925 0 -0.013089017358815817 0.0010861863705013538 0 -0.013122455693864468 0.0010789688584866802 0 -0.012062786754860111 0.0010453446605000738 0 -0.011654404536681916 0.0010304492115711917 0 -0.010462556838274217 0.0008524701480090934 0 -0.010251494823324613 0.00097673750614878682 0 -0.010280924998494301 0.00089105608256011899 0 -0.013075384278807266 0.0011195473634649786 0 -0.013090375336034967 0.0011009177264415925 0 -0.013104809349899231 0.0011019299826793122 0 -0.010201477303789744 0.00098272685344551018 0 -0.010251494823324613 0.00097673750614878682 0 -0.010280924998494301 0.00089105608256011899 0 -0.010201477303789744 0.00098272685344551018 0 -0.010179633268478193 0.00099729227770103523 0 -0.010170478147936788 0.00099596705079422598 0 -0.010217398749971213 0.00096178892460606488 0 -0.010204601137403388 0.0010021049264547896 0 -0.010201477303789744 0.00098272685344551018 0 -0.010170478147936788 0.00099596705079422598 0 -0.010174859373630558 0.0009940336849111023 0 -0.010179633268478193 0.00099729227770103523 0 -0.010170478147936788 0.00099596705079422598 0 -0.010165100180280343 0.00098826114467841556 0 -0.010129110467846191 0.00091533353469645568 0 -0.010165100180280343 0.00098826114467841556 0 -0.010116473056783428 0.00099731849951516867 0 -0.010129110467846191 0.00091533353469645568 0 -0.010165100180280343 0.00098826114467841556 0 -0.010186397315698328 0.00095691265916197617 0 -0.010170478147936788 0.00099596705079422598 0 -0.010165100180280343 0.00098826114467841556 0 -0.010116473056783428 0.00099731849951516867 0 -0.010165100180280343 0.00098826114467841556 0 -0.010186397315698328 0.00095691265916197617 0 -0.010186357076154333 0.0009811372303414462 0 -0.010209755840058211 0.00097483462943263692 0 -0.010186397315698328 0.00095691265916197617 0 -0.010186357076154333 0.0009811372303414462 0 -0.010168662181451908 0.00028276303061834288 0 -0.010224969414363745 0.00095542611494830131 0 -0.010209755840058211 0.00097483462943263692 0 -0.010179633268478193 0.00099729227770103523 0 -0.010186357076154333 0.0009811372303414462 0 -0.010168662181451908 0.00028276303061834288 0 -0.010204601137403388 0.0010021049264547896 0 -0.010179633268478193 0.00099729227770103523 0 -0.010165100180280343 0.00098826114467841556 0 -0.010186357076154333 0.0009811372303414462 0 -0.0099635232947564833 0.0010139364571359684 0 -0.009962646068681193 0.0011406695989457155 0 -0.0098823642394234058 0.001115574441776912 0 -0.0099635232947564833 0.0010139364571359684 0 -0.0098823642394234058 0.001115574441776912 0 -0.0098668640407701663 0.0010311388699611279 0 -0.0099635232947564833 0.0010139364571359684 0 -0.010116473056783428 0.00099731849951516867 0 -0.009962646068681193 0.0011406695989457155 0 -0.010157150739816899 0.00098309156446515925 0 -0.0099692482168083248 0.0011046768762780523 0 -0.010116473056783428 0.00099731849951516867 0 -0.010174859373630558 0.0009940336849111023 0 -0.010191493593986113 0.0010059450313314295 0 -0.010170478147936788 0.00099596705079422598 0 -0.010116473056783428 0.00099731849951516867 0 -0.010174859373630558 0.0009940336849111023 0 -0.010191493593986113 0.0010059450313314295 0 -0.010204619389182367 0.00099526233410963082 0 -0.010231208703589369 0.00099874481983406433 0 -0.010174859373630558 0.0009940336849111023 0 -0.010191493593986113 0.0010059450313314295 0 -0.010204619389182367 0.00099526233410963082 0 -0.0099692482168083248 0.0011046768762780523 0 -0.01068807076261807 0.0011498444600435615 0 -0.009962646068681193 0.0011406695989457155 0 -0.0098633779527390053 0.0011916435208458201 0 -0.0098823642394234058 0.001115574441776912 0 -0.010204619389182367 0.00099526233410963082 0 -0.010228334181768309 0.00098265363619312509 0 -0.010231208703589369 0.00099874481983406433 0 -0.010204619389182367 0.00099526233410963082 0 -0.010189573767008226 0.00099278798877942658 0 -0.010205981123815945 0.00098665759971870693 0 -0.010204619389182367 0.00099526233410963082 0 -0.010205981123815945 0.00098665759971870693 0 -0.010228334181768309 0.00098265363619312509 0 -0.010174859373630558 0.0009940336849111023 0 -0.010204619389182367 0.00099526233410963082 0 -0.010189573767008226 0.00099278798877942658 0 -0.010189573767008226 0.00099278798877942658 0 -0.010178219259645044 0.00099617478487432141 0 -0.010205981123815945 0.00098665759971870693 0 -0.010201477303789744 0.00098272685344551018 0 -0.010174859373630558 0.0009940336849111023 0 -0.010183431066260169 0.00099149569308983293 0 -0.010174859373630558 0.0009940336849111023 0 -0.010183431066260169 0.00099149569308983293 0 -0.010189573767008226 0.00099278798877942658 0 -0.010183431066260169 0.00099149569308983293 0 -0.010189573767008226 0.00099278798877942658 0 -0.010178219259645044 0.00099617478487432141 0 -0.011526835835955762 0.0010777257249139408 0 -0.012387556813672854 0.0010028565058796328 0 -0.010178219259645044 0.00099617478487432141 0 -0.010205981123815945 0.00098665759971870693 0 -0.010228736270993537 0.00095686937416928697 0 -0.013118586939065945 0.0010890056535772991 0 -0.01312520748395184 0.0010898778024472807 0 -0.013125708089078604 0.0010863358162374729 0 -0.013118586939065945 0.0010890056535772991 0 -0.013122183261741747 0.0010909162120925485 0 -0.01312520748395184 0.0010898778024472807 0 -0.010205981123815945 0.00098665759971870693 0 -0.010228736270993537 0.00095686937416928697 0 -0.010228334181768309 0.00098265363619312509 0 -0.012387556813672854 0.0010028565058796328 0 -0.011762183812359623 0.0011856874374617816 0 -0.013259491309914094 0.0011226204935007528 0 -0.013144710162901441 0.0010768570818097984 0 -0.013267781094073625 0.0013005470291464739 0 -0.013122183261741747 0.0010909162120925485 0 -0.013126752820878052 0.0010924189432802132 0 -0.01312520748395184 0.0010898778024472807 0 -0.013703306340212589 0.00074961637835001932 0 -0.013397959398955954 0.00097201250345866383 0 -0.013959384241840365 0.001225480351109957 0 -0.016649677695692328 0.0010331530569468116 0 -0.016654034140146372 0.0010236460127836166 0 -0.01666583461812771 0.0010162463996894093 0 -0.013259491309914094 0.0011226204935007528 0 -0.013144710162901441 0.0010768570818097984 0 -0.013234550506063312 0.001014480490096447 0 -0.012387556813672854 0.0010028565058796328 0 -0.014194648269904875 0.00090108974129238912 0 -0.012387556813672854 0.0010028565058796328 0 -0.014669417806203299 0.0012526325801518814 0 -0.014194648269904875 0.00090108974129238912 0 -0.014669417806203299 0.0012526325801518814 0 -0.016649677695692328 0.0010331530569468116 0 -0.016644552672614731 0.0010271021066357322 0 -0.016654034140146372 0.0010236460127836166 0 -0.016644552672614731 0.0010271021066357322 0 -0.016654034140146372 0.0010236460127836166 0 -0.016653115334785449 0.0010129778522504893 0 -0.016654034140146372 0.0010236460127836166 0 -0.016653115334785449 0.0010129778522504893 0 -0.01666583461812771 0.0010162463996894093 0 -0.016653115334785449 0.0010129778522504893 0 -0.016672441465422773 0.0010053503490077885 0 -0.01666583461812771 0.0010162463996894093 0 -0.015417870712887301 0.0012760992293126792 0 -0.01530346657244711 0.0010433368777881622 0 -0.015123312126076848 0.0011481118600973749 0 -0.014669417806203299 0.0012526325801518814 0 -0.016095869837716128 0.001104553895660206 0 -0.01530346657244711 0.0010433368777881622 0 -0.015123312126076848 0.0011481118600973749 0 -0.015161833276930299 0.00098479858038195002 0 -0.014669417806203299 0.0012526325801518814 0 -0.014054423212222108 0.0011237932156077247 0 -0.013126752820878052 0.0010924189432802132 0 -0.01312520748395184 0.0010898778024472807 0 -0.013131618843507605 0.0010952449899401136 0 -0.01312520748395184 0.0010898778024472807 0 -0.013125708089078604 0.0010863358162374729 0 -0.013131618843507605 0.0010952449899401136 0 -0.013125708089078604 0.0010863358162374729 0 -0.013140077706736473 0.001090378893291987 0 -0.013131618843507605 0.0010952449899401136 0 -0.013098809783694081 0.0010430543813668761 0 -0.013122455693864468 0.0010789688584866802 0 -0.013130463027045479 0.0010316405694875764 0 -0.013122455693864468 0.0010789688584866802 0 -0.013125708089078604 0.0010863358162374729 0 -0.013140077706736473 0.001090378893291987 0 -0.013127176748719134 0.00107497167343778 0 -0.01312421606619104 0.0010667110389191402 0 -0.013140077706736473 0.001090378893291987 0 -0.01315113580757568 0.0011014982166140286 0 -0.013131618843507605 0.0010952449899401136 0 -0.01312421606619104 0.0010667110389191402 0 -0.013978561364866781 0.00084426925126584486 0 -0.013098809783694081 0.0010430543813668761 0 -0.013130463027045479 0.0010316405694875764 0 -0.013130707444697264 0.00097890675242353568 0 -0.013117994705495808 0.00097162100774447454 0 -0.013098809783694081 0.0010430543813668761 0 -0.013130707444697264 0.00097890675242353568 0 -0.014788044126180197 0.0010120607008785025 0 -0.015123312126076848 0.0011481118600973749 0 -0.015028393661140952 0.00095744325511400066 0 -0.013978561364866781 0.00084426925126584486 0 -0.014054423212222108 0.0011237932156077247 0 -0.015123312126076848 0.0011481118600973749 0 -0.015161833276930299 0.00098479858038195002 0 -0.015028393661140952 0.00095744325511400066 0 -0.015028393661140952 0.00095744325511400066 0 -0.014934908104803172 0.0007642091227039855 0 -0.015191707619860766 0.0007838067881642684 0 -0.015161833276930299 0.00098479858038195002 0 -0.015028393661140952 0.00095744325511400066 0 -0.015191707619860766 0.0007838067881642684 0 -0.01462757472070754 0.00041457187245833206 0 -0.013978561364866781 0.00084426925126584486 0 -0.014430568364577833 0.00024808320913123069 0 -0.014402166501715859 0.00028608897529323483 0 -0.014413506945210135 0.00026818912593180454 0 -0.014699064900148778 0.00066072546150121769 0 -0.014788044126180197 0.0010120607008785025 0 -0.014934908104803172 0.0007642091227039855 0 -0.014788044126180197 0.0010120607008785025 0 -0.015028393661140952 0.00095744325511400066 0 -0.014934908104803172 0.0007642091227039855 0 -0.013949971493634635 0.00056393138671282262 0 -0.014219701374395427 0.00023679668379960353 0 -0.014400333721047131 0.00028250770297578201 0 -0.014402166501715859 0.00028608897529323483 0 -0.014413506945210135 0.00026818912593180454 0 -0.013949971493634635 0.00056393138671282262 0 -0.013978561364866781 0.00084426925126584486 0 -0.014934908104803172 0.0007642091227039855 0 -0.014880518424987178 0.00055777908431848199 0 -0.015068338941807178 0.00049421905299322077 0 -0.014699064900148778 0.00066072546150121769 0 -0.014934908104803172 0.0007642091227039855 0 -0.014880518424987178 0.00055777908431848199 0 -0.015842496727271112 0.00081916933063715797 0 -0.016637976394891212 0.00080673029284908241 0 -0.014934908104803172 0.0007642091227039855 0 -0.015191707619860766 0.0007838067881642684 0 -0.015068338941807178 0.00049421905299322077 0 -0.018435338339461302 0.0010469254540220699 0 -0.016637976394891212 0.00080673029284908241 0 -0.019723902335231348 0.0009213651741592589 0 -0.019652131196317785 0.00069484219692268572 0 -0.019365851079662568 0.00076546319115560282 0 -0.016667323773371691 0.001001436949141667 0 -0.01665875717287529 0.0010037049667726843 0 -0.016655293653625145 0.00099276660709390831 0 -0.019723902335231348 0.0009213651741592589 0 -0.019774501481219689 0.00090211323521910034 0 -0.019652131196317785 0.00069484219692268572 0 -0.019774501481219689 0.00090211323521910034 0 -0.01966187031285838 0.00076519441743782993 0 -0.019581402219315119 0.00088131833255365277 0 -0.019723902335231348 0.0009213651741592589 0 -0.019774501481219689 0.00090211323521910034 0 -0.01966187031285838 0.00076519441743782993 0 -0.019774501481219689 0.00090211323521910034 0 -0.019581402219315119 0.00088131833255365277 0 -0.019489664220852607 0.0010602046309829451 0 -0.018435338339461302 0.0010469254540220699 0 -0.018028876090867882 0.00083838601648893467 0 -0.016667323773371691 0.001001436949141667 0 -0.016672441465422773 0.0010053503490077885 0 -0.016661406315123001 0.0010065421716715806 0 -0.016653115334785449 0.0010129778522504893 0 -0.016672441465422773 0.0010053503490077885 0 -0.016661406315123001 0.0010065421716715806 0 -0.016653115334785449 0.0010129778522504893 0 -0.01665875717287529 0.0010037049667726843 0 -0.016661406315123001 0.0010065421716715806 0 -0.01530346657244711 0.0010433368777881622 0 -0.015161833276930299 0.00098479858038195002 0 -0.015191707619860766 0.0007838067881642684 0 -0.016095869837716128 0.001104553895660206 0 -0.015842496727271112 0.00081916933063715797 0 -0.016667323773371691 0.001001436949141667 0 -0.01665875717287529 0.0010037049667726843 0 -0.016661406315123001 0.0010065421716715806 0 -0.019790754809663063 0.00030381276746459387 0 -0.019937919213365646 0.00058247274251614167 0 -0.019652131196317785 0.00069484219692268572 0 -0.019790754809663063 0.00030381276746459387 0 -0.019652131196317785 0.00069484219692268572 0 -0.01949321820157273 0.00041727636109408937 0 -0.019790754809663063 0.00030381276746459387 0 -0.019937919213365646 0.00058247274251614167 0 -0.020296162319053773 0.00023956952853141522 0 -0.019774501481219689 0.00090211323521910034 0 -0.019937919213365646 0.00058247274251614167 0 -0.020309480149518389 0.00069816824558420248 0 -0.019774501481219689 0.00090211323521910034 0 -0.019937919213365646 0.00058247274251614167 0 -0.019652131196317785 0.00069484219692268572 0 -0.019788801349307977 0.00090465915371612732 0 -0.019902116544086631 0.00087109654845320367 0 -0.019365851079662568 0.00076546319115560282 0 -0.019164600993630529 0.00038417360937558701 0 -0.01949321820157273 0.00041727636109408937 0 -0.016637976394891212 0.00080673029284908241 0 -0.016792090180961051 0.00010376584159549125 0 -0.019652131196317785 0.00069484219692268572 0 -0.019365851079662568 0.00076546319115560282 0 -0.01949321820157273 0.00041727636109408937 0 -0.014699064900148778 0.00066072546150121769 0 -0.014809043118566064 0.00029419227887777111 0 -0.014554995181714148 0.00018880262957349567 0 -0.016637976394891212 0.00080673029284908241 0 -0.014389857225300602 7.5781778630101704e-05 0 -0.015235894841346572 0.00054789598868623549 0 -0.014809043118566064 0.00029419227887777111 0 -0.014940717342950207 4.3256680316628363e-05 0 -0.014699064900148778 0.00066072546150121769 0 -0.014880518424987178 0.00055777908431848199 0 -0.014809043118566064 0.00029419227887777111 0 -0.014880518424987178 0.00055777908431848199 0 -0.015068338941807178 0.00049421905299322077 0 -0.014809043118566064 0.00029419227887777111 0 -0.014809043118566064 0.00029419227887777111 0 -0.014756247646319746 9.3389759409484647e-05 0 -0.014940717342950207 4.3256680316628363e-05 0 -0.014809043118566064 0.00029419227887777111 0 -0.014756247646319746 9.3389759409484647e-05 0 -0.014554995181714148 0.00018880262957349567 0 -0.014756247646319746 9.3389759409484647e-05 0 -0.014940717342950207 4.3256680316628363e-05 0 -0.014759766288727572 -0.00010823687979595293 0 -0.014756247646319746 9.3389759409484647e-05 0 -0.014759766288727572 -0.00010823687979595293 0 -0.014669485553642685 -1.150924085963035e-06 0 -0.019164600993630529 0.00038417360937558701 0 -0.01949321820157273 0.00041727636109408937 0 -0.019497306450008137 -7.5185812599808276e-05 0 -0.016792090180961051 0.00010376584159549125 0 -0.019812411453524234 -0.00033457976235701491 0 -0.014940717342950207 4.3256680316628363e-05 0 -0.014759766288727572 -0.00010823687979595293 0 -0.01473897701275971 -0.00040351635026077208 0 -0.019164600993630529 0.00038417360937558701 0 -0.019497306450008137 -7.5185812599808276e-05 0 -0.018977622997122228 -3.3914123037229969e-06 0 -0.022677023310780402 -4.8230952199795789e-05 0 -0.019812411453524234 -0.00033457976235701491 0 -0.0249164721708089 -4.8898634044902741e-05 0 -0.024909154592606394 -4.8074502590248229e-05 0 -0.024890588060871702 -4.7220681062219233e-05 0 -0.024908390455696924 -4.9503502161270476e-05 0 -0.0249164721708089 -4.8898634044902741e-05 0 -0.024890588060871702 -4.7220681062219233e-05 0 -0.024908390455696924 -4.9503502161270476e-05 0 -0.0249164721708089 -4.8898634044902741e-05 0 -0.024925783241264623 -4.4773591801271081e-05 0 -0.0249164721708089 -4.8898634044902741e-05 0 -0.024909154592606394 -4.8074502590248229e-05 0 -0.024926968466442798 -5.0578074054541222e-05 0 -0.024909154592606394 -4.8074502590248229e-05 0 -0.024919702049171787 -5.9141576774548134e-05 0 -0.024926968466442798 -5.0578074054541222e-05 0 -0.022677023310780402 -4.8230952199795789e-05 0 -0.022371010989623956 -0.00010746495282539935 0 -0.019790754809663063 0.00030381276746459387 0 -0.01949321820157273 0.00041727636109408937 0 -0.019497306450008137 -7.5185812599808276e-05 0 -0.019790754809663063 0.00030381276746459387 0 -0.019497306450008137 -7.5185812599808276e-05 0 -0.020027973013240885 -0.00016248370245046913 0 -0.019790754809663063 0.00030381276746459387 0 -0.020027973013240885 -0.00016248370245046913 0 -0.020296162319053773 0.00023956952853141522 0 -0.024919702049171787 -5.9141576774548134e-05 0 -0.024945894888388543 -5.8053617831793607e-05 0 -0.02493974563962556 -6.6392114675746896e-05 0 -0.024945894888388543 -5.8053617831793607e-05 0 -0.024962846074104129 -4.968451750102207e-05 0 -0.024926968466442798 -5.0578074054541222e-05 0 -0.024919702049171787 -5.9141576774548134e-05 0 -0.024945894888388543 -5.8053617831793607e-05 0 -0.024926968466442798 -5.0578074054541222e-05 0 -0.024945894888388543 -5.8053617831793607e-05 0 -0.024967151148610926 -3.7631689010469982e-05 0 -0.024962846074104129 -4.968451750102207e-05 0 -0.024945894888388543 -5.8053617831793607e-05 0 -0.02493974563962556 -6.6392114675746896e-05 0 -0.024943618799649531 -4.3629714093125084e-05 0 -0.024945894888388543 -5.8053617831793607e-05 0 -0.024967151148610926 -3.7631689010469982e-05 0 -0.024943618799649531 -4.3629714093125084e-05 0 -0.024967151148610926 -3.7631689010469982e-05 0 -0.024999862904818593 -1.6277643676691757e-08 0 -0.024943618799649531 -4.3629714093125084e-05 0 -0.024967151148610926 -3.7631689010469982e-05 0 -0.024991644910258414 -2.5347967136136753e-05 0 -0.024962846074104129 -4.968451750102207e-05 0 -0.024967151148610926 -3.7631689010469982e-05 0 -0.024989831809614432 -1.391095948242776e-05 0 -0.024991644910258414 -2.5347967136136753e-05 0 -0.024967151148610926 -3.7631689010469982e-05 0 -0.024989831809614432 -1.391095948242776e-05 0 -0.024999862904818593 -1.6277643676691757e-08 0 -0.024989831809614432 -1.391095948242776e-05 0 -0.024999862904818593 -1.6277643676691757e-08 0 -0.025000058912332077 -1.1498988619035169e-08 0 -0.024999990823415062 -1.0137271657244479e-08 0 -0.024974034852474174 -3.3111792748034334e-05 0 -0.024983279923323935 -3.9024309008506811e-06 0 -0.02499993107876939 -5.6722217385934794e-09 0 -0.025000006710452934 9.1134392186413601e-09 0 -0.024999989774995526 -8.7036833167413759e-09 0 -0.024978186550907111 -1.803318292134105e-05 0 -0.024989831809614432 -1.391095948242776e-05 0 -0.025000058912332077 -1.1498988619035169e-08 0 -0.024991644910258414 -2.5347967136136753e-05 0 -0.024983279923323935 -3.9024309008506811e-06 0 -0.02499993107876939 -5.6722217385934794e-09 0 -0.024966626646423191 -7.8641167104124386e-06 0 -0.024978186550907111 -1.803318292134105e-05 0 -0.02495176964733194 -3.7026254919614071e-05 0 -0.024966626646423191 -7.8641167104124386e-06 0 -0.024961335877534886 -1.6067115267968904e-05 0 -0.024940472309288166 -2.6937895961775386e-05 0 -0.024983279923323935 -3.9024309008506811e-06 0 -0.024966626646423191 -7.8641167104124386e-06 0 -0.024961335877534886 -1.6067115267968904e-05 0 -0.024983279923323935 -3.9024309008506811e-06 0 -0.024961335877534886 -1.6067115267968904e-05 0 -0.024976719892874852 -9.5942681611736509e-06 0 -0.024961335877534886 -1.6067115267968904e-05 0 -0.024939175010856428 -3.6490534728026301e-05 0 -0.024976719892874852 -9.5942681611736509e-06 0 -0.024961335877534886 -1.6067115267968904e-05 0 -0.024940472309288166 -2.6937895961775386e-05 0 -0.024939175010856428 -3.6490534728026301e-05 0 -0.024940472309288166 -2.6937895961775386e-05 0 -0.024926968466442798 -5.0578074054541222e-05 0 -0.024939175010856428 -3.6490534728026301e-05 0 -0.0249164721708089 -4.8898634044902741e-05 0 -0.024926968466442798 -5.0578074054541222e-05 0 -0.024939175010856428 -3.6490534728026301e-05 0 -0.02495176964733194 -3.7026254919614071e-05 0 -0.024933541698900521 -4.8317205054365196e-05 0 -0.0249164721708089 -4.8898634044902741e-05 0 -0.024925783241264623 -4.4773591801271081e-05 0 -0.024939175010856428 -3.6490534728026301e-05 0 -0.024925783241264623 -4.4773591801271081e-05 0 -0.024939175010856428 -3.6490534728026301e-05 0 -0.024962861353069937 -3.531035688730048e-05 0 -0.024778917894736002 0.00015930257236579015 0 -0.024744944626189841 0.00012270818091564587 0 -0.024710677777196741 0.00021393720132013532 0 -0.024778917894736002 0.00015930257236579015 0 -0.024818934352221853 3.482661490602302e-05 0 -0.024744944626189841 0.00012270818091564587 0 -0.025274024296351644 0.00010067991609973733 0 -0.024839713454509825 -1.6717053139382271e-05 0 -0.024962861353069937 -3.531035688730048e-05 0 -0.024976719892874852 -9.5942681611736509e-06 0 -0.024992924418353577 -6.1262996086271258e-06 0 -0.024939175010856428 -3.6490534728026301e-05 0 -0.024962861353069937 -3.531035688730048e-05 0 -0.024976719892874852 -9.5942681611736509e-06 0 -0.024976719892874852 -9.5942681611736509e-06 0 -0.024992924418353577 -6.1262996086271258e-06 0 -0.024995259876192995 -2.1721245609723795e-06 0 -0.024992924418353577 -6.1262996086271258e-06 0 -0.024995259876192995 -2.1721245609723795e-06 0 -0.02497170208384332 -3.6962706373678077e-06 0 -0.024995259876192995 -2.1721245609723795e-06 0 -0.025000006710452934 9.1134392186413601e-09 0 -0.024999903262942762 -3.1667903367033625e-08 0 -0.024983279923323935 -3.9024309008506811e-06 0 -0.024976719892874852 -9.5942681611736509e-06 0 -0.025000006710452934 9.1134392186413601e-09 0 -0.024976719892874852 -9.5942681611736509e-06 0 -0.024995259876192995 -2.1721245609723795e-06 0 -0.025000006710452934 9.1134392186413601e-09 0 -0.024999807596519964 7.2810636481085998e-09 0 -0.02497170208384332 -3.6962706373678077e-06 0 -0.024890263031113982 -2.1262356513020126e-05 0 -0.024995259876192995 -2.1721245609723795e-06 0 -0.024999903262942762 -3.1667903367033625e-08 0 -0.02497170208384332 -3.6962706373678077e-06 0 -0.024999807596519964 7.2810636481085998e-09 0 -0.024999903262942762 -3.1667903367033625e-08 0 -0.02497170208384332 -3.6962706373678077e-06 0 -0.024839713454509825 -1.6717053139382271e-05 0 -0.024979241530321581 7.9281704155865641e-06 0 -0.024818934352221853 3.482661490602302e-05 0 -0.02497170208384332 -3.6962706373678077e-06 0 -0.024890263031113982 -2.1262356513020126e-05 0 -0.024818934352221853 3.482661490602302e-05 0 -0.024890263031113982 -2.1262356513020126e-05 0 -0.024738290721216721 5.914907519182988e-05 0 -0.024890263031113982 -2.1262356513020126e-05 0 -0.024738290721216721 5.914907519182988e-05 0 -0.024628824318824984 2.3485512789567285e-05 0 -0.024861797453385247 -2.1177665363037562e-05 0 -0.024765967889261841 9.2587638470041122e-07 0 -0.024738290721216721 5.914907519182988e-05 0 -0.024591584051964509 0.00010808431415413492 0 -0.024628824318824984 2.3485512789567285e-05 0 -0.024818934352221853 3.482661490602302e-05 0 -0.024738290721216721 5.914907519182988e-05 0 -0.024744944626189841 0.00012270818091564587 0 -0.024738290721216721 5.914907519182988e-05 0 -0.024744944626189841 0.00012270818091564587 0 -0.024656227094147665 0.00016226763652250407 0 -0.024744944626189841 0.00012270818091564587 0 -0.024656227094147665 0.00016226763652250407 0 -0.024710677777196741 0.00021393720132013532 0 -0.024738290721216721 5.914907519182988e-05 0 -0.024656227094147665 0.00016226763652250407 0 -0.024591584051964509 0.00010808431415413492 0 -0.024656227094147665 0.00016226763652250407 0 -0.024480938496967291 0.0002419929716056693 0 -0.024591584051964509 0.00010808431415413492 0 -0.024656227094147665 0.00016226763652250407 0 -0.024591569123220809 0.00035256308262668649 0 -0.024480938496967291 0.0002419929716056693 0 -0.019459829147630985 -2.2571750406187216e-05 0 -0.019497731756295423 1.2193026894429321e-05 0 -0.024591569123220809 0.00035256308262668649 0 -0.024710677777196741 0.00021393720132013532 0 -0.024696441815029703 0.00027969767153436309 0 -0.019459829147630985 -2.2571750406187216e-05 0 -0.019663018353398145 -7.0463395054725864e-05 0 -0.014409516826844762 -0.00040257458230034753 0 -0.014615788658229505 -0.00046692771141379469 0 -0.014475039116145486 -0.00031585339337577591 0 -0.024656227094147665 0.00016226763652250407 0 -0.024591569123220809 0.00035256308262668649 0 -0.024710677777196741 0.00021393720132013532 0 -0.024710677777196741 0.00021393720132013532 0 -0.02473348259988108 0.00023113856236891311 0 -0.024696441815029703 0.00027969767153436309 0 -0.024778917894736002 0.00015930257236579015 0 -0.024710677777196741 0.00021393720132013532 0 -0.02473348259988108 0.00023113856236891311 0 -0.024778917894736002 0.00015930257236579015 0 -0.02473348259988108 0.00023113856236891311 0 -0.024737916172068462 0.00024536781825879012 0 -0.024908390455696924 -4.9503502161270476e-05 0 -0.024962861353069937 -3.531035688730048e-05 0 -0.024900715651916587 -5.6127206836095262e-05 0 -0.025274024296351644 0.00010067991609973733 0 -0.022137931430864507 0.00039830131016144914 0 -0.024908390455696924 -4.9503502161270476e-05 0 -0.024925783241264623 -4.4773591801271081e-05 0 -0.024962861353069937 -3.531035688730048e-05 0 -0.023218647872731632 -0.00025260696264950503 0 -0.022137931430864507 0.00039830131016144914 0 -0.014914280418960464 -0.00052072932761461181 0 -0.014751630926845788 -0.00039356321663709502 0 -0.014615788658229505 -0.00046692771141379469 0 -0.02473348259988108 0.00023113856236891311 0 -0.024736886239818054 0.00024723254461543018 0 -0.024696441815029703 0.00027969767153436309 0 -0.014914280418960464 -0.00052072932761461181 0 -0.014751630926845788 -0.00039356321663709502 0 -0.014748478205591551 -0.00024330095270942457 0 -0.014759766288727572 -0.00010823687979595293 0 -0.01473897701275971 -0.00040351635026077208 0 -0.014669485553642685 -1.150924085963035e-06 0 -0.019812411453524234 -0.00033457976235701491 0 -0.019663018353398145 -7.0463395054725864e-05 0 -0.024908390455696924 -4.9503502161270476e-05 0 -0.024890588060871702 -4.7220681062219233e-05 0 -0.02489211303925248 -4.7509549143551875e-05 0 -0.02473348259988108 0.00023113856236891311 0 -0.024736886239818054 0.00024723254461543018 0 -0.024737916172068462 0.00024536781825879012 0 -0.019812411453524234 -0.00033457976235701491 0 -0.022137931430864507 0.00039830131016144914 0 -0.014751630926845788 -0.00039356321663709502 0 -0.014615788658229505 -0.00046692771141379469 0 -0.014606419340814558 -0.00031581573711803241 0 -0.014615788658229505 -0.00046692771141379469 0 -0.014606419340814558 -0.00031581573711803241 0 -0.014475039116145486 -0.00031585339337577591 0 -0.014751630926845788 -0.00039356321663709502 0 -0.014606419340814558 -0.00031581573711803241 0 -0.014684475114594635 -0.00029730798969490526 0 -0.014606419340814558 -0.00031581573711803241 0 -0.014635072186418243 -0.00023905209528782552 0 -0.014684475114594635 -0.00029730798969490526 0 -0.014606419340814558 -0.00031581573711803241 0 -0.01448291194826349 -0.00019517855374270399 0 -0.014475039116145486 -0.00031585339337577591 0 -0.014606419340814558 -0.00031581573711803241 0 -0.014635072186418243 -0.00023905209528782552 0 -0.01448291194826349 -0.00019517855374270399 0 -0.01473897701275971 -0.00040351635026077208 0 -0.014669485553642685 -1.150924085963035e-06 0 -0.014527820574324363 0.00016830912511140448 0 -0.019812411453524234 -0.00033457976235701491 0 -0.013991487256487876 6.7709969266083612e-05 0 -0.014751630926845788 -0.00039356321663709502 0 -0.014684475114594635 -0.00029730798969490526 0 -0.014748478205591551 -0.00024330095270942457 0 -0.014635072186418243 -0.00023905209528782552 0 -0.014684475114594635 -0.00029730798969490526 0 -0.014748478205591551 -0.00024330095270942457 0 -0.014669485553642685 -1.150924085963035e-06 0 -0.014527820574324363 0.00016830912511140448 0 -0.014554995181714148 0.00018880262957349567 0 -0.014756247646319746 9.3389759409484647e-05 0 -0.014669485553642685 -1.150924085963035e-06 0 -0.014554995181714148 0.00018880262957349567 0 -0.014430568364577833 0.00024808320913123069 0 -0.014554995181714148 0.00018880262957349567 0 -0.014482946173663283 0.00021777460206971044 0 -0.01462757472070754 0.00041457187245833206 0 -0.014535345437288507 0.00020661094972629766 0 -0.014587877104286853 -4.2492211218698469e-05 0 -0.014748478205591551 -0.00024330095270942457 0 -0.014585968370134145 -0.00015766552968372332 0 -0.014580321872805347 6.4859131032334773e-05 0 -0.013991487256487876 6.7709969266083612e-05 0 -0.014405550547364913 0.00025382155147502547 0 -0.014527820574324363 0.00016830912511140448 0 -0.014482946173663283 0.00021777460206971044 0 -0.014527820574324363 0.00016830912511140448 0 -0.014554995181714148 0.00018880262957349567 0 -0.014482946173663283 0.00021777460206971044 0 -0.014635072186418243 -0.00023905209528782552 0 -0.014748478205591551 -0.00024330095270942457 0 -0.014585968370134145 -0.00015766552968372332 0 -0.014479802789363075 -7.0847620811828385e-05 0 -0.014585968370134145 -0.00015766552968372332 0 -0.01448291194826349 -0.00019517855374270399 0 -0.014635072186418243 -0.00023905209528782552 0 -0.014585968370134145 -0.00015766552968372332 0 -0.01448291194826349 -0.00019517855374270399 0 -0.014365511655585209 -8.2756748443889091e-05 0 -0.014479802789363075 -7.0847620811828385e-05 0 -0.01448291194826349 -0.00019517855374270399 0 -0.014365511655585209 -8.2756748443889091e-05 0 -0.01448291194826349 -0.00019517855374270399 0 -0.014311861380762986 -0.00021214052791653163 0 -0.014235656287254062 -3.4825630390984008e-05 0 -0.014365511655585209 -8.2756748443889091e-05 0 -0.014311861380762986 -0.00021214052791653163 0 -0.014235656287254062 -3.4825630390984008e-05 0 -0.014311861380762986 -0.00021214052791653163 0 -0.01419408886729911 -0.00011554321266821297 0 -0.014409516826844762 -0.00040257458230034753 0 -0.014311861380762986 -0.00021214052791653163 0 -0.014236301214834695 -0.00035729022560572991 0 -0.01448291194826349 -0.00019517855374270399 0 -0.014311861380762986 -0.00021214052791653163 0 -0.014475039116145486 -0.00031585339337577591 0 -0.014409516826844762 -0.00040257458230034753 0 -0.014311861380762986 -0.00021214052791653163 0 -0.014475039116145486 -0.00031585339337577591 0 -0.014139025763150313 -0.00021009418568384606 0 -0.013991891928648765 -0.00013979721142246522 0 -0.014068326817957236 -0.00032588897278865625 0 -0.014139025763150313 -0.00021009418568384606 0 -0.014068326817957236 -0.00032588897278865625 0 -0.014236301214834695 -0.00035729022560572991 0 -0.014311861380762986 -0.00021214052791653163 0 -0.014139025763150313 -0.00021009418568384606 0 -0.014236301214834695 -0.00035729022560572991 0 -0.014093542783096635 -1.120739142093308e-05 0 -0.01419408886729911 -0.00011554321266821297 0 -0.014139025763150313 -0.00021009418568384606 0 -0.014311861380762986 -0.00021214052791653163 0 -0.01419408886729911 -0.00011554321266821297 0 -0.014139025763150313 -0.00021009418568384606 0 -0.014093542783096635 -1.120739142093308e-05 0 -0.014139025763150313 -0.00021009418568384606 0 -0.013991891928648765 -0.00013979721142246522 0 -0.014304112180315706 -0.00074065967115546211 0 -0.013886546729285581 -0.00079237893279659457 0 -0.014210983253020587 -0.0012101260281497674 0 -0.016914500940371033 0.00013446374720553714 0 -0.016949784298335099 8.0764919524421383e-05 0 -0.016893144825180985 0.00013647149423085184 0 -0.013918269838995504 -0.00046572462565683042 0 -0.014304112180315706 -0.00074065967115546211 0 -0.013886546729285581 -0.00079237893279659457 0 -0.016914500940371033 0.00013446374720553714 0 -0.016949784298335099 8.0764919524421383e-05 0 -0.017001448647162097 7.6458936705940371e-05 0 -0.015040602449011021 -0.00040559557887391985 0 -0.018594396405601954 0.00062732795982422065 0 -0.020391288404780959 0.00096716186424919664 0 -0.018594396405601954 0.00062732795982422065 0 -0.013704382940233484 -0.00056969272740255096 0 -0.018222192762374079 0.00016808107164185704 0 -0.014304112180315706 -0.00074065967115546211 0 -0.014210983253020587 -0.0012101260281497674 0 -0.014459302660442935 -0.0012397525055204968 0 -0.018594396405601954 0.00062732795982422065 0 -0.018222192762374079 0.00016808107164185704 0 -0.023356577171778949 0.0025303543240495149 0 -0.023478662029498755 0.0014241565981283845 0 -0.024872970847870494 0.00037410142407933166 0 -0.019719306960727215 0.0012768022441326521 0 -0.020753446445864059 0.0011338847573772336 0 -0.021189696441339521 -0.00096021683878598323 0 -0.018594396405601954 0.00062732795982422065 0 -0.023962904260822239 2.3742784972352375e-05 0 -0.024209887266644664 0.00097606010432573669 0 -0.024184213690355987 0.00058090296775989989 0 -0.023799987271349382 0.00071844534354604118 0 -0.024209887266644664 0.00097606010432573669 0 -0.024542217984401718 0.00051298485055368333 0 -0.024184213690355987 0.00058090296775989989 0 -0.020391288404780959 0.00096716186424919664 0 -0.024249264022138263 0.00085387853120399678 0 -0.022305988054134467 0.00266679175351974 0 -0.023356577171778949 0.0025303543240495149 0 -0.023478662029498755 0.0014241565981283845 0 -0.024542217984401718 0.00051298485055368333 0 -0.024184213690355987 0.00058090296775989989 0 -0.024330531214168734 0.00035921861179827081 0 -0.024184213690355987 0.00058090296775989989 0 -0.024330531214168734 0.00035921861179827081 0 -0.023952718764163251 0.00037028034085168966 0 -0.024330531214168734 0.00035921861179827081 0 -0.02417892517263252 0.00014801713684638694 0 -0.023952718764163251 0.00037028034085168966 0 -0.024330531214168734 0.00035921861179827081 0 -0.024439643142118602 0.00018957236392393834 0 -0.024538567805897509 0.00029419118788791537 0 -0.024330531214168734 0.00035921861179827081 0 -0.024439643142118602 0.00018957236392393834 0 -0.02417892517263252 0.00014801713684638694 0 -0.023478662029498755 0.0014241565981283845 0 -0.024696503472760822 0.00022727187707501857 0 -0.024872970847870494 0.00037410142407933166 0 -0.024249264022138263 0.00085387853120399678 0 -0.024554746174138591 0.00036563574118866736 0 -0.024542217984401718 0.00051298485055368333 0 -0.024538567805897509 0.00029419118788791537 0 -0.024696503472760822 0.00022727187707501857 0 -0.024542217984401718 0.00051298485055368333 0 -0.024330531214168734 0.00035921861179827081 0 -0.024538567805897509 0.00029419118788791537 0 -0.024439643142118602 0.00018957236392393834 0 -0.024608947799833927 0.00019646747156781805 0 -0.024556842784846902 7.2867936060592135e-05 0 -0.024439643142118602 0.00018957236392393834 0 -0.024538567805897509 0.00029419118788791537 0 -0.024608947799833927 0.00019646747156781805 0 -0.024608947799833927 0.00019646747156781805 0 -0.024713120428319302 0.00014832075242362535 0 -0.024696503472760822 0.00022727187707501857 0 -0.024608947799833927 0.00019646747156781805 0 -0.024713120428319302 0.00014832075242362535 0 -0.024692398475056682 9.150203851621724e-05 0 -0.024538567805897509 0.00029419118788791537 0 -0.024608947799833927 0.00019646747156781805 0 -0.024696503472760822 0.00022727187707501857 0 -0.024789270599695039 0.00017237138285277953 0 -0.024785417454435407 0.00021471353298780117 0 -0.024866721555723854 3.2214322008502382e-05 0 -0.02424359870422663 0.00024541775721442912 0 -0.024480938496967291 0.0002419929716056693 0 -0.024426564774891593 0.00011034751307418761 0 -0.024713120428319302 0.00014832075242362535 0 -0.024789270599695039 0.00017237138285277953 0 -0.024771128278639618 8.6222993753107e-05 0 -0.024713120428319302 0.00014832075242362535 0 -0.024789270599695039 0.00017237138285277953 0 -0.024696503472760822 0.00022727187707501857 0 -0.024102586027976089 8.276114755962358e-05 0 -0.023962904260822239 2.3742784972352375e-05 0 -0.024789270599695039 0.00017237138285277953 0 -0.024696503472760822 0.00022727187707501857 0 -0.024872970847870494 0.00037410142407933166 0 -0.024122838859779953 0.0004826071877300299 0 -0.02424359870422663 0.00024541775721442912 0 -0.024396099915122472 0.00043194189770394886 0 -0.018222192762374079 0.00016808107164185704 0 -0.019497731756295423 1.2193026894429321e-05 0 -0.018222192762374079 0.00016808107164185704 0 -0.023962904260822239 2.3742784972352375e-05 0 -0.024591569123220809 0.00035256308262668649 0 -0.024396099915122472 0.00043194189770394886 0 -0.024480938496967291 0.0002419929716056693 0 -0.02424359870422663 0.00024541775721442912 0 -0.024396099915122472 0.00043194189770394886 0 -0.024480938496967291 0.0002419929716056693 0 -0.024480938496967291 0.0002419929716056693 0 -0.024591584051964509 0.00010808431415413492 0 -0.024426564774891593 0.00011034751307418761 0 -0.023962904260822239 2.3742784972352375e-05 0 -0.024690003948648082 8.1737788768130692e-05 0 -0.024771128278639618 8.6222993753107e-05 0 -0.024766637800130446 1.0556753384381529e-05 0 -0.024692398475056682 9.150203851621724e-05 0 -0.024713120428319302 0.00014832075242362535 0 -0.024771128278639618 8.6222993753107e-05 0 -0.024692398475056682 9.150203851621724e-05 0 -0.024789270599695039 0.00017237138285277953 0 -0.024771128278639618 8.6222993753107e-05 0 -0.024866721555723854 3.2214322008502382e-05 0 -0.024771128278639618 8.6222993753107e-05 0 -0.024866721555723854 3.2214322008502382e-05 0 -0.024766637800130446 1.0556753384381529e-05 0 -0.024866721555723854 3.2214322008502382e-05 0 -0.024766637800130446 1.0556753384381529e-05 0 -0.024843442835751683 -5.7051310921751656e-05 0 -0.024766637800130446 1.0556753384381529e-05 0 -0.024843442835751683 -5.7051310921751656e-05 0 -0.024714087798070463 -5.6851526753361953e-05 0 -0.024591584051964509 0.00010808431415413492 0 -0.024426564774891593 0.00011034751307418761 0 -0.024628824318824984 2.3485512789567285e-05 0 -0.024690003948648082 8.1737788768130692e-05 0 -0.024765967889261841 9.2587638470041122e-07 0 -0.024866721555723854 3.2214322008502382e-05 0 -0.024843442835751683 -5.7051310921751656e-05 0 -0.024914452254354617 -5.1652589769153002e-05 0 -0.024843442835751683 -5.7051310921751656e-05 0 -0.024914452254354617 -5.1652589769153002e-05 0 -0.024937691361688458 -4.4847987267295564e-05 0 -0.024890263031113982 -2.1262356513020126e-05 0 -0.024914452254354617 -5.1652589769153002e-05 0 -0.024937691361688458 -4.4847987267295564e-05 0 -0.024843442835751683 -5.7051310921751656e-05 0 -0.024937691361688458 -4.4847987267295564e-05 0 -0.02482341450217233 -9.690722467883905e-05 0 -0.024937691361688458 -4.4847987267295564e-05 0 -0.024999870495751551 -7.8412952690218455e-08 0 -0.02482341450217233 -9.690722467883905e-05 0 -0.024999807596519964 7.2810636481085998e-09 0 -0.024890263031113982 -2.1262356513020126e-05 0 -0.024937691361688458 -4.4847987267295564e-05 0 -0.024999807596519964 7.2810636481085998e-09 0 -0.024937691361688458 -4.4847987267295564e-05 0 -0.024999870495751551 -7.8412952690218455e-08 0 -0.024999589679408168 -1.2008738287108179e-07 0 -0.02482341450217233 -9.690722467883905e-05 0 -0.024655772019662903 -0.00013349196046097116 0 -0.024999870495751551 -7.8412952690218455e-08 0 -0.024999589679408168 -1.2008738287108179e-07 0 -0.02482341450217233 -9.690722467883905e-05 0 -0.02482341450217233 -9.690722467883905e-05 0 -0.024655772019662903 -0.00013349196046097116 0 -0.024575983291059072 -0.00010463729494688192 0 -0.024575983291059072 -0.00010463729494688192 0 -0.024366161282181466 -4.6204632784315295e-06 0 -0.024280551564979463 -0.00014034553027340244 0 -0.024575983291059072 -0.00010463729494688192 0 -0.024576782266785328 -2.4671644924860282e-05 0 -0.024366161282181466 -4.6204632784315295e-06 0 -0.024655772019662903 -0.00013349196046097116 0 -0.024575983291059072 -0.00010463729494688192 0 -0.024280551564979463 -0.00014034553027340244 0 -0.02482341450217233 -9.690722467883905e-05 0 -0.024575983291059072 -0.00010463729494688192 0 -0.024714087798070463 -5.6851526753361953e-05 0 -0.024843442835751683 -5.7051310921751656e-05 0 -0.02482341450217233 -9.690722467883905e-05 0 -0.024714087798070463 -5.6851526753361953e-05 0 -0.024714087798070463 -5.6851526753361953e-05 0 -0.024662409624832918 2.1755649526108057e-05 0 -0.024576782266785328 -2.4671644924860282e-05 0 -0.024575983291059072 -0.00010463729494688192 0 -0.024714087798070463 -5.6851526753361953e-05 0 -0.024576782266785328 -2.4671644924860282e-05 0 -0.024766637800130446 1.0556753384381529e-05 0 -0.024662409624832918 2.1755649526108057e-05 0 -0.024692398475056682 9.150203851621724e-05 0 -0.024766637800130446 1.0556753384381529e-05 0 -0.024714087798070463 -5.6851526753361953e-05 0 -0.024662409624832918 2.1755649526108057e-05 0 -0.024662409624832918 2.1755649526108057e-05 0 -0.024576782266785328 -2.4671644924860282e-05 0 -0.024556842784846902 7.2867936060592135e-05 0 -0.024608947799833927 0.00019646747156781805 0 -0.024556842784846902 7.2867936060592135e-05 0 -0.024692398475056682 9.150203851621724e-05 0 -0.024662409624832918 2.1755649526108057e-05 0 -0.024556842784846902 7.2867936060592135e-05 0 -0.024692398475056682 9.150203851621724e-05 0 -0.024576782266785328 -2.4671644924860282e-05 0 -0.024556842784846902 7.2867936060592135e-05 0 -0.024366161282181466 -4.6204632784315295e-06 0 -0.024439643142118602 0.00018957236392393834 0 -0.024556842784846902 7.2867936060592135e-05 0 -0.024366161282181466 -4.6204632784315295e-06 0 -0.024439643142118602 0.00018957236392393834 0 -0.02417892517263252 0.00014801713684638694 0 -0.024366161282181466 -4.6204632784315295e-06 0 -0.02417892517263252 0.00014801713684638694 0 -0.024366161282181466 -4.6204632784315295e-06 0 -0.024104396600343431 -4.0468063598928315e-05 0 -0.02417892517263252 0.00014801713684638694 0 -0.024104396600343431 -4.0468063598928315e-05 0 -0.023843377730282986 8.5369427154073846e-05 0 -0.024104396600343431 -4.0468063598928315e-05 0 -0.023739354048092201 -0.00011309924549747487 0 -0.023843377730282986 8.5369427154073846e-05 0 -0.024104396600343431 -4.0468063598928315e-05 0 -0.023739354048092201 -0.00011309924549747487 0 -0.024280551564979463 -0.00014034553027340244 0 -0.024366161282181466 -4.6204632784315295e-06 0 -0.024104396600343431 -4.0468063598928315e-05 0 -0.024280551564979463 -0.00014034553027340244 0 -0.023739354048092201 -0.00011309924549747487 0 -0.022835978011576517 -3.8797113546330353e-05 0 -0.023843377730282986 8.5369427154073846e-05 0 -0.023739354048092201 -0.00011309924549747487 0 -0.023989317492253911 -0.000153678286452439 0 -0.023343748467335012 -0.00011399520629306611 0 -0.023739354048092201 -0.00011309924549747487 0 -0.023989317492253911 -0.000153678286452439 0 -0.024280551564979463 -0.00014034553027340244 0 -0.023989317492253911 -0.000153678286452439 0 -0.024280551564979463 -0.00014034553027340244 0 -0.024466916906746867 -0.00014716976531187125 0 -0.024655772019662903 -0.00013349196046097116 0 -0.024280551564979463 -0.00014034553027340244 0 -0.024466916906746867 -0.00014716976531187125 0 -0.023989317492253911 -0.000153678286452439 0 -0.024466916906746867 -0.00014716976531187125 0 -0.024416800136499141 -0.00014659954661420751 0 -0.024466916906746867 -0.00014716976531187125 0 -0.024999388007466095 -1.6509265244632412e-07 0 -0.024416800136499141 -0.00014659954661420751 0 -0.024999589679408168 -1.2008738287108179e-07 0 -0.024655772019662903 -0.00013349196046097116 0 -0.024999388007466095 -1.6509265244632412e-07 0 -0.024655772019662903 -0.00013349196046097116 0 -0.024466916906746867 -0.00014716976531187125 0 -0.024999388007466095 -1.6509265244632412e-07 0 -0.024436441434560748 -2.5932500946814419e-08 0 -0.024999550715983879 -1.3602259975885002e-07 0 -0.0235093186702536 2.0395179764905178e-07 0 -0.024178374231224573 -0.00012754450823123032 0 -0.024998198131677894 -3.9409550995154048e-07 0 -0.024416800136499141 -0.00014659954661420751 0 -0.024436441434560748 -2.5932500946814419e-08 0 -0.024999550715983879 -1.3602259975885002e-07 0 -0.024999883851092298 6.7297700677499126e-08 0 -0.024294859540799185 -5.8068223771608042e-05 0 -0.024999567194170853 -3.7563740003972844e-08 0 -0.024999388007466095 -1.6509265244632412e-07 0 -0.024998198131677894 -3.9409550995154048e-07 0 -0.024416800136499141 -0.00014659954661420751 0 -0.023989317492253911 -0.000153678286452439 0 -0.024416800136499141 -0.00014659954661420751 0 -0.023815076974154043 -0.00011276342733939754 0 -0.024178374231224573 -0.00012754450823123032 0 -0.024416800136499141 -0.00014659954661420751 0 -0.023815076974154043 -0.00011276342733939754 0 -0.024178374231224573 -0.00012754450823123032 0 -0.023815076974154043 -0.00011276342733939754 0 -0.023508003742250514 -6.1249090268621579e-07 0 -0.024294859540799185 -5.8068223771608042e-05 0 -0.02350879002320214 -1.1208151279026814e-08 0 -0.023815076974154043 -0.00011276342733939754 0 -0.023508003742250514 -6.1249090268621579e-07 0 -0.023216997420267178 -7.444048720531785e-05 0 -0.023508003742250514 -6.1249090268621579e-07 0 -0.023216997420267178 -7.444048720531785e-05 0 -0.022209330047101919 -3.0247513314523321e-09 0 -0.023815076974154043 -0.00011276342733939754 0 -0.023216997420267178 -7.444048720531785e-05 0 -0.023343748467335012 -0.00011399520629306611 0 -0.023989317492253911 -0.000153678286452439 0 -0.023815076974154043 -0.00011276342733939754 0 -0.023343748467335012 -0.00011399520629306611 0 -0.023739354048092201 -0.00011309924549747487 0 -0.023343748467335012 -0.00011399520629306611 0 -0.022835978011576517 -3.8797113546330353e-05 0 -0.023216997420267178 -7.444048720531785e-05 0 -0.023343748467335012 -0.00011399520629306611 0 -0.022209330047101919 -3.0247513314523321e-09 0 -0.023343748467335012 -0.00011399520629306611 0 -0.022209330047101919 -3.0247513314523321e-09 0 -0.022835978011576517 -3.8797113546330353e-05 0 -0.022209330047101919 -3.0247513314523321e-09 0 -0.02090957564383366 -5.1393139231463125e-07 0 -0.022835978011576517 -3.8797113546330353e-05 0 -0.02090957564383366 -5.1393139231463125e-07 0 -0.021908873677001048 0.00022203588825758693 0 -0.022835978011576517 -3.8797113546330353e-05 0 -0.02090957564383366 -5.1393139231463125e-07 0 -0.021908873677001048 0.00022203588825758693 0 -0.019612206102452394 2.7751618161115399e-06 0 -0.021908873677001048 0.00022203588825758693 0 -0.023111708986385301 0.00036751816597591042 0 -0.021961805492442723 0.0010027521218395675 0 -0.021908873677001048 0.00022203588825758693 0 -0.022835978011576517 -3.8797113546330353e-05 0 -0.023111708986385301 0.00036751816597591042 0 -0.022835978011576517 -3.8797113546330353e-05 0 -0.023843377730282986 8.5369427154073846e-05 0 -0.023111708986385301 0.00036751816597591042 0 -0.023843377730282986 8.5369427154073846e-05 0 -0.023952718764163251 0.00037028034085168966 0 -0.023111708986385301 0.00036751816597591042 0 -0.02417892517263252 0.00014801713684638694 0 -0.023843377730282986 8.5369427154073846e-05 0 -0.023952718764163251 0.00037028034085168966 0 -0.023799987271349382 0.00071844534354604118 0 -0.023111708986385301 0.00036751816597591042 0 -0.023336867678210367 0.0011074177429044533 0 -0.023952718764163251 0.00037028034085168966 0 -0.023799987271349382 0.00071844534354604118 0 -0.023111708986385301 0.00036751816597591042 0 -0.024184213690355987 0.00058090296775989989 0 -0.023952718764163251 0.00037028034085168966 0 -0.023799987271349382 0.00071844534354604118 0 -0.017845436576659175 0.00035090663610794172 0 -0.017972933829369805 9.8455969642346984e-05 0 -0.018237608129667387 0.0003863306388193576 0 -0.020702852068051114 0.00068838607835260558 0 -0.02012612832878035 0.00062225411730694479 0 -0.023111708986385301 0.00036751816597591042 0 -0.023336867678210367 0.0011074177429044533 0 -0.021961805492442723 0.0010027521218395675 0 -0.020391288404780959 0.00096716186424919664 0 -0.016882583620302507 0.00017522868474871507 0 -0.01763170948057196 0.00037546806769385069 0 -0.017845436576659175 0.00035090663610794172 0 -0.017765547269114824 0.00014262618153144978 0 -0.024209887266644664 0.00097606010432573669 0 -0.023799987271349382 0.00071844534354604118 0 -0.023336867678210367 0.0011074177429044533 0 -0.020391288404780959 0.00096716186424919664 0 -0.020702852068051114 0.00068838607835260558 0 -0.016865196109798985 9.1112738222986028e-05 0 -0.016914500940371033 0.00013446374720553714 0 -0.016893144825180985 0.00013647149423085184 0 -0.017845436576659175 0.00035090663610794172 0 -0.017765547269114824 0.00014262618153144978 0 -0.017972933829369805 9.8455969642346984e-05 0 -0.017914754484245697 -0.00012465024188084683 0 -0.017765547269114824 0.00014262618153144978 0 -0.017972933829369805 9.8455969642346984e-05 0 -0.018139622032676425 -0.00010816396211707174 0 -0.017972933829369805 9.8455969642346984e-05 0 -0.018237608129667387 0.0003863306388193576 0 -0.018139622032676425 -0.00010816396211707174 0 -0.019607183687798447 1.2668292931872747e-06 0 -0.018237608129667387 0.0003863306388193576 0 -0.018151482708172628 -6.8825396652038721e-07 0 -0.018139622032676425 -0.00010816396211707174 0 -0.019607183687798447 1.2668292931872747e-06 0 -0.021908873677001048 0.00022203588825758693 0 -0.019612206102452394 2.7751618161115399e-06 0 -0.021961805492442723 0.0010027521218395675 0 -0.019610062267544328 3.0246298843416003e-07 0 -0.02012612832878035 0.00062225411730694479 0 -0.013593237578703858 0.0041571825911361293 0 -0.012805351011538639 0.0040567225336592058 0 -0.013394292291777901 0.0036235700654004212 0 -0.013593237578703858 0.0041571825911361293 0 -0.013394292291777901 0.0036235700654004212 0 -0.014163546995089401 0.0039959363238684775 0 -0.013593237578703858 0.0041571825911361293 0 -0.014151700749941116 0.0045227523022059579 0 -0.014163546995089401 0.0039959363238684775 0 -0.013593237578703858 0.0041571825911361293 0 -0.014151700749941116 0.0045227523022059579 0 -0.013377754489329305 0.0045761190993850861 0 -0.014151700749941116 0.0045227523022059579 0 -0.013377754489329305 0.0045761190993850861 0 -0.013831358620946116 0.0048260453661681654 0 -0.013593237578703858 0.0041571825911361293 0 -0.013377754489329305 0.0045761190993850861 0 -0.012805351011538639 0.0040567225336592058 0 -0.013377754489329305 0.0045761190993850861 0 -0.012443388423167171 0.0046797568719342949 0 -0.012805351011538639 0.0040567225336592058 0 -0.020694955648492695 0.0022177511824964741 0 -0.020686331713139189 0.0023407503759350838 0 -0.02054196645679994 0.0021046732696774579 0 -0.01576958115702556 0.0033773772744367025 0 -0.013959254168603863 0.00049852434440953504 0 -0.01391230148601592 0.0017137677669504491 0 -0.017121134077536165 0.0030564493661058233 0 -0.012291500676126091 0.0014222041197795511 0 -0.017121134077536165 0.0030564493661058233 0 -0.01478589402585246 0.00075254884186266055 0 -0.011859773625806289 0.0040302276316019859 0 -0.012805351011538639 0.0040567225336592058 0 -0.012516814787895247 0.0034038855462827106 0 -0.012443388423167171 0.0046797568719342949 0 -0.011859773625806289 0.0040302276316019859 0 -0.012805351011538639 0.0040567225336592058 0 -0.012291500676126091 0.0014222041197795511 0 -0.01478589402585246 0.00075254884186266055 0 -0.012805351011538639 0.0040567225336592058 0 -0.012516814787895247 0.0034038855462827106 0 -0.013394292291777901 0.0036235700654004212 0 -0.012291500676126091 0.0014222041197795511 0 -0.0098397327008281597 0.0018376001809207302 0 -0.011859773625806289 0.0040302276316019859 0 -0.012516814787895247 0.0034038855462827106 0 -0.011572857939701522 0.0024881250678406145 0 -0.012516814787895247 0.0034038855462827106 0 -0.012935515939250047 0.0027218179075278919 0 -0.011572857939701522 0.0024881250678406145 0 -0.012935515939250047 0.0027218179075278919 0 -0.013394292291777901 0.0036235700654004212 0 -0.014756737953246139 0.0032149310329827076 0 -0.013394292291777901 0.0036235700654004212 0 -0.014756737953246139 0.0032149310329827076 0 -0.014163546995089401 0.0039959363238684775 0 -0.012516814787895247 0.0034038855462827106 0 -0.012935515939250047 0.0027218179075278919 0 -0.013394292291777901 0.0036235700654004212 0 -0.014756737953246139 0.0032149310329827076 0 -0.014163546995089401 0.0039959363238684775 0 -0.014761432921666097 0.0042598246848734762 0 -0.0114155451297283 0.0012813597194619622 0 -0.011757160778760932 0.0030174136538511824 0 -0.012536921975862978 0.0015162782333051853 0 -0.010384940412504685 0.0011902482709062348 0 -0.0114155451297283 0.0012813597194619622 0 -0.011757160778760932 0.0030174136538511824 0 -0.010384940412504685 0.0011902482709062348 0 -0.0114155451297283 0.0012813597194619622 0 -0.010925815204627322 0.00062675237844230869 0 -0.014756737953246139 0.0032149310329827076 0 -0.015179853651301915 0.0044809989881069226 0 -0.014761432921666097 0.0042598246848734762 0 -0.012583823114954575 0.0022324144090957918 0 -0.01348417026119857 0.0036790410775947528 0 -0.015179853651301915 0.0044809989881069226 0 -0.014761432921666097 0.0042598246848734762 0 -0.014995653160501514 0.0047649547642928305 0 -0.015179853651301915 0.0044809989881069226 0 -0.01494188916485231 0.0047472261743552848 0 -0.014995653160501514 0.0047649547642928305 0 -0.014151700749941116 0.0045227523022059579 0 -0.014163546995089401 0.0039959363238684775 0 -0.014761432921666097 0.0042598246848734762 0 -0.014761432921666097 0.0042598246848734762 0 -0.014721800131193201 0.0048684706522603505 0 -0.014995653160501514 0.0047649547642928305 0 -0.014151700749941116 0.0045227523022059579 0 -0.014761432921666097 0.0042598246848734762 0 -0.014721800131193201 0.0048684706522603505 0 -0.014151700749941116 0.0045227523022059579 0 -0.014721800131193201 0.0048684706522603505 0 -0.014232636692983637 0.0049687540771970367 0 -0.014721800131193201 0.0048684706522603505 0 -0.015036684702531661 0.0050714666532073417 0 -0.014995653160501514 0.0047649547642928305 0 -0.015036684702531661 0.0050714666532073417 0 -0.014870595024301457 0.0053078437584004896 0 -0.015216179439332853 0.005264553779522764 0 -0.014721800131193201 0.0048684706522603505 0 -0.015036684702531661 0.0050714666532073417 0 -0.014870595024301457 0.0053078437584004896 0 -0.014721800131193201 0.0048684706522603505 0 -0.014870595024301457 0.0053078437584004896 0 -0.014232636692983637 0.0049687540771970367 0 -0.01494188916485231 0.0047472261743552848 0 -0.014995653160501514 0.0047649547642928305 0 -0.015019398490300965 0.0048943375357343418 0 -0.015036684702531661 0.0050714666532073417 0 -0.014995653160501514 0.0047649547642928305 0 -0.015019398490300965 0.0048943375357343418 0 -0.015019398490300965 0.0048943375357343418 0 -0.015060402053667267 0.005030458802794663 0 -0.015190670608813066 0.0051467588164987865 0 -0.015036684702531661 0.0050714666532073417 0 -0.015019398490300965 0.0048943375357343418 0 -0.015190670608813066 0.0051467588164987865 0 -0.01494188916485231 0.0047472261743552848 0 -0.015019398490300965 0.0048943375357343418 0 -0.015060402053667267 0.005030458802794663 0 -0.01494188916485231 0.0047472261743552848 0 -0.015060402053667267 0.005030458802794663 0 -0.014893028240514831 0.0049533040841115454 0 -0.015060402053667267 0.005030458802794663 0 -0.015135818557707155 0.0049903482132801838 0 -0.014893028240514831 0.0049533040841115454 0 -0.015060402053667267 0.005030458802794663 0 -0.015190670608813066 0.0051467588164987865 0 -0.015396175357566043 0.0050655138936678912 0 -0.015060402053667267 0.005030458802794663 0 -0.015135818557707155 0.0049903482132801838 0 -0.015396175357566043 0.0050655138936678912 0 -0.015313421386907016 0.0052620799732167678 0 -0.015216179439332853 0.005264553779522764 0 -0.015652642900258831 0.0052537895728705522 0 -0.015594744682359579 0.0055267681022391334 0 -0.016581298646707283 0.0045186860653321972 0 -0.014870595024301457 0.0053078437584004896 0 -0.015313421386907016 0.0052620799732167678 0 -0.015216179439332853 0.005264553779522764 0 -0.015036684702531661 0.0050714666532073417 0 -0.015216179439332853 0.005264553779522764 0 -0.015190670608813066 0.0051467588164987865 0 -0.015216179439332853 0.005264553779522764 0 -0.015353577320813289 0.0052073293308012312 0 -0.015652642900258831 0.0052537895728705522 0 -0.015216179439332853 0.005264553779522764 0 -0.015190670608813066 0.0051467588164987865 0 -0.015353577320813289 0.0052073293308012312 0 -0.015353577320813289 0.0052073293308012312 0 -0.015396175357566043 0.0050655138936678912 0 -0.015652642900258831 0.0052537895728705522 0 -0.015190670608813066 0.0051467588164987865 0 -0.015353577320813289 0.0052073293308012312 0 -0.015396175357566043 0.0050655138936678912 0 -0.016581298646707283 0.0045186860653321972 0 -0.016216017216090617 0.0046737376102797294 0 -0.020886525223855232 0.0026902697452852445 0 -0.021025315926104848 0.0026217733565714889 0 -0.020939440826452032 0.0026088492387559637 0 -0.015928413064055937 0.0055015067008872716 0 -0.015652642900258831 0.0052537895728705522 0 -0.017080573285779211 0.0045476800184350704 0 -0.021025315926104848 0.0026217733565714889 0 -0.020939440826452032 0.0026088492387559637 0 -0.020831990311182651 0.0025757775409388397 0 -0.016581298646707283 0.0045186860653321972 0 -0.017260211550410073 0.0039311524748682587 0 -0.020886525223855232 0.0026902697452852445 0 -0.020939440826452032 0.0026088492387559637 0 -0.020926980894692204 0.0024812655518439636 0 -0.014870595024301457 0.0053078437584004896 0 -0.013520305024358191 0.0052885121049204356 0 -0.014232636692983637 0.0049687540771970367 0 -0.014870595024301457 0.0053078437584004896 0 -0.014650053045078324 0.0059278492541190641 0 -0.013520305024358191 0.0052885121049204356 0 -0.020939440826452032 0.0026088492387559637 0 -0.020926980894692204 0.0024812655518439636 0 -0.020811523955501749 0.0024819187081181787 0 -0.013377754489329305 0.0045761190993850861 0 -0.013520305024358191 0.0052885121049204356 0 -0.013831358620946116 0.0048260453661681654 0 -0.013520305024358191 0.0052885121049204356 0 -0.014232636692983637 0.0049687540771970367 0 -0.013831358620946116 0.0048260453661681654 0 -0.014151700749941116 0.0045227523022059579 0 -0.014232636692983637 0.0049687540771970367 0 -0.013831358620946116 0.0048260453661681654 0 -0.020686331713139189 0.0023407503759350838 0 -0.020604172913173249 0.0024361520817798186 0 -0.02054196645679994 0.0021046732696774579 0 -0.020694955648492695 0.0022177511824964741 0 -0.020686331713139189 0.0023407503759350838 0 -0.020798651600385177 0.0023931555301494388 0 -0.017121134077536165 0.0030564493661058233 0 -0.019607441914648114 0.0031801032968346754 0 -0.017121134077536165 0.0030564493661058233 0 -0.017260211550410073 0.0039311524748682587 0 -0.013377754489329305 0.0045761190993850861 0 -0.012443388423167171 0.0046797568719342949 0 -0.013520305024358191 0.0052885121049204356 0 -0.020698507038830839 0.0022200897949653424 0 -0.020926980894692204 0.0024812655518439636 0 -0.020798651600385177 0.0023931555301494388 0 -0.020926980894692204 0.0024812655518439636 0 -0.020798651600385177 0.0023931555301494388 0 -0.020811523955501749 0.0024819187081181787 0 -0.020686331713139189 0.0023407503759350838 0 -0.020798651600385177 0.0023931555301494388 0 -0.020811523955501749 0.0024819187081181787 0 -0.020686331713139189 0.0023407503759350838 0 -0.020811523955501749 0.0024819187081181787 0 -0.020604172913173249 0.0024361520817798186 0 -0.020811523955501749 0.0024819187081181787 0 -0.020831990311182651 0.0025757775409388397 0 -0.020604172913173249 0.0024361520817798186 0 -0.020831990311182651 0.0025757775409388397 0 -0.020635474594336064 0.0026965699350372982 0 -0.020604172913173249 0.0024361520817798186 0 -0.021717894142043316 0.0027475844195442357 0 -0.019519575580259598 0.0023697722200902282 0 -0.021025315926104848 0.0026217733565714889 0 -0.020831990311182651 0.0025757775409388397 0 -0.020635474594336064 0.0026965699350372982 0 -0.020939440826452032 0.0026088492387559637 0 -0.020811523955501749 0.0024819187081181787 0 -0.020831990311182651 0.0025757775409388397 0 -0.022031672047656648 0.0025230528206813901 0 -0.022935013187254917 0.0026044970805496957 0 -0.022380230583900363 0.0022440483008257192 0 -0.019519575580259598 0.0023697722200902282 0 -0.017820702940506531 0.0011943364271787904 0 -0.013736963338290496 8.2169190119768418e-05 0 -0.013696539373741441 5.1970659256604933e-05 0 -0.013694510238899249 6.0025231904438255e-05 0 -0.019519575580259598 0.0023697722200902282 0 -0.017152130139764674 0.0011314109692988385 0 -0.013736963338290496 8.2169190119768418e-05 0 -0.013696539373741441 5.1970659256604933e-05 0 -0.013705947891929207 3.1286028331418766e-05 0 -0.013705947891929207 3.1286028331418766e-05 0 -0.013682159266016986 3.5820491960165055e-05 0 -0.013688345507838255 2.3355678920620395e-05 0 -0.013696539373741441 5.1970659256604933e-05 0 -0.013705947891929207 3.1286028331418766e-05 0 -0.013682159266016986 3.5820491960165055e-05 0 -0.013696539373741441 5.1970659256604933e-05 0 -0.013682159266016986 3.5820491960165055e-05 0 -0.013668904724287898 4.5272042200305272e-05 0 -0.013682159266016986 3.5820491960165055e-05 0 -0.013658435131214119 3.2734984696590362e-05 0 -0.013668904724287898 4.5272042200305272e-05 0 -0.013682159266016986 3.5820491960165055e-05 0 -0.013658435131214119 3.2734984696590362e-05 0 -0.013688345507838255 2.3355678920620395e-05 0 -0.013658435131214119 3.2734984696590362e-05 0 -0.013688345507838255 2.3355678920620395e-05 0 -0.013676875642248534 2.0570887666115103e-05 0 -0.013658435131214119 3.2734984696590362e-05 0 -0.013656620364007388 2.6916899967805145e-05 0 -0.013635302152997951 3.6443259385386369e-05 0 -0.013658435131214119 3.2734984696590362e-05 0 -0.013676875642248534 2.0570887666115103e-05 0 -0.013656620364007388 2.6916899967805145e-05 0 -0.013658435131214119 3.2734984696590362e-05 0 -0.013626229013144539 4.2890774379723225e-05 0 -0.013635302152997951 3.6443259385386369e-05 0 -0.013658435131214119 3.2734984696590362e-05 0 -0.013644915793296995 4.3538919274624259e-05 0 -0.013626229013144539 4.2890774379723225e-05 0 -0.013658435131214119 3.2734984696590362e-05 0 -0.013644915793296995 4.3538919274624259e-05 0 -0.013668904724287898 4.5272042200305272e-05 0 -0.013655366887863712 4.9048092994268368e-05 0 -0.013694510238899249 6.0025231904438255e-05 0 -0.013668904724287898 4.5272042200305272e-05 0 -0.013694510238899249 6.0025231904438255e-05 0 -0.013662545387524178 3.6493793598632818e-05 0 -0.013649122966573318 4.776447004804967e-05 0 -0.013644915793296995 4.3538919274624259e-05 0 -0.013655366887863712 4.9048092994268368e-05 0 -0.013624628143087554 4.9107726938030119e-05 0 -0.017152130139764674 0.0011314109692988385 0 -0.01478589402585246 0.00075254884186266055 0 -0.013644915793296995 4.3538919274624259e-05 0 -0.013655366887863712 4.9048092994268368e-05 0 -0.013668904724287898 4.5272042200305272e-05 0 -0.013655366887863712 4.9048092994268368e-05 0 -0.013694510238899249 6.0025231904438255e-05 0 -0.013649122966573318 4.776447004804967e-05 0 -0.013696539373741441 5.1970659256604933e-05 0 -0.013694510238899249 6.0025231904438255e-05 0 -0.013668904724287898 4.5272042200305272e-05 0 -0.01927232403519475 0.0001970853394957435 0 -0.019559593577916101 0.00094673671445984285 0 -0.024039281738493491 0.0023208423543300731 0 -0.024010251088270814 0.0021124645418915348 0 -0.024159242451482453 0.0022555651629661932 0 -0.024039281738493491 0.0023208423543300731 0 -0.023878885682540082 0.0024140768103163698 0 -0.024010251088270814 0.0021124645418915348 0 -0.024049347414788314 0.0024455148276458457 0 -0.024039281738493491 0.0023208423543300731 0 -0.024159242451482453 0.0022555651629661932 0 -0.024049347414788314 0.0024455148276458457 0 -0.024039281738493491 0.0023208423543300731 0 -0.023878885682540082 0.0024140768103163698 0 -0.013754226577940811 -4.488278911509526e-06 0 -0.013748065092661705 -5.7558600257742444e-06 0 -0.013751254632451087 -7.8453507653044672e-06 0 -0.013754226577940811 -4.488278911509526e-06 0 -0.013743004766441318 -2.4797357444923229e-06 0 -0.013730152556413489 4.3792015084297721e-06 0 -0.013754226577940811 -4.488278911509526e-06 0 -0.013751254632451087 -7.8453507653044672e-06 0 -0.013758686764431233 -1.3518378136337113e-05 0 -0.013754226577940811 -4.488278911509526e-06 0 -0.013748065092661705 -5.7558600257742444e-06 0 -0.013743004766441318 -2.4797357444923229e-06 0 -0.013730152556413489 4.3792015084297721e-06 0 -0.013729504534615824 -1.8322733042254512e-08 0 -0.013738083476092487 -2.2444548636792536e-06 0 -0.013743004766441318 -2.4797357444923229e-06 0 -0.013730152556413489 4.3792015084297721e-06 0 -0.013738083476092487 -2.2444548636792536e-06 0 -0.013748065092661705 -5.7558600257742444e-06 0 -0.013743004766441318 -2.4797357444923229e-06 0 -0.013738083476092487 -2.2444548636792536e-06 0 -0.013705947891929207 3.1286028331418766e-05 0 -0.013754226577940811 -4.488278911509526e-06 0 -0.013730152556413489 4.3792015084297721e-06 0 -0.022935013187254917 0.0026044970805496957 0 -0.023702212557011691 0.0025885235891216136 0 -0.023326944369776621 0.002524679099561767 0 -0.017820702940506531 0.0011943364271787904 0 -0.019559593577916101 0.00094673671445984285 0 -0.013705947891929207 3.1286028331418766e-05 0 -0.013730152556413489 4.3792015084297721e-06 0 -0.013710920300024524 1.1312320018325912e-05 0 -0.019559593577916101 0.00094673671445984285 0 -0.024433307320103369 0.002710651252280222 0 -0.022935013187254917 0.0026044970805496957 0 -0.023326944369776621 0.002524679099561767 0 -0.023076260327385859 0.0022127932401757818 0 -0.013705947891929207 3.1286028331418766e-05 0 -0.013688345507838255 2.3355678920620395e-05 0 -0.013710920300024524 1.1312320018325912e-05 0 -0.013688345507838255 2.3355678920620395e-05 0 -0.013697388307410442 1.2589326497174023e-05 0 -0.013710920300024524 1.1312320018325912e-05 0 -0.013688345507838255 2.3355678920620395e-05 0 -0.013697388307410442 1.2589326497174023e-05 0 -0.013676875642248534 2.0570887666115103e-05 0 -0.013676875642248534 2.0570887666115103e-05 0 -0.013700773699601373 8.318274991813748e-06 0 -0.013671124604123001 2.0575979170910344e-05 0 -0.013697388307410442 1.2589326497174023e-05 0 -0.013676875642248534 2.0570887666115103e-05 0 -0.013700773699601373 8.318274991813748e-06 0 -0.013676875642248534 2.0570887666115103e-05 0 -0.013656620364007388 2.6916899967805145e-05 0 -0.013671124604123001 2.0575979170910344e-05 0 -0.013700773699601373 8.318274991813748e-06 0 -0.013706495584574889 8.8955407355018076e-06 0 -0.013671124604123001 2.0575979170910344e-05 0 -0.013700773699601373 8.318274991813748e-06 0 -0.013721322139348128 5.5293093298663023e-07 0 -0.013706495584574889 8.8955407355018076e-06 0 -0.013700773699601373 8.318274991813748e-06 0 -0.013724534209994624 -4.5626313006219976e-07 0 -0.013721322139348128 5.5293093298663023e-07 0 -0.013700773699601373 8.318274991813748e-06 0 -0.013712404940887383 5.8006189050880909e-06 0 -0.013724534209994624 -4.5626313006219976e-07 0 -0.013712404940887383 5.8006189050880909e-06 0 -0.013710920300024524 1.1312320018325912e-05 0 -0.013729504534615824 -1.8322733042254512e-08 0 -0.013712404940887383 5.8006189050880909e-06 0 -0.013729504534615824 -1.8322733042254512e-08 0 -0.013724534209994624 -4.5626313006219976e-07 0 -0.013730152556413489 4.3792015084297721e-06 0 -0.013710920300024524 1.1312320018325912e-05 0 -0.013729504534615824 -1.8322733042254512e-08 0 -0.013697388307410442 1.2589326497174023e-05 0 -0.013700773699601373 8.318274991813748e-06 0 -0.013712404940887383 5.8006189050880909e-06 0 -0.013697388307410442 1.2589326497174023e-05 0 -0.013712404940887383 5.8006189050880909e-06 0 -0.013710920300024524 1.1312320018325912e-05 0 -0.014396783084083696 -0.0010435138227696326 0 -0.014673502979863426 -0.00098273185482336697 0 -0.014008642571785414 -0.0017945950936306089 0 -0.019559593577916101 0.00094673671445984285 0 -0.012958391319983735 -0.0013877492592164378 0 -0.013754226577940811 -4.488278911509526e-06 0 -0.013758686764431233 -1.3518378136337113e-05 0 -0.013780865180139644 -2.9832909145257794e-05 0 -0.013729504534615824 -1.8322733042254512e-08 0 -0.013738083476092487 -2.2444548636792536e-06 0 -0.01374217936405709 -6.1525224474079605e-06 0 -0.013748065092661705 -5.7558600257742444e-06 0 -0.013751254632451087 -7.8453507653044672e-06 0 -0.01374217936405709 -6.1525224474079605e-06 0 -0.013748065092661705 -5.7558600257742444e-06 0 -0.013738083476092487 -2.2444548636792536e-06 0 -0.01374217936405709 -6.1525224474079605e-06 0 -0.01374217936405709 -6.1525224474079605e-06 0 -0.013739228232677534 -6.5513686425486775e-06 0 -0.013758686764431233 -1.3518378136337113e-05 0 -0.013751254632451087 -7.8453507653044672e-06 0 -0.01374217936405709 -6.1525224474079605e-06 0 -0.013758686764431233 -1.3518378136337113e-05 0 -0.013729504534615824 -1.8322733042254512e-08 0 -0.01374217936405709 -6.1525224474079605e-06 0 -0.013724534209994624 -4.5626313006219976e-07 0 -0.01374217936405709 -6.1525224474079605e-06 0 -0.013724534209994624 -4.5626313006219976e-07 0 -0.013739228232677534 -6.5513686425486775e-06 0 -0.013724534209994624 -4.5626313006219976e-07 0 -0.013721322139348128 5.5293093298663023e-07 0 -0.013739228232677534 -6.5513686425486775e-06 0 -0.013721322139348128 5.5293093298663023e-07 0 -0.013739342908033041 -6.2221354054513183e-06 0 -0.013706495584574889 8.8955407355018076e-06 0 -0.013721322139348128 5.5293093298663023e-07 0 -0.013739342908033041 -6.2221354054513183e-06 0 -0.013739228232677534 -6.5513686425486775e-06 0 -0.013739342908033041 -6.2221354054513183e-06 0 -0.013739228232677534 -6.5513686425486775e-06 0 -0.013750738163308471 -1.1220452002515797e-05 0 -0.013750738163308471 -1.1220452002515797e-05 0 -0.013762127521038812 -1.6484378663855859e-05 0 -0.013758686764431233 -1.3518378136337113e-05 0 -0.013739228232677534 -6.5513686425486775e-06 0 -0.013750738163308471 -1.1220452002515797e-05 0 -0.013758686764431233 -1.3518378136337113e-05 0 -0.013762127521038812 -1.6484378663855859e-05 0 -0.013758686764431233 -1.3518378136337113e-05 0 -0.013780865180139644 -2.9832909145257794e-05 0 -0.013739342908033041 -6.2221354054513183e-06 0 -0.013762127521038812 -1.6484378663855859e-05 0 -0.013747259198958337 -4.5207921438911676e-06 0 -0.013739342908033041 -6.2221354054513183e-06 0 -0.013750738163308471 -1.1220452002515797e-05 0 -0.013762127521038812 -1.6484378663855859e-05 0 -0.013782336184957474 6.9573049052540961e-06 0 -0.013722704252758141 3.2759949118775803e-05 0 -0.013838230741995717 3.742356796021755e-05 0 -0.013782336184957474 6.9573049052540961e-06 0 -0.013747259198958337 -4.5207921438911676e-06 0 -0.013722704252758141 3.2759949118775803e-05 0 -0.013782336184957474 6.9573049052540961e-06 0 -0.013768229111233599 -1.6332022970370389e-05 0 -0.013747259198958337 -4.5207921438911676e-06 0 -0.013762127521038812 -1.6484378663855859e-05 0 -0.013768229111233599 -1.6332022970370389e-05 0 -0.013780865180139644 -2.9832909145257794e-05 0 -0.013762127521038812 -1.6484378663855859e-05 0 -0.013768229111233599 -1.6332022970370389e-05 0 -0.013747259198958337 -4.5207921438911676e-06 0 -0.013739342908033041 -6.2221354054513183e-06 0 -0.013747259198958337 -4.5207921438911676e-06 0 -0.013706495584574889 8.8955407355018076e-06 0 -0.013747259198958337 -4.5207921438911676e-06 0 -0.013706495584574889 8.8955407355018076e-06 0 -0.013722704252758141 3.2759949118775803e-05 0 -0.013706495584574889 8.8955407355018076e-06 0 -0.013722704252758141 3.2759949118775803e-05 0 -0.013656347333575203 3.987515394766416e-05 0 -0.013706495584574889 8.8955407355018076e-06 0 -0.013656347333575203 3.987515394766416e-05 0 -0.013671124604123001 2.0575979170910344e-05 0 -0.013656347333575203 3.987515394766416e-05 0 -0.013671124604123001 2.0575979170910344e-05 0 -0.01363206433193976 3.8164911359896467e-05 0 -0.013656620364007388 2.6916899967805145e-05 0 -0.013671124604123001 2.0575979170910344e-05 0 -0.01363206433193976 3.8164911359896467e-05 0 -0.013656347333575203 3.987515394766416e-05 0 -0.01363206433193976 3.8164911359896467e-05 0 -0.013592652039118918 6.5537498320304366e-05 0 -0.013656347333575203 3.987515394766416e-05 0 -0.013592652039118918 6.5537498320304366e-05 0 -0.013634803121333952 9.8293230396884773e-05 0 -0.013592652039118918 6.5537498320304366e-05 0 -0.013544867423638423 0.00012729565279698176 0 -0.013634803121333952 9.8293230396884773e-05 0 -0.013544867423638423 0.00012729565279698176 0 -0.013634803121333952 9.8293230396884773e-05 0 -0.013595620350695064 0.00023090125558251535 0 -0.013722704252758141 3.2759949118775803e-05 0 -0.013656347333575203 3.987515394766416e-05 0 -0.013634803121333952 9.8293230396884773e-05 0 -0.013722704252758141 3.2759949118775803e-05 0 -0.013634803121333952 9.8293230396884773e-05 0 -0.013729136859265949 0.0001243755913161273 0 -0.013634803121333952 9.8293230396884773e-05 0 -0.013729136859265949 0.0001243755913161273 0 -0.013595620350695064 0.00023090125558251535 0 -0.013722704252758141 3.2759949118775803e-05 0 -0.013729136859265949 0.0001243755913161273 0 -0.013838230741995717 3.742356796021755e-05 0 -0.013276565199017515 -1.4763584087736755e-05 0 -0.013279177512376054 -5.2960903917284618e-05 0 -0.013482726739950457 0.00010875063371348764 0 -0.013615065521659371 5.2727963895760543e-05 0 -0.013570559973722834 6.8238458894735098e-05 0 -0.013662545387524178 3.6493793598632818e-05 0 -0.013615065521659371 5.2727963895760543e-05 0 -0.013570559973722834 6.8238458894735098e-05 0 -0.013596307479592727 5.5997145577687362e-05 0 -0.013615065521659371 5.2727963895760543e-05 0 -0.013662545387524178 3.6493793598632818e-05 0 -0.013649122966573318 4.776447004804967e-05 0 -0.013655366887863712 4.9048092994268368e-05 0 -0.013649122966573318 4.776447004804967e-05 0 -0.013624628143087554 4.9107726938030119e-05 0 -0.013615065521659371 5.2727963895760543e-05 0 -0.013649122966573318 4.776447004804967e-05 0 -0.013624628143087554 4.9107726938030119e-05 0 -0.013615065521659371 5.2727963895760543e-05 0 -0.013624628143087554 4.9107726938030119e-05 0 -0.013596307479592727 5.5997145577687362e-05 0 -0.013644915793296995 4.3538919274624259e-05 0 -0.013624628143087554 4.9107726938030119e-05 0 -0.013626229013144539 4.2890774379723225e-05 0 -0.013626229013144539 4.2890774379723225e-05 0 -0.013602888586720407 5.185134105327382e-05 0 -0.013602096073954078 5.0394389162102173e-05 0 -0.013624628143087554 4.9107726938030119e-05 0 -0.013602888586720407 5.185134105327382e-05 0 -0.013596307479592727 5.5997145577687362e-05 0 -0.013624628143087554 4.9107726938030119e-05 0 -0.013626229013144539 4.2890774379723225e-05 0 -0.013602888586720407 5.185134105327382e-05 0 -0.013656620364007388 2.6916899967805145e-05 0 -0.01363206433193976 3.8164911359896467e-05 0 -0.013635302152997951 3.6443259385386369e-05 0 -0.013626229013144539 4.2890774379723225e-05 0 -0.013635302152997951 3.6443259385386369e-05 0 -0.013602096073954078 5.0394389162102173e-05 0 -0.01363206433193976 3.8164911359896467e-05 0 -0.013635302152997951 3.6443259385386369e-05 0 -0.013602096073954078 5.0394389162102173e-05 0 -0.013602096073954078 5.0394389162102173e-05 0 -0.013577978328331779 6.3332043478197804e-05 0 -0.013550551649936127 7.6448698984067144e-05 0 -0.01363206433193976 3.8164911359896467e-05 0 -0.013592652039118918 6.5537498320304366e-05 0 -0.013602096073954078 5.0394389162102173e-05 0 -0.013592652039118918 6.5537498320304366e-05 0 -0.013602096073954078 5.0394389162102173e-05 0 -0.013550551649936127 7.6448698984067144e-05 0 -0.013570559973722834 6.8238458894735098e-05 0 -0.013577978328331779 6.3332043478197804e-05 0 -0.013550551649936127 7.6448698984067144e-05 0 -0.013602888586720407 5.185134105327382e-05 0 -0.013596307479592727 5.5997145577687362e-05 0 -0.013577978328331779 6.3332043478197804e-05 0 -0.013602888586720407 5.185134105327382e-05 0 -0.013602096073954078 5.0394389162102173e-05 0 -0.013577978328331779 6.3332043478197804e-05 0 -0.013570559973722834 6.8238458894735098e-05 0 -0.013596307479592727 5.5997145577687362e-05 0 -0.013577978328331779 6.3332043478197804e-05 0 -0.013570559973722834 6.8238458894735098e-05 0 -0.013550551649936127 7.6448698984067144e-05 0 -0.013482726739950457 0.00010875063371348764 0 -0.013592652039118918 6.5537498320304366e-05 0 -0.013544867423638423 0.00012729565279698176 0 -0.013550551649936127 7.6448698984067144e-05 0 -0.013544867423638423 0.00012729565279698176 0 -0.013550551649936127 7.6448698984067144e-05 0 -0.013482726739950457 0.00010875063371348764 0 -0.013544867423638423 0.00012729565279698176 0 -0.013482726739950457 0.00010875063371348764 0 -0.013467900541201882 0.00025562421016817348 0 -0.012291500676126091 0.0014222041197795511 0 -0.010518279549073349 0.00024363068545944699 0 -0.0083903787001782092 0.0010275733246611508 0 -0.008191354004227441 0.00074191036747497236 0 -0.0083537089743939141 0.00079972282124164576 0 -0.013276565199017515 -1.4763584087736755e-05 0 -0.013482726739950457 0.00010875063371348764 0 -0.013391007258820262 0.00021299755050777034 0 -0.01478589402585246 0.00075254884186266055 0 -0.012969250461627474 -0.00026376077679441095 0 -0.013570559973722834 6.8238458894735098e-05 0 -0.013662545387524178 3.6493793598632818e-05 0 -0.013482726739950457 0.00010875063371348764 0 -0.0082587993607710405 0.00070925657696741938 0 -0.008191354004227441 0.00074191036747497236 0 -0.0082008191489843126 0.00065292228623210519 0 -0.0082587993607710405 0.00070925657696741938 0 -0.008191354004227441 0.00074191036747497236 0 -0.0083537089743939141 0.00079972282124164576 0 -0.0082587993607710405 0.00070925657696741938 0 -0.0082766261021774527 0.00066237279147936734 0 -0.0083537089743939141 0.00079972282124164576 0 -0.013482726739950457 0.00010875063371348764 0 -0.013391007258820262 0.00021299755050777034 0 -0.013467900541201882 0.00025562421016817348 0 -0.013391007258820262 0.00021299755050777034 0 -0.013467900541201882 0.00025562421016817348 0 -0.013327544532169944 0.00053426376806670116 0 -0.008191354004227441 0.00074191036747497236 0 -0.0082206458741531617 0.0005950974894996441 0 -0.0082008191489843126 0.00065292228623210519 0 -0.010518279549073349 0.00024363068545944699 0 -0.010819942219604891 0.00062673093639674968 0 -0.0082206458741531617 0.0005950974894996441 0 -0.0082008191489843126 0.00065292228623210519 0 -0.0081419036643826 0.00060910370790757398 0 -0.0082102541238646409 0.00064141684833026542 0 -0.0082008191489843126 0.00065292228623210519 0 -0.0081419036643826 0.00060910370790757398 0 -0.0082102541238646409 0.00064141684833026542 0 -0.0082605630083962978 0.00055071890008193277 0 -0.0082766261021774527 0.00066237279147936734 0 -0.0082102541238646409 0.00064141684833026542 0 -0.0082377539832188922 0.00066843341946751852 0 -0.0082766261021774527 0.00066237279147936734 0 -0.0082102541238646409 0.00064141684833026542 0 -0.0082377539832188922 0.00066843341946751852 0 -0.0082008191489843126 0.00065292228623210519 0 -0.0082587993607710405 0.00070925657696741938 0 -0.0082377539832188922 0.00066843341946751852 0 -0.0082766261021774527 0.00066237279147936734 0 -0.0082587993607710405 0.00070925657696741938 0 -0.0082377539832188922 0.00066843341946751852 0 -0.0082008191489843126 0.00065292228623210519 0 -0.013595620350695064 0.00023090125558251535 0 -0.013591808517999935 0.00044182984556209341 0 -0.013833608098847207 0.00021167143716500404 0 -0.013729136859265949 0.0001243755913161273 0 -0.013595620350695064 0.00023090125558251535 0 -0.013833608098847207 0.00021167143716500404 0 -0.013595620350695064 0.00023090125558251535 0 -0.013493873488583299 0.00036181107771206445 0 -0.013591808517999935 0.00044182984556209341 0 -0.013544867423638423 0.00012729565279698176 0 -0.013467900541201882 0.00025562421016817348 0 -0.013595620350695064 0.00023090125558251535 0 -0.013467900541201882 0.00025562421016817348 0 -0.013595620350695064 0.00023090125558251535 0 -0.013493873488583299 0.00036181107771206445 0 -0.013327544532169944 0.00053426376806670116 0 -0.013591808517999935 0.00044182984556209341 0 -0.013600341490393538 0.00075684468676765046 0 -0.013467900541201882 0.00025562421016817348 0 -0.013327544532169944 0.00053426376806670116 0 -0.013493873488583299 0.00036181107771206445 0 -0.013327544532169944 0.00053426376806670116 0 -0.013493873488583299 0.00036181107771206445 0 -0.013591808517999935 0.00044182984556209341 0 -0.013591808517999935 0.00044182984556209341 0 -0.013856478950341622 0.00050991755893381452 0 -0.013833608098847207 0.00021167143716500404 0 -0.013591808517999935 0.00044182984556209341 0 -0.013600341490393538 0.00075684468676765046 0 -0.013856478950341622 0.00050991755893381452 0 -0.0082206458741531617 0.0005950974894996441 0 -0.0084668746834545023 0.00078845412698721345 0 -0.0081875645319738882 0.00071892803852719475 0 -0.010819942219604891 0.00062673093639674968 0 -0.011051216014652161 0.0010076324042555536 0 -0.013327544532169944 0.00053426376806670116 0 -0.013600341490393538 0.00075684468676765046 0 -0.013405387662491648 0.0010956252274370722 0 -0.0083260192974926057 0.00099471208013696979 0 -0.0084668746834545023 0.00078845412698721345 0 -0.0081875645319738882 0.00071892803852719475 0 -0.013600341490393538 0.00075684468676765046 0 -0.013405387662491648 0.0010956252274370722 0 -0.013578617561578856 0.0010705671923059421 0 -0.013405387662491648 0.0010956252274370722 0 -0.013578617561578856 0.0010705671923059421 0 -0.013310166686439452 0.0012313428325441485 0 -0.0080679053422078543 0.00070893245776259954 0 -0.0081419036643826 0.00060910370790757398 0 -0.0081875645319738882 0.00071892803852719475 0 -0.0080679053422078543 0.00070893245776259954 0 -0.0081419036643826 0.00060910370790757398 0 -0.0079481274322700819 0.00067630866484672089 0 -0.0082102541238646409 0.00064141684833026542 0 -0.0081419036643826 0.00060910370790757398 0 -0.0082605630083962978 0.00055071890008193277 0 -0.0079968760110893031 0.00071409725354492542 0 -0.0087905763990974266 0.00068743611525028223 0 -0.0082206458741531617 0.0005950974894996441 0 -0.0081419036643826 0.00060910370790757398 0 -0.0081875645319738882 0.00071892803852719475 0 -0.0083260192974926057 0.00099471208013696979 0 -0.0081875645319738882 0.00071892803852719475 0 -0.0079830756527448261 0.00082881914587791951 0 -0.0078900957465226785 0.00090689839663742619 0 -0.0079830756527448261 0.00082881914587791951 0 -0.0079481274322700819 0.00067630866484672089 0 -0.0080679053422078543 0.00070893245776259954 0 -0.0079830756527448261 0.00082881914587791951 0 -0.0079481274322700819 0.00067630866484672089 0 -0.0080679053422078543 0.00070893245776259954 0 -0.0081875645319738882 0.00071892803852719475 0 -0.0079830756527448261 0.00082881914587791951 0 -0.0078900957465226785 0.00090689839663742619 0 -0.0080688914256203011 0.0011920113636856651 0 -0.0078551942339148469 0.0012877278966852037 0 -0.0076342350590541883 0.0010495098378491769 0 -0.0087905763990974266 0.00068743611525028223 0 -0.010784883964559209 0.00092794137811757073 0 -0.010836925546493766 0.00062949046518307827 0 -0.010519975849954795 0.00061884406892377284 0 -0.010836925546493766 0.00062949046518307827 0 -0.010598311316263693 0.00040759246665339526 0 -0.010519975849954795 0.00061884406892377284 0 -0.010784883964559209 0.00092794137811757073 0 -0.010836925546493766 0.00062949046518307827 0 -0.011222137364863943 0.00075503520694738624 0 -0.011222137364863943 0.00075503520694738624 0 -0.011092361041130155 0.00062190069206392677 0 -0.011348360411713094 0.0004900625638505925 0 -0.0095518511000436367 0.001065156323201097 0 -0.0087905763990974266 0.00068743611525028223 0 -0.010836925546493766 0.00062949046518307827 0 -0.011222137364863943 0.00075503520694738624 0 -0.011092361041130155 0.00062190069206392677 0 -0.011348360411713094 0.0004900625638505925 0 -0.010860068652135717 0.00050408967419104391 0 -0.010534651492170652 0.00034935749494121796 0 -0.0087905763990974266 0.00068743611525028223 0 -0.0098704643701366408 0.00058346254641950771 0 -0.011420724732179468 0.00055320710060822477 0 -0.011974181300650585 0.001118407944577857 0 -0.011222137364863943 0.00075503520694738624 0 -0.011309052742643889 0.00053838654797097086 0 -0.011348360411713094 0.0004900625638505925 0 -0.011309052742643889 0.00053838654797097086 0 -0.011348360411713094 0.0004900625638505925 0 -0.012113496565510478 0.0016003698715690556 0 -0.011092361041130155 0.00062190069206392677 0 -0.011348360411713094 0.0004900625638505925 0 -0.010860068652135717 0.00050408967419104391 0 -0.010836925546493766 0.00062949046518307827 0 -0.010860068652135717 0.00050408967419104391 0 -0.010598311316263693 0.00040759246665339526 0 -0.010836925546493766 0.00062949046518307827 0 -0.011092361041130155 0.00062190069206392677 0 -0.010860068652135717 0.00050408967419104391 0 -0.010860068652135717 0.00050408967419104391 0 -0.010598311316263693 0.00040759246665339526 0 -0.010534651492170652 0.00034935749494121796 0 -0.012935515939250047 0.0027218179075278919 0 -0.014756737953246139 0.0032149310329827076 0 -0.013436536728984825 0.0017726959847957945 0 -0.012935515939250047 0.0027218179075278919 0 -0.013436536728984825 0.0017726959847957945 0 -0.012113496565510478 0.0016003698715690556 0 -0.011348360411713094 0.0004900625638505925 0 -0.013436536728984825 0.0017726959847957945 0 -0.012113496565510478 0.0016003698715690556 0 -0.012935515939250047 0.0027218179075278919 0 -0.011572857939701522 0.0024881250678406145 0 -0.012113496565510478 0.0016003698715690556 0 -0.011309052742643889 0.00053838654797097086 0 -0.011572857939701522 0.0024881250678406145 0 -0.012113496565510478 0.0016003698715690556 0 -0.0098704643701366408 0.00058346254641950771 0 -0.0098397327008281597 0.0018376001809207302 0 -0.010925815204627322 0.00062675237844230869 0 -0.010565817573194202 0.0004009999041924359 0 -0.010854780795077981 0.00010651622318019433 0 -0.011603866895854449 0.00034008665344280737 0 -0.010854780795077981 0.00010651622318019433 0 -0.011342614275530205 3.1237587389065236e-05 0 -0.011603866895854449 0.00034008665344280737 0 -0.010925815204627322 0.00062675237844230869 0 -0.010854780795077981 0.00010651622318019433 0 -0.0114155451297283 0.0012813597194619622 0 -0.011603866895854449 0.00034008665344280737 0 -0.010925815204627322 0.00062675237844230869 0 -0.0114155451297283 0.0012813597194619622 0 -0.011603866895854449 0.00034008665344280737 0 -0.012536921975862978 0.0015162782333051853 0 -0.010384940412504685 0.0011902482709062348 0 -0.010925815204627322 0.00062675237844230869 0 -0.010565817573194202 0.0004009999041924359 0 -0.010384940412504685 0.0011902482709062348 0 -0.010534651492170652 0.00034935749494121796 0 -0.010565817573194202 0.0004009999041924359 0 -0.010598311316263693 0.00040759246665339526 0 -0.010534651492170652 0.00034935749494121796 0 -0.010565817573194202 0.0004009999041924359 0 -0.012583823114954575 0.0022324144090957918 0 -0.011974181300650585 0.001118407944577857 0 -0.010598311316263693 0.00040759246665339526 0 -0.010565817573194202 0.0004009999041924359 0 -0.010497674618651049 0.0002887519663136405 0 -0.010598311316263693 0.00040759246665339526 0 -0.010497674618651049 0.0002887519663136405 0 -0.010519975849954795 0.00061884406892377284 0 -0.010497674618651049 0.0002887519663136405 0 -0.010854780795077981 0.00010651622318019433 0 -0.010129208370974389 0.00038813154307515749 0 -0.010854780795077981 0.00010651622318019433 0 -0.010129208370974389 0.00038813154307515749 0 -0.0093401873994568077 0.00040277132946931859 0 -0.010565817573194202 0.0004009999041924359 0 -0.010497674618651049 0.0002887519663136405 0 -0.010854780795077981 0.00010651622318019433 0 -0.010129208370974389 0.00038813154307515749 0 -0.010083180813483068 0.00062007314241340795 0 -0.0097510899422816859 0.00058401018416096744 0 -0.010497674618651049 0.0002887519663136405 0 -0.010129208370974389 0.00038813154307515749 0 -0.010083180813483068 0.00062007314241340795 0 -0.010083180813483068 0.00062007314241340795 0 -0.0097510899422816859 0.00058401018416096744 0 -0.0093878513150001813 0.00089885606674256955 0 -0.010497674618651049 0.0002887519663136405 0 -0.010083180813483068 0.00062007314241340795 0 -0.010519975849954795 0.00061884406892377284 0 -0.0095518511000436367 0.001065156323201097 0 -0.0091875594901520957 0.0011830278164184464 0 -0.010083180813483068 0.00062007314241340795 0 -0.010519975849954795 0.00061884406892377284 0 -0.010136942820640546 0.0011689503246824432 0 -0.010784883964559209 0.00092794137811757073 0 -0.010519975849954795 0.00061884406892377284 0 -0.010136942820640546 0.0011689503246824432 0 -0.010083180813483068 0.00062007314241340795 0 -0.010136942820640546 0.0011689503246824432 0 -0.0093878513150001813 0.00089885606674256955 0 -0.0088620579601375506 0.0012308812503178973 0 -0.0089299493740633111 0.0010814699924492112 0 -0.0093878513150001813 0.00089885606674256955 0 -0.0089299493740633111 0.0010814699924492112 0 -0.0093878513150001813 0.00089885606674256955 0 -0.0093401873994568077 0.00040277132946931859 0 -0.0097510899422816859 0.00058401018416096744 0 -0.0093878513150001813 0.00089885606674256955 0 -0.0093401873994568077 0.00040277132946931859 0 -0.010129208370974389 0.00038813154307515749 0 -0.0097510899422816859 0.00058401018416096744 0 -0.0093401873994568077 0.00040277132946931859 0 -0.010377655136693571 0.00019069689687968471 0 -0.0098145613326996745 0.00064696791190983522 0 -0.011423125200669628 -0.00012013949329702439 0 -0.010853772944261939 0.00037235530555695723 0 -0.010727866668338405 -0.00015850924546573388 0 -0.0089299493740633111 0.0010814699924492112 0 -0.0093401873994568077 0.00040277132946931859 0 -0.0087397181451538877 0.00094479650730177852 0 -0.0087403575956818205 0.001160952103545676 0 -0.0089299493740633111 0.0010814699924492112 0 -0.0087397181451538877 0.00094479650730177852 0 -0.010055483986452382 0.00091856818979912599 0 -0.010403949347652772 0.00023549476595613084 0 -0.010000549021346023 0.00022691179968669802 0 -0.0094378752529604114 0.0010191590442979496 0 -0.0098145613326996745 0.00064696791190983522 0 -0.010055483986452382 0.00091856818979912599 0 -0.010853772944261939 0.00037235530555695723 0 -0.010403949347652772 0.00023549476595613084 0 -0.0097593119062342193 0.00055972713137296144 0 -0.0099562057941635605 0.00017591758047089763 0 -0.0093284628172712897 0.00059553218999557078 0 -0.010055483986452382 0.00091856818979912599 0 -0.0097593119062342193 0.00055972713137296144 0 -0.010000549021346023 0.00022691179968669802 0 -0.012364349917044404 0.00056708889409977088 0 -0.011595922387317074 0.0011246796289206031 0 -0.011682071520580118 0.00044899689666056015 0 -0.013143767986160775 -0.00019373781745083023 0 -0.0099389195696682805 0.0011212453619499857 0 -0.0097593119062342193 0.00055972713137296144 0 -0.010000549021346023 0.00022691179968669802 0 -0.0099562057941635605 0.00017591758047089763 0 -0.010403949347652772 0.00023549476595613084 0 -0.010000549021346023 0.00022691179968669802 0 -0.0099646644942663655 0.00016892940318858745 0 -0.012959870282306506 -0.00029113340387621395 0 -0.013143767986160775 -0.00019373781745083023 0 -0.013143767986160775 -0.00019373781745083023 0 -0.013112903583227373 0.00011919355901647562 0 -0.012364349917044404 0.00056708889409977088 0 -0.011682071520580118 0.00044899689666056015 0 -0.011766351822443261 -0.0002210040028285987 0 -0.016875316581007611 -0.0028105010846532297 0 -0.01696848278492025 -0.0015762889290590356 0 -0.017969851971803445 -0.0013806747259614018 0 -0.010403949347652772 0.00023549476595613084 0 -0.0099646644942663655 0.00016892940318858745 0 -0.010727866668338405 -0.00015850924546573388 0 -0.010853772944261939 0.00037235530555695723 0 -0.010403949347652772 0.00023549476595613084 0 -0.010727866668338405 -0.00015850924546573388 0 -0.016875316581007611 -0.0028105010846532297 0 -0.015545226301428443 -0.001906615571578135 0 -0.01696848278492025 -0.0015762889290590356 0 -0.013143767986160775 -0.00019373781745083023 0 -0.013228687939699158 -0.0011646636445034897 0 -0.015545226301428443 -0.001906615571578135 0 -0.016438119216077827 -0.00068024987011021149 0 -0.015280700921253762 -0.00068732865014270797 0 -0.015545226301428443 -0.001906615571578135 0 -0.016438119216077827 -0.00068024987011021149 0 -0.01696848278492025 -0.0015762889290590356 0 -0.016438119216077827 -0.00068024987011021149 0 -0.015704360195902274 0.00015676436711535772 0 -0.015280700921253762 -0.00068732865014270797 0 -0.017296164480092528 0.00072353618543976868 0 -0.013346601538728286 0.0002516335902463078 0 -0.016438119216077827 -0.00068024987011021149 0 -0.01696848278492025 -0.0015762889290590356 0 -0.01795832783562135 -0.0012591261962832032 0 -0.016438119216077827 -0.00068024987011021149 0 -0.016997135406798942 0.00028418491614342457 0 -0.01795832783562135 -0.0012591261962832032 0 -0.01696848278492025 -0.0015762889290590356 0 -0.01795832783562135 -0.0012591261962832032 0 -0.017969851971803445 -0.0013806747259614018 0 -0.015719629500417564 0.00054743041623675623 0 -0.015358431009823186 0.0010486428172202654 0 -0.015440495968248499 0.00050441238667677261 0 -0.0182947905129612 0.0028707402104369813 0 -0.018212414455877346 0.0028557765040800724 0 -0.018308402114709875 0.0027723153647324071 0 -0.017296164480092528 0.00072353618543976868 0 -0.016360202976231277 0.0014001777750139134 0 -0.016438119216077827 -0.00068024987011021149 0 -0.016997135406798942 0.00028418491614342457 0 -0.015704360195902274 0.00015676436711535772 0 -0.017296164480092528 0.00072353618543976868 0 -0.0158460019766925 0.00016815087143956075 0 -0.017551680816038102 0.00046137906032504741 0 -0.015704360195902274 0.00015676436711535772 0 -0.015288289583096498 0.001510825680195007 0 -0.015704360195902274 0.00015676436711535772 0 -0.01451553395684166 0.00032183007847620698 0 -0.015288289583096498 0.001510825680195007 0 -0.015704360195902274 0.00015676436711535772 0 -0.01451553395684166 0.00032183007847620698 0 -0.015280700921253762 -0.00068732865014270797 0 -0.01451553395684166 0.00032183007847620698 0 -0.013295609768581558 0.00053317014630895011 0 -0.013923456514163535 -0.0010258261678247524 0 -0.01451553395684166 0.00032183007847620698 0 -0.013865669709497703 0.0013221140866387583 0 -0.015288289583096498 0.001510825680195007 0 -0.01451553395684166 0.00032183007847620698 0 -0.013295609768581558 0.00053317014630895011 0 -0.013865669709497703 0.0013221140866387583 0 -0.011646285099758902 0.00025534402015719445 0 -0.012517880352209691 -0.00050538066359994782 0 -0.013295609768581558 0.00053317014630895011 0 -0.012536921975862978 0.0015162782333051853 0 -0.013865669709497703 0.0013221140866387583 0 -0.011603866895854449 0.00034008665344280737 0 -0.013295609768581558 0.00053317014630895011 0 -0.013923456514163535 -0.0010258261678247524 0 -0.011603866895854449 0.00034008665344280737 0 -0.013295609768581558 0.00053317014630895011 0 -0.012536921975862978 0.0015162782333051853 0 -0.010748706015686732 0.00011750178094826936 0 -0.010377655136693571 0.00019069689687968471 0 -0.010854780795077981 0.00010651622318019433 0 -0.011423125200669628 -0.00012013949329702439 0 -0.011342614275530205 3.1237587389065236e-05 0 -0.011603866895854449 0.00034008665344280737 0 -0.011342614275530205 3.1237587389065236e-05 0 -0.011297105272344602 -0.00017409128535047635 0 -0.011423125200669628 -0.00012013949329702439 0 -0.011342614275530205 3.1237587389065236e-05 0 -0.011297105272344602 -0.00017409128535047635 0 -0.013228687939699158 -0.0011646636445034897 0 -0.012517880352209691 -0.00050538066359994782 0 -0.011423125200669628 -0.00012013949329702439 0 -0.010727866668338405 -0.00015850924546573388 0 -0.011297105272344602 -0.00017409128535047635 0 -0.015545226301428443 -0.001906615571578135 0 -0.015280700921253762 -0.00068732865014270797 0 -0.013923456514163535 -0.0010258261678247524 0 -0.01451553395684166 0.00032183007847620698 0 -0.015280700921253762 -0.00068732865014270797 0 -0.013923456514163535 -0.0010258261678247524 0 -0.0098303878909361923 0.0011030271422055309 0 -0.0098453624345459009 0.001140250471131257 0 -0.0098732151262400925 0.0011537180097135732 0 -0.0098633779527390053 0.0011916435208458201 0 -0.0097688586918979366 0.0011186579722262779 0 -0.0098432734384399628 0.001242527963384315 0 -0.009962646068681193 0.0011406695989457155 0 -0.0098633779527390053 0.0011916435208458201 0 -0.0098426434070199628 0.0012403155540466929 0 -0.0098633779527390053 0.0011916435208458201 0 -0.0098823642394234058 0.001115574441776912 0 -0.0097688586918979366 0.0011186579722262779 0 -0.0097284148306514186 0.0010730036583158872 0 -0.01068807076261807 0.0011498444600435615 0 -0.0098823642394234058 0.001115574441776912 0 -0.0098668640407701663 0.0010311388699611279 0 -0.0097688586918979366 0.0011186579722262779 0 -0.0097920866702616155 0.00098256547363571368 0 -0.0098668640407701663 0.0010311388699611279 0 -0.0097688586918979366 0.0011186579722262779 0 -0.0097013168485582633 0.0010094830138852567 0 -0.0097920866702616155 0.00098256547363571368 0 -0.0097688586918979366 0.0011186579722262779 0 -0.0097323624790787849 0.0010436094306895659 0 -0.0097284148306514186 0.0010730036583158872 0 -0.0097533320859695179 0.0010529735798995496 0 -0.0097698620230414358 0.0010888460546743574 0 -0.0098303878909361923 0.0011030271422055309 0 -0.0097698620230414358 0.0010888460546743574 0 -0.0098303878909361923 0.0011030271422055309 0 -0.0097969078134537632 0.0011253725843933305 0 -0.0098303878909361923 0.0011030271422055309 0 -0.0097969078134537632 0.0011253725843933305 0 -0.009830961864702557 0.001143755504807754 0 -0.0098303878909361923 0.0011030271422055309 0 -0.0098453624345459009 0.001140250471131257 0 -0.009830961864702557 0.001143755504807754 0 -0.0097969078134537632 0.0011253725843933305 0 -0.0098182090293081996 0.0011465747921614226 0 -0.009830961864702557 0.001143755504807754 0 -0.0097969078134537632 0.0011253725843933305 0 -0.0097715498823531845 0.0011265000054290015 0 -0.0098000050539304509 0.0011433575770387126 0 -0.0097969078134537632 0.0011253725843933305 0 -0.0098000050539304509 0.0011433575770387126 0 -0.0098182090293081996 0.0011465747921614226 0 -0.0097715498823531845 0.0011265000054290015 0 -0.0097616896085963717 0.001126434583408795 0 -0.009772141318719875 0.0011397903749085013 0 -0.0097715498823531845 0.0011265000054290015 0 -0.009752291137020851 0.0011119546504074619 0 -0.0097616896085963717 0.001126434583408795 0 -0.0097715498823531845 0.0011265000054290015 0 -0.009752291137020851 0.0011119546504074619 0 -0.0097602756610636939 0.0011062613441141611 0 -0.009752291137020851 0.0011119546504074619 0 -0.0097025553828337455 0.0010629407092389515 0 -0.0097520286531819021 0.0011160914215771218 0 -0.0097969078134537632 0.0011253725843933305 0 -0.0097715498823531845 0.0011265000054290015 0 -0.0097602756610636939 0.0011062613441141611 0 -0.0097698620230414358 0.0010888460546743574 0 -0.0097969078134537632 0.0011253725843933305 0 -0.0097602756610636939 0.0011062613441141611 0 -0.0097698620230414358 0.0010888460546743574 0 -0.0097602756610636939 0.0011062613441141611 0 -0.0097025553828337455 0.0010629407092389515 0 -0.0097533320859695179 0.0010529735798995496 0 -0.0097698620230414358 0.0010888460546743574 0 -0.0097025553828337455 0.0010629407092389515 0 -0.0096380788874030083 0.001044890716277851 0 -0.0097025553828337455 0.0010629407092389515 0 -0.0097586793528811003 0.0010662214357096749 0 -0.0097971908646527356 0.00092980057886390857 0 -0.0094755851938541236 0.0013919116602246768 0 -0.009752291137020851 0.0011119546504074619 0 -0.0097602756610636939 0.0011062613441141611 0 -0.0097025553828337455 0.0010629407092389515 0 -0.0097025553828337455 0.0010629407092389515 0 -0.0097577858964351758 0.0010204087893454165 0 -0.009741908434307011 0.00093832737885640185 0 -0.0097025553828337455 0.0010629407092389515 0 -0.0097577858964351758 0.0010204087893454165 0 -0.0097586793528811003 0.0010662214357096749 0 -0.0097577858964351758 0.0010204087893454165 0 -0.0097586793528811003 0.0010662214357096749 0 -0.0098399292823611838 0.00096422091368802032 0 -0.0099389195696682805 0.0011212453619499857 0 -0.010806380196052512 0.00074513651388142599 0 -0.0097577858964351758 0.0010204087893454165 0 -0.0098399292823611838 0.00096422091368802032 0 -0.009741908434307011 0.00093832737885640185 0 -0.009752291137020851 0.0011119546504074619 0 -0.0097520286531819021 0.0011160914215771218 0 -0.0097616896085963717 0.001126434583408795 0 -0.0097520286531819021 0.0011160914215771218 0 -0.0097616896085963717 0.001126434583408795 0 -0.0097627613112870604 0.0011389662896616548 0 -0.010806380196052512 0.00074513651388142599 0 -0.013112903583227373 0.00011919355901647562 0 -0.009741908434307011 0.00093832737885640185 0 -0.0099155339337243832 0.00070956457134162363 0 -0.0099106489286514225 0.0007336467834239491 0 -0.0094755851938541236 0.0013919116602246768 0 -0.013346601538728286 0.0002516335902463078 0 -0.0098399292823611838 0.00096422091368802032 0 -0.009741908434307011 0.00093832737885640185 0 -0.0099106489286514225 0.0007336467834239491 0 -0.013346601538728286 0.0002516335902463078 0 -0.016360202976231277 0.0014001777750139134 0 -0.014099130850244727 0.00087160295145922236 0 -0.014129198536681781 0.00072962208985637936 0 -0.01402844855042679 0.00079310294684476759 0 -0.013346601538728286 0.0002516335902463078 0 -0.013112903583227373 0.00011919355901647562 0 -0.0097616896085963717 0.001126434583408795 0 -0.0097627613112870604 0.0011389662896616548 0 -0.009772141318719875 0.0011397903749085013 0 -0.0097627613112870604 0.0011389662896616548 0 -0.009772141318719875 0.0011397903749085013 0 -0.0097731017220464254 0.0011718952357092677 0 -0.013346601538728286 0.0002516335902463078 0 -0.011821768507489111 0.00080442622468253962 0 -0.014129198536681781 0.00072962208985637936 0 -0.01402844855042679 0.00079310294684476759 0 -0.013957462675113837 0.00070337165220762856 0 -0.016360202976231277 0.0014001777750139134 0 -0.013742636024327062 0.00080185010648100349 0 -0.016885988988057817 0.0015483651579617653 0 -0.016229832004267912 0.0014434202236274928 0 -0.016543111123028819 0.0012533513018557179 0 -0.011821768507489111 0.00080442622468253962 0 -0.013742636024327062 0.00080185010648100349 0 -0.0097954803803970546 0.0012775341758998568 0 -0.009900231052935058 0.0012349276674308162 0 -0.010225490985276229 0.0013743383578887008 0 -0.0097731017220464254 0.0011718952357092677 0 -0.009816352991787361 0.0011948375178706392 0 -0.0097954803803970546 0.0012775341758998568 0 -0.009816352991787361 0.0011948375178706392 0 -0.0097954803803970546 0.0012775341758998568 0 -0.009900231052935058 0.0012349276674308162 0 -0.009900231052935058 0.0012349276674308162 0 -0.009857891977306665 0.0012020683158356766 0 -0.0098559631983906552 0.0011875186924367961 0 -0.009816352991787361 0.0011948375178706392 0 -0.009900231052935058 0.0012349276674308162 0 -0.009857891977306665 0.0012020683158356766 0 -0.009816352991787361 0.0011948375178706392 0 -0.009857891977306665 0.0012020683158356766 0 -0.009838912807324747 0.0011767993556043676 0 -0.009857891977306665 0.0012020683158356766 0 -0.009838912807324747 0.0011767993556043676 0 -0.0098559631983906552 0.0011875186924367961 0 -0.009838912807324747 0.0011767993556043676 0 -0.0098220443262599169 0.0011590960892580166 0 -0.0097938788885566751 0.0011589343949006295 0 -0.009816352991787361 0.0011948375178706392 0 -0.009838912807324747 0.0011767993556043676 0 -0.0097938788885566751 0.0011589343949006295 0 -0.0097731017220464254 0.0011718952357092677 0 -0.009816352991787361 0.0011948375178706392 0 -0.0097938788885566751 0.0011589343949006295 0 -0.009772141318719875 0.0011397903749085013 0 -0.0097731017220464254 0.0011718952357092677 0 -0.0097938788885566751 0.0011589343949006295 0 -0.0097938788885566751 0.0011589343949006295 0 -0.0097834929072530101 0.0011412012745858249 0 -0.0098000050539304509 0.0011433575770387126 0 -0.009772141318719875 0.0011397903749085013 0 -0.0097938788885566751 0.0011589343949006295 0 -0.0097834929072530101 0.0011412012745858249 0 -0.0097715498823531845 0.0011265000054290015 0 -0.009772141318719875 0.0011397903749085013 0 -0.0097834929072530101 0.0011412012745858249 0 -0.0097715498823531845 0.0011265000054290015 0 -0.0097834929072530101 0.0011412012745858249 0 -0.0098000050539304509 0.0011433575770387126 0 -0.0098220443262599169 0.0011590960892580166 0 -0.0097938788885566751 0.0011589343949006295 0 -0.0098000050539304509 0.0011433575770387126 0 -0.0098220443262599169 0.0011590960892580166 0 -0.0098000050539304509 0.0011433575770387126 0 -0.0098182090293081996 0.0011465747921614226 0 -0.0098182090293081996 0.0011465747921614226 0 -0.009830961864702557 0.001143755504807754 0 -0.0098370730032286569 0.0011636888976478859 0 -0.0098220443262599169 0.0011590960892580166 0 -0.0098182090293081996 0.0011465747921614226 0 -0.0098370730032286569 0.0011636888976478859 0 -0.009830961864702557 0.001143755504807754 0 -0.0098473789896152356 0.0011584740298926327 0 -0.0098370730032286569 0.0011636888976478859 0 -0.0098453624345459009 0.001140250471131257 0 -0.009830961864702557 0.001143755504807754 0 -0.0098473789896152356 0.0011584740298926327 0 -0.0098473789896152356 0.0011584740298926327 0 -0.009847672673814355 0.0011745212057242755 0 -0.0098732151262400925 0.0011537180097135732 0 -0.0098473789896152356 0.0011584740298926327 0 -0.009847672673814355 0.0011745212057242755 0 -0.0098370730032286569 0.0011636888976478859 0 -0.009847672673814355 0.0011745212057242755 0 -0.0098370730032286569 0.0011636888976478859 0 -0.0098559631983906552 0.0011875186924367961 0 -0.009838912807324747 0.0011767993556043676 0 -0.0098370730032286569 0.0011636888976478859 0 -0.0098559631983906552 0.0011875186924367961 0 -0.009838912807324747 0.0011767993556043676 0 -0.0098220443262599169 0.0011590960892580166 0 -0.0098370730032286569 0.0011636888976478859 0 -0.009900231052935058 0.0012349276674308162 0 -0.009847672673814355 0.0011745212057242755 0 -0.0098559631983906552 0.0011875186924367961 0 -0.0099150931109670548 0.0012055006148096719 0 -0.010005690868430858 0.0011093354657142806 0 -0.009900231052935058 0.0012349276674308162 0 -0.01021952354267462 0.00097033334558137719 0 -0.010120034509550967 0.0011761043084016348 0 -0.013742636024327062 0.00080185010648100349 0 -0.012870986246872983 0.0014067957349424868 0 -0.009900231052935058 0.0012349276674308162 0 -0.010120034509550967 0.0011761043084016348 0 -0.010225490985276229 0.0013743383578887008 0 -0.013488829506710143 0.0013028353504307511 0 -0.013485783877297427 0.0011380788708923559 0 -0.013582393983792986 0.0010981881060586473 0 -0.010120034509550967 0.0011761043084016348 0 -0.010389148528123636 0.0010410956998564852 0 -0.010225490985276229 0.0013743383578887008 0 -0.0119479592258705 0.0011249539239392679 0 -0.012870986246872983 0.0014067957349424868 0 -0.01021952354267462 0.00097033334558137719 0 -0.010120034509550967 0.0011761043084016348 0 -0.010389148528123636 0.0010410956998564852 0 -0.013488829506710143 0.0013028353504307511 0 -0.013485783877297427 0.0011380788708923559 0 -0.013361587245839449 0.0011936022393358716 0 -0.013418609152404871 0.0011284365237717584 0 -0.013485783877297427 0.0011380788708923559 0 -0.013429218460480842 0.0010474349426761115 0 -0.013418609152404871 0.0011284365237717584 0 -0.013485783877297427 0.0011380788708923559 0 -0.013361587245839449 0.0011936022393358716 0 -0.013259491309914094 0.0011226204935007528 0 -0.013361587245839449 0.0011936022393358716 0 -0.013267781094073625 0.0013005470291464739 0 -0.013259491309914094 0.0011226204935007528 0 -0.013349098510369842 0.0011160520816238314 0 -0.013361587245839449 0.0011936022393358716 0 -0.013418609152404871 0.0011284365237717584 0 -0.013349098510369842 0.0011160520816238314 0 -0.013361587245839449 0.0011936022393358716 0 -0.013488829506710143 0.0013028353504307511 0 -0.013361587245839449 0.0011936022393358716 0 -0.013267781094073625 0.0013005470291464739 0 -0.013488829506710143 0.0013028353504307511 0 -0.013267781094073625 0.0013005470291464739 0 -0.013370746584644891 0.0015196450098515363 0 -0.011762183812359623 0.0011856874374617816 0 -0.01068807076261807 0.0011498444600435615 0 -0.0119479592258705 0.0011249539239392679 0 -0.01068807076261807 0.0011498444600435615 0 -0.010005690868430858 0.0011093354657142806 0 -0.01068807076261807 0.0011498444600435615 0 -0.01021952354267462 0.00097033334558137719 0 -0.010389148528123636 0.0010410956998564852 0 -0.010546344995026793 0.00070734434317392596 0 -0.0098453624345459009 0.001140250471131257 0 -0.0098473789896152356 0.0011584740298926327 0 -0.0098732151262400925 0.0011537180097135732 0 -0.010219757032180539 0.0013565710938466685 0 -0.01068807076261807 0.0011498444600435615 0 -0.016649677695692328 0.0010331530569468116 0 -0.01666583461812771 0.0010162463996894093 0 -0.016690801192679162 0.0010168026540055941 0 -0.01666583461812771 0.0010162463996894093 0 -0.016686851834746975 0.0010101822735732997 0 -0.016690801192679162 0.0010168026540055941 0 -0.014194648269904875 0.00090108974129238912 0 -0.016951990843267192 0.00058712002978396187 0 -0.012978987692118419 0.00090189675479486822 0 -0.013795926035056423 0.00075183214707322677 0 -0.014280167197095354 -3.4880963801482449e-05 0 -0.014194648269904875 0.00090108974129238912 0 -0.013529985381096716 0.00078412608097864491 0 -0.012978987692118419 0.00090189675479486822 0 -0.013313026237441789 0.0010505466008035923 0 -0.013795926035056423 0.00075183214707322677 0 -0.013418609152404871 0.0011284365237717584 0 -0.013349098510369842 0.0011160520816238314 0 -0.013429218460480842 0.0010474349426761115 0 -0.013349098510369842 0.0011160520816238314 0 -0.013313026237441789 0.0010505466008035923 0 -0.013429218460480842 0.0010474349426761115 0 -0.013259491309914094 0.0011226204935007528 0 -0.013234550506063312 0.001014480490096447 0 -0.013313026237441789 0.0010505466008035923 0 -0.013259491309914094 0.0011226204935007528 0 -0.013349098510369842 0.0011160520816238314 0 -0.013313026237441789 0.0010505466008035923 0 -0.013313026237441789 0.0010505466008035923 0 -0.013429218460480842 0.0010474349426761115 0 -0.013795926035056423 0.00075183214707322677 0 -0.013485783877297427 0.0011380788708923559 0 -0.013429218460480842 0.0010474349426761115 0 -0.013582393983792986 0.0010981881060586473 0 -0.013735086763080754 0.0011751029984129152 0 -0.012870986246872983 0.0014067957349424868 0 -0.013429218460480842 0.0010474349426761115 0 -0.013795926035056423 0.00075183214707322677 0 -0.014217779013952605 0.0011819921406263597 0 -0.013795926035056423 0.00075183214707322677 0 -0.014217779013952605 0.0011819921406263597 0 -0.014591323654710078 0.00037111729321761264 0 -0.013795926035056423 0.00075183214707322677 0 -0.014591323654710078 0.00037111729321761264 0 -0.014280167197095354 -3.4880963801482449e-05 0 -0.015277658924978744 0.001114071752178717 0 -0.014910461652281715 0.0010617944081280849 0 -0.015125496566448333 0.0010472503854418111 0 -0.015043317268244757 0.00079347680028498411 0 -0.015193728286317001 0.00099971549572356569 0 -0.015125496566448333 0.0010472503854418111 0 -0.014910461652281715 0.0010617944081280849 0 -0.015043317268244757 0.00079347680028498411 0 -0.015125496566448333 0.0010472503854418111 0 -0.017157089494796111 0.00049773479799531913 0 -0.01667212726553503 0.0012179750593606879 0 -0.012870986246872983 0.0014067957349424868 0 -0.017157089494796111 0.00049773479799531913 0 -0.019257852071110346 0.00048678659791386313 0 -0.019320309708189588 0.00056812853562575923 0 -0.01926906129310027 0.00061636454893655625 0 -0.019257852071110346 0.00048678659791386313 0 -0.01926906129310027 0.00061636454893655625 0 -0.019167912456933681 0.00079459454294175452 0 -0.017157089494796111 0.00049773479799531913 0 -0.016951990843267192 0.00058712002978396187 0 -0.019403402188950057 0.0006448975144455612 0 -0.019339496723585113 0.00061298881719858882 0 -0.019317662106879522 0.00073403760534345829 0 -0.019331287747096613 0.00057234622961078758 0 -0.019339496723585113 0.00061298881719858882 0 -0.01926906129310027 0.00061636454893655625 0 -0.018573669450099785 0.00073995581490260887 0 -0.016951990843267192 0.00058712002978396187 0 -0.019377864727469163 0.00064310596623255842 0 -0.019331287747096613 0.00057234622961078758 0 -0.019339496723585113 0.00061298881719858882 0 -0.018573669450099785 0.00073995581490260887 0 -0.019018966215251929 0.00084753295050889513 0 -0.019339496723585113 0.00061298881719858882 0 -0.01926906129310027 0.00061636454893655625 0 -0.019317662106879522 0.00073403760534345829 0 -0.016951990843267192 0.00058712002978396187 0 -0.018598414184960242 5.614000415594609e-05 0 -0.017157089494796111 0.00049773479799531913 0 -0.019773768791952064 0.00069833489836691927 0 -0.019142289767437877 0.00069097222981271669 0 -0.019120122407150622 0.00072468934551469339 0 -0.019167912456933681 0.00079459454294175452 0 -0.019120122407150622 0.00072468934551469339 0 -0.019117148938140538 0.00069292455304344679 0 -0.019076953315615312 0.00069016772136731538 0 -0.019142289767437877 0.00069097222981271669 0 -0.019120122407150622 0.00072468934551469339 0 -0.019117148938140538 0.00069292455304344679 0 -0.019142289767437877 0.00069097222981271669 0 -0.019117148938140538 0.00069292455304344679 0 -0.019114686582680104 0.00066623751999658504 0 -0.015277658924978744 0.001114071752178717 0 -0.015191492997648234 0.00099857609238080802 0 -0.015125496566448333 0.0010472503854418111 0 -0.013742636024327062 0.00080185010648100349 0 -0.01667212726553503 0.0012179750593606879 0 -0.01667212726553503 0.0012179750593606879 0 -0.016129376043373257 0.0014055515610021819 0 -0.016229832004267912 0.0014434202236274928 0 -0.016095100386855979 0.0012619862673678829 0 -0.016543111123028819 0.0012533513018557179 0 -0.019117148938140538 0.00069292455304344679 0 -0.019114686582680104 0.00066623751999658504 0 -0.019076953315615312 0.00069016772136731538 0 -0.016095100386855979 0.0012619862673678829 0 -0.0165548230409291 0.00093462520082318275 0 -0.016543111123028819 0.0012533513018557179 0 -0.01667212726553503 0.0012179750593606879 0 -0.017991701093673172 0.00066255210077067713 0 -0.016885988988057817 0.0015483651579617653 0 -0.016543111123028819 0.0012533513018557179 0 -0.016946076073924985 0.0010801301026016161 0 -0.0165548230409291 0.00093462520082318275 0 -0.016543111123028819 0.0012533513018557179 0 -0.016946076073924985 0.0010801301026016161 0 -0.019076953315615312 0.00069016772136731538 0 -0.019088738558571818 0.00075753756460649108 0 -0.018992678384675245 0.00073699753592610783 0 -0.0165548230409291 0.00093462520082318275 0 -0.016946076073924985 0.0010801301026016161 0 -0.017007730654807904 0.00061639951866599785 0 -0.019120122407150622 0.00072468934551469339 0 -0.019076953315615312 0.00069016772136731538 0 -0.019088738558571818 0.00075753756460649108 0 -0.017991701093673172 0.00066255210077067713 0 -0.018159294086699276 0.0015439441659603811 0 -0.019088738558571818 0.00075753756460649108 0 -0.019070526895028313 0.00084265707645727011 0 -0.018992678384675245 0.00073699753592610783 0 -0.019088738558571818 0.00075753756460649108 0 -0.019070526895028313 0.00084265707645727011 0 -0.019167912456933681 0.00079459454294175452 0 -0.019070526895028313 0.00084265707645727011 0 -0.01896801443079504 0.00091330040651464847 0 -0.019131295474271857 0.00099143746073121811 0 -0.019167912456933681 0.00079459454294175452 0 -0.019377841120739443 0.00090895172975637899 0 -0.019131295474271857 0.00099143746073121811 0 -0.019070526895028313 0.00084265707645727011 0 -0.019167912456933681 0.00079459454294175452 0 -0.019131295474271857 0.00099143746073121811 0 -0.019120122407150622 0.00072468934551469339 0 -0.019088738558571818 0.00075753756460649108 0 -0.019167912456933681 0.00079459454294175452 0 -0.019317662106879522 0.00073403760534345829 0 -0.019377841120739443 0.00090895172975637899 0 -0.019424409376712564 0.00074334695016504298 0 -0.019167912456933681 0.00079459454294175452 0 -0.019317662106879522 0.00073403760534345829 0 -0.019377841120739443 0.00090895172975637899 0 -0.01926906129310027 0.00061636454893655625 0 -0.019167912456933681 0.00079459454294175452 0 -0.019317662106879522 0.00073403760534345829 0 -0.019403402188950057 0.0006448975144455612 0 -0.019317662106879522 0.00073403760534345829 0 -0.019424409376712564 0.00074334695016504298 0 -0.019377841120739443 0.00090895172975637899 0 -0.019581402219315119 0.00088131833255365277 0 -0.019489664220852607 0.0010602046309829451 0 -0.019377841120739443 0.00090895172975637899 0 -0.019581402219315119 0.00088131833255365277 0 -0.019532378927006742 0.00077494873173455426 0 -0.016672441465422773 0.0010053503490077885 0 -0.01666583461812771 0.0010162463996894093 0 -0.016686851834746975 0.0010101822735732997 0 -0.01966187031285838 0.00076519441743782993 0 -0.019581402219315119 0.00088131833255365277 0 -0.019532378927006742 0.00077494873173455426 0 -0.018028876090867882 0.00083838601648893467 0 -0.018573669450099785 0.00073995581490260887 0 -0.01966187031285838 0.00076519441743782993 0 -0.019374187693962003 0.0005716185278841552 0 -0.019532378927006742 0.00077494873173455426 0 -0.019377841120739443 0.00090895172975637899 0 -0.019532378927006742 0.00077494873173455426 0 -0.019424409376712564 0.00074334695016504298 0 -0.018573669450099785 0.00073995581490260887 0 -0.019562345992588024 0.00087373060499836095 0 -0.019403402188950057 0.0006448975144455612 0 -0.019532378927006742 0.00077494873173455426 0 -0.019424409376712564 0.00074334695016504298 0 -0.01400977177413551 0.0025958171369619763 0 -0.015915292314419922 0.0030700139418100222 0 -0.014413588573946673 0.0046020079355276779 0 -0.01726699200167944 0.0030551752789874215 0 -0.016767346926796087 0.0036764500376040166 0 -0.015915292314419922 0.0030700139418100222 0 -0.014749261026239843 0.0050218528937219396 0 -0.014413588573946673 0.0046020079355276779 0 -0.015179853651301915 0.0044809989881069226 0 -0.01494188916485231 0.0047472261743552848 0 -0.014413588573946673 0.0046020079355276779 0 -0.01348417026119857 0.0036790410775947528 0 -0.014306755916842009 0.0045047819618173005 0 -0.011757160778760932 0.0030174136538511824 0 -0.01400977177413551 0.0025958171369619763 0 -0.014413588573946673 0.0046020079355276779 0 -0.011757160778760932 0.0030174136538511824 0 -0.012536921975862978 0.0015162782333051853 0 -0.01400977177413551 0.0025958171369619763 0 -0.012536921975862978 0.0015162782333051853 0 -0.013865669709497703 0.0013221140866387583 0 -0.01400977177413551 0.0025958171369619763 0 -0.01400977177413551 0.0025958171369619763 0 -0.015288289583096498 0.001510825680195007 0 -0.015915292314419922 0.0030700139418100222 0 -0.013865669709497703 0.0013221140866387583 0 -0.01400977177413551 0.0025958171369619763 0 -0.015288289583096498 0.001510825680195007 0 -0.017296164480092528 0.00072353618543976868 0 -0.01726699200167944 0.0030551752789874215 0 -0.0182947905129612 0.0028707402104369813 0 -0.018308402114709875 0.0027723153647324071 0 -0.01847659365000268 0.0027075873518746804 0 -0.017551680816038102 0.00046137906032504741 0 -0.015288289583096498 0.001510825680195007 0 -0.015915292314419922 0.0030700139418100222 0 -0.018308402114709875 0.0027723153647324071 0 -0.018338496244217056 0.0026775117869865957 0 -0.01847659365000268 0.0027075873518746804 0 -0.016360202976231277 0.0014001777750139134 0 -0.017563461635554799 0.0020291519892680246 0 -0.018212414455877346 0.0028557765040800724 0 -0.018308402114709875 0.0027723153647324071 0 -0.018234091124041892 0.0027367849263158299 0 -0.018308402114709875 0.0027723153647324071 0 -0.018234091124041892 0.0027367849263158299 0 -0.018338496244217056 0.0026775117869865957 0 -0.018338496244217056 0.0026775117869865957 0 -0.018244425426652763 0.0025853387105450438 0 -0.018425276535276289 0.0024518720116507783 0 -0.017563461635554799 0.0020291519892680246 0 -0.018159294086699276 0.0015439441659603811 0 -0.018234091124041892 0.0027367849263158299 0 -0.018338496244217056 0.0026775117869865957 0 -0.018244425426652763 0.0025853387105450438 0 -0.018338496244217056 0.0026775117869865957 0 -0.01847659365000268 0.0027075873518746804 0 -0.018425276535276289 0.0024518720116507783 0 -0.01847659365000268 0.0027075873518746804 0 -0.018425276535276289 0.0024518720116507783 0 -0.018762837949021425 0.0024517455165099108 0 -0.018570430337864163 0.0024337686136492068 0 -0.018847921746149666 0.0021620101672051059 0 -0.018159294086699276 0.0015439441659603811 0 -0.018888030552958832 0.0014640487208431984 0 -0.018568848784266859 0.0023675360533571585 0 -0.018758575637661919 0.0022394819114312133 0 -0.018599334492678244 0.0020775232121291315 0 -0.019070526895028313 0.00084265707645727011 0 -0.018992678384675245 0.00073699753592610783 0 -0.01896801443079504 0.00091330040651464847 0 -0.018159294086699276 0.0015439441659603811 0 -0.018570430337864163 0.0024337686136492068 0 -0.018758575637661919 0.0022394819114312133 0 -0.018599334492678244 0.0020775232121291315 0 -0.018792211399486634 0.001994510540070701 0 -0.018758575637661919 0.0022394819114312133 0 -0.018792211399486634 0.001994510540070701 0 -0.018966066952567594 0.002102576382461886 0 -0.018966066952567594 0.002102576382461886 0 -0.019154460070350914 0.0019944785336031873 0 -0.019030764589596162 0.0019962984594794524 0 -0.018688753255724715 0.0022440584221221395 0 -0.018762837949021425 0.0024517455165099108 0 -0.019154460070350914 0.0019944785336031873 0 -0.018928015268322006 0.00199967861616895 0 -0.018966066952567594 0.002102576382461886 0 -0.019030764589596162 0.0019962984594794524 0 -0.018792211399486634 0.001994510540070701 0 -0.018928015268322006 0.00199967861616895 0 -0.018966066952567594 0.002102576382461886 0 -0.018847921746149666 0.0021620101672051059 0 -0.019113733885336315 0.0020084543255848852 0 -0.018425276535276289 0.0024518720116507783 0 -0.018688753255724715 0.0022440584221221395 0 -0.018762837949021425 0.0024517455165099108 0 -0.014749261026239843 0.0050218528937219396 0 -0.014698491583126822 0.0048038027062509443 0 -0.014893028240514831 0.0049533040841115454 0 -0.01494188916485231 0.0047472261743552848 0 -0.014413588573946673 0.0046020079355276779 0 -0.014698491583126822 0.0048038027062509443 0 -0.014749261026239843 0.0050218528937219396 0 -0.014413588573946673 0.0046020079355276779 0 -0.014698491583126822 0.0048038027062509443 0 -0.01494188916485231 0.0047472261743552848 0 -0.014698491583126822 0.0048038027062509443 0 -0.014893028240514831 0.0049533040841115454 0 -0.016767346926796087 0.0036764500376040166 0 -0.017086913200404067 0.0034461892233378687 0 -0.018762837949021425 0.0024517455165099108 0 -0.019154460070350914 0.0019944785336031873 0 -0.019242693067027208 0.0019832310832805771 0 -0.015135818557707155 0.0049903482132801838 0 -0.014893028240514831 0.0049533040841115454 0 -0.01491796931158379 0.004862722717080741 0 -0.014749261026239843 0.0050218528937219396 0 -0.014893028240514831 0.0049533040841115454 0 -0.01491796931158379 0.004862722717080741 0 -0.019242693067027208 0.0019832310832805771 0 -0.019105663053344012 0.0018860473537597759 0 -0.019185257520754593 0.001714724135470701 0 -0.019154460070350914 0.0019944785336031873 0 -0.019030764589596162 0.0019962984594794524 0 -0.01906600346557381 0.0019425002216927984 0 -0.019154460070350914 0.0019944785336031873 0 -0.019242693067027208 0.0019832310832805771 0 -0.019105663053344012 0.0018860473537597759 0 -0.019154460070350914 0.0019944785336031873 0 -0.019105663053344012 0.0018860473537597759 0 -0.01906600346557381 0.0019425002216927984 0 -0.019242693067027208 0.0019832310832805771 0 -0.019185257520754593 0.001714724135470701 0 -0.019546712854499486 0.0016518439794190264 0 -0.019105663053344012 0.0018860473537597759 0 -0.019185257520754593 0.001714724135470701 0 -0.019019588453922102 0.001776747826802862 0 -0.019185257520754593 0.001714724135470701 0 -0.018994762290458891 0.0016312180419770629 0 -0.01906579927070351 0.0014294042987690291 0 -0.019185257520754593 0.001714724135470701 0 -0.018994762290458891 0.0016312180419770629 0 -0.019019588453922102 0.001776747826802862 0 -0.018994762290458891 0.0016312180419770629 0 -0.019019588453922102 0.001776747826802862 0 -0.018855448816646383 0.0017603203569767278 0 -0.019019588453922102 0.001776747826802862 0 -0.018964568113890273 0.0018932034445584152 0 -0.018855448816646383 0.0017603203569767278 0 -0.019105663053344012 0.0018860473537597759 0 -0.019019588453922102 0.001776747826802862 0 -0.018964568113890273 0.0018932034445584152 0 -0.019105663053344012 0.0018860473537597759 0 -0.018964568113890273 0.0018932034445584152 0 -0.01906600346557381 0.0019425002216927984 0 -0.018964568113890273 0.0018932034445584152 0 -0.019030764589596162 0.0019962984594794524 0 -0.01906600346557381 0.0019425002216927984 0 -0.018792211399486634 0.001994510540070701 0 -0.018928015268322006 0.00199967861616895 0 -0.018964568113890273 0.0018932034445584152 0 -0.018928015268322006 0.00199967861616895 0 -0.018964568113890273 0.0018932034445584152 0 -0.019030764589596162 0.0019962984594794524 0 -0.018792211399486634 0.001994510540070701 0 -0.018617334702018911 0.0017483888796123418 0 -0.018855448816646383 0.0017603203569767278 0 -0.018792211399486634 0.001994510540070701 0 -0.018964568113890273 0.0018932034445584152 0 -0.018855448816646383 0.0017603203569767278 0 -0.01896801443079504 0.00091330040651464847 0 -0.018963690706074472 0.0011204710505339295 0 -0.019131295474271857 0.00099143746073121811 0 -0.018888030552958832 0.0014640487208431984 0 -0.018600617431230041 0.0015474516409920099 0 -0.018599334492678244 0.0020775232121291315 0 -0.018792211399486634 0.001994510540070701 0 -0.018617334702018911 0.0017483888796123418 0 -0.018617334702018911 0.0017483888796123418 0 -0.018855448816646383 0.0017603203569767278 0 -0.018839257193986599 0.0015236209325638554 0 -0.018994762290458891 0.0016312180419770629 0 -0.018855448816646383 0.0017603203569767278 0 -0.018839257193986599 0.0015236209325638554 0 -0.018839257193986599 0.0015236209325638554 0 -0.018650386519505506 0.0013611335252266068 0 -0.018909377527560629 0.0011939796103656362 0 -0.018617334702018911 0.0017483888796123418 0 -0.018839257193986599 0.0015236209325638554 0 -0.018650386519505506 0.0013611335252266068 0 -0.018963690706074472 0.0011204710505339295 0 -0.018966166365388865 0.0012983020541634533 0 -0.019103378647476663 0.0012228921268027033 0 -0.018600617431230041 0.0015474516409920099 0 -0.020171102272969605 0.00088324992531366414 0 -0.020171102272969605 0.00088324992531366414 0 -0.020215297770032798 0.00067023475543619561 0 -0.023102612125149677 -0.00025331713473973594 0 -0.022954522273629509 -0.00013306046842140434 0 -0.021691310686094711 -4.8991181752388427e-05 0 -0.021170819344988618 -0.00031913878370157592 0 -0.021739341426105504 -0.00038926883613091945 0 -0.020171102272969605 0.00088324992531366414 0 -0.022954522273629509 -0.00013306046842140434 0 -0.021786556181865549 0.00054206952725024818 0 -0.021815227465377039 0.00031694311486057752 0 -0.021345778319923677 0.0003825115859121475 0 -0.020171102272969605 0.00088324992531366414 0 -0.020040926638001735 0.001015590647232399 0 -0.021285778406720683 0.00083507462241500527 0 -0.021786556181865549 0.00054206952725024818 0 -0.021345778319923677 0.0003825115859121475 0 -0.018909377527560629 0.0011939796103656362 0 -0.01906579927070351 0.0014294042987690291 0 -0.019193170324145879 0.0010130025758444236 0 -0.019306755286464656 0.0014154826132088652 0 -0.019193170324145879 0.0010130025758444236 0 -0.019550148821308556 0.0012535475234713512 0 -0.019306755286464656 0.0014154826132088652 0 -0.01906579927070351 0.0014294042987690291 0 -0.019193170324145879 0.0010130025758444236 0 -0.019185257520754593 0.001714724135470701 0 -0.019306755286464656 0.0014154826132088652 0 -0.019546712854499486 0.0016518439794190264 0 -0.019185257520754593 0.001714724135470701 0 -0.019306755286464656 0.0014154826132088652 0 -0.01906579927070351 0.0014294042987690291 0 -0.018994762290458891 0.0016312180419770629 0 -0.018839257193986599 0.0015236209325638554 0 -0.01906579927070351 0.0014294042987690291 0 -0.018839257193986599 0.0015236209325638554 0 -0.018909377527560629 0.0011939796103656362 0 -0.01906579927070351 0.0014294042987690291 0 -0.019937919213365646 0.00058247274251614167 0 -0.020296162319053773 0.00023956952853141522 0 -0.020309480149518389 0.00069816824558420248 0 -0.019902116544086631 0.00087109654845320367 0 -0.020018625947731607 0.00080839846558271398 0 -0.019377841120739443 0.00090895172975637899 0 -0.019489664220852607 0.0010602046309829451 0 -0.01927232538050494 0.0011469336164056443 0 -0.020296162319053773 0.00023956952853141522 0 -0.020779271854776619 0.00045584224091490454 0 -0.020857789731424273 5.7164397438721043e-05 0 -0.020296162319053773 0.00023956952853141522 0 -0.020309480149518389 0.00069816824558420248 0 -0.020779271854776619 0.00045584224091490454 0 -0.01927232538050494 0.0011469336164056443 0 -0.019131295474271857 0.00099143746073121811 0 -0.019103378647476663 0.0012228921268027033 0 -0.018963690706074472 0.0011204710505339295 0 -0.019131295474271857 0.00099143746073121811 0 -0.019103378647476663 0.0012228921268027033 0 -0.020018625947731607 0.00080839846558271398 0 -0.020215297770032798 0.00067023475543619561 0 -0.019377841120739443 0.00090895172975637899 0 -0.01927232538050494 0.0011469336164056443 0 -0.019131295474271857 0.00099143746073121811 0 -0.021691310686094711 -4.8991181752388427e-05 0 -0.021239676637406987 0.00020460674192459649 0 -0.021170819344988618 -0.00031913878370157592 0 -0.021170819344988618 -0.00031913878370157592 0 -0.020857789731424273 5.7164397438721043e-05 0 -0.02059381484829895 -0.00024692202744456632 0 -0.023102612125149677 -0.00025331713473973594 0 -0.022767478367251216 -0.00016316918308528254 0 -0.021239676637406987 0.00020460674192459649 0 -0.021170819344988618 -0.00031913878370157592 0 -0.020857789731424273 5.7164397438721043e-05 0 -0.020779271854776619 0.00045584224091490454 0 -0.021239676637406987 0.00020460674192459649 0 -0.020857789731424273 5.7164397438721043e-05 0 -0.020296162319053773 0.00023956952853141522 0 -0.020857789731424273 5.7164397438721043e-05 0 -0.02059381484829895 -0.00024692202744456632 0 -0.024919702049171787 -5.9141576774548134e-05 0 -0.024929817421558392 -8.394427623473552e-05 0 -0.02493974563962556 -6.6392114675746896e-05 0 -0.022371010989623956 -0.00010746495282539935 0 -0.022767478367251216 -0.00016316918308528254 0 -0.020027973013240885 -0.00016248370245046913 0 -0.020296162319053773 0.00023956952853141522 0 -0.02059381484829895 -0.00024692202744456632 0 -0.02493974563962556 -6.6392114675746896e-05 0 -0.02495332134098165 -7.2159090572033175e-05 0 -0.024943618799649531 -4.3629714093125084e-05 0 -0.024954795912706079 -6.7854727351326105e-05 0 -0.024974034852474174 -3.3111792748034334e-05 0 -0.024929817421558392 -8.394427623473552e-05 0 -0.02493974563962556 -6.6392114675746896e-05 0 -0.02495332134098165 -7.2159090572033175e-05 0 -0.02495332134098165 -7.2159090572033175e-05 0 -0.024963776165282271 -4.3685078569766794e-05 0 -0.025004280663425395 -1.9885049140171296e-05 0 -0.02495332134098165 -7.2159090572033175e-05 0 -0.024934531329246671 -7.8829942765273753e-05 0 -0.024963776165282271 -4.3685078569766794e-05 0 -0.024934531329246671 -7.8829942765273753e-05 0 -0.024963776165282271 -4.3685078569766794e-05 0 -0.024953393352427224 -3.1068128551997817e-05 0 -0.024910341231671483 -0.00013531860343497895 0 -0.024929817421558392 -8.394427623473552e-05 0 -0.02495332134098165 -7.2159090572033175e-05 0 -0.024910341231671483 -0.00013531860343497895 0 -0.02495332134098165 -7.2159090572033175e-05 0 -0.024934531329246671 -7.8829942765273753e-05 0 -0.024910341231671483 -0.00013531860343497895 0 -0.024934531329246671 -7.8829942765273753e-05 0 -0.024882930023926761 -0.00011763365809479084 0 -0.024910341231671483 -0.00013531860343497895 0 -0.024882930023926761 -0.00011763365809479084 0 -0.024798711382140202 -0.0002054171174066616 0 -0.024934531329246671 -7.8829942765273753e-05 0 -0.024882930023926761 -0.00011763365809479084 0 -0.024911227960716105 -5.9791679576357878e-05 0 -0.024934531329246671 -7.8829942765273753e-05 0 -0.024911227960716105 -5.9791679576357878e-05 0 -0.024953393352427224 -3.1068128551997817e-05 0 -0.024932293355249539 -1.0575395680650889e-05 0 -0.024972607878032269 5.0917285637627687e-06 0 -0.024953393352427224 -3.1068128551997817e-05 0 -0.024911227960716105 -5.9791679576357878e-05 0 -0.024932293355249539 -1.0575395680650889e-05 0 -0.024953393352427224 -3.1068128551997817e-05 0 -0.024911227960716105 -5.9791679576357878e-05 0 -0.024932293355249539 -1.0575395680650889e-05 0 -0.024887091038495009 -3.9593332642764176e-05 0 -0.024932293355249539 -1.0575395680650889e-05 0 -0.024953065310394387 1.0151719300824813e-05 0 -0.024972607878032269 5.0917285637627687e-06 0 -0.024953065310394387 1.0151719300824813e-05 0 -0.024972607878032269 5.0917285637627687e-06 0 -0.024978657680346607 2.2339580710964759e-05 0 -0.024972607878032269 5.0917285637627687e-06 0 -0.024999962109173688 -1.1494077050507367e-08 0 -0.024999868561434477 6.9873662240928105e-08 0 -0.024972607878032269 5.0917285637627687e-06 0 -0.024999868561434477 6.9873662240928105e-08 0 -0.024978657680346607 2.2339580710964759e-05 0 -0.024972607878032269 5.0917285637627687e-06 0 -0.024999962109173688 -1.1494077050507367e-08 0 -0.024983189050006526 -1.0866315990390249e-05 0 -0.024972607878032269 5.0917285637627687e-06 0 -0.024983189050006526 -1.0866315990390249e-05 0 -0.024953393352427224 -3.1068128551997817e-05 0 -0.024963776165282271 -4.3685078569766794e-05 0 -0.024983189050006526 -1.0866315990390249e-05 0 -0.024953393352427224 -3.1068128551997817e-05 0 -0.024963776165282271 -4.3685078569766794e-05 0 -0.024983189050006526 -1.0866315990390249e-05 0 -0.025004280663425395 -1.9885049140171296e-05 0 -0.024999962109173688 -1.1494077050507367e-08 0 -0.024983189050006526 -1.0866315990390249e-05 0 -0.024999994737721288 -3.0705974505121275e-09 0 -0.024983189050006526 -1.0866315990390249e-05 0 -0.024999994737721288 -3.0705974505121275e-09 0 -0.025004280663425395 -1.9885049140171296e-05 0 -0.02500001947554048 -3.5046411817439919e-09 0 -0.024999994737721288 -3.0705974505121275e-09 0 -0.025004280663425395 -1.9885049140171296e-05 0 -0.02460619874826498 -0.00015335425843217545 0 -0.02458686936428213 -4.3429204462911934e-05 0 -0.02442148458801377 -0.00010841009719580777 0 -0.02458686936428213 -4.3429204462911934e-05 0 -0.024680171283008104 -7.6070048950018079e-05 0 -0.024703076224720386 -9.8233605688593759e-06 0 -0.02460619874826498 -0.00015335425843217545 0 -0.02458686936428213 -4.3429204462911934e-05 0 -0.024680171283008104 -7.6070048950018079e-05 0 -0.02458686936428213 -4.3429204462911934e-05 0 -0.02442148458801377 -0.00010841009719580777 0 -0.024462600692996845 1.4359984074989898e-05 0 -0.02442148458801377 -0.00010841009719580777 0 -0.024297777512588173 1.4523695448893392e-05 0 -0.024462600692996845 1.4359984074989898e-05 0 -0.02442148458801377 -0.00010841009719580777 0 -0.024297777512588173 1.4523695448893392e-05 0 -0.024240624352507366 -8.2336947791092563e-05 0 -0.02442148458801377 -0.00010841009719580777 0 -0.024240624352507366 -8.2336947791092563e-05 0 -0.024282725328990187 -0.00020753412423144514 0 -0.023797920269790968 1.179057349051371e-05 0 -0.024057479636039547 -6.9001110664532644e-05 0 -0.023959580342614042 -9.7278357203434501e-05 0 -0.02442148458801377 -0.00010841009719580777 0 -0.024442121503810012 -0.00027494424719243265 0 -0.024282725328990187 -0.00020753412423144514 0 -0.022269668401579581 0.00031917785947535164 0 -0.021525779650263897 0.0004891571509823083 0 -0.022269668401579581 0.00031917785947535164 0 -0.024355813171562903 -0.00030095246167510277 0 -0.022269668401579581 0.00031917785947535164 0 -0.023425029666018643 -1.9790326905439724e-06 0 -0.021786556181865549 0.00054206952725024818 0 -0.02228130004268913 0.00024690642264484173 0 -0.021815227465377039 0.00031694311486057752 0 -0.020040926638001735 0.001015590647232399 0 -0.022269668401579581 0.00031917785947535164 0 -0.02460619874826498 -0.00015335425843217545 0 -0.024442121503810012 -0.00027494424719243265 0 -0.024635041090694174 -0.00026670977504532074 0 -0.02460619874826498 -0.00015335425843217545 0 -0.02442148458801377 -0.00010841009719580777 0 -0.024442121503810012 -0.00027494424719243265 0 -0.024635041090694174 -0.00026670977504532074 0 -0.024728173654135339 -0.0001857561129815663 0 -0.024795659784328072 -0.00023953891060212443 0 -0.023425029666018643 -1.9790326905439724e-06 0 -0.022954522273629509 -0.00013306046842140434 0 -0.024728173654135339 -0.0001857561129815663 0 -0.024795659784328072 -0.00023953891060212443 0 -0.024795865467495189 -0.0001949314687993384 0 -0.024728173654135339 -0.0001857561129815663 0 -0.024785307777300442 -0.00014281671221319498 0 -0.024795865467495189 -0.0001949314687993384 0 -0.024728173654135339 -0.0001857561129815663 0 -0.024785307777300442 -0.00014281671221319498 0 -0.024731803586332805 -0.00011834047180457666 0 -0.02460619874826498 -0.00015335425843217545 0 -0.024728173654135339 -0.0001857561129815663 0 -0.024731803586332805 -0.00011834047180457666 0 -0.02460619874826498 -0.00015335425843217545 0 -0.024635041090694174 -0.00026670977504532074 0 -0.024728173654135339 -0.0001857561129815663 0 -0.024882930023926761 -0.00011763365809479084 0 -0.024798711382140202 -0.0002054171174066616 0 -0.024823569064148142 -0.0001577565480491631 0 -0.024798711382140202 -0.0002054171174066616 0 -0.024795865467495189 -0.0001949314687993384 0 -0.024823569064148142 -0.0001577565480491631 0 -0.022954522273629509 -0.00013306046842140434 0 -0.023335626608897223 -0.00024738811559947972 0 -0.024785307777300442 -0.00014281671221319498 0 -0.024795865467495189 -0.0001949314687993384 0 -0.024823569064148142 -0.0001577565480491631 0 -0.024785307777300442 -0.00014281671221319498 0 -0.024823569064148142 -0.0001577565480491631 0 -0.024834326577803951 -0.00011494327376588397 0 -0.024882930023926761 -0.00011763365809479084 0 -0.024823569064148142 -0.0001577565480491631 0 -0.024834326577803951 -0.00011494327376588397 0 -0.024882930023926761 -0.00011763365809479084 0 -0.024911227960716105 -5.9791679576357878e-05 0 -0.024864013833177667 -7.888733068890194e-05 0 -0.024882930023926761 -0.00011763365809479084 0 -0.024834326577803951 -0.00011494327376588397 0 -0.024864013833177667 -7.888733068890194e-05 0 -0.024805770144304136 -8.9493107870468883e-05 0 -0.024834326577803951 -0.00011494327376588397 0 -0.024864013833177667 -7.888733068890194e-05 0 -0.024785307777300442 -0.00014281671221319498 0 -0.024805770144304136 -8.9493107870468883e-05 0 -0.024834326577803951 -0.00011494327376588397 0 -0.024805770144304136 -8.9493107870468883e-05 0 -0.024864013833177667 -7.888733068890194e-05 0 -0.024836879824762848 -4.3745413796873599e-05 0 -0.024911227960716105 -5.9791679576357878e-05 0 -0.024864013833177667 -7.888733068890194e-05 0 -0.024887091038495009 -3.9593332642764176e-05 0 -0.024864013833177667 -7.888733068890194e-05 0 -0.024887091038495009 -3.9593332642764176e-05 0 -0.024836879824762848 -4.3745413796873599e-05 0 -0.02460619874826498 -0.00015335425843217545 0 -0.024731803586332805 -0.00011834047180457666 0 -0.024680171283008104 -7.6070048950018079e-05 0 -0.024785307777300442 -0.00014281671221319498 0 -0.024805770144304136 -8.9493107870468883e-05 0 -0.024731803586332805 -0.00011834047180457666 0 -0.024805770144304136 -8.9493107870468883e-05 0 -0.024761286368629322 -5.7732047740588909e-05 0 -0.024836879824762848 -4.3745413796873599e-05 0 -0.024805770144304136 -8.9493107870468883e-05 0 -0.024731803586332805 -0.00011834047180457666 0 -0.024761286368629322 -5.7732047740588909e-05 0 -0.024761286368629322 -5.7732047740588909e-05 0 -0.024680171283008104 -7.6070048950018079e-05 0 -0.024703076224720386 -9.8233605688593759e-06 0 -0.024731803586332805 -0.00011834047180457666 0 -0.024761286368629322 -5.7732047740588909e-05 0 -0.024680171283008104 -7.6070048950018079e-05 0 -0.024703076224720386 -9.8233605688593759e-06 0 -0.02474519096124992 4.5688812157333092e-05 0 -0.024608085003824151 5.1846400657624975e-05 0 -0.024703076224720386 -9.8233605688593759e-06 0 -0.024802628456031959 -4.3648476357897433e-06 0 -0.02474519096124992 4.5688812157333092e-05 0 -0.024761286368629322 -5.7732047740588909e-05 0 -0.024703076224720386 -9.8233605688593759e-06 0 -0.024802628456031959 -4.3648476357897433e-06 0 -0.024761286368629322 -5.7732047740588909e-05 0 -0.024802628456031959 -4.3648476357897433e-06 0 -0.024836879824762848 -4.3745413796873599e-05 0 -0.02474519096124992 4.5688812157333092e-05 0 -0.024848631894650121 3.7090665104222476e-05 0 -0.024704459606200203 0.00014634878070721955 0 -0.024802628456031959 -4.3648476357897433e-06 0 -0.02474519096124992 4.5688812157333092e-05 0 -0.024848631894650121 3.7090665104222476e-05 0 -0.02474519096124992 4.5688812157333092e-05 0 -0.024704459606200203 0.00014634878070721955 0 -0.024608085003824151 5.1846400657624975e-05 0 -0.024932293355249539 -1.0575395680650889e-05 0 -0.024887091038495009 -3.9593332642764176e-05 0 -0.024877569101991136 -6.0309719431029796e-06 0 -0.024802628456031959 -4.3648476357897433e-06 0 -0.024836879824762848 -4.3745413796873599e-05 0 -0.024877569101991136 -6.0309719431029796e-06 0 -0.024887091038495009 -3.9593332642764176e-05 0 -0.024836879824762848 -4.3745413796873599e-05 0 -0.024877569101991136 -6.0309719431029796e-06 0 -0.024848631894650121 3.7090665104222476e-05 0 -0.024877569101991136 -6.0309719431029796e-06 0 -0.024924348706824483 1.3013601006972892e-05 0 -0.024802628456031959 -4.3648476357897433e-06 0 -0.024848631894650121 3.7090665104222476e-05 0 -0.024877569101991136 -6.0309719431029796e-06 0 -0.024932293355249539 -1.0575395680650889e-05 0 -0.024953065310394387 1.0151719300824813e-05 0 -0.024924348706824483 1.3013601006972892e-05 0 -0.024932293355249539 -1.0575395680650889e-05 0 -0.024877569101991136 -6.0309719431029796e-06 0 -0.024924348706824483 1.3013601006972892e-05 0 -0.024848631894650121 3.7090665104222476e-05 0 -0.024978657680346607 2.2339580710964759e-05 0 -0.024704459606200203 0.00014634878070721955 0 -0.024999868561434477 6.9873662240928105e-08 0 -0.024978657680346607 2.2339580710964759e-05 0 -0.025000038374232977 -1.5454924386129886e-08 0 -0.024953065310394387 1.0151719300824813e-05 0 -0.024924348706824483 1.3013601006972892e-05 0 -0.024978657680346607 2.2339580710964759e-05 0 -0.024848631894650121 3.7090665104222476e-05 0 -0.024924348706824483 1.3013601006972892e-05 0 -0.024978657680346607 2.2339580710964759e-05 0 -0.024978657680346607 2.2339580710964759e-05 0 -0.024998022305623667 7.0974051643103009e-06 0 -0.025000038374232977 -1.5454924386129886e-08 0 -0.02495989057671975 3.5148317211727429e-05 0 -0.024843742049991492 6.94261462710626e-05 0 -0.024998022305623667 7.0974051643103009e-06 0 -0.024999673427744798 1.902039600898403e-06 0 -0.024998886768171625 6.0569386530865665e-07 0 -0.025000038374232977 -1.5454924386129886e-08 0 -0.024999673427744798 1.902039600898403e-06 0 -0.024999988079307596 6.936594207606834e-09 0 -0.024998022305623667 7.0974051643103009e-06 0 -0.025000038374232977 -1.5454924386129886e-08 0 -0.024999673427744798 1.902039600898403e-06 0 -0.024843742049991492 6.94261462710626e-05 0 -0.024715425855861853 7.7322489246703998e-05 0 -0.024608085003824151 5.1846400657624975e-05 0 -0.024462600692996845 1.4359984074989898e-05 0 -0.024410198987599999 0.00015784174433814283 0 -0.024704459606200203 0.00014634878070721955 0 -0.024608085003824151 5.1846400657624975e-05 0 -0.024410198987599999 0.00015784174433814283 0 -0.02458686936428213 -4.3429204462911934e-05 0 -0.024608085003824151 5.1846400657624975e-05 0 -0.024462600692996845 1.4359984074989898e-05 0 -0.02458686936428213 -4.3429204462911934e-05 0 -0.024703076224720386 -9.8233605688593759e-06 0 -0.024608085003824151 5.1846400657624975e-05 0 -0.024297777512588173 1.4523695448893392e-05 0 -0.024462600692996845 1.4359984074989898e-05 0 -0.024410198987599999 0.00015784174433814283 0 -0.024998886768171625 6.0569386530865665e-07 0 -0.024999988079307596 6.936594207606834e-09 0 -0.024998861429128081 1.5193067088408345e-07 0 -0.024999673427744798 1.902039600898403e-06 0 -0.024998886768171625 6.0569386530865665e-07 0 -0.024999988079307596 6.936594207606834e-09 0 -0.024999988079307596 6.936594207606834e-09 0 -0.024998861429128081 1.5193067088408345e-07 0 -0.024999998931389041 -2.0276391117066541e-09 0 -0.024998886768171625 6.0569386530865665e-07 0 -0.024998861429128081 1.5193067088408345e-07 0 -0.024996864153772464 -5.2102099393784419e-07 0 -0.024998861429128081 1.5193067088408345e-07 0 -0.024999998931389041 -2.0276391117066541e-09 0 -0.024996864153772464 -5.2102099393784419e-07 0 -0.024999998931389041 -2.0276391117066541e-09 0 -0.024998191554678223 -5.2566711497755324e-07 0 -0.02499999454745221 1.0513839161325677e-10 0 -0.024999998931389041 -2.0276391117066541e-09 0 -0.024998191554678223 -5.2566711497755324e-07 0 -0.024996864153772464 -5.2102099393784419e-07 0 -0.024497987847127447 5.8279960044372819e-05 0 -0.02475424503371779 -9.1758285856865412e-05 0 -0.024111635159437192 0.00010521708260258359 0 -0.023934441215052758 4.0679291834796842e-05 0 -0.024036581036322818 -1.2074111733492286e-05 0 -0.024998191554678223 -5.2566711497755324e-07 0 -0.024996864153772464 -5.2102099393784419e-07 0 -0.02499648740362705 -1.2744232942989228e-06 0 -0.024111635159437192 0.00010521708260258359 0 -0.024145278967831287 -1.2032751487238693e-05 0 -0.024036581036322818 -1.2074111733492286e-05 0 -0.024297777512588173 1.4523695448893392e-05 0 -0.024111635159437192 0.00010521708260258359 0 -0.024145278967831287 -1.2032751487238693e-05 0 -0.024715425855861853 7.7322489246703998e-05 0 -0.024497987847127447 5.8279960044372819e-05 0 -0.024297777512588173 1.4523695448893392e-05 0 -0.024410198987599999 0.00015784174433814283 0 -0.024111635159437192 0.00010521708260258359 0 -0.024999995902747457 1.7744806345087521e-08 0 -0.024964594717975231 3.3450801264842758e-05 0 -0.025000487538177706 5.7219918351299298e-05 0 -0.024999995902747457 1.7744806345087521e-08 0 -0.024999898777111555 -1.4464923327822388e-08 0 -0.024964594717975231 3.3450801264842758e-05 0 -0.024998191554678223 -5.2566711497755324e-07 0 -0.02499999454745221 1.0513839161325677e-10 0 -0.02499648740362705 -1.2744232942989228e-06 0 -0.024999898777111555 -1.4464923327822388e-08 0 -0.02489507761172758 5.8742236627862976e-05 0 -0.024964594717975231 3.3450801264842758e-05 0 -0.025000036200509626 1.5055528560210748e-07 0 -0.02475424503371779 -9.1758285856865412e-05 0 -0.02489507761172758 5.8742236627862976e-05 0 -0.024964594717975231 3.3450801264842758e-05 0 -0.024943844023442088 7.8562802542038411e-05 0 -0.024964594717975231 3.3450801264842758e-05 0 -0.024943844023442088 7.8562802542038411e-05 0 -0.025000487538177706 5.7219918351299298e-05 0 -0.024943844023442088 7.8562802542038411e-05 0 -0.025000487538177706 5.7219918351299298e-05 0 -0.024891636684770183 0.00021785613077740192 0 -0.023477741134023362 0.00025227390032611386 0 -0.023616279986534892 4.5091782657863451e-05 0 -0.021299940623972155 0.00034738415791301898 0 -0.023616279986534892 4.5091782657863451e-05 0 -0.021299940623972155 0.00034738415791301898 0 -0.020959862447851571 0.00037074586278139046 0 -0.024339609816415645 0.00010544695645302035 0 -0.022165435709235515 0.00023969941279658281 0 -0.022220067248430439 0.00013836062040882438 0 -0.022161967276211919 0.00033388545487353247 0 -0.022527941968185559 1.3789992582887301e-05 0 -0.022588948887708526 -0.00028256901976736915 0 -0.022220067248430439 0.00013836062040882438 0 -0.021299940623972155 0.00034738415791301898 0 -0.022588948887708526 -0.00028256901976736915 0 -0.022220067248430439 0.00013836062040882438 0 -0.022527941968185559 1.3789992582887301e-05 0 -0.022996321613471298 -3.6532791073986795e-05 0 -0.021628809914711996 0.0003805767959476487 0 -0.022220067248430439 0.00013836062040882438 0 -0.021299940623972155 0.00034738415791301898 0 -0.02152645129173221 0.00037938394803137119 0 -0.02475424503371779 -9.1758285856865412e-05 0 -0.022577048606665196 0.00026116486829881234 0 -0.02489507761172758 5.8742236627862976e-05 0 -0.024810634864997221 0.00022981249047593027 0 -0.024891636684770183 0.00021785613077740192 0 -0.023934441215052758 4.0679291834796842e-05 0 -0.023990445560929604 -0.00011161949368138701 0 -0.024036581036322818 -1.2074111733492286e-05 0 -0.02489507761172758 5.8742236627862976e-05 0 -0.024943844023442088 7.8562802542038411e-05 0 -0.024891636684770183 0.00021785613077740192 0 -0.022165435709235515 0.00023969941279658281 0 -0.019103715493866226 0.0019739355131950047 0 -0.022577048606665196 0.00026116486829881234 0 -0.019103715493866226 0.0019739355131950047 0 -0.020923783691400116 6.9738509152081989e-05 0 -0.021989196139274091 -7.9938473617077353e-05 0 -0.02043879412121782 0.0022352058281691653 0 -0.022577048606665196 0.00026116486829881234 0 -0.022165435709235515 0.00023969941279658281 0 -0.021927089377215818 0.00017141792281085306 0 -0.019599775399493997 0.0016717094675806222 0 -0.022220067248430439 0.00013836062040882438 0 -0.02152645129173221 0.00037938394803137119 0 -0.020137979488612581 0.0018737714029470835 0 -0.021970256889488827 0.00026405641101767295 0 -0.020997364924637444 0.0010849817053931983 0 -0.022220067248430439 0.00013836062040882438 0 -0.022161967276211919 0.00033388545487353247 0 -0.018953636919028551 0.001395467372437889 0 -0.022161967276211919 0.00033388545487353247 0 -0.018953636919028551 0.001395467372437889 0 -0.020014785946099952 0.0015812516468230037 0 -0.020533287023473387 0.00031319774478687635 0 -0.02152645129173221 0.00037938394803137119 0 -0.020137979488612581 0.0018737714029470835 0 -0.022161967276211919 0.00033388545487353247 0 -0.021829220700210674 0.00068681657333554324 0 -0.022183770959062488 0.00056762451180747083 0 -0.021299940623972155 0.00034738415791301898 0 -0.020959862447851571 0.00037074586278139046 0 -0.02152645129173221 0.00037938394803137119 0 -0.022165435709235515 0.00023969941279658281 0 -0.021265707881178333 0.00036677327508298686 0 -0.024088599470469162 -9.0614046208456315e-05 0 -0.024240624352507366 -8.2336947791092563e-05 0 -0.024282725328990187 -0.00020753412423144514 0 -0.024009936780848437 -6.1560006278987625e-05 0 -0.024355813171562903 -0.00030095246167510277 0 -0.024297777512588173 1.4523695448893392e-05 0 -0.024240624352507366 -8.2336947791092563e-05 0 -0.024145278967831287 -1.2032751487238693e-05 0 -0.024088599470469162 -9.0614046208456315e-05 0 -0.024240624352507366 -8.2336947791092563e-05 0 -0.024145278967831287 -1.2032751487238693e-05 0 -0.024088599470469162 -9.0614046208456315e-05 0 -0.024145278967831287 -1.2032751487238693e-05 0 -0.024036581036322818 -1.2074111733492286e-05 0 -0.023990445560929604 -0.00011161949368138701 0 -0.024088599470469162 -9.0614046208456315e-05 0 -0.024036581036322818 -1.2074111733492286e-05 0 -0.019981704869008188 0.00087724149590257894 0 -0.019566336743835459 0.00094413068800722276 0 -0.019866668163585913 0.0012625143800987144 0 -0.023990445560929604 -0.00011161949368138701 0 -0.024088599470469162 -9.0614046208456315e-05 0 -0.024057479636039547 -6.9001110664532644e-05 0 -0.022577048606665196 0.00026116486829881234 0 -0.021525779650263897 0.0004891571509823083 0 -0.019193170324145879 0.0010130025758444236 0 -0.019566336743835459 0.00094413068800722276 0 -0.019550148821308556 0.0012535475234713512 0 -0.024088599470469162 -9.0614046208456315e-05 0 -0.024057479636039547 -6.9001110664532644e-05 0 -0.023959580342614042 -9.7278357203434501e-05 0 -0.019306755286464656 0.0014154826132088652 0 -0.019550148821308556 0.0012535475234713512 0 -0.019546712854499486 0.0016518439794190264 0 -0.017623930681501771 0.0037707571705591762 0 -0.017870359411003192 0.0026831896275771238 0 -0.016082918533687894 0.0038902008347446019 0 -0.019103715493866226 0.0019739355131950047 0 -0.017807690659853975 0.0027362726421651714 0 -0.017870359411003192 0.0026831896275771238 0 -0.018150232502403267 0.0021097715674034396 0 -0.016082918533687894 0.0038902008347446019 0 -0.019550148821308556 0.0012535475234713512 0 -0.019866668163585913 0.0012625143800987144 0 -0.019546712854499486 0.0016518439794190264 0 -0.019566336743835459 0.00094413068800722276 0 -0.019550148821308556 0.0012535475234713512 0 -0.019866668163585913 0.0012625143800987144 0 -0.018558407554144674 0.0025596417302567805 0 -0.019103715493866226 0.0019739355131950047 0 -0.017870359411003192 0.0026831896275771238 0 -0.018279124354809023 0.0020796176441161577 0 -0.020137979488612581 0.0018737714029470835 0 -0.020533287023473387 0.00031319774478687635 0 -0.018279124354809023 0.0020796176441161577 0 -0.020137979488612581 0.0018737714029470835 0 -0.018953636919028551 0.001395467372437889 0 -0.020014785946099952 0.0015812516468230037 0 -0.018444690608046051 0.0032536523670680237 0 -0.021829220700210674 0.00068681657333554324 0 -0.022094033373653777 0.00077322183670250409 0 -0.022183770959062488 0.00056762451180747083 0 -0.021829220700210674 0.00068681657333554324 0 -0.02184831175911927 0.0011172785689955833 0 -0.022094033373653777 0.00077322183670250409 0 -0.020997364924637444 0.0010849817053931983 0 -0.019881101549826675 0.0023207189092341886 0 -0.02184831175911927 0.0011172785689955833 0 -0.021631187139486818 0.0017784785781388677 0 -0.022100065570171707 0.0014393455751886741 0 -0.02184831175911927 0.0011172785689955833 0 -0.021338592716949354 0.0013652340727899452 0 -0.021631187139486818 0.0017784785781388677 0 -0.021829220700210674 0.00068681657333554324 0 -0.02184831175911927 0.0011172785689955833 0 -0.021338592716949354 0.0013652340727899452 0 -0.017159999929616223 0.003518193192892038 0 -0.019599775399493997 0.0016717094675806222 0 -0.017623930681501771 0.0037707571705591762 0 -0.017870359411003192 0.0026831896275771238 0 -0.020137979488612581 0.0018737714029470835 0 -0.016666017390762383 0.0033183660942427361 0 -0.018953636919028551 0.001395467372437889 0 -0.018444690608046051 0.0032536523670680237 0 -0.018444690608046051 0.0032536523670680237 0 -0.017080573285779211 0.0045476800184350704 0 -0.016605794969311114 0.0041630557302101282 0 -0.016666017390762383 0.0033183660942427361 0 -0.018444690608046051 0.0032536523670680237 0 -0.016605794969311114 0.0041630557302101282 0 -0.021338592716949354 0.0013652340727899452 0 -0.021631187139486818 0.0017784785781388677 0 -0.020917416198942634 0.0022705208694606058 0 -0.019881101549826675 0.0023207189092341886 0 -0.019238327370786661 0.0031917175466455554 0 -0.021631187139486818 0.0017784785781388677 0 -0.021988205929852841 0.0021229238100773091 0 -0.022100065570171707 0.0014393455751886741 0 -0.021631187139486818 0.0017784785781388677 0 -0.021478632808589523 0.0023163310187259019 0 -0.021988205929852841 0.0021229238100773091 0 -0.021631187139486818 0.0017784785781388677 0 -0.021478632808589523 0.0023163310187259019 0 -0.020917416198942634 0.0022705208694606058 0 -0.021025315926104848 0.0026217733565714889 0 -0.021915723324796701 0.0028047228863509539 0 -0.021478632808589523 0.0023163310187259019 0 -0.021915723324796701 0.0028047228863509539 0 -0.021478632808589523 0.0023163310187259019 0 -0.021988205929852841 0.0021229238100773091 0 -0.016581298646707283 0.0045186860653321972 0 -0.019238327370786661 0.0031917175466455554 0 -0.020886525223855232 0.0026902697452852445 0 -0.021025315926104848 0.0026217733565714889 0 -0.020917416198942634 0.0022705208694606058 0 -0.021025315926104848 0.0026217733565714889 0 -0.021478632808589523 0.0023163310187259019 0 -0.020917416198942634 0.0022705208694606058 0 -0.015652642900258831 0.0052537895728705522 0 -0.017080573285779211 0.0045476800184350704 0 -0.016079826898893087 0.0047241365575915965 0 -0.016079826898893087 0.0047241365575915965 0 -0.015524154325666933 0.0047891374121723498 0 -0.016605794969311114 0.0041630557302101282 0 -0.017080573285779211 0.0045476800184350704 0 -0.016079826898893087 0.0047241365575915965 0 -0.016605794969311114 0.0041630557302101282 0 -0.015396175357566043 0.0050655138936678912 0 -0.016079826898893087 0.0047241365575915965 0 -0.015524154325666933 0.0047891374121723498 0 -0.015396175357566043 0.0050655138936678912 0 -0.015652642900258831 0.0052537895728705522 0 -0.016079826898893087 0.0047241365575915965 0 -0.015135818557707155 0.0049903482132801838 0 -0.015396175357566043 0.0050655138936678912 0 -0.015524154325666933 0.0047891374121723498 0 -0.01491796931158379 0.004862722717080741 0 -0.015524154325666933 0.0047891374121723498 0 -0.016082918533687894 0.0038902008347446019 0 -0.015135818557707155 0.0049903482132801838 0 -0.01491796931158379 0.004862722717080741 0 -0.015524154325666933 0.0047891374121723498 0 -0.017086913200404067 0.0034461892233378687 0 -0.017807690659853975 0.0027362726421651714 0 -0.017159999929616223 0.003518193192892038 0 -0.015679146018566403 0.0047346368290118873 0 -0.016666017390762383 0.0033183660942427361 0 -0.015524154325666933 0.0047891374121723498 0 -0.016605794969311114 0.0041630557302101282 0 -0.017623930681501771 0.0037707571705591762 0 -0.015524154325666933 0.0047891374121723498 0 -0.016082918533687894 0.0038902008347446019 0 -0.023826469034941726 0.0014821645897425233 0 -0.023494465990801575 0.0018849674676311376 0 -0.023013805896713528 0.0015616856756927049 0 -0.023494465990801575 0.0018849674676311376 0 -0.023079862567042638 0.0019059240510206953 0 -0.023013805896713528 0.0015616856756927049 0 -0.024199248595677396 0.0015126333994711424 0 -0.023993537991262276 0.0017947091307853409 0 -0.024404461890423113 0.0019072016208634046 0 -0.023826469034941726 0.0014821645897425233 0 -0.024199248595677396 0.0015126333994711424 0 -0.024147936241942388 0.0012679689584631222 0 -0.023826469034941726 0.0014821645897425233 0 -0.023993537991262276 0.0017947091307853409 0 -0.023494465990801575 0.0018849674676311376 0 -0.023826469034941726 0.0014821645897425233 0 -0.024199248595677396 0.0015126333994711424 0 -0.023993537991262276 0.0017947091307853409 0 -0.023993537991262276 0.0017947091307853409 0 -0.024010251088270814 0.0021124645418915348 0 -0.024404461890423113 0.0019072016208634046 0 -0.019559593577916101 0.00094673671445984285 0 -0.024745412605687727 0.0028401093771539755 0 -0.023993537991262276 0.0017947091307853409 0 -0.024010251088270814 0.0021124645418915348 0 -0.023494465990801575 0.0018849674676311376 0 -0.023878885682540082 0.0024140768103163698 0 -0.024010251088270814 0.0021124645418915348 0 -0.023494465990801575 0.0018849674676311376 0 -0.023326944369776621 0.002524679099561767 0 -0.023494465990801575 0.0018849674676311376 0 -0.023076260327385859 0.0022127932401757818 0 -0.023696538255695981 0.0026284759512917011 0 -0.023326944369776621 0.002524679099561767 0 -0.023494465990801575 0.0018849674676311376 0 -0.023494465990801575 0.0018849674676311376 0 -0.023076260327385859 0.0022127932401757818 0 -0.023079862567042638 0.0019059240510206953 0 -0.022740737253628768 0.0019968667806339138 0 -0.022380230583900363 0.0022440483008257192 0 -0.022476681327587206 0.0016860838999358781 0 -0.022935013187254917 0.0026044970805496957 0 -0.02278214918267097 0.0022649773619983541 0 -0.022380230583900363 0.0022440483008257192 0 -0.023076260327385859 0.0022127932401757818 0 -0.02278214918267097 0.0022649773619983541 0 -0.022740737253628768 0.0019968667806339138 0 -0.022935013187254917 0.0026044970805496957 0 -0.023076260327385859 0.0022127932401757818 0 -0.02278214918267097 0.0022649773619983541 0 -0.02278214918267097 0.0022649773619983541 0 -0.022740737253628768 0.0019968667806339138 0 -0.022380230583900363 0.0022440483008257192 0 -0.023076260327385859 0.0022127932401757818 0 -0.022740737253628768 0.0019968667806339138 0 -0.023079862567042638 0.0019059240510206953 0 -0.022031672047656648 0.0025230528206813901 0 -0.022380230583900363 0.0022440483008257192 0 -0.022084461573596028 0.0019504130143398054 0 -0.022380230583900363 0.0022440483008257192 0 -0.022084461573596028 0.0019504130143398054 0 -0.022476681327587206 0.0016860838999358781 0 -0.019519575580259598 0.0023697722200902282 0 -0.02202873828217965 0.0020551672544184851 0 -0.022084461573596028 0.0019504130143398054 0 -0.022476681327587206 0.0016860838999358781 0 -0.022100065570171707 0.0014393455751886741 0 -0.02202873828217965 0.0020551672544184851 0 -0.022085051223917306 0.0014915807806381303 0 -0.022476681327587206 0.0016860838999358781 0 -0.022566713036911937 0.0012031467881742238 0 -0.022100065570171707 0.0014393455751886741 0 -0.022740737253628768 0.0019968667806339138 0 -0.023079862567042638 0.0019059240510206953 0 -0.023013805896713528 0.0015616856756927049 0 -0.022740737253628768 0.0019968667806339138 0 -0.022476681327587206 0.0016860838999358781 0 -0.023013805896713528 0.0015616856756927049 0 -0.022476681327587206 0.0016860838999358781 0 -0.023013805896713528 0.0015616856756927049 0 -0.022566713036911937 0.0012031467881742238 0 -0.023013805896713528 0.0015616856756927049 0 -0.022566713036911937 0.0012031467881742238 0 -0.023040607845366823 0.00088142224293226098 0 -0.022566713036911937 0.0012031467881742238 0 -0.02241476337129494 0.00080091827361619499 0 -0.023040607845366823 0.00088142224293226098 0 -0.022566713036911937 0.0012031467881742238 0 -0.022100065570171707 0.0014393455751886741 0 -0.02219236229847207 0.0010064220546757141 0 -0.022566713036911937 0.0012031467881742238 0 -0.02219236229847207 0.0010064220546757141 0 -0.02241476337129494 0.00080091827361619499 0 -0.02184831175911927 0.0011172785689955833 0 -0.02219236229847207 0.0010064220546757141 0 -0.022094033373653777 0.00077322183670250409 0 -0.02184831175911927 0.0011172785689955833 0 -0.022100065570171707 0.0014393455751886741 0 -0.02219236229847207 0.0010064220546757141 0 -0.02219236229847207 0.0010064220546757141 0 -0.022094033373653777 0.00077322183670250409 0 -0.02241476337129494 0.00080091827361619499 0 -0.02241476337129494 0.00080091827361619499 0 -0.022183770959062488 0.00056762451180747083 0 -0.022472311534677745 0.00049027406664884298 0 -0.022094033373653777 0.00077322183670250409 0 -0.02241476337129494 0.00080091827361619499 0 -0.022183770959062488 0.00056762451180747083 0 -0.023933243258631578 0.0010051194406195758 0 -0.024081677057410999 0.00068723663957451957 0 -0.023712199832875067 0.0008303568520046117 0 -0.023495745790666156 0.00098968599984169394 0 -0.023073312571320302 0.00062010806818078444 0 -0.02241476337129494 0.00080091827361619499 0 -0.023040607845366823 0.00088142224293226098 0 -0.022472311534677745 0.00049027406664884298 0 -0.024228345452845773 0.00073244630972790932 0 -0.023933243258631578 0.0010051194406195758 0 -0.024102551888428879 0.0010332177842956466 0 -0.024228345452845773 0.00073244630972790932 0 -0.023933243258631578 0.0010051194406195758 0 -0.024081677057410999 0.00068723663957451957 0 -0.023826469034941726 0.0014821645897425233 0 -0.023933243258631578 0.0010051194406195758 0 -0.024102551888428879 0.0010332177842956466 0 -0.023826469034941726 0.0014821645897425233 0 -0.023013805896713528 0.0015616856756927049 0 -0.023040607845366823 0.00088142224293226098 0 -0.023833690936935964 0.0014666660126270116 0 -0.023495745790666156 0.00098968599984169394 0 -0.023826469034941726 0.0014821645897425233 0 -0.024147936241942388 0.0012679689584631222 0 -0.024102551888428879 0.0010332177842956466 0 -0.024199248595677396 0.0015126333994711424 0 -0.024147936241942388 0.0012679689584631222 0 -0.024486479105537359 0.0012943396402933978 0 -0.024147936241942388 0.0012679689584631222 0 -0.024320158574439636 0.0010553226188016033 0 -0.024486479105537359 0.0012943396402933978 0 -0.024147936241942388 0.0012679689584631222 0 -0.024102551888428879 0.0010332177842956466 0 -0.024320158574439636 0.0010553226188016033 0 -0.024102551888428879 0.0010332177842956466 0 -0.024320158574439636 0.0010553226188016033 0 -0.02439821871812493 0.00076577730463416342 0 -0.024228345452845773 0.00073244630972790932 0 -0.024102551888428879 0.0010332177842956466 0 -0.02439821871812493 0.00076577730463416342 0 -0.024228345452845773 0.00073244630972790932 0 -0.02439821871812493 0.00076577730463416342 0 -0.024497396200356618 0.00050045441218289285 0 -0.02439821871812493 0.00076577730463416342 0 -0.024497396200356618 0.00050045441218289285 0 -0.024673388857176383 0.00045435461748238984 0 -0.024497396200356618 0.00050045441218289285 0 -0.024424945058602796 0.00038471693019280414 0 -0.024655014626386453 0.00031220794302175416 0 -0.024228345452845773 0.00073244630972790932 0 -0.024497396200356618 0.00050045441218289285 0 -0.024424945058602796 0.00038471693019280414 0 -0.024228345452845773 0.00073244630972790932 0 -0.024081677057410999 0.00068723663957451957 0 -0.024424945058602796 0.00038471693019280414 0 -0.024081677057410999 0.00068723663957451957 0 -0.024424945058602796 0.00038471693019280414 0 -0.024072164731285452 0.0003259697835240254 0 -0.024424945058602796 0.00038471693019280414 0 -0.024399231161117526 0.00014684431779325721 0 -0.024072164731285452 0.0003259697835240254 0 -0.024424945058602796 0.00038471693019280414 0 -0.024399231161117526 0.00014684431779325721 0 -0.024664416385063132 0.00010544188978008953 0 -0.024424945058602796 0.00038471693019280414 0 -0.024664416385063132 0.00010544188978008953 0 -0.024655014626386453 0.00031220794302175416 0 -0.022161967276211919 0.00033388545487353247 0 -0.022472311534677745 0.00049027406664884298 0 -0.022527941968185559 1.3789992582887301e-05 0 -0.022161967276211919 0.00033388545487353247 0 -0.022183770959062488 0.00056762451180747083 0 -0.022472311534677745 0.00049027406664884298 0 -0.023073312571320302 0.00062010806818078444 0 -0.022540965813769624 1.6873035858731101e-05 0 -0.023712199832875067 0.0008303568520046117 0 -0.024072164731285452 0.0003259697835240254 0 -0.02352217435670045 0.00020447276569885247 0 -0.024081677057410999 0.00068723663957451957 0 -0.023712199832875067 0.0008303568520046117 0 -0.024072164731285452 0.0003259697835240254 0 -0.024399231161117526 0.00014684431779325721 0 -0.024072164731285452 0.0003259697835240254 0 -0.024210873899314918 -7.3771590589213367e-05 0 -0.024072164731285452 0.0003259697835240254 0 -0.023759103969978865 -4.6380245177570478e-06 0 -0.024210873899314918 -7.3771590589213367e-05 0 -0.024072164731285452 0.0003259697835240254 0 -0.023759103969978865 -4.6380245177570478e-06 0 -0.02352217435670045 0.00020447276569885247 0 -0.023712199832875067 0.0008303568520046117 0 -0.02352217435670045 0.00020447276569885247 0 -0.022527941968185559 1.3789992582887301e-05 0 -0.02352217435670045 0.00020447276569885247 0 -0.023251484900834951 -0.00010352048813492614 0 -0.022527941968185559 1.3789992582887301e-05 0 -0.023759103969978865 -4.6380245177570478e-06 0 -0.02352217435670045 0.00020447276569885247 0 -0.023251484900834951 -0.00010352048813492614 0 -0.022588948887708526 -0.00028256901976736915 0 -0.023251484900834951 -0.00010352048813492614 0 -0.022527941968185559 1.3789992582887301e-05 0 -0.023759103969978865 -4.6380245177570478e-06 0 -0.023251484900834951 -0.00010352048813492614 0 -0.023907455703278895 -0.0004165328647128759 0 -0.022588948887708526 -0.00028256901976736915 0 -0.023251484900834951 -0.00010352048813492614 0 -0.023907455703278895 -0.0004165328647128759 0 -0.022996321613471298 -3.6532791073986795e-05 0 -0.024214939297549597 -0.00012503675630264784 0 -0.023477741134023362 0.00025227390032611386 0 -0.023616279986534892 4.5091782657863451e-05 0 -0.02463406128535954 0.00010161999405663913 0 -0.023759103969978865 -4.6380245177570478e-06 0 -0.024210873899314918 -7.3771590589213367e-05 0 -0.023907455703278895 -0.0004165328647128759 0 -0.024210873899314918 -7.3771590589213367e-05 0 -0.024556945253523609 -0.00015377019088017098 0 -0.023907455703278895 -0.0004165328647128759 0 -0.024210873899314918 -7.3771590589213367e-05 0 -0.024556945253523609 -0.00015377019088017098 0 -0.024536603360198413 -3.4342417476436231e-05 0 -0.024556945253523609 -0.00015377019088017098 0 -0.024998496393334152 -8.9262915907517919e-07 0 -0.023907455703278895 -0.0004165328647128759 0 -0.025000639952200764 2.3722136059542892e-07 0 -0.02463406128535954 0.00010161999405663913 0 -0.024998913370666009 -4.8469651137552204e-07 0 -0.024999616703814106 -2.9206754414578545e-08 0 -0.024214939297549597 -0.00012503675630264784 0 -0.024999995902747457 1.7744806345087521e-08 0 -0.025000487538177706 5.7219918351299298e-05 0 -0.025000041749625553 -8.1032313344808377e-09 0 -0.023616279986534892 4.5091782657863451e-05 0 -0.02463406128535954 0.00010161999405663913 0 -0.024998913370666009 -4.8469651137552204e-07 0 -0.024339609816415645 0.00010544695645302035 0 -0.024999640707191947 1.3715245502838883e-07 0 -0.024664416385063132 0.00010544188978008953 0 -0.024753781179467253 -6.0377759240423774e-05 0 -0.024859011513285848 3.4779292159625411e-05 0 -0.024664416385063132 0.00010544188978008953 0 -0.024859011513285848 3.4779292159625411e-05 0 -0.024810096197526499 0.00016850191999663654 0 -0.024399231161117526 0.00014684431779325721 0 -0.024664416385063132 0.00010544188978008953 0 -0.024536603360198413 -3.4342417476436231e-05 0 -0.024399231161117526 0.00014684431779325721 0 -0.024210873899314918 -7.3771590589213367e-05 0 -0.024536603360198413 -3.4342417476436231e-05 0 -0.024556945253523609 -0.00015377019088017098 0 -0.024536603360198413 -3.4342417476436231e-05 0 -0.024753781179467253 -6.0377759240423774e-05 0 -0.024664416385063132 0.00010544188978008953 0 -0.024536603360198413 -3.4342417476436231e-05 0 -0.024753781179467253 -6.0377759240423774e-05 0 -0.024998496393334152 -8.9262915907517919e-07 0 -0.024753781179467253 -6.0377759240423774e-05 0 -0.024999866533974378 1.7741821752527758e-07 0 -0.024556945253523609 -0.00015377019088017098 0 -0.024998496393334152 -8.9262915907517919e-07 0 -0.024753781179467253 -6.0377759240423774e-05 0 -0.024753781179467253 -6.0377759240423774e-05 0 -0.024859011513285848 3.4779292159625411e-05 0 -0.024999866533974378 1.7741821752527758e-07 0 -0.024859011513285848 3.4779292159625411e-05 0 -0.024999866533974378 1.7741821752527758e-07 0 -0.024999751828488043 -7.492192037354578e-08 0 -0.024859011513285848 3.4779292159625411e-05 0 -0.024999751828488043 -7.492192037354578e-08 0 -0.024810096197526499 0.00016850191999663654 0 -0.02480710581391116 0.00016220562471251537 0 -0.024817339324019 0.00012218588784704181 0 -0.024810096197526499 0.00016850191999663654 0 -0.024668381446300149 0.00023732908592897009 0 -0.024614098306050505 0.00021402565392465806 0 -0.024999751828488043 -7.492192037354578e-08 0 -0.024810096197526499 0.00016850191999663654 0 -0.025010811514642253 3.0442813235574498e-05 0 -0.024999751828488043 -7.492192037354578e-08 0 -0.02500009930673832 7.0250427717407152e-08 0 -0.025010811514642253 3.0442813235574498e-05 0 -0.02500009930673832 7.0250427717407152e-08 0 -0.025010811514642253 3.0442813235574498e-05 0 -0.024999970272798336 -3.717444571802235e-08 0 -0.024614098306050505 0.00021402565392465806 0 -0.024999024565395336 1.9672584252379042e-07 0 -0.024762949998186859 0.00018899327622287686 0 -0.024817339324019 0.00012218588784704181 0 -0.024999956145971572 3.0078109592772508e-08 0 -0.024651431152453149 0.00024939546195845203 0 -0.024762949998186859 0.00018899327622287686 0 -0.024644089258479537 0.00025831375892527368 0 -0.024668381446300149 0.00023732908592897009 0 -0.024614098306050505 0.00021402565392465806 0 -0.024644089258479537 0.00025831375892527368 0 -0.024614098306050505 0.00021402565392465806 0 -0.024762949998186859 0.00018899327622287686 0 -0.024644089258479537 0.00025831375892527368 0 -0.024668381446300149 0.00023732908592897009 0 -0.024644089258479537 0.00025831375892527368 0 -0.024606992507079414 0.00030016363229803077 0 -0.024644089258479537 0.00025831375892527368 0 -0.024606992507079414 0.00030016363229803077 0 -0.024544283517434776 0.00030403249800348961 0 -0.024651431152453149 0.00024939546195845203 0 -0.024644089258479537 0.00025831375892527368 0 -0.024544283517434776 0.00030403249800348961 0 -0.024651431152453149 0.00024939546195845203 0 -0.024544283517434776 0.00030403249800348961 0 -0.024516066574511025 0.00029256913096642402 0 -0.024544283517434776 0.00030403249800348961 0 -0.024485882664041309 0.00031355464631111803 0 -0.024360980513038488 0.00031050721688841788 0 -0.024606992507079414 0.00030016363229803077 0 -0.024485882664041309 0.00031355464631111803 0 -0.024594906823108786 0.00033869404633399486 0 -0.024606992507079414 0.00030016363229803077 0 -0.024544283517434776 0.00030403249800348961 0 -0.024485882664041309 0.00031355464631111803 0 -0.024606992507079414 0.00030016363229803077 0 -0.024594906823108786 0.00033869404633399486 0 -0.024690130308830622 0.00030121838039251974 0 -0.024594906823108786 0.00033869404633399486 0 -0.024673388857176383 0.00045435461748238984 0 -0.024690130308830622 0.00030121838039251974 0 -0.024497396200356618 0.00050045441218289285 0 -0.024673388857176383 0.00045435461748238984 0 -0.024655014626386453 0.00031220794302175416 0 -0.024673388857176383 0.00045435461748238984 0 -0.024655014626386453 0.00031220794302175416 0 -0.024690130308830622 0.00030121838039251974 0 -0.024810096197526499 0.00016850191999663654 0 -0.024655014626386453 0.00031220794302175416 0 -0.024690130308830622 0.00030121838039251974 0 -0.024664416385063132 0.00010544188978008953 0 -0.024810096197526499 0.00016850191999663654 0 -0.024655014626386453 0.00031220794302175416 0 -0.024668381446300149 0.00023732908592897009 0 -0.024606992507079414 0.00030016363229803077 0 -0.024690130308830622 0.00030121838039251974 0 -0.024810096197526499 0.00016850191999663654 0 -0.024668381446300149 0.00023732908592897009 0 -0.024690130308830622 0.00030121838039251974 0 -0.0246495373764134 0.00017929634261031559 0 -0.024382882916588973 0.00036031981534284988 0 -0.024828706293465997 9.1495847128988868e-05 0 -0.024999624080130171 1.927137581512219e-08 0 -0.0246495373764134 0.00017929634261031559 0 -0.024828706293465997 9.1495847128988868e-05 0 -0.024999624080130171 1.927137581512219e-08 0 -0.0246495373764134 0.00017929634261031559 0 -0.024999771506026568 1.3556117269085574e-07 0 -0.0246495373764134 0.00017929634261031559 0 -0.024734890621011318 0.00018512108476488495 0 -0.024506252199368708 0.00027238088640217748 0 -0.0246495373764134 0.00017929634261031559 0 -0.024999771506026568 1.3556117269085574e-07 0 -0.024734890621011318 0.00018512108476488495 0 -0.024999024565395336 1.9672584252379042e-07 0 -0.024999771506026568 1.3556117269085574e-07 0 -0.024734890621011318 0.00018512108476488495 0 -0.024999024565395336 1.9672584252379042e-07 0 -0.024762949998186859 0.00018899327622287686 0 -0.024734890621011318 0.00018512108476488495 0 -0.024651431152453149 0.00024939546195845203 0 -0.024734890621011318 0.00018512108476488495 0 -0.024516066574511025 0.00029256913096642402 0 -0.024651431152453149 0.00024939546195845203 0 -0.024762949998186859 0.00018899327622287686 0 -0.024734890621011318 0.00018512108476488495 0 -0.024544283517434776 0.00030403249800348961 0 -0.024516066574511025 0.00029256913096642402 0 -0.024360980513038488 0.00031050721688841788 0 -0.024516066574511025 0.00029256913096642402 0 -0.024360980513038488 0.00031050721688841788 0 -0.024310682600246339 0.00032073842482637177 0 -0.024310682600246339 0.00032073842482637177 0 -0.024506252199368708 0.00027238088640217748 0 -0.024301518797666902 0.00034106104817827369 0 -0.024516066574511025 0.00029256913096642402 0 -0.024310682600246339 0.00032073842482637177 0 -0.024506252199368708 0.00027238088640217748 0 -0.024734890621011318 0.00018512108476488495 0 -0.024516066574511025 0.00029256913096642402 0 -0.024506252199368708 0.00027238088640217748 0 -0.0246495373764134 0.00017929634261031559 0 -0.024506252199368708 0.00027238088640217748 0 -0.024301518797666902 0.00034106104817827369 0 -0.0246495373764134 0.00017929634261031559 0 -0.024301518797666902 0.00034106104817827369 0 -0.024382882916588973 0.00036031981534284988 0 -0.024301518797666902 0.00034106104817827369 0 -0.024041182709082634 0.00036230802873816326 0 -0.024009079417898958 0.00030775536915789869 0 -0.024310682600246339 0.00032073842482637177 0 -0.024301518797666902 0.00034106104817827369 0 -0.024009079417898958 0.00030775536915789869 0 -0.024301518797666902 0.00034106104817827369 0 -0.024041182709082634 0.00036230802873816326 0 -0.024382882916588973 0.00036031981534284988 0 -0.024041182709082634 0.00036230802873816326 0 -0.024382882916588973 0.00036031981534284988 0 -0.023891287664504282 0.00037479185357621538 0 -0.023420787354916508 0.00017968817854628323 0 -0.023644843983224754 0.00019678600004338501 0 -0.023233105068088556 2.9393418048097724e-05 0 -0.023420787354916508 0.00017968817854628323 0 -0.023644843983224754 0.00019678600004338501 0 -0.023771808415587289 0.00030843442927171513 0 -0.023420787354916508 0.00017968817854628323 0 -0.023771808415587289 0.00030843442927171513 0 -0.023563710842188786 0.00035656724909378132 0 -0.023891287664504282 0.00037479185357621538 0 -0.023771808415587289 0.00030843442927171513 0 -0.023563710842188786 0.00035656724909378132 0 -0.024041182709082634 0.00036230802873816326 0 -0.023891287664504282 0.00037479185357621538 0 -0.023771808415587289 0.00030843442927171513 0 -0.024041182709082634 0.00036230802873816326 0 -0.023771808415587289 0.00030843442927171513 0 -0.024009079417898958 0.00030775536915789869 0 -0.023644843983224754 0.00019678600004338501 0 -0.023771808415587289 0.00030843442927171513 0 -0.024009079417898958 0.00030775536915789869 0 -0.023644843983224754 0.00019678600004338501 0 -0.024009079417898958 0.00030775536915789869 0 -0.023805467818176829 0.00019498900207888553 0 -0.023644843983224754 0.00019678600004338501 0 -0.023805467818176829 0.00019498900207888553 0 -0.023547000272670256 9.6528474901669769e-05 0 -0.024009079417898958 0.00030775536915789869 0 -0.023805467818176829 0.00019498900207888553 0 -0.024006462071683853 0.00022344654703904097 0 -0.023805467818176829 0.00019498900207888553 0 -0.024006462071683853 0.00022344654703904097 0 -0.023701486280101373 8.7973090185452997e-05 0 -0.024009079417898958 0.00030775536915789869 0 -0.024006462071683853 0.00022344654703904097 0 -0.024181907774453667 0.00029190063026584976 0 -0.024310682600246339 0.00032073842482637177 0 -0.024009079417898958 0.00030775536915789869 0 -0.024181907774453667 0.00029190063026584976 0 -0.024006462071683853 0.00022344654703904097 0 -0.024181907774453667 0.00029190063026584976 0 -0.024203940201886685 0.00025887503227338708 0 -0.024360980513038488 0.00031050721688841788 0 -0.024203940201886685 0.00025887503227338708 0 -0.024329136137110585 0.00025762395813360084 0 -0.024360980513038488 0.00031050721688841788 0 -0.024310682600246339 0.00032073842482637177 0 -0.024181907774453667 0.00029190063026584976 0 -0.024360980513038488 0.00031050721688841788 0 -0.024181907774453667 0.00029190063026584976 0 -0.024203940201886685 0.00025887503227338708 0 -0.024006462071683853 0.00022344654703904097 0 -0.024147319896990083 0.00017335678815072624 0 -0.023918576802077703 8.8232286459425616e-05 0 -0.024006462071683853 0.00022344654703904097 0 -0.024203940201886685 0.00025887503227338708 0 -0.024147319896990083 0.00017335678815072624 0 -0.024147319896990083 0.00017335678815072624 0 -0.023918576802077703 8.8232286459425616e-05 0 -0.024104047523503074 3.5893972467649732e-05 0 -0.023918576802077703 8.8232286459425616e-05 0 -0.023852469519479672 -6.81251601862272e-05 0 -0.024104047523503074 3.5893972467649732e-05 0 -0.023918576802077703 8.8232286459425616e-05 0 -0.023852469519479672 -6.81251601862272e-05 0 -0.023539083019354919 -5.2119995559811273e-05 0 -0.023852469519479672 -6.81251601862272e-05 0 -0.023539083019354919 -5.2119995559811273e-05 0 -0.023486946055497327 -0.00022253853381816325 0 -0.023918576802077703 8.8232286459425616e-05 0 -0.023539083019354919 -5.2119995559811273e-05 0 -0.023701486280101373 8.7973090185452997e-05 0 -0.024006462071683853 0.00022344654703904097 0 -0.023918576802077703 8.8232286459425616e-05 0 -0.023701486280101373 8.7973090185452997e-05 0 -0.023805467818176829 0.00019498900207888553 0 -0.023701486280101373 8.7973090185452997e-05 0 -0.023547000272670256 9.6528474901669769e-05 0 -0.023701486280101373 8.7973090185452997e-05 0 -0.023547000272670256 9.6528474901669769e-05 0 -0.0233151511463957 -2.7160285081287367e-05 0 -0.023539083019354919 -5.2119995559811273e-05 0 -0.0233151511463957 -2.7160285081287367e-05 0 -0.023073987315796528 -0.00019106786014167092 0 -0.023539083019354919 -5.2119995559811273e-05 0 -0.023701486280101373 8.7973090185452997e-05 0 -0.0233151511463957 -2.7160285081287367e-05 0 -0.0233151511463957 -2.7160285081287367e-05 0 -0.022818722554540285 -0.00016183818496708993 0 -0.023073987315796528 -0.00019106786014167092 0 -0.0233151511463957 -2.7160285081287367e-05 0 -0.023233105068088556 2.9393418048097724e-05 0 -0.022818722554540285 -0.00016183818496708993 0 -0.023547000272670256 9.6528474901669769e-05 0 -0.0233151511463957 -2.7160285081287367e-05 0 -0.023233105068088556 2.9393418048097724e-05 0 -0.023644843983224754 0.00019678600004338501 0 -0.023547000272670256 9.6528474901669769e-05 0 -0.023233105068088556 2.9393418048097724e-05 0 -0.024568484946576142 0.00022784603897714649 0 -0.024486618859730996 0.00014210631317253467 0 -0.024673257457261982 0.00015673068446198741 0 -0.024568484946576142 0.00022784603897714649 0 -0.024486618859730996 0.00014210631317253467 0 -0.024475368169437378 0.00026036041025371556 0 -0.024652942147464562 0.0014664645020125708 0 -0.022729152698369504 0.00095846577913541009 0 -0.024320158574439636 0.0010553226188016033 0 -0.024653063933931265 0.0013468580594258473 0 -0.024670468764679078 0.00090493924418472399 0 -0.024568484946576142 0.00022784603897714649 0 -0.024673257457261982 0.00015673068446198741 0 -0.024683868198242143 0.00028596533882670498 0 -0.022729152698369504 0.00095846577913541009 0 -0.024589596601676398 0.00056141113986564386 0 -0.024320158574439636 0.0010553226188016033 0 -0.02439821871812493 0.00076577730463416342 0 -0.024670468764679078 0.00090493924418472399 0 -0.02439821871812493 0.00076577730463416342 0 -0.024673388857176383 0.00045435461748238984 0 -0.024670468764679078 0.00090493924418472399 0 -0.024673388857176383 0.00045435461748238984 0 -0.024683868198242143 0.00028596533882670498 0 -0.024593082227465906 0.00031582849217763582 0 -0.024667256602364906 0.00048238408886771823 0 -0.024589596601676398 0.00056141113986564386 0 -0.024594906823108786 0.00033869404633399486 0 -0.024673388857176383 0.00045435461748238984 0 -0.024593082227465906 0.00031582849217763582 0 -0.024594906823108786 0.00033869404633399486 0 -0.024593082227465906 0.00031582849217763582 0 -0.024475368169437378 0.00026036041025371556 0 -0.024568484946576142 0.00022784603897714649 0 -0.024683868198242143 0.00028596533882670498 0 -0.024593082227465906 0.00031582849217763582 0 -0.024568484946576142 0.00022784603897714649 0 -0.024593082227465906 0.00031582849217763582 0 -0.024475368169437378 0.00026036041025371556 0 -0.024485882664041309 0.00031355464631111803 0 -0.024475368169437378 0.00026036041025371556 0 -0.024329136137110585 0.00025762395813360084 0 -0.024485882664041309 0.00031355464631111803 0 -0.024594906823108786 0.00033869404633399486 0 -0.024475368169437378 0.00026036041025371556 0 -0.024485882664041309 0.00031355464631111803 0 -0.024360980513038488 0.00031050721688841788 0 -0.024329136137110585 0.00025762395813360084 0 -0.024147319896990083 0.00017335678815072624 0 -0.024329136137110585 0.00025762395813360084 0 -0.02432853983733704 0.00012805523187240324 0 -0.024203940201886685 0.00025887503227338708 0 -0.024147319896990083 0.00017335678815072624 0 -0.024329136137110585 0.00025762395813360084 0 -0.024475368169437378 0.00026036041025371556 0 -0.024329136137110585 0.00025762395813360084 0 -0.02432853983733704 0.00012805523187240324 0 -0.024486618859730996 0.00014210631317253467 0 -0.024475368169437378 0.00026036041025371556 0 -0.02432853983733704 0.00012805523187240324 0 -0.024486618859730996 0.00014210631317253467 0 -0.02432853983733704 0.00012805523187240324 0 -0.024477877144257105 -1.0153856027133654e-05 0 -0.024147319896990083 0.00017335678815072624 0 -0.02432853983733704 0.00012805523187240324 0 -0.024104047523503074 3.5893972467649732e-05 0 -0.02432853983733704 0.00012805523187240324 0 -0.024104047523503074 3.5893972467649732e-05 0 -0.024202347197830862 -0.00019490634465274117 0 -0.023852469519479672 -6.81251601862272e-05 0 -0.024202347197830862 -0.00019490634465274117 0 -0.02384712339470826 -0.00022509582277507035 0 -0.023852469519479672 -6.81251601862272e-05 0 -0.024104047523503074 3.5893972467649732e-05 0 -0.024202347197830862 -0.00019490634465274117 0 -0.02432853983733704 0.00012805523187240324 0 -0.024202347197830862 -0.00019490634465274117 0 -0.024477877144257105 -1.0153856027133654e-05 0 -0.016557261829693731 -0.0012925193075363729 0 -0.017643411496214529 -0.00021379614076855711 0 -0.017773133962382507 -0.0012291399383365183 0 -0.020434803282987968 -0.00071116110957923499 0 -0.020871501919710777 -0.00023762966589993304 0 -0.017643411496214529 -0.00021379614076855711 0 -0.018795869191532651 -0.00053170828755210202 0 -0.017773133962382507 -0.0012291399383365183 0 -0.022729152698369504 0.00095846577913541009 0 -0.020871501919710777 -0.00023762966589993304 0 -0.024486618859730996 0.00014210631317253467 0 -0.024673257457261982 0.00015673068446198741 0 -0.024477877144257105 -1.0153856027133654e-05 0 -0.022729152698369504 0.00095846577913541009 0 -0.021732258361697197 0.00089571357160640676 0 -0.018853415025899458 0.00082387358285940617 0 -0.017643411496214529 -0.00021379614076855711 0 -0.018795869191532651 -0.00053170828755210202 0 -0.024199248595677396 0.0015126333994711424 0 -0.024486479105537359 0.0012943396402933978 0 -0.024404461890423113 0.0019072016208634046 0 -0.018795869191532651 -0.00053170828755210202 0 -0.018718676572618432 -0.0018137191814289635 0 -0.017773133962382507 -0.0012291399383365183 0 -0.021732258361697197 0.00089571357160640676 0 -0.018668531113061035 -0.00063253623266277387 0 -0.024010251088270814 0.0021124645418915348 0 -0.024404461890423113 0.0019072016208634046 0 -0.024159242451482453 0.0022555651629661932 0 -0.024404461890423113 0.0019072016208634046 0 -0.024159242451482453 0.0022555651629661932 0 -0.024303818010824145 0.0024719128299054683 0 -0.024049347414788314 0.0024455148276458457 0 -0.024159242451482453 0.0022555651629661932 0 -0.024303818010824145 0.0024719128299054683 0 -0.018668531113061035 -0.00063253623266277387 0 -0.016964768009418759 -0.0013852626967527661 0 -0.019100481534853723 -2.653381686715861e-05 0 -0.017951872549214914 -0.00016524442850304567 0 -0.017951247590841889 -0.00034500073881993252 0 -0.01927232403519475 0.0001970853394957435 0 -0.018668531113061035 -0.00063253623266277387 0 -0.01927232403519475 0.0001970853394957435 0 -0.016964768009418759 -0.0013852626967527661 0 -0.018718676572618432 -0.0018137191814289635 0 -0.017773133962382507 -0.0012291399383365183 0 -0.017293627280448216 -0.0022113971783369059 0 -0.018718676572618432 -0.0018137191814289635 0 -0.018716870597336177 -0.0019081974984538907 0 -0.017293627280448216 -0.0022113971783369059 0 -0.014001062114755171 -0.0026514197612987054 0 -0.014336259517448624 -0.0022344032356415781 0 -0.014850138241657325 -0.0024981870445517328 0 -0.016964768009418759 -0.0013852626967527661 0 -0.015932074641408507 -0.0024699762665777781 0 -0.014336259517448624 -0.0022344032356415781 0 -0.014867650397263328 -0.0019728641592707354 0 -0.014850138241657325 -0.0024981870445517328 0 -0.014396783084083696 -0.0010435138227696326 0 -0.014025658103250866 -0.0011643194858118374 0 -0.014008642571785414 -0.0017945950936306089 0 -0.016964768009418759 -0.0013852626967527661 0 -0.013463461375119114 -0.001988281168665125 0 -0.014001062114755171 -0.0026514197612987054 0 -0.014336259517448624 -0.0022344032356415781 0 -0.014029466882962577 -0.0017636923578494006 0 -0.014025658103250866 -0.0011643194858118374 0 -0.014029466882962577 -0.0017636923578494006 0 -0.014008642571785414 -0.0017945950936306089 0 -0.013782336184957474 6.9573049052540961e-06 0 -0.013768229111233599 -1.6332022970370389e-05 0 -0.013780865180139644 -2.9832909145257794e-05 0 -0.013782336184957474 6.9573049052540961e-06 0 -0.013780865180139644 -2.9832909145257794e-05 0 -0.013838230741995717 3.742356796021755e-05 0 -0.014029466882962577 -0.0017636923578494006 0 -0.014008642571785414 -0.0017945950936306089 0 -0.014145316152685607 -0.00092156411767156784 0 -0.014029466882962577 -0.0017636923578494006 0 -0.014520297561009908 -0.0016784740006576351 0 -0.014145316152685607 -0.00092156411767156784 0 -0.014336259517448624 -0.0022344032356415781 0 -0.014029466882962577 -0.0017636923578494006 0 -0.014520297561009908 -0.0016784740006576351 0 -0.014336259517448624 -0.0022344032356415781 0 -0.014520297561009908 -0.0016784740006576351 0 -0.014867650397263328 -0.0019728641592707354 0 -0.014520297561009908 -0.0016784740006576351 0 -0.014145316152685607 -0.00092156411767156784 0 -0.01510993003542232 -0.0014473470219749467 0 -0.014042125411933356 5.5548794698119096e-05 0 -0.013838230741995717 3.742356796021755e-05 0 -0.013833608098847207 0.00021167143716500404 0 -0.012958391319983735 -0.0013877492592164378 0 -0.014291106306785093 -0.00025512201459866119 0 -0.013780865180139644 -2.9832909145257794e-05 0 -0.014042125411933356 5.5548794698119096e-05 0 -0.013838230741995717 3.742356796021755e-05 0 -0.013729136859265949 0.0001243755913161273 0 -0.013838230741995717 3.742356796021755e-05 0 -0.013833608098847207 0.00021167143716500404 0 -0.01510993003542232 -0.0014473470219749467 0 -0.015840189788985545 -0.0016438094217594127 0 -0.015224526262418547 -0.0007145586352208539 0 -0.015840189788985545 -0.0016438094217594127 0 -0.015973246022251902 -0.00085726232994558129 0 -0.015224526262418547 -0.0007145586352208539 0 -0.014145316152685607 -0.00092156411767156784 0 -0.01510993003542232 -0.0014473470219749467 0 -0.015224526262418547 -0.0007145586352208539 0 -0.014520297561009908 -0.0016784740006576351 0 -0.01510993003542232 -0.0014473470219749467 0 -0.014867650397263328 -0.0019728641592707354 0 -0.01510993003542232 -0.0014473470219749467 0 -0.014867650397263328 -0.0019728641592707354 0 -0.015482312205188841 -0.0019152474420527238 0 -0.01510993003542232 -0.0014473470219749467 0 -0.015840189788985545 -0.0016438094217594127 0 -0.015482312205188841 -0.0019152474420527238 0 -0.015840189788985545 -0.0016438094217594127 0 -0.015482312205188841 -0.0019152474420527238 0 -0.016029585210679913 -0.0023473782396078399 0 -0.015840189788985545 -0.0016438094217594127 0 -0.016029585210679913 -0.0023473782396078399 0 -0.016255476166518169 -0.002100655833535909 0 -0.015482312205188841 -0.0019152474420527238 0 -0.016029585210679913 -0.0023473782396078399 0 -0.014850138241657325 -0.0024981870445517328 0 -0.014867650397263328 -0.0019728641592707354 0 -0.015482312205188841 -0.0019152474420527238 0 -0.014850138241657325 -0.0024981870445517328 0 -0.016119106156116839 -0.0023103863175208549 0 -0.015932074641408507 -0.0024699762665777781 0 -0.016557261829693731 -0.0012925193075363729 0 -0.017773133962382507 -0.0012291399383365183 0 -0.017293627280448216 -0.0022113971783369059 0 -0.016557261829693731 -0.0012925193075363729 0 -0.016029585210679913 -0.0023473782396078399 0 -0.017293627280448216 -0.0022113971783369059 0 -0.020434803282987968 -0.00071116110957923499 0 -0.019945029863878975 -0.0013033569528813761 0 -0.024202347197830862 -0.00019490634465274117 0 -0.02384712339470826 -0.00022509582277507035 0 -0.023795719448874444 -0.00042152106598401996 0 -0.016557261829693731 -0.0012925193075363729 0 -0.016029585210679913 -0.0023473782396078399 0 -0.016010103871004103 -0.0022347256493562089 0 -0.02384712339470826 -0.00022509582277507035 0 -0.023486946055497327 -0.00022253853381816325 0 -0.023795719448874444 -0.00042152106598401996 0 -0.023852469519479672 -6.81251601862272e-05 0 -0.02384712339470826 -0.00022509582277507035 0 -0.023486946055497327 -0.00022253853381816325 0 -0.023539083019354919 -5.2119995559811273e-05 0 -0.023486946055497327 -0.00022253853381816325 0 -0.023073987315796528 -0.00019106786014167092 0 -0.023486946055497327 -0.00022253853381816325 0 -0.023795719448874444 -0.00042152106598401996 0 -0.023199435175297198 -0.00059765633764834777 0 -0.023486946055497327 -0.00022253853381816325 0 -0.022846525438030681 -0.00038900979896714559 0 -0.023199435175297198 -0.00059765633764834777 0 -0.016010103871004103 -0.0022347256493562089 0 -0.016255476166518169 -0.002100655833535909 0 -0.017024411293201924 -0.0022777495915071878 0 -0.019945029863878975 -0.0013033569528813761 0 -0.020136779661943577 -0.0013950215991979005 0 -0.016029585210679913 -0.0023473782396078399 0 -0.016010103871004103 -0.0022347256493562089 0 -0.016255476166518169 -0.002100655833535909 0 -0.022818722554540285 -0.00016183818496708993 0 -0.023073987315796528 -0.00019106786014167092 0 -0.022355222368952831 -0.00031369711947734608 0 -0.023486946055497327 -0.00022253853381816325 0 -0.023073987315796528 -0.00019106786014167092 0 -0.022846525438030681 -0.00038900979896714559 0 -0.023073987315796528 -0.00019106786014167092 0 -0.022846525438030681 -0.00038900979896714559 0 -0.022355222368952831 -0.00031369711947734608 0 -0.022355222368952831 -0.00031369711947734608 0 -0.022386706939714104 -0.00063512413752723443 0 -0.021776707194356999 -0.00042656200712565728 0 -0.022846525438030681 -0.00038900979896714559 0 -0.022355222368952831 -0.00031369711947734608 0 -0.022386706939714104 -0.00063512413752723443 0 -0.022846525438030681 -0.00038900979896714559 0 -0.022386706939714104 -0.00063512413752723443 0 -0.023199435175297198 -0.00059765633764834777 0 -0.020453742062334617 -0.0011559409127041465 0 -0.020136779661943577 -0.0013950215991979005 0 -0.018403169311071291 -0.0018350328646653954 0 -0.017052347370938161 -0.0006926092963983597 0 -0.018690899622651774 -0.00023862601285489589 0 -0.022386706939714104 -0.00063512413752723443 0 -0.020989531781498653 -0.00049161804570258785 0 -0.021776707194356999 -0.00042656200712565728 0 -0.020453742062334617 -0.0011559409127041465 0 -0.021033783668580733 -0.00050306739267643558 0 -0.015840189788985545 -0.0016438094217594127 0 -0.016255476166518169 -0.002100655833535909 0 -0.016488389301459842 -0.001580180686460337 0 -0.016255476166518169 -0.002100655833535909 0 -0.017024411293201924 -0.0022777495915071878 0 -0.016488389301459842 -0.001580180686460337 0 -0.018403169311071291 -0.0018350328646653954 0 -0.017024411293201924 -0.0022777495915071878 0 -0.016488389301459842 -0.001580180686460337 0 -0.018403169311071291 -0.0018350328646653954 0 -0.016488389301459842 -0.001580180686460337 0 -0.017052347370938161 -0.0006926092963983597 0 -0.015840189788985545 -0.0016438094217594127 0 -0.015973246022251902 -0.00085726232994558129 0 -0.016488389301459842 -0.001580180686460337 0 -0.015973246022251902 -0.00085726232994558129 0 -0.016488389301459842 -0.001580180686460337 0 -0.017052347370938161 -0.0006926092963983597 0 -0.015973246022251902 -0.00085726232994558129 0 -0.016273314412623044 -6.4995680741102984e-05 0 -0.015585259136840345 2.1161634992544829e-05 0 -0.015973246022251902 -0.00085726232994558129 0 -0.016273314412623044 -6.4995680741102984e-05 0 -0.017052347370938161 -0.0006926092963983597 0 -0.016273314412623044 -6.4995680741102984e-05 0 -0.017052347370938161 -0.0006926092963983597 0 -0.017069148997295093 0.00082673724864172149 0 -0.016273314412623044 -6.4995680741102984e-05 0 -0.017069148997295093 0.00082673724864172149 0 -0.01618730801135888 0.00065699465020226881 0 -0.016273314412623044 -6.4995680741102984e-05 0 -0.01618730801135888 0.00065699465020226881 0 -0.015585259136840345 2.1161634992544829e-05 0 -0.020989531781498653 -0.00049161804570258785 0 -0.018690899622651774 -0.00023862601285489589 0 -0.020458850705053815 0.0011475492817939112 0 -0.018403169311071291 -0.0018350328646653954 0 -0.020989531781498653 -0.00049161804570258785 0 -0.018690899622651774 -0.00023862601285489589 0 -0.017052347370938161 -0.0006926092963983597 0 -0.018690899622651774 -0.00023862601285489589 0 -0.017069148997295093 0.00082673724864172149 0 -0.017142293833722372 0.00083794036386200066 0 -0.018230296270109737 0.00084691762364730923 0 -0.018690899622651774 -0.00023862601285489589 0 -0.017069148997295093 0.00082673724864172149 0 -0.020458850705053815 0.0011475492817939112 0 -0.016085678300499198 0.00067100552183528529 0 -0.015997580716601841 0.00066510488447175269 0 -0.016029223048950072 0.00056438147732855014 0 -0.016085678300499198 0.00067100552183528529 0 -0.016404396273166442 0.00069052106056108602 0 -0.015997580716601841 0.00066510488447175269 0 -0.017069148997295093 0.00082673724864172149 0 -0.016404396273166442 0.00069052106056108602 0 -0.016455922694064873 0.00079848376849809904 0 -0.017069148997295093 0.00082673724864172149 0 -0.016085678300499198 0.00067100552183528529 0 -0.016404396273166442 0.00069052106056108602 0 -0.016404396273166442 0.00069052106056108602 0 -0.016070275230886902 0.000764239927848803 0 -0.015997580716601841 0.00066510488447175269 0 -0.016404396273166442 0.00069052106056108602 0 -0.016070275230886902 0.000764239927848803 0 -0.016292740798259882 0.00076774217715312558 0 -0.015810494826944899 0.0010769484818561284 0 -0.01618730801135888 0.00065699465020226881 0 -0.016362304065506379 0.0013847216888486589 0 -0.016469230547269349 0.00092128698109680395 0 -0.014971944677236754 0.00075128878457478786 0 -0.01618730801135888 0.00065699465020226881 0 -0.016455922694064873 0.00079848376849809904 0 -0.016266753388643029 0.00086006863878693976 0 -0.017069148997295093 0.00082673724864172149 0 -0.01618730801135888 0.00065699465020226881 0 -0.016455922694064873 0.00079848376849809904 0 -0.016404396273166442 0.00069052106056108602 0 -0.016455922694064873 0.00079848376849809904 0 -0.016292740798259882 0.00076774217715312558 0 -0.016455922694064873 0.00079848376849809904 0 -0.01625855723184191 0.00081546140575000517 0 -0.016266753388643029 0.00086006863878693976 0 -0.016070275230886902 0.000764239927848803 0 -0.01625855723184191 0.00081546140575000517 0 -0.015797912702033769 0.000832618824532976 0 -0.01625855723184191 0.00081546140575000517 0 -0.0162633102076013 0.00081373444418503162 0 -0.015797912702033769 0.000832618824532976 0 -0.015485102588197712 0.00068964602599432695 0 -0.014971944677236754 0.00075128878457478786 0 -0.016455922694064873 0.00079848376849809904 0 -0.01625855723184191 0.00081546140575000517 0 -0.016292740798259882 0.00076774217715312558 0 -0.016070275230886902 0.000764239927848803 0 -0.01625855723184191 0.00081546140575000517 0 -0.016292740798259882 0.00076774217715312558 0 -0.015810494826944899 0.0010769484818561284 0 -0.016362304065506379 0.0013847216888486589 0 -0.015357271316747479 0.0015347957329880095 0 -0.014971944677236754 0.00075128878457478786 0 -0.013732857688984449 0.0011524608131684643 0 -0.01262124894075759 0.00052594419978359156 0 -0.012293428316354474 0.00069662195159534617 0 -0.012438728033800436 0.00076005414215956724 0 -0.015810494826944899 0.0010769484818561284 0 -0.01618730801135888 0.00065699465020226881 0 -0.01530766473103823 0.00070450025624885335 0 -0.015810494826944899 0.0010769484818561284 0 -0.015357271316747479 0.0015347957329880095 0 -0.01530766473103823 0.00070450025624885335 0 -0.015357271316747479 0.0015347957329880095 0 -0.01530766473103823 0.00070450025624885335 0 -0.014657263061458987 0.00097659324980226502 0 -0.01530766473103823 0.00070450025624885335 0 -0.014657263061458987 0.00097659324980226502 0 -0.014508368287126748 0.00030633388756770748 0 -0.015357271316747479 0.0015347957329880095 0 -0.014657263061458987 0.00097659324980226502 0 -0.0143088151757491 0.0015085627239829484 0 -0.013732857688984449 0.0011524608131684643 0 -0.013344377211686624 0.0012638807761277547 0 -0.014657263061458987 0.00097659324980226502 0 -0.013947304692375767 0.00084238117933649478 0 -0.0143088151757491 0.0015085627239829484 0 -0.013578617561578856 0.0010705671923059421 0 -0.013947304692375767 0.00084238117933649478 0 -0.0143088151757491 0.0015085627239829484 0 -0.013600341490393538 0.00075684468676765046 0 -0.013578617561578856 0.0010705671923059421 0 -0.013947304692375767 0.00084238117933649478 0 -0.013600341490393538 0.00075684468676765046 0 -0.013947304692375767 0.00084238117933649478 0 -0.013856478950341622 0.00050991755893381452 0 -0.014657263061458987 0.00097659324980226502 0 -0.013947304692375767 0.00084238117933649478 0 -0.014508368287126748 0.00030633388756770748 0 -0.013947304692375767 0.00084238117933649478 0 -0.014508368287126748 0.00030633388756770748 0 -0.013856478950341622 0.00050991755893381452 0 -0.014508368287126748 0.00030633388756770748 0 -0.013856478950341622 0.00050991755893381452 0 -0.013833608098847207 0.00021167143716500404 0 -0.014042125411933356 5.5548794698119096e-05 0 -0.014508368287126748 0.00030633388756770748 0 -0.013833608098847207 0.00021167143716500404 0 -0.014291106306785093 -0.00025512201459866119 0 -0.014430948054428074 0.00022138132951961579 0 -0.014508368287126748 0.00030633388756770748 0 -0.015224526262418547 -0.0007145586352208539 0 -0.015585259136840345 2.1161634992544829e-05 0 -0.014145316152685607 -0.00092156411767156784 0 -0.014508368287126748 0.00030633388756770748 0 -0.015224526262418547 -0.0007145586352208539 0 -0.015973246022251902 -0.00085726232994558129 0 -0.015224526262418547 -0.0007145586352208539 0 -0.015585259136840345 2.1161634992544829e-05 0 -0.01618730801135888 0.00065699465020226881 0 -0.01530766473103823 0.00070450025624885335 0 -0.015585259136840345 2.1161634992544829e-05 0 -0.01530766473103823 0.00070450025624885335 0 -0.014508368287126748 0.00030633388756770748 0 -0.015585259136840345 2.1161634992544829e-05 0 -0.018830911839641497 0.00019832578676777759 0 -0.019489527477582414 0.00032168545057841214 0 -0.019330293315631023 0.00061648601504070476 0 -0.018830911839641497 0.00019832578676777759 0 -0.019330293315631023 0.00061648601504070476 0 -0.019051604449816344 0.00045285993352770236 0 -0.018830911839641497 0.00019832578676777759 0 -0.019489527477582414 0.00032168545057841214 0 -0.01853808719428884 -3.5017843363476156e-05 0 -0.019489527477582414 0.00032168545057841214 0 -0.019807023849071403 0.00074105436944679759 0 -0.019330293315631023 0.00061648601504070476 0 -0.019807023849071403 0.00074105436944679759 0 -0.019330293315631023 0.00061648601504070476 0 -0.019697411532367863 0.0010680589563337997 0 -0.019330293315631023 0.00061648601504070476 0 -0.019697411532367863 0.0010680589563337997 0 -0.019450081589659364 0.0008448546477872233 0 -0.019330293315631023 0.00061648601504070476 0 -0.019051604449816344 0.00045285993352770236 0 -0.019450081589659364 0.0008448546477872233 0 -0.019051604449816344 0.00045285993352770236 0 -0.01881916106291566 0.00058584983475768869 0 -0.019450081589659364 0.0008448546477872233 0 -0.018303103105796348 0.00059568636342688776 0 -0.01827131704905386 0.00056426770261247517 0 -0.018285678361735995 0.00061659159258122833 0 -0.018303103105796348 0.00059568636342688776 0 -0.01827131704905386 0.00056426770261247517 0 -0.018288901349900979 0.00055412630660548303 0 -0.018830911839641497 0.00019832578676777759 0 -0.019051604449816344 0.00045285993352770236 0 -0.018823393705703715 0.00023735040363220567 0 -0.019051604449816344 0.00045285993352770236 0 -0.01881916106291566 0.00058584983475768869 0 -0.018823393705703715 0.00023735040363220567 0 -0.018315657197402448 0.0006684412038789893 0 -0.018566580706794795 0.0003600712048152057 0 -0.018830911839641497 0.00019832578676777759 0 -0.018823393705703715 0.00023735040363220567 0 -0.018311651119245206 0.0004084172705591672 0 -0.018288901349900979 0.00055412630660548303 0 -0.01822623879072037 0.00052645122463972202 0 -0.018311651119245206 0.0004084172705591672 0 -0.018566580706794795 0.0003600712048152057 0 -0.018364872811973465 0.00040659163981947679 0 -0.01827131704905386 0.00056426770261247517 0 -0.018288901349900979 0.00055412630660548303 0 -0.01822623879072037 0.00052645122463972202 0 -0.01822623879072037 0.00052645122463972202 0 -0.018203373793529386 0.00065716091394753338 0 -0.018163443866437725 0.00059663486096520762 0 -0.01822623879072037 0.00052645122463972202 0 -0.018311651119245206 0.0004084172705591672 0 -0.018163443866437725 0.00059663486096520762 0 -0.018311651119245206 0.0004084172705591672 0 -0.017937203656398563 0.00069365822754877268 0 -0.018163443866437725 0.00059663486096520762 0 -0.018311651119245206 0.0004084172705591672 0 -0.017904030979226149 0.00053385313196420414 0 -0.017937203656398563 0.00069365822754877268 0 -0.018311651119245206 0.0004084172705591672 0 -0.01853808719428884 -3.5017843363476156e-05 0 -0.017904030979226149 0.00053385313196420414 0 -0.018830911839641497 0.00019832578676777759 0 -0.018311651119245206 0.0004084172705591672 0 -0.01853808719428884 -3.5017843363476156e-05 0 -0.019489527477582414 0.00032168545057841214 0 -0.01853808719428884 -3.5017843363476156e-05 0 -0.02053496700662083 -0.00028324701177124509 0 -0.018582541883214752 -7.8076064109337416e-05 0 -0.01873770652120705 -0.00015019417128914553 0 -0.01853808719428884 -3.5017843363476156e-05 0 -0.017904030979226149 0.00053385313196420414 0 -0.016949925567561839 0.00061425799968640505 0 -0.016949925567561839 0.00061425799968640505 0 -0.01641083359172461 0.00041365173765421095 0 -0.016214678262932585 0.00077287849980494738 0 -0.016949925567561839 0.00061425799968640505 0 -0.01641083359172461 0.00041365173765421095 0 -0.016914096229424632 -0.00014054487081464328 0 -0.01641083359172461 0.00041365173765421095 0 -0.016914096229424632 -0.00014054487081464328 0 -0.016181048232945118 0.00027364440291500233 0 -0.01873770652120705 -0.00015019417128914553 0 -0.018825941502609852 0.00028830843090208759 0 -0.01853808719428884 -3.5017843363476156e-05 0 -0.016949925567561839 0.00061425799968640505 0 -0.016914096229424632 -0.00014054487081464328 0 -0.015997580716601841 0.00066510488447175269 0 -0.016029223048950072 0.00056438147732855014 0 -0.015840834577584631 0.00080667459748958348 0 -0.01641083359172461 0.00041365173765421095 0 -0.016029223048950072 0.00056438147732855014 0 -0.016214678262932585 0.00077287849980494738 0 -0.01641083359172461 0.00041365173765421095 0 -0.016029223048950072 0.00056438147732855014 0 -0.016181048232945118 0.00027364440291500233 0 -0.016085678300499198 0.00067100552183528529 0 -0.016029223048950072 0.00056438147732855014 0 -0.016181048232945118 0.00027364440291500233 0 -0.018230296270109737 0.00084691762364730923 0 -0.018825941502609852 0.00028830843090208759 0 -0.020458850705053815 0.0011475492817939112 0 -0.021530847638662878 0.00026980133703660773 0 -0.021464503494358557 0.00014928790199719778 0 -0.021530847638662878 0.00026980133703660773 0 -0.021464503494358557 0.00014928790199719778 0 -0.021558052716997934 0.00034970832468740029 0 -0.021464503494358557 0.00014928790199719778 0 -0.021558052716997934 0.00034970832468740029 0 -0.021606983093621267 -0.00018954512644120478 0 -0.020989531781498653 -0.00049161804570258785 0 -0.020458850705053815 0.0011475492817939112 0 -0.021464503494358557 0.00014928790199719778 0 -0.020989531781498653 -0.00049161804570258785 0 -0.021464503494358557 0.00014928790199719778 0 -0.021606983093621267 -0.00018954512644120478 0 -0.019489527477582414 0.00032168545057841214 0 -0.02053496700662083 -0.00028324701177124509 0 -0.020736774794618447 0.00031424202858777739 0 -0.021530847638662878 0.00026980133703660773 0 -0.020736774794618447 0.00031424202858777739 0 -0.021558052716997934 0.00034970832468740029 0 -0.02053496700662083 -0.00028324701177124509 0 -0.021530847638662878 0.00026980133703660773 0 -0.020736774794618447 0.00031424202858777739 0 -0.020736774794618447 0.00031424202858777739 0 -0.021558052716997934 0.00034970832468740029 0 -0.02026036293752749 0.0011987002332565333 0 -0.019807023849071403 0.00074105436944679759 0 -0.020736774794618447 0.00031424202858777739 0 -0.02026036293752749 0.0011987002332565333 0 -0.019489527477582414 0.00032168545057841214 0 -0.019807023849071403 0.00074105436944679759 0 -0.020736774794618447 0.00031424202858777739 0 -0.021558052716997934 0.00034970832468740029 0 -0.022363812747702307 6.5800676316853663e-05 0 -0.022023838462727763 -0.00021042645232373627 0 -0.021554322840484592 0.0003888001302216249 0 -0.021302301001950106 0.00059261381012694033 0 -0.022363812747702307 6.5800676316853663e-05 0 -0.022023838462727763 -0.00021042645232373627 0 -0.022461929014543185 -0.00016839088103488158 0 -0.021606983093621267 -0.00018954512644120478 0 -0.021776707194356999 -0.00042656200712565728 0 -0.021934744370637527 -0.00033426558078631367 0 -0.020989531781498653 -0.00049161804570258785 0 -0.021606983093621267 -0.00018954512644120478 0 -0.021776707194356999 -0.00042656200712565728 0 -0.021558052716997934 0.00034970832468740029 0 -0.022023838462727763 -0.00021042645232373627 0 -0.021606983093621267 -0.00018954512644120478 0 -0.022023838462727763 -0.00021042645232373627 0 -0.021606983093621267 -0.00018954512644120478 0 -0.021934744370637527 -0.00033426558078631367 0 -0.022023838462727763 -0.00021042645232373627 0 -0.021934744370637527 -0.00033426558078631367 0 -0.022171629573046078 -0.00030400431812414592 0 -0.022355222368952831 -0.00031369711947734608 0 -0.021776707194356999 -0.00042656200712565728 0 -0.021934744370637527 -0.00033426558078631367 0 -0.022355222368952831 -0.00031369711947734608 0 -0.022171629573046078 -0.00030400431812414592 0 -0.022454257958236353 -0.00023676978959532921 0 -0.022355222368952831 -0.00031369711947734608 0 -0.021934744370637527 -0.00033426558078631367 0 -0.022171629573046078 -0.00030400431812414592 0 -0.022523546694592226 -0.00028717530279156951 0 -0.022398263842874754 -0.00017306100484881028 0 -0.022171629573046078 -0.00030400431812414592 0 -0.022454257958236353 -0.00023676978959532921 0 -0.022311890401924162 -0.00030055737137826415 0 -0.022454257958236353 -0.00023676978959532921 0 -0.022311890401924162 -0.00030055737137826415 0 -0.02232008346805648 -0.00034226255198097435 0 -0.022818722554540285 -0.00016183818496708993 0 -0.022355222368952831 -0.00031369711947734608 0 -0.022454257958236353 -0.00023676978959532921 0 -0.022023838462727763 -0.00021042645232373627 0 -0.022461929014543185 -0.00016839088103488158 0 -0.022309076055837995 -0.00026339435659104848 0 -0.022461929014543185 -0.00016839088103488158 0 -0.022309076055837995 -0.00026339435659104848 0 -0.02250775091077031 -0.00024122473919113108 0 -0.022171629573046078 -0.00030400431812414592 0 -0.022309076055837995 -0.00026339435659104848 0 -0.022311890401924162 -0.00030055737137826415 0 -0.022023838462727763 -0.00021042645232373627 0 -0.022171629573046078 -0.00030400431812414592 0 -0.022309076055837995 -0.00026339435659104848 0 -0.022309076055837995 -0.00026339435659104848 0 -0.022311890401924162 -0.00030055737137826415 0 -0.022476012658109508 -0.00031095361030153169 0 -0.022311890401924162 -0.00030055737137826415 0 -0.022476012658109508 -0.00031095361030153169 0 -0.0224492590330066 -0.00038829229128852774 0 -0.022309076055837995 -0.00026339435659104848 0 -0.022476012658109508 -0.00031095361030153169 0 -0.02250775091077031 -0.00024122473919113108 0 -0.022476012658109508 -0.00031095361030153169 0 -0.02250775091077031 -0.00024122473919113108 0 -0.022601999199686862 -0.00029412767063617657 0 -0.022476012658109508 -0.00031095361030153169 0 -0.022601999199686862 -0.00029412767063617657 0 -0.02264479217666587 -0.00038765887934548443 0 -0.022601999199686862 -0.00029412767063617657 0 -0.022723268709520447 -0.00032448302219384076 0 -0.022658266992042972 -0.00023898180244589037 0 -0.022723268709520447 -0.00032448302219384076 0 -0.022658266992042972 -0.00023898180244589037 0 -0.022813135948391766 -0.00029767732637591798 0 -0.022658266992042972 -0.00023898180244589037 0 -0.022688773502082434 -0.00019535760918080712 0 -0.022587719333931239 -0.00017783794824839913 0 -0.022658266992042972 -0.00023898180244589037 0 -0.022813135948391766 -0.00029767732637591798 0 -0.022688773502082434 -0.00019535760918080712 0 -0.02250775091077031 -0.00024122473919113108 0 -0.022601999199686862 -0.00029412767063617657 0 -0.022658266992042972 -0.00023898180244589037 0 -0.02250775091077031 -0.00024122473919113108 0 -0.022658266992042972 -0.00023898180244589037 0 -0.022587719333931239 -0.00017783794824839913 0 -0.022813135948391766 -0.00029767732637591798 0 -0.022801102873962916 -0.0002072299054275422 0 -0.023093607578895961 -0.00046231157355741464 0 -0.022813135948391766 -0.00029767732637591798 0 -0.022688773502082434 -0.00019535760918080712 0 -0.022801102873962916 -0.0002072299054275422 0 -0.022688773502082434 -0.00019535760918080712 0 -0.022801102873962916 -0.0002072299054275422 0 -0.022606354246576369 -8.6042677607831608e-05 0 -0.022801102873962916 -0.0002072299054275422 0 -0.022606354246576369 -8.6042677607831608e-05 0 -0.022344955138814897 1.1376593780890541e-05 0 -0.022461929014543185 -0.00016839088103488158 0 -0.02250775091077031 -0.00024122473919113108 0 -0.022587719333931239 -0.00017783794824839913 0 -0.022688773502082434 -0.00019535760918080712 0 -0.022606354246576369 -8.6042677607831608e-05 0 -0.022587719333931239 -0.00017783794824839913 0 -0.022606354246576369 -8.6042677607831608e-05 0 -0.022587719333931239 -0.00017783794824839913 0 -0.022582450192002314 -0.00014094842137252783 0 -0.022461929014543185 -0.00016839088103488158 0 -0.022587719333931239 -0.00017783794824839913 0 -0.022582450192002314 -0.00014094842137252783 0 -0.022461929014543185 -0.00016839088103488158 0 -0.022582450192002314 -0.00014094842137252783 0 -0.022618295584977063 -0.00011509053710817561 0 -0.022363812747702307 6.5800676316853663e-05 0 -0.022461929014543185 -0.00016839088103488158 0 -0.022618295584977063 -0.00011509053710817561 0 -0.022606354246576369 -8.6042677607831608e-05 0 -0.022618295584977063 -0.00011509053710817561 0 -0.022344955138814897 1.1376593780890541e-05 0 -0.021180498533381796 0.00050922497635232566 0 -0.02222302662956778 3.3658381841324139e-05 0 -0.022606354246576369 -8.6042677607831608e-05 0 -0.022582450192002314 -0.00014094842137252783 0 -0.022618295584977063 -0.00011509053710817561 0 -0.019597469414696485 0.0011156407940879809 0 -0.02028144601399141 0.0013599579310610488 0 -0.022344955138814897 1.1376593780890541e-05 0 -0.02028144601399141 0.0013599579310610488 0 -0.019697411532367863 0.0010680589563337997 0 -0.019450081589659364 0.0008448546477872233 0 -0.019597469414696485 0.0011156407940879809 0 -0.02028144601399141 0.0013599579310610488 0 -0.019697411532367863 0.0010680589563337997 0 -0.02026036293752749 0.0011987002332565333 0 -0.019597469414696485 0.0011156407940879809 0 -0.019697411532367863 0.0010680589563337997 0 -0.019807023849071403 0.00074105436944679759 0 -0.02026036293752749 0.0011987002332565333 0 -0.019697411532367863 0.0010680589563337997 0 -0.021302301001950106 0.00059261381012694033 0 -0.021180498533381796 0.00050922497635232566 0 -0.020869236067996184 0.0010964826706373104 0 -0.02074458325443515 0.0013956117115948516 0 -0.018315657197402448 0.0006684412038789893 0 -0.020869236067996184 0.0010964826706373104 0 -0.01881916106291566 0.00058584983475768869 0 -0.018619441931843537 0.001315339649330338 0 -0.019173869253624718 0.001365918350033502 0 -0.018303103105796348 0.00059568636342688776 0 -0.018315443756431592 0.00064819328576090911 0 -0.018285678361735995 0.00061659159258122833 0 -0.01881916106291566 0.00058584983475768869 0 -0.019173869253624718 0.001365918350033502 0 -0.019450081589659364 0.0008448546477872233 0 -0.02028144601399141 0.0013599579310610488 0 -0.019173869253624718 0.001365918350033502 0 -0.019450081589659364 0.0008448546477872233 0 -0.0203291497697775 0.0013697459261569238 0 -0.02074458325443515 0.0013956117115948516 0 -0.02028144601399141 0.0013599579310610488 0 -0.022347277877894731 0.0014814086176471886 0 -0.022344955138814897 1.1376593780890541e-05 0 -0.022347277877894731 0.0014814086176471886 0 -0.023021789993158855 0.00053593738108198726 0 -0.022344955138814897 1.1376593780890541e-05 0 -0.023380050743389922 0.0013971178093656121 0 -0.022347277877894731 0.0014814086176471886 0 -0.023021789993158855 0.00053593738108198726 0 -0.020869236067996184 0.0010964826706373104 0 -0.023561698977937421 0.00029083940690956825 0 -0.023380050743389922 0.0013971178093656121 0 -0.023021789993158855 0.00053593738108198726 0 -0.023541997908732501 0.00045424460560217997 0 -0.023021789993158855 0.00053593738108198726 0 -0.023234889529880114 -9.9808303473573003e-05 0 -0.023541997908732501 0.00045424460560217997 0 -0.023021789993158855 0.00053593738108198726 0 -0.023234889529880114 -9.9808303473573003e-05 0 -0.022344955138814897 1.1376593780890541e-05 0 -0.022801102873962916 -0.0002072299054275422 0 -0.023234889529880114 -9.9808303473573003e-05 0 -0.022344955138814897 1.1376593780890541e-05 0 -0.022801102873962916 -0.0002072299054275422 0 -0.023234889529880114 -9.9808303473573003e-05 0 -0.023390927688289688 -0.00042781431038700212 0 -0.023234889529880114 -9.9808303473573003e-05 0 -0.023390927688289688 -0.00042781431038700212 0 -0.023868708406578006 -0.00043103356569161014 0 -0.023390927688289688 -0.00042781431038700212 0 -0.023686134446208196 -0.00064421211908370494 0 -0.023868708406578006 -0.00043103356569161014 0 -0.023390927688289688 -0.00042781431038700212 0 -0.023686134446208196 -0.00064421211908370494 0 -0.023456636616481712 -0.00068213499531642589 0 -0.023390927688289688 -0.00042781431038700212 0 -0.023456636616481712 -0.00068213499531642589 0 -0.023093607578895961 -0.00046231157355741464 0 -0.022801102873962916 -0.0002072299054275422 0 -0.023390927688289688 -0.00042781431038700212 0 -0.023093607578895961 -0.00046231157355741464 0 -0.022813135948391766 -0.00029767732637591798 0 -0.023093607578895961 -0.00046231157355741464 0 -0.022895623594444713 -0.00045142286484922825 0 -0.022601999199686862 -0.00029412767063617657 0 -0.022723268709520447 -0.00032448302219384076 0 -0.02264479217666587 -0.00038765887934548443 0 -0.022723268709520447 -0.00032448302219384076 0 -0.022895623594444713 -0.00045142286484922825 0 -0.02264479217666587 -0.00038765887934548443 0 -0.022723268709520447 -0.00032448302219384076 0 -0.022813135948391766 -0.00029767732637591798 0 -0.022895623594444713 -0.00045142286484922825 0 -0.022895623594444713 -0.00045142286484922825 0 -0.02278422022715209 -0.00057417457504183446 0 -0.02264479217666587 -0.00038765887934548443 0 -0.02278422022715209 -0.00057417457504183446 0 -0.023210610854732572 -0.00071461012220227691 0 -0.022850763836940135 -0.00084831957527772579 0 -0.022895623594444713 -0.00045142286484922825 0 -0.02278422022715209 -0.00057417457504183446 0 -0.023210610854732572 -0.00071461012220227691 0 -0.023093607578895961 -0.00046231157355741464 0 -0.022895623594444713 -0.00045142286484922825 0 -0.023210610854732572 -0.00071461012220227691 0 -0.023456636616481712 -0.00068213499531642589 0 -0.023093607578895961 -0.00046231157355741464 0 -0.023210610854732572 -0.00071461012220227691 0 -0.023210610854732572 -0.00071461012220227691 0 -0.023501315905311182 -0.0008739074847808287 0 -0.02346948363694043 -0.0010478463124544383 0 -0.023456636616481712 -0.00068213499531642589 0 -0.023210610854732572 -0.00071461012220227691 0 -0.023501315905311182 -0.0008739074847808287 0 -0.023210610854732572 -0.00071461012220227691 0 -0.02346948363694043 -0.0010478463124544383 0 -0.022850763836940135 -0.00084831957527772579 0 -0.02346948363694043 -0.0010478463124544383 0 -0.023974650990582616 -0.0015314264180024734 0 -0.02431100857583509 -0.00099020584010392444 0 -0.02339750060465905 -0.0010445058123661301 0 -0.023500105857273666 -0.0012481621845709888 0 -0.02346948363694043 -0.0010478463124544383 0 -0.02431100857583509 -0.00099020584010392444 0 -0.023853613248649368 -0.00074520429099187563 0 -0.02346948363694043 -0.0010478463124544383 0 -0.023483898596357623 -0.00085981631671002508 0 -0.023853613248649368 -0.00074520429099187563 0 -0.023501315905311182 -0.0008739074847808287 0 -0.02346948363694043 -0.0010478463124544383 0 -0.023483898596357623 -0.00085981631671002508 0 -0.023968046977509039 -0.00083019869799876207 0 -0.024106370432453703 -0.0006852202052251258 0 -0.023501315905311182 -0.0008739074847808287 0 -0.023935150777918742 -0.00085614201073270818 0 -0.023483898596357623 -0.00085981631671002508 0 -0.023686134446208196 -0.00064421211908370494 0 -0.023935150777918742 -0.00085614201073270818 0 -0.023962773226347354 -0.00076475634815346852 0 -0.023686134446208196 -0.00064421211908370494 0 -0.023456636616481712 -0.00068213499531642589 0 -0.023935150777918742 -0.00085614201073270818 0 -0.023456636616481712 -0.00068213499531642589 0 -0.023501315905311182 -0.0008739074847808287 0 -0.023935150777918742 -0.00085614201073270818 0 -0.023233105068088556 2.9393418048097724e-05 0 -0.02282502539211605 -9.3426142386140364e-05 0 -0.023110879947302806 9.5001960392425967e-05 0 -0.023420787354916508 0.00017968817854628323 0 -0.023233105068088556 2.9393418048097724e-05 0 -0.023110879947302806 9.5001960392425967e-05 0 -0.023233105068088556 2.9393418048097724e-05 0 -0.022818722554540285 -0.00016183818496708993 0 -0.02282502539211605 -9.3426142386140364e-05 0 -0.022818722554540285 -0.00016183818496708993 0 -0.022454257958236353 -0.00023676978959532921 0 -0.02282502539211605 -9.3426142386140364e-05 0 -0.022454257958236353 -0.00023676978959532921 0 -0.02282502539211605 -9.3426142386140364e-05 0 -0.022695370197073995 -0.0001464760661331955 0 -0.02282502539211605 -9.3426142386140364e-05 0 -0.02277623505168826 -1.573172685091255e-05 0 -0.022695370197073995 -0.0001464760661331955 0 -0.02282502539211605 -9.3426142386140364e-05 0 -0.02277623505168826 -1.573172685091255e-05 0 -0.023110879947302806 9.5001960392425967e-05 0 -0.02277623505168826 -1.573172685091255e-05 0 -0.022554737645234916 -2.6849088272759402e-05 0 -0.022780544142641249 0.00024156479113249826 0 -0.02277623505168826 -1.573172685091255e-05 0 -0.022695370197073995 -0.0001464760661331955 0 -0.022554737645234916 -2.6849088272759402e-05 0 -0.02232008346805648 -0.00034226255198097435 0 -0.0224492590330066 -0.00038829229128852774 0 -0.02248530313397118 -0.00058771138297536527 0 -0.022398263842874754 -0.00017306100484881028 0 -0.023118076084912311 -0.00062266612016667242 0 -0.022311890401924162 -0.00030055737137826415 0 -0.02232008346805648 -0.00034226255198097435 0 -0.0224492590330066 -0.00038829229128852774 0 -0.0224492590330066 -0.00038829229128852774 0 -0.02264479217666587 -0.00038765887934548443 0 -0.022587938329006883 -0.00051185670721289956 0 -0.0224492590330066 -0.00038829229128852774 0 -0.022587938329006883 -0.00051185670721289956 0 -0.02248530313397118 -0.00058771138297536527 0 -0.022476012658109508 -0.00031095361030153169 0 -0.0224492590330066 -0.00038829229128852774 0 -0.02264479217666587 -0.00038765887934548443 0 -0.02278422022715209 -0.00057417457504183446 0 -0.02264479217666587 -0.00038765887934548443 0 -0.022587938329006883 -0.00051185670721289956 0 -0.02278422022715209 -0.00057417457504183446 0 -0.022587938329006883 -0.00051185670721289956 0 -0.022498203491438679 -0.00063401582274052136 0 -0.022717103882489757 -0.00069632894558279519 0 -0.023118076084912311 -0.00062266612016667242 0 -0.02278422022715209 -0.00057417457504183446 0 -0.022498203491438679 -0.00063401582274052136 0 -0.022850763836940135 -0.00084831957527772579 0 -0.023118076084912311 -0.00062266612016667242 0 -0.023500105857273666 -0.0012481621845709888 0 -0.024399791122633137 -0.0014159482550183667 0 -0.023974650990582616 -0.0015314264180024734 0 -0.02431100857583509 -0.00099020584010392444 0 -0.024374834135173447 -0.0018779874508697482 0 -0.024399791122633137 -0.0014159482550183667 0 -0.023974650990582616 -0.0015314264180024734 0 -0.02431100857583509 -0.00099020584010392444 0 -0.024915900242008397 -0.0012756451205994327 0 -0.024851905674434481 -0.00075443072699092151 0 -0.024374834135173447 -0.0018779874508697482 0 -0.024399791122633137 -0.0014159482550183667 0 -0.024915900242008397 -0.0012756451205994327 0 -0.023118076084912311 -0.00062266612016667242 0 -0.023903067064566016 -0.00058024391896338405 0 -0.024399791122633137 -0.0014159482550183667 0 -0.02431100857583509 -0.00099020584010392444 0 -0.024915900242008397 -0.0012756451205994327 0 -0.02277623505168826 -1.573172685091255e-05 0 -0.022780544142641249 0.00024156479113249826 0 -0.023110879947302806 9.5001960392425967e-05 0 -0.023903067064566016 -0.00058024391896338405 0 -0.024250829947599438 9.6050957470130758e-05 0 -0.024915900242008397 -0.0012756451205994327 0 -0.025349388444071114 -0.00076291727234632995 0 -0.024851905674434481 -0.00075443072699092151 0 -0.022780544142641249 0.00024156479113249826 0 -0.023563710842188786 0.00035656724909378132 0 -0.023337584092910535 0.00070249548741672658 0 -0.023509632248238859 0.00058078302919953848 0 -0.024250829947599438 9.6050957470130758e-05 0 -0.023891287664504282 0.00037479185357621538 0 -0.023563710842188786 0.00035656724909378132 0 -0.023752567251432863 0.0003950045686842321 0 -0.022780544142641249 0.00024156479113249826 0 -0.023563710842188786 0.00035656724909378132 0 -0.023110879947302806 9.5001960392425967e-05 0 -0.023420787354916508 0.00017968817854628323 0 -0.023563710842188786 0.00035656724909378132 0 -0.023110879947302806 9.5001960392425967e-05 0 -0.024693200918286719 0.00041495911423016554 0 -0.024915146848469204 0.00034145516018880699 0 -0.024828706293465997 9.1495847128988868e-05 0 -0.024382882916588973 0.00036031981534284988 0 -0.024693200918286719 0.00041495911423016554 0 -0.024828706293465997 9.1495847128988868e-05 0 -0.024693200918286719 0.00041495911423016554 0 -0.024736157630134637 0.00068023737463959863 0 -0.024915146848469204 0.00034145516018880699 0 -0.024382882916588973 0.00036031981534284988 0 -0.023891287664504282 0.00037479185357621538 0 -0.023752567251432863 0.0003950045686842321 0 -0.024382882916588973 0.00036031981534284988 0 -0.024693200918286719 0.00041495911423016554 0 -0.024736157630134637 0.00068023737463959863 0 -0.024370383397446613 0.00049569493591555477 0 -0.024250829947599438 9.6050957470130758e-05 0 -0.025349388444071114 -0.00076291727234632995 0 -0.025085331675772291 -0.00039481046070911956 0 -0.024851905674434481 -0.00075443072699092151 0 -0.024250829947599438 9.6050957470130758e-05 0 -0.025088335576461746 -9.4699940536675759e-05 0 -0.025088335576461746 -9.4699940536675759e-05 0 -0.024939553104545448 4.2830373516015082e-05 0 -0.024915146848469204 0.00034145516018880699 0 -0.025009386302301966 0.00012403011679142759 0 -0.024828706293465997 9.1495847128988868e-05 0 -0.024566746912857939 -0.00045083669925158088 0 -0.024781113549292237 -2.3583090740090396e-05 0 -0.024906928352616587 -8.0640227346213985e-05 0 -0.025085331675772291 -0.00039481046070911956 0 -0.024566746912857939 -0.00045083669925158088 0 -0.024906928352616587 -8.0640227346213985e-05 0 -0.025085331675772291 -0.00039481046070911956 0 -0.024851905674434481 -0.00075443072699092151 0 -0.024566746912857939 -0.00045083669925158088 0 -0.02431100857583509 -0.00099020584010392444 0 -0.024851905674434481 -0.00075443072699092151 0 -0.024566746912857939 -0.00045083669925158088 0 -0.02431100857583509 -0.00099020584010392444 0 -0.024566746912857939 -0.00045083669925158088 0 -0.023853613248649368 -0.00074520429099187563 0 -0.024566746912857939 -0.00045083669925158088 0 -0.024781113549292237 -2.3583090740090396e-05 0 -0.0239054636117478 -0.00033768863590453438 0 -0.024781113549292237 -2.3583090740090396e-05 0 -0.024940478292725471 1.5555015017598777e-05 0 -0.024947379078838896 -3.8198745098241856e-05 0 -0.024999818762968903 -2.3580729205957873e-09 0 -0.024940478292725471 1.5555015017598777e-05 0 -0.024947379078838896 -3.8198745098241856e-05 0 -0.024999818762968903 -2.3580729205957873e-09 0 -0.024940478292725471 1.5555015017598777e-05 0 -0.024999981284975166 2.9331920908382599e-08 0 -0.024940478292725471 1.5555015017598777e-05 0 -0.024974551024944128 4.151862538561009e-05 0 -0.024999981284975166 2.9331920908382599e-08 0 -0.024941524683607632 2.3078088729149667e-05 0 -0.024939553104545448 4.2830373516015082e-05 0 -0.024940478292725471 1.5555015017598777e-05 0 -0.025009386302301966 0.00012403011679142759 0 -0.024974551024944128 4.151862538561009e-05 0 -0.024781113549292237 -2.3583090740090396e-05 0 -0.024940478292725471 1.5555015017598777e-05 0 -0.024906928352616587 -8.0640227346213985e-05 0 -0.025009386302301966 0.00012403011679142759 0 -0.024974551024944128 4.151862538561009e-05 0 -0.024828706293465997 9.1495847128988868e-05 0 -0.024974551024944128 4.151862538561009e-05 0 -0.024999981284975166 2.9331920908382599e-08 0 -0.024828706293465997 9.1495847128988868e-05 0 -0.024999624080130171 1.927137581512219e-08 0 -0.024999981284975166 2.9331920908382599e-08 0 -0.024828706293465997 9.1495847128988868e-05 0 -0.024609176673506421 -0.00034727517205501609 0 -0.024881330761155923 -0.00010874200195595223 0 -0.024786141725482526 -0.00013004887300113133 0 -0.024609176673506421 -0.00034727517205501609 0 -0.024786141725482526 -0.00013004887300113133 0 -0.0245549746167712 -0.00022794663519672072 0 -0.024609176673506421 -0.00034727517205501609 0 -0.024280891974265181 -0.00050602841348473978 0 -0.0245549746167712 -0.00022794663519672072 0 -0.024280891974265181 -0.00050602841348473978 0 -0.0245549746167712 -0.00022794663519672072 0 -0.024199806001638017 -0.00044678452720698134 0 -0.023935150777918742 -0.00085614201073270818 0 -0.024609176673506421 -0.00034727517205501609 0 -0.024280891974265181 -0.00050602841348473978 0 -0.023935150777918742 -0.00085614201073270818 0 -0.024280891974265181 -0.00050602841348473978 0 -0.024076019429024948 -0.00067781469175115538 0 -0.023935150777918742 -0.00085614201073270818 0 -0.024609176673506421 -0.00034727517205501609 0 -0.024709294164861319 -0.00056083603156304427 0 -0.024106370432453703 -0.0006852202052251258 0 -0.024434665855631733 -0.0002863693825431453 0 -0.024609176673506421 -0.00034727517205501609 0 -0.024709294164861319 -0.00056083603156304427 0 -0.024966033629193626 -0.00018574693304689648 0 -0.024566746912857939 -0.00045083669925158088 0 -0.023853613248649368 -0.00074520429099187563 0 -0.0239054636117478 -0.00033768863590453438 0 -0.023483898596357623 -0.00085981631671002508 0 -0.023853613248649368 -0.00074520429099187563 0 -0.0239054636117478 -0.00033768863590453438 0 -0.024730834775691445 -5.0435145161990996e-05 0 -0.024434665855631733 -0.0002863693825431453 0 -0.024609176673506421 -0.00034727517205501609 0 -0.024966033629193626 -0.00018574693304689648 0 -0.024881330761155923 -0.00010874200195595223 0 -0.024881330761155923 -0.00010874200195595223 0 -0.024947379078838896 -3.8198745098241856e-05 0 -0.02491072244887918 -4.0367777813160934e-05 0 -0.024781113549292237 -2.3583090740090396e-05 0 -0.024966033629193626 -0.00018574693304689648 0 -0.024947379078838896 -3.8198745098241856e-05 0 -0.024966033629193626 -0.00018574693304689648 0 -0.024881330761155923 -0.00010874200195595223 0 -0.024947379078838896 -3.8198745098241856e-05 0 -0.024999818762968903 -2.3580729205957873e-09 0 -0.024947379078838896 -3.8198745098241856e-05 0 -0.024999932486466956 -6.2202271034502332e-08 0 -0.024947379078838896 -3.8198745098241856e-05 0 -0.024999932486466956 -6.2202271034502332e-08 0 -0.02491072244887918 -4.0367777813160934e-05 0 -0.024999932486466956 -6.2202271034502332e-08 0 -0.02491072244887918 -4.0367777813160934e-05 0 -0.024999454861664983 3.9975085512234231e-08 0 -0.02491072244887918 -4.0367777813160934e-05 0 -0.024841508921487294 -5.4964680178618314e-05 0 -0.024999454861664983 3.9975085512234231e-08 0 -0.02491072244887918 -4.0367777813160934e-05 0 -0.024786141725482526 -0.00013004887300113133 0 -0.024841508921487294 -5.4964680178618314e-05 0 -0.024881330761155923 -0.00010874200195595223 0 -0.02491072244887918 -4.0367777813160934e-05 0 -0.024786141725482526 -0.00013004887300113133 0 -0.0245549746167712 -0.00022794663519672072 0 -0.024874611838769031 8.1068417509009594e-06 0 -0.024841508921487294 -5.4964680178618314e-05 0 -0.024786141725482526 -0.00013004887300113133 0 -0.0245549746167712 -0.00022794663519672072 0 -0.024841508921487294 -5.4964680178618314e-05 0 -0.024874611838769031 8.1068417509009594e-06 0 -0.024841508921487294 -5.4964680178618314e-05 0 -0.024999454861664983 3.9975085512234231e-08 0 -0.024874611838769031 8.1068417509009594e-06 0 -0.024969708197028984 1.5311744091258427e-05 0 -0.025000003179038312 -4.6193514791393299e-08 0 -0.024874611838769031 8.1068417509009594e-06 0 -0.024999454861664983 3.9975085512234231e-08 0 -0.025000003179038312 -4.6193514791393299e-08 0 -0.024969708197028984 1.5311744091258427e-05 0 -0.025000003179038312 -4.6193514791393299e-08 0 -0.025001374504048341 4.3596483376214182e-06 0 -0.024963280494345364 4.2045393421808391e-05 0 -0.024991845946914584 7.3104879170462448e-05 0 -0.025001374504048341 4.3596483376214182e-06 0 -0.024969708197028984 1.5311744091258427e-05 0 -0.024963280494345364 4.2045393421808391e-05 0 -0.025001374504048341 4.3596483376214182e-06 0 -0.02481785926966833 -8.9504390568535171e-06 0 -0.024593487694087843 -7.8136263355968339e-05 0 -0.024874611838769031 8.1068417509009594e-06 0 -0.024969708197028984 1.5311744091258427e-05 0 -0.024963280494345364 4.2045393421808391e-05 0 -0.0245549746167712 -0.00022794663519672072 0 -0.024874611838769031 8.1068417509009594e-06 0 -0.024210149460778992 -0.00021045112590913312 0 -0.0245549746167712 -0.00022794663519672072 0 -0.024210149460778992 -0.00021045112590913312 0 -0.024199806001638017 -0.00044678452720698134 0 -0.024210149460778992 -0.00021045112590913312 0 -0.024199806001638017 -0.00044678452720698134 0 -0.023943608792304436 -0.00051837858919524013 0 -0.024567614534947581 -0.00038284156446122703 0 -0.025118980445971145 0.00014316318534077091 0 -0.024593487694087843 -7.8136263355968339e-05 0 -0.024567614534947581 -0.00038284156446122703 0 -0.024567614534947581 -0.00038284156446122703 0 -0.024056695101491655 -0.00076782367896166049 0 -0.024199806001638017 -0.00044678452720698134 0 -0.023943608792304436 -0.00051837858919524013 0 -0.024076019429024948 -0.00067781469175115538 0 -0.023943608792304436 -0.00051837858919524013 0 -0.024076019429024948 -0.00067781469175115538 0 -0.024008919881397108 -0.00074807679499834523 0 -0.024280891974265181 -0.00050602841348473978 0 -0.024199806001638017 -0.00044678452720698134 0 -0.024076019429024948 -0.00067781469175115538 0 -0.024827024648900325 -0.0001838933622186889 0 -0.024922061891435966 -0.00032070514715666149 0 -0.024653830923670007 -0.0004081863773526308 0 -0.024827024648900325 -0.0001838933622186889 0 -0.024821049265916269 -0.00011271004077001911 0 -0.024653830923670007 -0.0004081863773526308 0 -0.024246939965758791 -0.0009317892763177324 0 -0.024362211150324241 -0.00079305470536015555 0 -0.024229983938241162 -0.00065449439218677658 0 -0.025022467838259777 -0.00016684200790849287 0 -0.024922061891435966 -0.00032070514715666149 0 -0.02492111642945731 -0.00018102792670020591 0 -0.024567614534947581 -0.00038284156446122703 0 -0.024626076931865009 -0.00056561375767460315 0 -0.024827024648900325 -0.0001838933622186889 0 -0.024922061891435966 -0.00032070514715666149 0 -0.02492111642945731 -0.00018102792670020591 0 -0.025022467838259777 -0.00016684200790849287 0 -0.02492111642945731 -0.00018102792670020591 0 -0.024913141283883614 -8.4609941409310142e-05 0 -0.025022467838259777 -0.00016684200790849287 0 -0.024913141283883614 -8.4609941409310142e-05 0 -0.025001374504048341 4.3596483376214182e-06 0 -0.024913141283883614 -8.4609941409310142e-05 0 -0.024942164633141223 -2.4059015728441198e-05 0 -0.024821049265916269 -0.00011271004077001911 0 -0.024827024648900325 -0.0001838933622186889 0 -0.024913141283883614 -8.4609941409310142e-05 0 -0.024821049265916269 -0.00011271004077001911 0 -0.024827024648900325 -0.0001838933622186889 0 -0.02492111642945731 -0.00018102792670020591 0 -0.024913141283883614 -8.4609941409310142e-05 0 -0.024913141283883614 -8.4609941409310142e-05 0 -0.024961936867041512 -2.0214255559198318e-05 0 -0.024942164633141223 -2.4059015728441198e-05 0 -0.024913141283883614 -8.4609941409310142e-05 0 -0.024961936867041512 -2.0214255559198318e-05 0 -0.025001374504048341 4.3596483376214182e-06 0 -0.024961936867041512 -2.0214255559198318e-05 0 -0.025001374504048341 4.3596483376214182e-06 0 -0.024999943325291669 2.1736359568043573e-08 0 -0.025000003179038312 -4.6193514791393299e-08 0 -0.025001374504048341 4.3596483376214182e-06 0 -0.024999943325291669 2.1736359568043573e-08 0 -0.024961936867041512 -2.0214255559198318e-05 0 -0.024999943325291669 2.1736359568043573e-08 0 -0.024942164633141223 -2.4059015728441198e-05 0 -0.024999895106695764 -3.8778949278812197e-08 0 -0.024938267736031378 -2.8848132633303143e-05 0 -0.024942164633141223 -2.4059015728441198e-05 0 -0.024999943325291669 2.1736359568043573e-08 0 -0.024999895106695764 -3.8778949278812197e-08 0 -0.024942164633141223 -2.4059015728441198e-05 0 -0.024761033706586964 3.4410464911253183e-05 0 -0.024955619437538025 1.6826890902780926e-06 0 -0.024999895106695764 -3.8778949278812197e-08 0 -0.024938267736031378 -2.8848132633303143e-05 0 -0.025000000837726927 1.309013752335332e-08 0 -0.024559674787178683 9.2229826772707778e-05 0 -0.024520776780796106 5.1273304582244898e-05 0 -0.024475264319639645 -7.4460519396453678e-05 0 -0.024938267736031378 -2.8848132633303143e-05 0 -0.024942164633141223 -2.4059015728441198e-05 0 -0.024821049265916269 -0.00011271004077001911 0 -0.024823008200242632 7.6603707611815075e-05 0 -0.024999849558403078 3.7904091115338106e-08 0 -0.024999609400997606 4.9336253589943741e-08 0 -0.024823008200242632 7.6603707611815075e-05 0 -0.024825096856778153 5.308870771911098e-05 0 -0.024999849558403078 3.7904091115338106e-08 0 -0.024559674787178683 9.2229826772707778e-05 0 -0.024825096856778153 5.308870771911098e-05 0 -0.024999434510469744 1.8086036702627679e-08 0 -0.024825096856778153 5.308870771911098e-05 0 -0.024999849558403078 3.7904091115338106e-08 0 -0.024999434510469744 1.8086036702627679e-08 0 -0.024559674787178683 9.2229826772707778e-05 0 -0.024825096856778153 5.308870771911098e-05 0 -0.024632978063384128 0.00012556990333502751 0 -0.024559674787178683 9.2229826772707778e-05 0 -0.024520776780796106 5.1273304582244898e-05 0 -0.024632978063384128 0.00012556990333502751 0 -0.024520776780796106 5.1273304582244898e-05 0 -0.024632978063384128 0.00012556990333502751 0 -0.024401494780084867 2.5916437071444625e-06 0 -0.024823008200242632 7.6603707611815075e-05 0 -0.024825096856778153 5.308870771911098e-05 0 -0.024632978063384128 0.00012556990333502751 0 -0.024823008200242632 7.6603707611815075e-05 0 -0.024632978063384128 0.00012556990333502751 0 -0.024653013349012941 0.00020842084953929014 0 -0.024653013349012941 0.00020842084953929014 0 -0.024592882333895512 0.00028984869576534014 0 -0.024746713593466727 0.00015408869670240831 0 -0.024823008200242632 7.6603707611815075e-05 0 -0.024653013349012941 0.00020842084953929014 0 -0.024746713593466727 0.00015408869670240831 0 -0.024555973548386643 0.00013632003480261917 0 -0.024192493318284339 0.00013779091533856988 0 -0.024632978063384128 0.00012556990333502751 0 -0.024653013349012941 0.00020842084953929014 0 -0.024524520445425985 0.00036829202399788467 0 -0.024632978063384128 0.00012556990333502751 0 -0.023839902026258148 -7.2040233517758009e-05 0 -0.023969092092535015 -5.0531308259021446e-05 0 -0.024653013349012941 0.00020842084953929014 0 -0.024524520445425985 0.00036829202399788467 0 -0.024592882333895512 0.00028984869576534014 0 -0.024524520445425985 0.00036829202399788467 0 -0.024592882333895512 0.00028984869576534014 0 -0.024511369400179509 0.00036638381283997384 0 -0.024632978063384128 0.00012556990333502751 0 -0.023969092092535015 -5.0531308259021446e-05 0 -0.024401494780084867 2.5916437071444625e-06 0 -0.023969092092535015 -5.0531308259021446e-05 0 -0.024274760762467137 -9.8391632800328929e-05 0 -0.024401494780084867 2.5916437071444625e-06 0 -0.023969092092535015 -5.0531308259021446e-05 0 -0.024274760762467137 -9.8391632800328929e-05 0 -0.024297810326930892 -0.0002449991754431815 0 -0.024520776780796106 5.1273304582244898e-05 0 -0.024401494780084867 2.5916437071444625e-06 0 -0.024475264319639645 -7.4460519396453678e-05 0 -0.024274760762467137 -9.8391632800328929e-05 0 -0.024297810326930892 -0.0002449991754431815 0 -0.024475264319639645 -7.4460519396453678e-05 0 -0.024274760762467137 -9.8391632800328929e-05 0 -0.024401494780084867 2.5916437071444625e-06 0 -0.024475264319639645 -7.4460519396453678e-05 0 -0.024297810326930892 -0.0002449991754431815 0 -0.024484062478918364 -0.00030823779621854178 0 -0.024400672399841263 -0.00043644315818766924 0 -0.023969092092535015 -5.0531308259021446e-05 0 -0.024297810326930892 -0.0002449991754431815 0 -0.024279087967556474 -0.00043550742306360901 0 -0.024297810326930892 -0.0002449991754431815 0 -0.024475264319639645 -7.4460519396453678e-05 0 -0.024484062478918364 -0.00030823779621854178 0 -0.02394365872159895 -3.9036618937621699e-05 0 -0.023942551535142888 -0.00034105611242580489 0 -0.023839902026258148 -7.2040233517758009e-05 0 -0.023512352401104088 -0.00026418385010987152 0 -0.023592210842867431 -0.00030305889761019888 0 -0.023839902026258148 -7.2040233517758009e-05 0 -0.023512352401104088 -0.00026418385010987152 0 -0.023206056540448116 -0.00028944430896818857 0 -0.023839902026258148 -7.2040233517758009e-05 0 -0.023969092092535015 -5.0531308259021446e-05 0 -0.023592210842867431 -0.00030305889761019888 0 -0.024192493318284339 0.00013779091533856988 0 -0.023728301684093168 0.00011366926839037912 0 -0.024524520445425985 0.00036829202399788467 0 -0.024511369400179509 0.00036638381283997384 0 -0.024395678352741763 0.00047936230232587543 0 -0.024559674787178683 9.2229826772707778e-05 0 -0.02461666123899962 -0.00016060823656185481 0 -0.024475264319639645 -7.4460519396453678e-05 0 -0.024761033706586964 3.4410464911253183e-05 0 -0.024712549653981307 -0.00015166790798621581 0 -0.02461666123899962 -0.00016060823656185481 0 -0.024475264319639645 -7.4460519396453678e-05 0 -0.024484062478918364 -0.00030823779621854178 0 -0.02461666123899962 -0.00016060823656185481 0 -0.024484062478918364 -0.00030823779621854178 0 -0.024543150599758538 -0.00037637476962374425 0 -0.02461666123899962 -0.00016060823656185481 0 -0.024543150599758538 -0.00037637476962374425 0 -0.024653830923670007 -0.0004081863773526308 0 -0.024712549653981307 -0.00015166790798621581 0 -0.024686520626975902 -0.00038532058588136217 0 -0.024529556548940356 -0.00049659153116797473 0 -0.024543150599758538 -0.00037637476962374425 0 -0.024653830923670007 -0.0004081863773526308 0 -0.024529556548940356 -0.00049659153116797473 0 -0.024543150599758538 -0.00037637476962374425 0 -0.024470340748479456 -0.00047887945187500641 0 -0.024484062478918364 -0.00030823779621854178 0 -0.024543150599758538 -0.00037637476962374425 0 -0.024470340748479456 -0.00047887945187500641 0 -0.024484062478918364 -0.00030823779621854178 0 -0.024470340748479456 -0.00047887945187500641 0 -0.024400672399841263 -0.00043644315818766924 0 -0.024470340748479456 -0.00047887945187500641 0 -0.024423091448633773 -0.00052089570170570163 0 -0.024458191304787217 -0.00051545805705066833 0 -0.024470340748479456 -0.00047887945187500641 0 -0.024400672399841263 -0.00043644315818766924 0 -0.024423091448633773 -0.00052089570170570163 0 -0.024470340748479456 -0.00047887945187500641 0 -0.024473980536963993 -0.00052229686458784316 0 -0.024458191304787217 -0.00051545805705066833 0 -0.024473980536963993 -0.00052229686458784316 0 -0.024425432387303322 -0.00050411868117650682 0 -0.024471895557184351 -0.00054158864835990317 0 -0.024529556548940356 -0.00049659153116797473 0 -0.024473980536963993 -0.00052229686458784316 0 -0.024471895557184351 -0.00054158864835990317 0 -0.024529556548940356 -0.00049659153116797473 0 -0.024470340748479456 -0.00047887945187500641 0 -0.024473980536963993 -0.00052229686458784316 0 -0.023388929743600979 -0.00041262370610474139 0 -0.023592210842867431 -0.00030305889761019888 0 -0.023577360552667487 -0.00069044647764539182 0 -0.023388929743600979 -0.00041262370610474139 0 -0.023512352401104088 -0.00026418385010987152 0 -0.023206056540448116 -0.00028944430896818857 0 -0.023388929743600979 -0.00041262370610474139 0 -0.023512352401104088 -0.00026418385010987152 0 -0.023592210842867431 -0.00030305889761019888 0 -0.024297810326930892 -0.0002449991754431815 0 -0.024400672399841263 -0.00043644315818766924 0 -0.024279087967556474 -0.00043550742306360901 0 -0.024400672399841263 -0.00043644315818766924 0 -0.024279087967556474 -0.00043550742306360901 0 -0.024423091448633773 -0.00052089570170570163 0 -0.023942551535142888 -0.00034105611242580489 0 -0.023997420571246361 -0.00059781319737298806 0 -0.023388929743600979 -0.00041262370610474139 0 -0.023577360552667487 -0.00069044647764539182 0 -0.023200184175477295 -0.0006246070551348251 0 -0.023577360552667487 -0.00069044647764539182 0 -0.023137625249958358 -0.0010790574044256677 0 -0.023200184175477295 -0.0006246070551348251 0 -0.023997420571246361 -0.00059781319737298806 0 -0.024041341136217552 -0.00082326540465677597 0 -0.023577360552667487 -0.00069044647764539182 0 -0.023597892895701123 -0.0012024158088551084 0 -0.023137625249958358 -0.0010790574044256677 0 -0.024423091448633773 -0.00052089570170570163 0 -0.024508429442059828 -0.00044971451042528714 0 -0.024458191304787217 -0.00051545805705066833 0 -0.023597892895701123 -0.0012024158088551084 0 -0.023137625249958358 -0.0010790574044256677 0 -0.023151264904523183 -0.0015900075194329962 0 -0.024473980536963993 -0.00052229686458784316 0 -0.024425432387303322 -0.00050411868117650682 0 -0.024458191304787217 -0.00051545805705066833 0 -0.024425432387303322 -0.00050411868117650682 0 -0.024458191304787217 -0.00051545805705066833 0 -0.024444704994915242 -0.00045478627304480545 0 -0.024508429442059828 -0.00044971451042528714 0 -0.024458191304787217 -0.00051545805705066833 0 -0.024444704994915242 -0.00045478627304480545 0 -0.024508429442059828 -0.00044971451042528714 0 -0.024444704994915242 -0.00045478627304480545 0 -0.02442453675438459 -0.00033917457915847154 0 -0.024444704994915242 -0.00045478627304480545 0 -0.024368922553201562 -0.0004184128937048624 0 -0.02442453675438459 -0.00033917457915847154 0 -0.024425432387303322 -0.00050411868117650682 0 -0.024444704994915242 -0.00045478627304480545 0 -0.024368922553201562 -0.0004184128937048624 0 -0.024368922553201562 -0.0004184128937048624 0 -0.024236676179036201 -0.00044595801667816865 0 -0.024281611130830921 -0.00032579161899532697 0 -0.024425432387303322 -0.00050411868117650682 0 -0.024368922553201562 -0.0004184128937048624 0 -0.024236676179036201 -0.00044595801667816865 0 -0.024425432387303322 -0.00050411868117650682 0 -0.024346201843932293 -0.00053678469610970731 0 -0.024236676179036201 -0.00044595801667816865 0 -0.024425432387303322 -0.00050411868117650682 0 -0.024346201843932293 -0.00053678469610970731 0 -0.024471895557184351 -0.00054158864835990317 0 -0.024346201843932293 -0.00053678469610970731 0 -0.024236676179036201 -0.00044595801667816865 0 -0.024087944508882349 -0.00057759779062436665 0 -0.024236676179036201 -0.00044595801667816865 0 -0.023868708406578006 -0.00043103356569161014 0 -0.024087944508882349 -0.00057759779062436665 0 -0.024236676179036201 -0.00044595801667816865 0 -0.023868708406578006 -0.00043103356569161014 0 -0.024060913275537162 -0.0002895262581022457 0 -0.023686134446208196 -0.00064421211908370494 0 -0.023868708406578006 -0.00043103356569161014 0 -0.023903203236846571 -0.00060925737783120056 0 -0.023868708406578006 -0.00043103356569161014 0 -0.023903203236846571 -0.00060925737783120056 0 -0.024087944508882349 -0.00057759779062436665 0 -0.024106091849604796 -0.00054091059473281478 0 -0.024056695101491655 -0.00076782367896166049 0 -0.024087944508882349 -0.00057759779062436665 0 -0.023962773226347354 -0.00076475634815346852 0 -0.024008919881397108 -0.00074807679499834523 0 -0.023686134446208196 -0.00064421211908370494 0 -0.023903203236846571 -0.00060925737783120056 0 -0.023962773226347354 -0.00076475634815346852 0 -0.023903203236846571 -0.00060925737783120056 0 -0.024087944508882349 -0.00057759779062436665 0 -0.023962773226347354 -0.00076475634815346852 0 -0.023935150777918742 -0.00085614201073270818 0 -0.024076019429024948 -0.00067781469175115538 0 -0.023962773226347354 -0.00076475634815346852 0 -0.024076019429024948 -0.00067781469175115538 0 -0.023962773226347354 -0.00076475634815346852 0 -0.024008919881397108 -0.00074807679499834523 0 -0.024362211150324241 -0.00079305470536015555 0 -0.024229983938241162 -0.00065449439218677658 0 -0.024363659757483034 -0.00064819417058972425 0 -0.024229983938241162 -0.00065449439218677658 0 -0.024363659757483034 -0.00064819417058972425 0 -0.024325635866481728 -0.00058946123523666554 0 -0.024363659757483034 -0.00064819417058972425 0 -0.024562641038014744 -0.00056655879959423749 0 -0.024325635866481728 -0.00058946123523666554 0 -0.024362211150324241 -0.00079305470536015555 0 -0.024363659757483034 -0.00064819417058972425 0 -0.024562641038014744 -0.00056655879959423749 0 -0.024922061891435966 -0.00032070514715666149 0 -0.024653830923670007 -0.0004081863773526308 0 -0.024562641038014744 -0.00056655879959423749 0 -0.024626076931865009 -0.00056561375767460315 0 -0.024591074099113326 -0.00055885491031601908 0 -0.024529556548940356 -0.00049659153116797473 0 -0.024653830923670007 -0.0004081863773526308 0 -0.024562641038014744 -0.00056655879959423749 0 -0.024562641038014744 -0.00056655879959423749 0 -0.02443668101384943 -0.00055591086668601241 0 -0.024325635866481728 -0.00058946123523666554 0 -0.024529556548940356 -0.00049659153116797473 0 -0.024562641038014744 -0.00056655879959423749 0 -0.024471895557184351 -0.00054158864835990317 0 -0.024562641038014744 -0.00056655879959423749 0 -0.02443668101384943 -0.00055591086668601241 0 -0.024471895557184351 -0.00054158864835990317 0 -0.024346201843932293 -0.00053678469610970731 0 -0.02443668101384943 -0.00055591086668601241 0 -0.024471895557184351 -0.00054158864835990317 0 -0.024346201843932293 -0.00053678469610970731 0 -0.02443668101384943 -0.00055591086668601241 0 -0.024325635866481728 -0.00058946123523666554 0 -0.024346201843932293 -0.00053678469610970731 0 -0.024087944508882349 -0.00057759779062436665 0 -0.024325635866481728 -0.00058946123523666554 0 -0.024087944508882349 -0.00057759779062436665 0 -0.024229983938241162 -0.00065449439218677658 0 -0.024325635866481728 -0.00058946123523666554 0 -0.022407716064812667 -4.1359414212982154e-07 0 -0.022686697424573271 -3.4514947052200105e-05 0 -0.022405409567128314 -1.384652386059446e-06 0 -0.020663993431400574 -0.00033085360201097355 0 -0.020960392589655149 0.00012021143274462723 0 -0.02241247347804742 -1.7493616660246802e-06 0 -0.024286260318368318 -0.00058782014162141898 0 -0.024183999571500737 0.00011277783446640102 0 -0.024997979519652134 8.7256975930174883e-07 0 -0.024690303295831668 9.0506746619238701e-05 0 -0.024999763813811717 4.4577814753445252e-09 0 -0.02241247347804742 -1.7493616660246802e-06 0 -0.024997979519652134 8.7256975930174883e-07 0 -0.024183999571500737 0.00011277783446640102 0 -0.024997979519652134 8.7256975930174883e-07 0 -0.024183999571500737 0.00011277783446640102 0 -0.024690303295831668 9.0506746619238701e-05 0 -0.024183999571500737 0.00011277783446640102 0 -0.024690303295831668 9.0506746619238701e-05 0 -0.024804763330547097 -0.00017134446153894601 0 -0.024690303295831668 9.0506746619238701e-05 0 -0.024999763813811717 4.4577814753445252e-09 0 -0.024994390825793071 1.8286317370798943e-05 0 -0.024690303295831668 9.0506746619238701e-05 0 -0.024804763330547097 -0.00017134446153894601 0 -0.024994390825793071 1.8286317370798943e-05 0 -0.025301120861988668 0.00016114646080396221 0 -0.024964488946961971 3.1431687360367732e-05 0 -0.025157964090760394 0.0002853240947565418 0 -0.025088491178616307 0.00045989629340801393 0 -0.024941523093382718 0.00027910004767278397 0 -0.024286260318368318 -0.00058782014162141898 0 -0.024183999571500737 0.00011277783446640102 0 -0.024804763330547097 -0.00017134446153894601 0 -0.022686697424573271 -3.4514947052200105e-05 0 -0.025301120861988668 0.00016114646080396221 0 -0.025227560168403548 0.00041035124361873861 0 -0.025157964090760394 0.0002853240947565418 0 -0.025088491178616307 0.00045989629340801393 0 -0.022686697424573271 -3.4514947052200105e-05 0 -0.022985643397366307 0.00055762364192295363 0 -0.025088491178616307 0.00045989629340801393 0 -0.024856709564534472 0.0005815470870530402 0 -0.024941523093382718 0.00027910004767278397 0 -0.022985643397366307 0.00055762364192295363 0 -0.023338378406815477 0.00069250586357113566 0 -0.024856709564534472 0.0005815470870530402 0 -0.024941523093382718 0.00027910004767278397 0 -0.024578525542678382 0.00037393185825494257 0 -0.024941523093382718 0.00027910004767278397 0 -0.024759712063766853 0.00018275346510531954 0 -0.024578525542678382 0.00037393185825494257 0 -0.025157964090760394 0.0002853240947565418 0 -0.024941523093382718 0.00027910004767278397 0 -0.025048460248962606 0.00011852539906348523 0 -0.024999763813811717 4.4577814753445252e-09 0 -0.024994390825793071 1.8286317370798943e-05 0 -0.02500009650815694 1.0522205170941397e-08 0 -0.024941523093382718 0.00027910004767278397 0 -0.025048460248962606 0.00011852539906348523 0 -0.024923354769302158 9.8637184377935538e-05 0 -0.025048460248962606 0.00011852539906348523 0 -0.025000021810747893 7.5807246631512221e-08 0 -0.024923354769302158 9.8637184377935538e-05 0 -0.024964488946961971 3.1431687360367732e-05 0 -0.025000066583497162 7.8804895931094588e-08 0 -0.025000021810747893 7.5807246631512221e-08 0 -0.024923354769302158 9.8637184377935538e-05 0 -0.024999609400997606 4.9336253589943741e-08 0 -0.024941523093382718 0.00027910004767278397 0 -0.024923354769302158 9.8637184377935538e-05 0 -0.024759712063766853 0.00018275346510531954 0 -0.024923354769302158 9.8637184377935538e-05 0 -0.024759712063766853 0.00018275346510531954 0 -0.024999609400997606 4.9336253589943741e-08 0 -0.024823008200242632 7.6603707611815075e-05 0 -0.024999609400997606 4.9336253589943741e-08 0 -0.024746713593466727 0.00015408869670240831 0 -0.024759712063766853 0.00018275346510531954 0 -0.024746713593466727 0.00015408869670240831 0 -0.024548147232670497 0.00032853146103456633 0 -0.024759712063766853 0.00018275346510531954 0 -0.024999609400997606 4.9336253589943741e-08 0 -0.024746713593466727 0.00015408869670240831 0 -0.024592882333895512 0.00028984869576534014 0 -0.024746713593466727 0.00015408869670240831 0 -0.024548147232670497 0.00032853146103456633 0 -0.024511369400179509 0.00036638381283997384 0 -0.024548147232670497 0.00032853146103456633 0 -0.024395678352741763 0.00047936230232587543 0 -0.024592882333895512 0.00028984869576534014 0 -0.024511369400179509 0.00036638381283997384 0 -0.024548147232670497 0.00032853146103456633 0 -0.024759712063766853 0.00018275346510531954 0 -0.024548147232670497 0.00032853146103456633 0 -0.024578525542678382 0.00037393185825494257 0 -0.024548147232670497 0.00032853146103456633 0 -0.024578525542678382 0.00037393185825494257 0 -0.024357040448364994 0.00049060906043982256 0 -0.024578525542678382 0.00037393185825494257 0 -0.024357040448364994 0.00049060906043982256 0 -0.024012100218973619 0.00068914676329761605 0 -0.024856709564534472 0.0005815470870530402 0 -0.024578525542678382 0.00037393185825494257 0 -0.024012100218973619 0.00068914676329761605 0 -0.024252008280252483 0.000579547494672054 0 -0.024357040448364994 0.00049060906043982256 0 -0.024012100218973619 0.00068914676329761605 0 -0.024524520445425985 0.00036829202399788467 0 -0.024395678352741763 0.00047936230232587543 0 -0.024308776186019249 0.00055017657246369384 0 -0.024252008280252483 0.000579547494672054 0 -0.024395678352741763 0.00047936230232587543 0 -0.024357040448364994 0.00049060906043982256 0 -0.024252008280252483 0.000579547494672054 0 -0.024395678352741763 0.00047936230232587543 0 -0.024308776186019249 0.00055017657246369384 0 -0.024548147232670497 0.00032853146103456633 0 -0.024395678352741763 0.00047936230232587543 0 -0.024357040448364994 0.00049060906043982256 0 -0.024308776186019249 0.00055017657246369384 0 -0.024012100218973619 0.00068914676329761605 0 -0.02283004406899863 -0.00057056394207016965 0 -0.023388929743600979 -0.00041262370610474139 0 -0.023206056540448116 -0.00028944430896818857 0 -0.023200184175477295 -0.0006246070551348251 0 -0.024252008280252483 0.000579547494672054 0 -0.024308776186019249 0.00055017657246369384 0 -0.024012100218973619 0.00068914676329761605 0 -0.023338378406815477 0.00069250586357113566 0 -0.023978421999130011 0.00068949433790568924 0 -0.024012100218973619 0.00068914676329761605 0 -0.022631288509567034 0.000184887137248987 0 -0.02283004406899863 -0.00057056394207016965 0 -0.021797257350847941 0.00085028446490033381 0 -0.024012100218973619 0.00068914676329761605 0 -0.022631288509567034 0.000184887137248987 0 -0.022631288509567034 0.000184887137248987 0 -0.02283004406899863 -0.00057056394207016965 0 -0.021772170081384077 -0.00019339282160421518 0 -0.023206056540448116 -0.00028944430896818857 0 -0.02283004406899863 -0.00057056394207016965 0 -0.023200184175477295 -0.0006246070551348251 0 -0.023728301684093168 0.00011366926839037912 0 -0.022944713777392593 -0.00052725038702002697 0 -0.023137625249958358 -0.0010790574044256677 0 -0.023200184175477295 -0.0006246070551348251 0 -0.022818434664455253 -0.00098577093168468271 0 -0.02283004406899863 -0.00057056394207016965 0 -0.023200184175477295 -0.0006246070551348251 0 -0.022818434664455253 -0.00098577093168468271 0 -0.023137625249958358 -0.0010790574044256677 0 -0.022663788169858781 -0.0014712194762071709 0 -0.023151264904523183 -0.0015900075194329962 0 -0.023137625249958358 -0.0010790574044256677 0 -0.022818434664455253 -0.00098577093168468271 0 -0.022663788169858781 -0.0014712194762071709 0 -0.022818434664455253 -0.00098577093168468271 0 -0.022236009113254119 -0.0011269837864889139 0 -0.022663788169858781 -0.0014712194762071709 0 -0.022236009113254119 -0.0011269837864889139 0 -0.02207975042270309 -0.0015893861319308824 0 -0.022663788169858781 -0.0014712194762071709 0 -0.02283004406899863 -0.00057056394207016965 0 -0.022818434664455253 -0.00098577093168468271 0 -0.022236009113254119 -0.0011269837864889139 0 -0.022236009113254119 -0.0011269837864889139 0 -0.020716450968109468 -0.00047809537619859674 0 -0.021772170081384077 -0.00019339282160421518 0 -0.02283004406899863 -0.00057056394207016965 0 -0.022236009113254119 -0.0011269837864889139 0 -0.021772170081384077 -0.00019339282160421518 0 -0.022236009113254119 -0.0011269837864889139 0 -0.02137330771723062 -0.0014420184343220651 0 -0.02207975042270309 -0.0015893861319308824 0 -0.020490901039656537 -0.00089355836529786089 0 -0.020633897544996609 -0.00046347610429475495 0 -0.022236009113254119 -0.0011269837864889139 0 -0.02137330771723062 -0.0014420184343220651 0 -0.020716450968109468 -0.00047809537619859674 0 -0.020716450968109468 -0.00047809537619859674 0 -0.021772170081384077 -0.00019339282160421518 0 -0.020640481367683875 -4.5191627749948494e-05 0 -0.021797257350847941 0.00085028446490033381 0 -0.022631288509567034 0.000184887137248987 0 -0.021772170081384077 -0.00019339282160421518 0 -0.021797257350847941 0.00085028446490033381 0 -0.021772170081384077 -0.00019339282160421518 0 -0.020640481367683875 -4.5191627749948494e-05 0 -0.020747974385715528 0.00057260599635446856 0 -0.021797257350847941 0.00085028446490033381 0 -0.020640481367683875 -4.5191627749948494e-05 0 -0.020747974385715528 0.00057260599635446856 0 -0.020472145033888639 0.00012974037350281655 0 -0.020640481367683875 -4.5191627749948494e-05 0 -0.020544133982989557 0.00019249624572165795 0 -0.020747974385715528 0.00057260599635446856 0 -0.020472145033888639 0.00012974037350281655 0 -0.020472145033888639 0.00012974037350281655 0 -0.020640481367683875 -4.5191627749948494e-05 0 -0.020249295824709496 -0.00012126917750477174 0 -0.019634312576096925 -0.00053435469626380205 0 -0.020716450968109468 -0.00047809537619859674 0 -0.020283863794450619 -0.00040251256232342448 0 -0.020716450968109468 -0.00047809537619859674 0 -0.020640481367683875 -4.5191627749948494e-05 0 -0.020283863794450619 -0.00040251256232342448 0 -0.019634312576096925 -0.00053435469626380205 0 -0.020283863794450619 -0.00040251256232342448 0 -0.019986694796565473 -0.00038067555752049415 0 -0.019986694796565473 -0.00038067555752049415 0 -0.020249295824709496 -0.00012126917750477174 0 -0.019975787509031426 -0.00011373407562938647 0 -0.020283863794450619 -0.00040251256232342448 0 -0.019986694796565473 -0.00038067555752049415 0 -0.020249295824709496 -0.00012126917750477174 0 -0.020640481367683875 -4.5191627749948494e-05 0 -0.020283863794450619 -0.00040251256232342448 0 -0.020249295824709496 -0.00012126917750477174 0 -0.020249295824709496 -0.00012126917750477174 0 -0.019975787509031426 -0.00011373407562938647 0 -0.020463718060594254 3.9898476855710683e-05 0 -0.019975787509031426 -0.00011373407562938647 0 -0.019101297832745574 -1.188283786287624e-06 0 -0.019909735617254232 -0.00041120858504394182 0 -0.019975787509031426 -0.00011373407562938647 0 -0.019101297832745574 -1.188283786287624e-06 0 -0.020200560934999182 5.5555823979078779e-07 0 -0.019975787509031426 -0.00011373407562938647 0 -0.020200560934999182 5.5555823979078779e-07 0 -0.020463718060594254 3.9898476855710683e-05 0 -0.020200560934999182 5.5555823979078779e-07 0 -0.020719619759492203 6.9624683326181781e-05 0 -0.020463718060594254 3.9898476855710683e-05 0 -0.020719619759492203 6.9624683326181781e-05 0 -0.020463718060594254 3.9898476855710683e-05 0 -0.020960392589655149 0.00012021143274462723 0 -0.020200560934999182 5.5555823979078779e-07 0 -0.020719619759492203 6.9624683326181781e-05 0 -0.021305392709819591 5.4311926630890735e-07 0 -0.020472145033888639 0.00012974037350281655 0 -0.020249295824709496 -0.00012126917750477174 0 -0.020463718060594254 3.9898476855710683e-05 0 -0.020472145033888639 0.00012974037350281655 0 -0.020463718060594254 3.9898476855710683e-05 0 -0.020960392589655149 0.00012021143274462723 0 -0.022686697424573271 -3.4514947052200105e-05 0 -0.020327250362453642 -8.7644187695916308e-05 0 -0.020544133982989557 0.00019249624572165795 0 -0.020472145033888639 0.00012974037350281655 0 -0.020960392589655149 0.00012021143274462723 0 -0.022405409567128314 -1.384652386059446e-06 0 -0.021305392709819591 5.4311926630890735e-07 0 -0.020960392589655149 0.00012021143274462723 0 -0.020719619759492203 6.9624683326181781e-05 0 -0.021305392709819591 5.4311926630890735e-07 0 -0.020960392589655149 0.00012021143274462723 0 -0.015815493146611039 -1.4222916418246716e-07 0 -0.016824585328726136 8.1096001211703157e-09 0 -0.015520315392712175 -9.9343680781194941e-06 0 -0.016666296855963353 0.00044099682344997556 0 -0.016826623843725731 1.138884899933307e-06 0 -0.01669474534144914 0.00047433150054080562 0 -0.016824506546224523 2.2695477389792897e-07 0 -0.016087374137035482 0.00030161243487451697 0 -0.016666296855963353 0.00044099682344997556 0 -0.017107739781782132 0.00017202855258315655 0 -0.016668094915218888 0.00022225635017661185 0 -0.016666296855963353 0.00044099682344997556 0 -0.016826623843725731 1.138884899933307e-06 0 -0.017107739781782132 0.00017202855258315655 0 -0.017960971864646309 4.4719401740752782e-08 0 -0.017383872998638833 -0.00013866722946889677 0 -0.017107739781782132 0.00017202855258315655 0 -0.016826623843725731 1.138884899933307e-06 0 -0.017960971864646309 4.4719401740752782e-08 0 -0.017107739781782132 0.00017202855258315655 0 -0.019097104095750893 -7.0501081108964104e-07 0 -0.017960971864646309 4.4719401740752782e-08 0 -0.017383872998638833 -0.00013866722946889677 0 -0.01909794903328341 4.6218409555947969e-08 0 -0.018622846183584844 -0.0001813528880543729 0 -0.019975787509031426 -0.00011373407562938647 0 -0.019909735617254232 -0.00041120858504394182 0 -0.019932467441113252 -0.00033068885511498532 0 -0.018622846183584844 -0.0001813528880543729 0 -0.018266525231128657 9.9228909801476906e-05 0 -0.017383872998638833 -0.00013866722946889677 0 -0.017107739781782132 0.00017202855258315655 0 -0.016668094915218888 0.00022225635017661185 0 -0.019909735617254232 -0.00041120858504394182 0 -0.019876721569651222 -2.7198990285663428e-05 0 -0.019932467441113252 -0.00033068885511498532 0 -0.019876721569651222 -2.7198990285663428e-05 0 -0.019932467441113252 -0.00033068885511498532 0 -0.019398098281049766 -0.00024810055059347388 0 -0.019986694796565473 -0.00038067555752049415 0 -0.019975787509031426 -0.00011373407562938647 0 -0.019932467441113252 -0.00033068885511498532 0 -0.019986694796565473 -0.00038067555752049415 0 -0.019932467441113252 -0.00033068885511498532 0 -0.019398098281049766 -0.00024810055059347388 0 -0.019634312576096925 -0.00053435469626380205 0 -0.019986694796565473 -0.00038067555752049415 0 -0.019398098281049766 -0.00024810055059347388 0 -0.019876721569651222 -2.7198990285663428e-05 0 -0.019398098281049766 -0.00024810055059347388 0 -0.019018063736673241 0.00058660005345279726 0 -0.019398098281049766 -0.00024810055059347388 0 -0.019018063736673241 0.00058660005345279726 0 -0.018478203549419196 0.00026501178216671486 0 -0.018266525231128657 9.9228909801476906e-05 0 -0.017764593555472125 0.0005981023413621794 0 -0.016666296855963353 0.00044099682344997556 0 -0.016668094915218888 0.00022225635017661185 0 -0.016453612659239444 0.00070271879064608665 0 -0.016666296855963353 0.00044099682344997556 0 -0.016453612659239444 0.00070271879064608665 0 -0.016419533813689539 0.0006603418796094449 0 -0.016453612659239444 0.00070271879064608665 0 -0.01655003697286828 0.00074837312476300493 0 -0.016419533813689539 0.0006603418796094449 0 -0.016453612659239444 0.00070271879064608665 0 -0.017270309860923507 0.00096255418752746633 0 -0.01655003697286828 0.00074837312476300493 0 -0.017764593555472125 0.0005981023413621794 0 -0.017378428729150297 0.00088682662038928894 0 -0.019018063736673241 0.00058660005345279726 0 -0.018478203549419196 0.00026501178216671486 0 -0.017270309860923507 0.00096255418752746633 0 -0.017643281810255092 0.00050691048599151294 0 -0.018478203549419196 0.00026501178216671486 0 -0.017270309860923507 0.00096255418752746633 0 -0.017643281810255092 0.00050691048599151294 0 -0.01720508296301208 0.00090751500618542762 0 -0.017270309860923507 0.00096255418752746633 0 -0.019847793580496396 -0.00071133963463678492 0 -0.020225321273765227 -0.0011772976519428091 0 -0.022144285369117306 -0.0022372592675740438 0 -0.022348583524107676 -0.0022894854277732304 0 -0.022421897633278953 -0.0023007890910668838 0 -0.017643281810255092 0.00050691048599151294 0 -0.018478203549419196 0.00026501178216671486 0 -0.018607461704808419 -0.00021907811319952584 0 -0.019398098281049766 -0.00024810055059347388 0 -0.018478203549419196 0.00026501178216671486 0 -0.018607461704808419 -0.00021907811319952584 0 -0.019634312576096925 -0.00053435469626380205 0 -0.019398098281049766 -0.00024810055059347388 0 -0.018607461704808419 -0.00021907811319952584 0 -0.020490901039656537 -0.00089355836529786089 0 -0.020228807995319287 -0.0010358095939385164 0 -0.02137330771723062 -0.0014420184343220651 0 -0.021871911466438531 -0.0019165447801944603 0 -0.02207975042270309 -0.0015893861319308824 0 -0.021871911466438531 -0.0019165447801944603 0 -0.02207975042270309 -0.0015893861319308824 0 -0.022311322489955265 -0.0018614595610884012 0 -0.019847793580496396 -0.00071133963463678492 0 -0.020228807995319287 -0.0010358095939385164 0 -0.022144285369117306 -0.0022372592675740438 0 -0.021871911466438531 -0.0019165447801944603 0 -0.022311322489955265 -0.0018614595610884012 0 -0.022311322489955265 -0.0018614595610884012 0 -0.022709856250118478 -0.001868874953147194 0 -0.0224663564835869 -0.0021094488116182399 0 -0.02207975042270309 -0.0015893861319308824 0 -0.022311322489955265 -0.0018614595610884012 0 -0.022663788169858781 -0.0014712194762071709 0 -0.022311322489955265 -0.0018614595610884012 0 -0.022663788169858781 -0.0014712194762071709 0 -0.022709856250118478 -0.001868874953147194 0 -0.022663788169858781 -0.0014712194762071709 0 -0.022709856250118478 -0.001868874953147194 0 -0.023151264904523183 -0.0015900075194329962 0 -0.022709856250118478 -0.001868874953147194 0 -0.02271421463477382 -0.0020741033498273939 0 -0.0224663564835869 -0.0021094488116182399 0 -0.022709856250118478 -0.001868874953147194 0 -0.02271421463477382 -0.0020741033498273939 0 -0.022973426129108684 -0.0020266046514173814 0 -0.02271421463477382 -0.0020741033498273939 0 -0.022492743481133122 -0.002234398337730432 0 -0.022735246981924234 -0.002198550747949478 0 -0.02271421463477382 -0.0020741033498273939 0 -0.022492743481133122 -0.002234398337730432 0 -0.0224663564835869 -0.0021094488116182399 0 -0.022144285369117306 -0.0022372592675740438 0 -0.0224663564835869 -0.0021094488116182399 0 -0.022348583524107676 -0.0022894854277732304 0 -0.022144285369117306 -0.0022372592675740438 0 -0.022311322489955265 -0.0018614595610884012 0 -0.0224663564835869 -0.0021094488116182399 0 -0.022492743481133122 -0.002234398337730432 0 -0.0224663564835869 -0.0021094488116182399 0 -0.022348583524107676 -0.0022894854277732304 0 -0.022348583524107676 -0.0022894854277732304 0 -0.022342554748209752 -0.0023120168731903218 0 -0.022421897633278953 -0.0023007890910668838 0 -0.022348583524107676 -0.0022894854277732304 0 -0.022342554748209752 -0.0023120168731903218 0 -0.022386126991084391 -0.0023510993488848634 0 -0.022492743481133122 -0.002234398337730432 0 -0.022386126991084391 -0.0023510993488848634 0 -0.022735246981924234 -0.002198550747949478 0 -0.022386126991084391 -0.0023510993488848634 0 -0.022735246981924234 -0.002198550747949478 0 -0.022771191809611388 -0.0022825274104194574 0 -0.022492743481133122 -0.002234398337730432 0 -0.022348583524107676 -0.0022894854277732304 0 -0.022386126991084391 -0.0023510993488848634 0 -0.022236064426132175 -0.0022258057109498285 0 -0.021691238342929024 -0.0018588473026506472 0 -0.021234437490662565 -0.0026010184643366079 0 -0.022386126991084391 -0.0023510993488848634 0 -0.022236064426132175 -0.0022258057109498285 0 -0.022258586587004053 -0.0023024957751998604 0 -0.022208875966398044 -0.0022524207911814981 0 -0.021723281172156505 -0.0024582317072818958 0 -0.022342554748209752 -0.0023120168731903218 0 -0.022386126991084391 -0.0023510993488848634 0 -0.022236064426132175 -0.0022258057109498285 0 -0.016626850025870527 0.0013886540528909191 0 -0.020225321273765227 -0.0011772976519428091 0 -0.022342554748209752 -0.0023120168731903218 0 -0.022236064426132175 -0.0022258057109498285 0 -0.022421897633278953 -0.0023007890910668838 0 -0.022236064426132175 -0.0022258057109498285 0 -0.022452402425949307 -0.0017535545417136159 0 -0.022421897633278953 -0.0023007890910668838 0 -0.01211528886786461 0.0047247331039941103 0 -0.011797931768961444 0.0048275371169495662 0 -0.011659317229568093 0.0045828547618393502 0 -0.016626850025870527 0.0013886540528909191 0 -0.01684832200341875 0.0014233383236963311 0 -0.011797931768961444 0.0048275371169495662 0 -0.011659317229568093 0.0045828547618393502 0 -0.011493218669319948 0.0048885809566179004 0 -0.022236064426132175 -0.0022258057109498285 0 -0.022452402425949307 -0.0017535545417136159 0 -0.021691238342929024 -0.0018588473026506472 0 -0.011797931768961444 0.0048275371169495662 0 -0.011649294316948939 0.0050585176345655037 0 -0.011493218669319948 0.0048885809566179004 0 -0.011797931768961444 0.0048275371169495662 0 -0.011649294316948939 0.0050585176345655037 0 -0.011918682478423714 0.0052609308963467508 0 -0.011649294316948939 0.0050585176345655037 0 -0.011560439451891835 0.0052913452315435936 0 -0.011918682478423714 0.0052609308963467508 0 -0.011560439451891835 0.0052913452315435936 0 -0.011918682478423714 0.0052609308963467508 0 -0.01160429995295747 0.0056210285010723201 0 -0.012517388537965168 0.0038073887321202903 0 -0.013857838693464856 0.0031651849896881085 0 -0.014402714570259458 0.0045440951111759553 0 -0.013222826467179913 0.0015635382466105689 0 -0.012517388537965168 0.0038073887321202903 0 -0.013857838693464856 0.0031651849896881085 0 -0.016626850025870527 0.0013886540528909191 0 -0.011579155179095359 0.005073863800667152 0 -0.01211528886786461 0.0047247331039941103 0 -0.011797931768961444 0.0048275371169495662 0 -0.011918682478423714 0.0052609308963467508 0 -0.013222826467179913 0.0015635382466105689 0 -0.014505463739506012 0.0021087590782159146 0 -0.013857838693464856 0.0031651849896881085 0 -0.014505463739506012 0.0021087590782159146 0 -0.014642860155246499 0.0031170815611843948 0 -0.013857838693464856 0.0031651849896881085 0 -0.014642860155246499 0.0031170815611843948 0 -0.013857838693464856 0.0031651849896881085 0 -0.014402714570259458 0.0045440951111759553 0 -0.015845956019032197 0.0015998391050703648 0 -0.014816206621360108 0.0029578205523095352 0 -0.015215140010097715 0.0011065134160773479 0 -0.015438542367984953 0.00091582230249485572 0 -0.015437235991019064 0.00067479284303861853 0 -0.014642860155246499 0.0031170815611843948 0 -0.015806325698173179 0.0026491380141044733 0 -0.014402714570259458 0.0045440951111759553 0 -0.015215140010097715 0.0011065134160773479 0 -0.015437235991019064 0.00067479284303861853 0 -0.014931732021177839 0.0012557368298156007 0 -0.015215140010097715 0.0011065134160773479 0 -0.015438542367984953 0.00091582230249485572 0 -0.015341814072084372 0.0010436608176107166 0 -0.015512643780659479 0.001227027784733471 0 -0.015845956019032197 0.0015998391050703648 0 -0.015438542367984953 0.00091582230249485572 0 -0.015437235991019064 0.00067479284303861853 0 -0.015661969231111877 0.00065481966128535986 0 -0.016949571028605739 0.00048897282311167252 0 -0.016139603169234549 0.00035837682778340957 0 -0.016528163071513915 0.00059232045623762127 0 -0.014505463739506012 0.0021087590782159146 0 -0.014642860155246499 0.0031170815611843948 0 -0.015806325698173179 0.0026491380141044733 0 -0.015845956019032197 0.0015998391050703648 0 -0.015755874442444754 0.0014920241100521902 0 -0.015845956019032197 0.0015998391050703648 0 -0.015935804955707074 0.00141653183917116 0 -0.015806446255505494 0.00057633415968718683 0 -0.015661969231111877 0.00065481966128535986 0 -0.015955676455418788 0.00050136706588056344 0 -0.015661969231111877 0.00065481966128535986 0 -0.015955676455418788 0.00050136706588056344 0 -0.015847828410156761 0.00058278878462795353 0 -0.016139603169234549 0.00035837682778340957 0 -0.016234414471048418 0.00056442998672691868 0 -0.016528163071513915 0.00059232045623762127 0 -0.016139603169234549 0.00035837682778340957 0 -0.015955676455418788 0.00050136706588056344 0 -0.016234414471048418 0.00056442998672691868 0 -0.015955676455418788 0.00050136706588056344 0 -0.016234414471048418 0.00056442998672691868 0 -0.016015492047791645 0.00058313857004690093 0 -0.016234414471048418 0.00056442998672691868 0 -0.016250175747771791 0.00062044891087206723 0 -0.016015492047791645 0.00058313857004690093 0 -0.016250175747771791 0.00062044891087206723 0 -0.01648993679121245 0.00068949442223674386 0 -0.016528163071513915 0.00059232045623762127 0 -0.01648993679121245 0.00068949442223674386 0 -0.016528163071513915 0.00059232045623762127 0 -0.016979353758542877 0.00077457676950813974 0 -0.016234414471048418 0.00056442998672691868 0 -0.016250175747771791 0.00062044891087206723 0 -0.016528163071513915 0.00059232045623762127 0 -0.016626850025870527 0.0013886540528909191 0 -0.015512643780659479 0.001227027784733471 0 -0.016949571028605739 0.00048897282311167252 0 -0.016528163071513915 0.00059232045623762127 0 -0.016979353758542877 0.00077457676950813974 0 -0.017259874688648355 0.00064040668519312668 0 -0.016949571028605739 0.00048897282311167252 0 -0.016979353758542877 0.00077457676950813974 0 -0.017259874688648355 0.00064040668519312668 0 -0.016979353758542877 0.00077457676950813974 0 -0.01720508296301208 0.00090751500618542762 0 -0.016979353758542877 0.00077457676950813974 0 -0.01720508296301208 0.00090751500618542762 0 -0.017270309860923507 0.00096255418752746633 0 -0.01648993679121245 0.00068949442223674386 0 -0.017270309860923507 0.00096255418752746633 0 -0.01655003697286828 0.00074837312476300493 0 -0.01648993679121245 0.00068949442223674386 0 -0.016979353758542877 0.00077457676950813974 0 -0.017270309860923507 0.00096255418752746633 0 -0.01648993679121245 0.00068949442223674386 0 -0.01655003697286828 0.00074837312476300493 0 -0.016209648637467343 0.00064815823448233776 0 -0.01655003697286828 0.00074837312476300493 0 -0.016419533813689539 0.0006603418796094449 0 -0.016209648637467343 0.00064815823448233776 0 -0.016419533813689539 0.0006603418796094449 0 -0.016209648637467343 0.00064815823448233776 0 -0.016341409885027594 0.00062183476498494262 0 -0.016087704154027563 0.00066450314560064839 0 -0.016209648637467343 0.00064815823448233776 0 -0.016341409885027594 0.00062183476498494262 0 -0.016087704154027563 0.00066450314560064839 0 -0.016209648637467343 0.00064815823448233776 0 -0.015953509549749743 0.00066073652382353705 0 -0.016209648637467343 0.00064815823448233776 0 -0.016249968132944114 0.00064858277026297101 0 -0.016053620857277132 0.00061979052932263808 0 -0.016209648637467343 0.00064815823448233776 0 -0.016053620857277132 0.00061979052932263808 0 -0.015953509549749743 0.00066073652382353705 0 -0.01648993679121245 0.00068949442223674386 0 -0.016209648637467343 0.00064815823448233776 0 -0.016249968132944114 0.00064858277026297101 0 -0.016250175747771791 0.00062044891087206723 0 -0.01648993679121245 0.00068949442223674386 0 -0.016249968132944114 0.00064858277026297101 0 -0.016250175747771791 0.00062044891087206723 0 -0.016249968132944114 0.00064858277026297101 0 -0.016053620857277132 0.00061979052932263808 0 -0.016250175747771791 0.00062044891087206723 0 -0.016053620857277132 0.00061979052932263808 0 -0.016015492047791645 0.00058313857004690093 0 -0.016053620857277132 0.00061979052932263808 0 -0.016015492047791645 0.00058313857004690093 0 -0.015882792515668258 0.00062624654891395336 0 -0.015955676455418788 0.00050136706588056344 0 -0.016015492047791645 0.00058313857004690093 0 -0.015847828410156761 0.00058278878462795353 0 -0.016015492047791645 0.00058313857004690093 0 -0.015882792515668258 0.00062624654891395336 0 -0.015847828410156761 0.00058278878462795353 0 -0.015882792515668258 0.00062624654891395336 0 -0.015953509549749743 0.00066073652382353705 0 -0.015777360738473748 0.00072132330888712677 0 -0.016053620857277132 0.00061979052932263808 0 -0.015882792515668258 0.00062624654891395336 0 -0.015953509549749743 0.00066073652382353705 0 -0.015777360738473748 0.00072132330888712677 0 -0.015639971660790199 0.00085421614879566642 0 -0.015796642916099994 0.00078173126759725558 0 -0.015953509549749743 0.00066073652382353705 0 -0.015777360738473748 0.00072132330888712677 0 -0.015796642916099994 0.00078173126759725558 0 -0.015777360738473748 0.00072132330888712677 0 -0.015639971660790199 0.00085421614879566642 0 -0.015567456806382494 0.00087965811360360055 0 -0.015438542367984953 0.00091582230249485572 0 -0.015732214420048268 0.00070980987189938325 0 -0.015567456806382494 0.00087965811360360055 0 -0.015661969231111877 0.00065481966128535986 0 -0.015847828410156761 0.00058278878462795353 0 -0.015732214420048268 0.00070980987189938325 0 -0.015882792515668258 0.00062624654891395336 0 -0.015777360738473748 0.00072132330888712677 0 -0.015732214420048268 0.00070980987189938325 0 -0.015882792515668258 0.00062624654891395336 0 -0.015847828410156761 0.00058278878462795353 0 -0.015732214420048268 0.00070980987189938325 0 -0.015777360738473748 0.00072132330888712677 0 -0.015732214420048268 0.00070980987189938325 0 -0.015567456806382494 0.00087965811360360055 0 -0.015438542367984953 0.00091582230249485572 0 -0.015661969231111877 0.00065481966128535986 0 -0.015732214420048268 0.00070980987189938325 0 -0.015420948673722222 0.0010291100225388664 0 -0.01502369161423682 0.0013903753136730653 0 -0.015079435588645086 0.001248620860534045 0 -0.015438542367984953 0.00091582230249485572 0 -0.015341814072084372 0.0010436608176107166 0 -0.015567456806382494 0.00087965811360360055 0 -0.015639971660790199 0.00085421614879566642 0 -0.015420948673722222 0.0010291100225388664 0 -0.015796642916099994 0.00078173126759725558 0 -0.015341814072084372 0.0010436608176107166 0 -0.015567456806382494 0.00087965811360360055 0 -0.015420948673722222 0.0010291100225388664 0 -0.015639971660790199 0.00085421614879566642 0 -0.015567456806382494 0.00087965811360360055 0 -0.015420948673722222 0.0010291100225388664 0 -0.015341814072084372 0.0010436608176107166 0 -0.015420948673722222 0.0010291100225388664 0 -0.015079435588645086 0.001248620860534045 0 -0.015215140010097715 0.0011065134160773479 0 -0.015341814072084372 0.0010436608176107166 0 -0.015079435588645086 0.001248620860534045 0 -0.01573084434691065 0.00095802425428246501 0 -0.015723742904131751 0.0012691134212996036 0 -0.01502369161423682 0.0013903753136730653 0 -0.015420948673722222 0.0010291100225388664 0 -0.01573084434691065 0.00095802425428246501 0 -0.01502369161423682 0.0013903753136730653 0 -0.015420948673722222 0.0010291100225388664 0 -0.01573084434691065 0.00095802425428246501 0 -0.015796642916099994 0.00078173126759725558 0 -0.01573084434691065 0.00095802425428246501 0 -0.015796642916099994 0.00078173126759725558 0 -0.016094830477137039 0.00073563894649132124 0 -0.016087704154027563 0.00066450314560064839 0 -0.015796642916099994 0.00078173126759725558 0 -0.016094830477137039 0.00073563894649132124 0 -0.016087704154027563 0.00066450314560064839 0 -0.015953509549749743 0.00066073652382353705 0 -0.015796642916099994 0.00078173126759725558 0 -0.016094830477137039 0.00073563894649132124 0 -0.016227145838061143 0.00085390954761561998 0 -0.016430919926374674 0.00065410118873495435 0 -0.01573084434691065 0.00095802425428246501 0 -0.016094830477137039 0.00073563894649132124 0 -0.016227145838061143 0.00085390954761561998 0 -0.016227145838061143 0.00085390954761561998 0 -0.015723742904131751 0.0012691134212996036 0 -0.016017183372589824 0.0015820272985263956 0 -0.01573084434691065 0.00095802425428246501 0 -0.016227145838061143 0.00085390954761561998 0 -0.015723742904131751 0.0012691134212996036 0 -0.015231643527801141 0.00033828830516695986 0 -0.014544520336174264 0.00042894316279246889 0 -0.012526199138794382 4.4625144053822871e-07 0 -0.012485832022160342 -2.890054163624224e-05 0 -0.013796622740115875 -5.0295316000059368e-07 0 -0.014101053116409745 -0.00021416495566610661 0 -0.014025488975589652 -0.00032839085941798043 0 -0.013798739595558459 -3.1557887773365555e-07 0 -0.014101053116409745 -0.00021416495566610661 0 -0.014025488975589652 -0.00032839085941798043 0 -0.014148060313020938 -0.00052776561501113298 0 -0.014101053116409745 -0.00021416495566610661 0 -0.013798739595558459 -3.1557887773365555e-07 0 -0.014342002538410063 7.8599840241987178e-05 0 -0.01319245857851776 -0.00015843193386993811 0 -0.0137968976896481 1.3056789814908697e-07 0 -0.015231643527801141 0.00033828830516695986 0 -0.015421678510455306 0.00038756470176883246 0 -0.013798739595558459 -3.1557887773365555e-07 0 -0.014805941608574701 3.1701957802601537e-07 0 -0.014342002538410063 7.8599840241987178e-05 0 -0.016094830477137039 0.00073563894649132124 0 -0.016430919926374674 0.00065410118873495435 0 -0.016341409885027594 0.00062183476498494262 0 -0.016087704154027563 0.00066450314560064839 0 -0.016094830477137039 0.00073563894649132124 0 -0.016341409885027594 0.00062183476498494262 0 -0.016666296855963353 0.00044099682344997556 0 -0.016419533813689539 0.0006603418796094449 0 -0.016341409885027594 0.00062183476498494262 0 -0.016666296855963353 0.00044099682344997556 0 -0.016341409885027594 0.00062183476498494262 0 -0.01669474534144914 0.00047433150054080562 0 -0.015421678510455306 0.00038756470176883246 0 -0.016087374137035482 0.00030161243487451697 0 -0.015815493146611039 -1.4222916418246716e-07 0 -0.014805941608574701 3.1701957802601537e-07 0 -0.015520315392712175 -9.9343680781194941e-06 0 -0.016430919926374674 0.00065410118873495435 0 -0.016341409885027594 0.00062183476498494262 0 -0.01669474534144914 0.00047433150054080562 0 -0.014805941608574701 3.1701957802601537e-07 0 -0.014342002538410063 7.8599840241987178e-05 0 -0.015520315392712175 -9.9343680781194941e-06 0 -0.023897868099885464 -6.2134872891019745e-05 0 -0.023998494789213128 -5.449391412276544e-05 0 -0.023952078584726581 -8.012553676959631e-05 0 -0.023998494789213128 -5.449391412276544e-05 0 -0.024217473616521917 -0.00011042785141054514 0 -0.024216596752300396 -1.702249182145591e-05 0 -0.023897868099885464 -6.2134872891019745e-05 0 -0.023998494789213128 -5.449391412276544e-05 0 -0.023766730864480397 -1.6642428615636616e-05 0 -0.023941039933689044 -6.150345632249838e-05 0 -0.024111126324386015 1.8076787819896265e-05 0 -0.024216596752300396 -1.702249182145591e-05 0 -0.024314460963078321 -8.1234008110261867e-05 0 -0.024362903535518909 2.3597415490265522e-06 0 -0.024111126324386015 1.8076787819896265e-05 0 -0.023278271434917744 -0.0003334165707202482 0 -0.024217473616521917 -0.00011042785141054514 0 -0.024216596752300396 -1.702249182145591e-05 0 -0.024314460963078321 -8.1234008110261867e-05 0 -0.023897868099885464 -6.2134872891019745e-05 0 -0.023766730864480397 -1.6642428615636616e-05 0 -0.023722758972453767 -0.00017037783156550359 0 -0.023766730864480397 -1.6642428615636616e-05 0 -0.023488491540094025 -8.8673461895780029e-05 0 -0.023603152986247669 -0.00013401328918569681 0 -0.023766730864480397 -1.6642428615636616e-05 0 -0.023722758972453767 -0.00017037783156550359 0 -0.02366379270698311 -0.00012708820450963506 0 -0.023766730864480397 -1.6642428615636616e-05 0 -0.02366379270698311 -0.00012708820450963506 0 -0.023603152986247669 -0.00013401328918569681 0 -0.020246125224322807 0.00055192386889366129 0 -0.019987719162630278 0.00055679374045395724 0 -0.020083183704354881 0.00060761580132181288 0 -0.022765393785361011 9.40051563448396e-05 0 -0.022046586035513755 7.1799100453555476e-05 0 -0.023722758972453767 -0.00017037783156550359 0 -0.02366379270698311 -0.00012708820450963506 0 -0.023591820659029757 -0.00014086238914962312 0 -0.019585217067030279 0.0014737911857614944 0 -0.022046586035513755 7.1799100453555476e-05 0 -0.023897868099885464 -6.2134872891019745e-05 0 -0.023722758972453767 -0.00017037783156550359 0 -0.023952078584726581 -8.012553676959631e-05 0 -0.017694716905834088 0.0024636718711380343 0 -0.017294192135714367 0.0024678600272348464 0 -0.017288618252396429 0.002605754543983999 0 -0.019585217067030279 0.0014737911857614944 0 -0.020815486616704629 0.0011961954453292172 0 -0.019585217067030279 0.0014737911857614944 0 -0.016470282968660026 0.0029636684311678272 0 -0.017212186828635078 0.002552229638840988 0 -0.017164019894121352 0.0024890454042973062 0 -0.017154647411026298 0.0026383346704922845 0 -0.020815486616704629 0.0011961954453292172 0 -0.02062705398728926 0.0010417721290483127 0 -0.017294192135714367 0.0024678600272348464 0 -0.017212186828635078 0.002552229638840988 0 -0.017164019894121352 0.0024890454042973062 0 -0.017294192135714367 0.0024678600272348464 0 -0.017288618252396429 0.002605754543983999 0 -0.017212186828635078 0.002552229638840988 0 -0.018315443756431592 0.00064819328576090911 0 -0.018279996888138798 0.00064728175875304671 0 -0.018285678361735995 0.00061659159258122833 0 -0.020869236067996184 0.0010964826706373104 0 -0.02062705398728926 0.0010417721290483127 0 -0.023816233143436557 0.00094999580811273051 0 -0.023541997908732501 0.00045424460560217997 0 -0.023820546873731654 0.00012044547601572819 0 -0.023337944939454965 0.00090783023096331996 0 -0.023816233143436557 0.00094999580811273051 0 -0.023541997908732501 0.00045424460560217997 0 -0.02062705398728926 0.0010417721290483127 0 -0.024277538520975011 -0.00015908526677500915 0 -0.023952078584726581 -8.012553676959631e-05 0 -0.023887730169770947 -2.084099985594081e-05 0 -0.02395139272634466 -7.1823352338651832e-05 0 -0.023887730169770947 -2.084099985594081e-05 0 -0.02395139272634466 -7.1823352338651832e-05 0 -0.023876819788355885 -0.0001583105848802855 0 -0.023998494789213128 -5.449391412276544e-05 0 -0.023952078584726581 -8.012553676959631e-05 0 -0.02395139272634466 -7.1823352338651832e-05 0 -0.023998494789213128 -5.449391412276544e-05 0 -0.02395139272634466 -7.1823352338651832e-05 0 -0.023996319856215361 -0.00015250637101766479 0 -0.023996319856215361 -0.00015250637101766479 0 -0.023876819788355885 -0.0001583105848802855 0 -0.024060913275537162 -0.0002895262581022457 0 -0.02395139272634466 -7.1823352338651832e-05 0 -0.023996319856215361 -0.00015250637101766479 0 -0.023876819788355885 -0.0001583105848802855 0 -0.023234889529880114 -9.9808303473573003e-05 0 -0.023541997908732501 0.00045424460560217997 0 -0.023820546873731654 0.00012044547601572819 0 -0.023755579093918691 -0.00035556919500224224 0 -0.024277538520975011 -0.00015908526677500915 0 -0.023234889529880114 -9.9808303473573003e-05 0 -0.023868708406578006 -0.00043103356569161014 0 -0.023820546873731654 0.00012044547601572819 0 -0.023868708406578006 -0.00043103356569161014 0 -0.023876819788355885 -0.0001583105848802855 0 -0.024060913275537162 -0.0002895262581022457 0 -0.024060913275537162 -0.0002895262581022457 0 -0.024166259838879808 -0.00019269184851565481 0 -0.024281611130830921 -0.00032579161899532697 0 -0.024236676179036201 -0.00044595801667816865 0 -0.024060913275537162 -0.0002895262581022457 0 -0.024281611130830921 -0.00032579161899532697 0 -0.023998494789213128 -5.449391412276544e-05 0 -0.024217473616521917 -0.00011042785141054514 0 -0.024166259838879808 -0.00019269184851565481 0 -0.023998494789213128 -5.449391412276544e-05 0 -0.023996319856215361 -0.00015250637101766479 0 -0.024166259838879808 -0.00019269184851565481 0 -0.023996319856215361 -0.00015250637101766479 0 -0.024060913275537162 -0.0002895262581022457 0 -0.024166259838879808 -0.00019269184851565481 0 -0.024166259838879808 -0.00019269184851565481 0 -0.024281611130830921 -0.00032579161899532697 0 -0.024332746127912915 -0.00019292873379016048 0 -0.024217473616521917 -0.00011042785141054514 0 -0.024166259838879808 -0.00019269184851565481 0 -0.024332746127912915 -0.00019292873379016048 0 -0.024217473616521917 -0.00011042785141054514 0 -0.024332746127912915 -0.00019292873379016048 0 -0.024314460963078321 -8.1234008110261867e-05 0 -0.024368922553201562 -0.0004184128937048624 0 -0.024281611130830921 -0.00032579161899532697 0 -0.02442453675438459 -0.00033917457915847154 0 -0.024281611130830921 -0.00032579161899532697 0 -0.02442453675438459 -0.00033917457915847154 0 -0.024332746127912915 -0.00019292873379016048 0 -0.024508429442059828 -0.00044971451042528714 0 -0.02442453675438459 -0.00033917457915847154 0 -0.024519771980261361 -0.00026623979431618719 0 -0.02442453675438459 -0.00033917457915847154 0 -0.024519771980261361 -0.00026623979431618719 0 -0.02443230717357326 -0.00018922605820155983 0 -0.024171587829186655 -0.00095884865911615824 0 -0.023373895991442437 -0.0014631714944795648 0 -0.024519771980261361 -0.00026623979431618719 0 -0.02443230717357326 -0.00018922605820155983 0 -0.024483464229245151 -5.6794545396155713e-05 0 -0.02442453675438459 -0.00033917457915847154 0 -0.02443230717357326 -0.00018922605820155983 0 -0.024332746127912915 -0.00019292873379016048 0 -0.02443230717357326 -0.00018922605820155983 0 -0.024332746127912915 -0.00019292873379016048 0 -0.02440346140990703 -8.1872293053073105e-05 0 -0.023597892895701123 -0.0012024158088551084 0 -0.023655361274430253 -0.0017380750708758728 0 -0.023151264904523183 -0.0015900075194329962 0 -0.024041341136217552 -0.00082326540465677597 0 -0.024171587829186655 -0.00095884865911615824 0 -0.023655361274430253 -0.0017380750708758728 0 -0.023151264904523183 -0.0015900075194329962 0 -0.023302199664779435 -0.0018731512890194559 0 -0.023655361274430253 -0.0017380750708758728 0 -0.023302199664779435 -0.0018731512890194559 0 -0.023421785598382219 -0.0021887244765554795 0 -0.023302199664779435 -0.0018731512890194559 0 -0.022973426129108684 -0.0020266046514173814 0 -0.023421785598382219 -0.0021887244765554795 0 -0.023151264904523183 -0.0015900075194329962 0 -0.023302199664779435 -0.0018731512890194559 0 -0.022973426129108684 -0.0020266046514173814 0 -0.022709856250118478 -0.001868874953147194 0 -0.023151264904523183 -0.0015900075194329962 0 -0.022973426129108684 -0.0020266046514173814 0 -0.022735246981924234 -0.002198550747949478 0 -0.022970698498983078 -0.0021921387975336656 0 -0.022771191809611388 -0.0022825274104194574 0 -0.022973426129108684 -0.0020266046514173814 0 -0.022735246981924234 -0.002198550747949478 0 -0.022970698498983078 -0.0021921387975336656 0 -0.02271421463477382 -0.0020741033498273939 0 -0.022973426129108684 -0.0020266046514173814 0 -0.022735246981924234 -0.002198550747949478 0 -0.022973426129108684 -0.0020266046514173814 0 -0.022970698498983078 -0.0021921387975336656 0 -0.023092663625909813 -0.002105337764884775 0 -0.022970698498983078 -0.0021921387975336656 0 -0.023092663625909813 -0.002105337764884775 0 -0.023106572544075245 -0.0022585915387807287 0 -0.022982533452670956 -0.0020332254476168599 0 -0.023321914463367142 -0.0021619889198016959 0 -0.023092663625909813 -0.002105337764884775 0 -0.023106572544075245 -0.0022585915387807287 0 -0.023213843934841258 -0.0022357285525322216 0 -0.023106572544075245 -0.0022585915387807287 0 -0.022967761049024132 -0.0023979670983439883 0 -0.023264943371226202 -0.0023208310945383439 0 -0.022054618781881891 -0.002350152939650373 0 -0.022161669064690359 -0.002382006685231967 0 -0.021889998442298265 -0.0023893725951011609 0 -0.022056093152852289 -0.0023503937681550956 0 -0.022077964522938892 -0.0023500709815296784 0 -0.022258586587004053 -0.0023024957751998604 0 -0.022708804657168964 -0.0024296416103090461 0 -0.021853980396741315 -0.0017408690176066704 0 -0.021054503044322086 -0.0023331659117500217 0 -0.021853980396741315 -0.0017408690176066704 0 -0.022054618781881891 -0.002350152939650373 0 -0.022077964522938892 -0.0023500709815296784 0 -0.022161669064690359 -0.002382006685231967 0 -0.021054503044322086 -0.0023331659117500217 0 -0.0212046753914132 -0.0023234424227996393 0 -0.022970698498983078 -0.0021921387975336656 0 -0.023106572544075245 -0.0022585915387807287 0 -0.022967761049024132 -0.0023979670983439883 0 -0.022386126991084391 -0.0023510993488848634 0 -0.022967761049024132 -0.0023979670983439883 0 -0.022771191809611388 -0.0022825274104194574 0 -0.022386126991084391 -0.0023510993488848634 0 -0.022161669064690359 -0.002382006685231967 0 -0.022258586587004053 -0.0023024957751998604 0 -0.022077964522938892 -0.0023500709815296784 0 -0.022161669064690359 -0.002382006685231967 0 -0.022258586587004053 -0.0023024957751998604 0 -0.022348174483384605 -0.002356969727295339 0 -0.022708804657168964 -0.0024296416103090461 0 -0.021054503044322086 -0.0023331659117500217 0 -0.021723281172156505 -0.0024582317072818958 0 -0.022970698498983078 -0.0021921387975336656 0 -0.022967761049024132 -0.0023979670983439883 0 -0.022771191809611388 -0.0022825274104194574 0 -0.02440346140990703 -8.1872293053073105e-05 0 -0.024483464229245151 -5.6794545396155713e-05 0 -0.024362903535518909 2.3597415490265522e-06 0 -0.024314460963078321 -8.1234008110261867e-05 0 -0.02440346140990703 -8.1872293053073105e-05 0 -0.024362903535518909 2.3597415490265522e-06 0 -0.024332746127912915 -0.00019292873379016048 0 -0.024314460963078321 -8.1234008110261867e-05 0 -0.02440346140990703 -8.1872293053073105e-05 0 -0.02443230717357326 -0.00018922605820155983 0 -0.02440346140990703 -8.1872293053073105e-05 0 -0.024483464229245151 -5.6794545396155713e-05 0 -0.023655361274430253 -0.0017380750708758728 0 -0.023421785598382219 -0.0021887244765554795 0 -0.023782814500673915 -0.0023221085840588861 0 -0.023321914463367142 -0.0021619889198016959 0 -0.023373895991442437 -0.0014631714944795648 0 -0.023092663625909813 -0.002105337764884775 0 -0.023213843934841258 -0.0022357285525322216 0 -0.023286185021594307 -0.0021810905202662803 0 -0.023373895991442437 -0.0014631714944795648 0 -0.023278271434917744 -0.0003334165707202482 0 -0.022502525798942574 -0.00076836598522872122 0 -0.022532894775301102 -0.00091349726083822156 0 -0.022722888686146754 -0.00084802685574925953 0 -0.020909349613363624 -0.0015563148565328382 0 -0.02050423725655786 -0.0016714128388838931 0 -0.020361129513970171 -0.0015846612007468532 0 -0.023373895991442437 -0.0014631714944795648 0 -0.020982334087874064 -0.0010613077095341058 0 -0.019988967747370634 -0.0029576467172254838 0 -0.018649867525633676 -0.0030213784644258336 0 -0.01860668600927011 -0.0028390190890642091 0 -0.021054503044322086 -0.0023331659117500217 0 -0.018537091298600934 -0.00027224215006303336 0 -0.020391011829441245 -0.001705315789815566 0 -0.02050423725655786 -0.0016714128388838931 0 -0.020361129513970171 -0.0015846612007468532 0 -0.020982334087874064 -0.0010613077095341058 0 -0.021853980396741315 -0.0017408690176066704 0 -0.023213843934841258 -0.0022357285525322216 0 -0.023310700088726263 -0.0023034384941199811 0 -0.023264943371226202 -0.0023208310945383439 0 -0.023213843934841258 -0.0022357285525322216 0 -0.023286185021594307 -0.0021810905202662803 0 -0.023310700088726263 -0.0023034384941199811 0 -0.023106572544075245 -0.0022585915387807287 0 -0.023213843934841258 -0.0022357285525322216 0 -0.023264943371226202 -0.0023208310945383439 0 -0.019653762118789185 0.00055462014250924336 0 -0.01967228278923196 0.00046730835320531823 0 -0.019860464680697368 0.00049512009778142525 0 -0.016327594334136903 0.0013475117376701526 0 -0.01647897403536772 0.0006898826782591581 0 -0.018540948289083724 0.0015612244067719102 0 -0.020982334087874064 -0.0010613077095341058 0 -0.018537091298600934 -0.00027224215006303336 0 -0.018537091298600934 -0.00027224215006303336 0 -0.015816620252345315 0.0017923682311955737 0 -0.01731655149644979 0.0026263588942690322 0 -0.017308071097198438 0.0026218765489714325 0 -0.017291580429195059 0.0026483480665868207 0 -0.021320059284106414 -0.00058624565939938015 0 -0.022141103615594942 -0.00030280194454322061 0 -0.022622410839393627 -0.0004846667965990875 0 -0.020982334087874064 -0.0010613077095341058 0 -0.022046586035513755 7.1799100453555476e-05 0 -0.019653762118789185 0.00055462014250924336 0 -0.019987719162630278 0.00055679374045395724 0 -0.020083183704354881 0.00060761580132181288 0 -0.015816620252345315 0.0017923682311955737 0 -0.018551038738953946 0.0012238581471251014 0 -0.018537091298600934 -0.00027224215006303336 0 -0.018551038738953946 0.0012238581471251014 0 -0.019653762118789185 0.00055462014250924336 0 -0.019860464680697368 0.00049512009778142525 0 -0.019987719162630278 0.00055679374045395724 0 -0.019585217067030279 0.0014737911857614944 0 -0.018551038738953946 0.0012238581471251014 0 -0.020246125224322807 0.00055192386889366129 0 -0.019857450549215453 0.00049847008905333728 0 -0.019987719162630278 0.00055679374045395724 0 -0.017290189207900437 0.0026216301217583979 0 -0.017308071097198438 0.0026218765489714325 0 -0.017291580429195059 0.0026483480665868207 0 -0.018551038738953946 0.0012238581471251014 0 -0.019447149314755788 0.0011805571608136008 0 -0.020982334087874064 -0.0010613077095341058 0 -0.023278271434917744 -0.0003334165707202482 0 -0.023278271434917744 -0.0003334165707202482 0 -0.022046586035513755 7.1799100453555476e-05 0 -0.01731655149644979 0.0026263588942690322 0 -0.017291580429195059 0.0026483480665868207 0 -0.017300991463795989 0.0026927674713573472 0 -0.015816620252345315 0.0017923682311955737 0 -0.013808086665522516 0.0041122438771475775 0 -0.010888283453909707 0.0042721925192268691 0 -0.011000275320827682 0.0045564751023961913 0 -0.011268388523693953 0.0044592036562543574 0 -0.010888283453909707 0.0042721925192268691 0 -0.011000275320827682 0.0045564751023961913 0 -0.01075370942522519 0.0047492430363524863 0 -0.015816620252345315 0.0017923682311955737 0 -0.01544362009288495 0.00089766742034698649 0 -0.01075370942522519 0.0047492430363524863 0 -0.01108632458092723 0.0047437741909973109 0 -0.010920736648586081 0.0051268368582733318 0 -0.011000275320827682 0.0045564751023961913 0 -0.01075370942522519 0.0047492430363524863 0 -0.01108632458092723 0.0047437741909973109 0 -0.017291580429195059 0.0026483480665868207 0 -0.017300991463795989 0.0026927674713573472 0 -0.01727030904491168 0.0027035319432561207 0 -0.017300991463795989 0.0026927674713573472 0 -0.017277433128426504 0.0027708862484917126 0 -0.01727030904491168 0.0027035319432561207 0 -0.011659317229568093 0.0045828547618393502 0 -0.011268388523693953 0.0044592036562543574 0 -0.011339358088587994 0.0047219713287843055 0 -0.01684832200341875 0.0014233383236963311 0 -0.01544362009288495 0.00089766742034698649 0 -0.021691238342929024 -0.0018588473026506472 0 -0.021234437490662565 -0.0026010184643366079 0 -0.020196335715593306 -0.0022735836252981822 0 -0.019988967747370634 -0.0029576467172254838 0 -0.01860668600927011 -0.0028390190890642091 0 -0.020196335715593306 -0.0022735836252981822 0 -0.019988967747370634 -0.0029576467172254838 0 -0.021234437490662565 -0.0026010184643366079 0 -0.020196335715593306 -0.0022735836252981822 0 -0.011000275320827682 0.0045564751023961913 0 -0.011268388523693953 0.0044592036562543574 0 -0.01108632458092723 0.0047437741909973109 0 -0.01108632458092723 0.0047437741909973109 0 -0.011339358088587994 0.0047219713287843055 0 -0.011183604782148951 0.0049956970575069535 0 -0.011268388523693953 0.0044592036562543574 0 -0.01108632458092723 0.0047437741909973109 0 -0.011339358088587994 0.0047219713287843055 0 -0.011659317229568093 0.0045828547618393502 0 -0.011339358088587994 0.0047219713287843055 0 -0.011493218669319948 0.0048885809566179004 0 -0.011339358088587994 0.0047219713287843055 0 -0.011493218669319948 0.0048885809566179004 0 -0.011183604782148951 0.0049956970575069535 0 -0.011493218669319948 0.0048885809566179004 0 -0.011183604782148951 0.0049956970575069535 0 -0.011349467835923653 0.0051656667259756097 0 -0.011649294316948939 0.0050585176345655037 0 -0.011493218669319948 0.0048885809566179004 0 -0.011349467835923653 0.0051656667259756097 0 -0.011183604782148951 0.0049956970575069535 0 -0.010916551234616861 0.0054574253599206637 0 -0.010920736648586081 0.0051268368582733318 0 -0.01108632458092723 0.0047437741909973109 0 -0.011183604782148951 0.0049956970575069535 0 -0.010920736648586081 0.0051268368582733318 0 -0.011183604782148951 0.0049956970575069535 0 -0.010916551234616861 0.0054574253599206637 0 -0.011349467835923653 0.0051656667259756097 0 -0.010916551234616861 0.0054574253599206637 0 -0.011349467835923653 0.0051656667259756097 0 -0.011278748715750219 0.0054185733694110056 0 -0.011560439451891835 0.0052913452315435936 0 -0.011278748715750219 0.0054185733694110056 0 -0.01160429995295747 0.0056210285010723201 0 -0.011560439451891835 0.0052913452315435936 0 -0.011349467835923653 0.0051656667259756097 0 -0.011278748715750219 0.0054185733694110056 0 -0.011649294316948939 0.0050585176345655037 0 -0.011560439451891835 0.0052913452315435936 0 -0.011349467835923653 0.0051656667259756097 0 -0.013808086665522516 0.0041122438771475775 0 -0.014048149528419557 0.0039045947852953873 0 -0.01075370942522519 0.0047492430363524863 0 -0.010732274235837683 0.0052353055591044077 0 -0.010920736648586081 0.0051268368582733318 0 -0.010916551234616861 0.0054574253599206637 0 -0.010920736648586081 0.0051268368582733318 0 -0.010882803144033049 0.0054769079655756243 0 -0.010732274235837683 0.0052353055591044077 0 -0.010920736648586081 0.0051268368582733318 0 -0.010882803144033049 0.0054769079655756243 0 -0.017277433128426504 0.0027708862484917126 0 -0.017239083122671531 0.0027646699022263284 0 -0.017242244136855447 0.002850178439909539 0 -0.010732274235837683 0.0052353055591044077 0 -0.010882803144033049 0.0054769079655756243 0 -0.010948027405943096 0.005556225864458488 0 -0.014048149528419557 0.0039045947852953873 0 -0.014111724417599694 0.0042063603276807941 0 -0.017197674481776021 0.002804989694049504 0 -0.017239083122671531 0.0027646699022263284 0 -0.017242244136855447 0.002850178439909539 0 -0.017197674481776021 0.002804989694049504 0 -0.017239083122671531 0.0027646699022263284 0 -0.017188016111625334 0.0027495434333270103 0 -0.017239083122671531 0.0027646699022263284 0 -0.017241115495826666 0.0026991474378770626 0 -0.017188016111625334 0.0027495434333270103 0 -0.017277433128426504 0.0027708862484917126 0 -0.017239083122671531 0.0027646699022263284 0 -0.01727030904491168 0.0027035319432561207 0 -0.017239083122671531 0.0027646699022263284 0 -0.01727030904491168 0.0027035319432561207 0 -0.017241115495826666 0.0026991474378770626 0 -0.01727030904491168 0.0027035319432561207 0 -0.017241115495826666 0.0026991474378770626 0 -0.017273226330353591 0.0026453898886267353 0 -0.017241115495826666 0.0026991474378770626 0 -0.017205059102245897 0.0026822764267268174 0 -0.017188016111625334 0.0027495434333270103 0 -0.017241115495826666 0.0026991474378770626 0 -0.017249469677141225 0.0026511887150543773 0 -0.017273226330353591 0.0026453898886267353 0 -0.017241115495826666 0.0026991474378770626 0 -0.017249469677141225 0.0026511887150543773 0 -0.017205059102245897 0.0026822764267268174 0 -0.017290189207900437 0.0026216301217583979 0 -0.017288618252396429 0.002605754543983999 0 -0.017273226330353591 0.0026453898886267353 0 -0.017288618252396429 0.002605754543983999 0 -0.017249469677141225 0.0026511887150543773 0 -0.017228355305933196 0.0026285736400612878 0 -0.017288618252396429 0.002605754543983999 0 -0.017249469677141225 0.0026511887150543773 0 -0.017273226330353591 0.0026453898886267353 0 -0.017291580429195059 0.0026483480665868207 0 -0.01727030904491168 0.0027035319432561207 0 -0.017273226330353591 0.0026453898886267353 0 -0.017290189207900437 0.0026216301217583979 0 -0.017291580429195059 0.0026483480665868207 0 -0.017273226330353591 0.0026453898886267353 0 -0.018279996888138798 0.00064728175875304671 0 -0.018285678361735995 0.00061659159258122833 0 -0.018255426438380552 0.00059056844709430827 0 -0.01827131704905386 0.00056426770261247517 0 -0.018285678361735995 0.00061659159258122833 0 -0.018255426438380552 0.00059056844709430827 0 -0.02062705398728926 0.0010417721290483127 0 -0.017406985033770594 0.0017178680646542453 0 -0.017212186828635078 0.002552229638840988 0 -0.017154647411026298 0.0026383346704922845 0 -0.017228355305933196 0.0026285736400612878 0 -0.017288618252396429 0.002605754543983999 0 -0.017212186828635078 0.002552229638840988 0 -0.017228355305933196 0.0026285736400612878 0 -0.017249469677141225 0.0026511887150543773 0 -0.017228355305933196 0.0026285736400612878 0 -0.017205059102245897 0.0026822764267268174 0 -0.017154647411026298 0.0026383346704922845 0 -0.017228355305933196 0.0026285736400612878 0 -0.017205059102245897 0.0026822764267268174 0 -0.017154647411026298 0.0026383346704922845 0 -0.017205059102245897 0.0026822764267268174 0 -0.017141262948302538 0.0027272228847923874 0 -0.017406985033770594 0.0017178680646542453 0 -0.017732569383359372 0.0016510831648612165 0 -0.01827131704905386 0.00056426770261247517 0 -0.018255426438380552 0.00059056844709430827 0 -0.018265440181315595 0.00053890270004331364 0 -0.01827131704905386 0.00056426770261247517 0 -0.01822623879072037 0.00052645122463972202 0 -0.018265440181315595 0.00053890270004331364 0 -0.017205059102245897 0.0026822764267268174 0 -0.017141262948302538 0.0027272228847923874 0 -0.017188016111625334 0.0027495434333270103 0 -0.017197674481776021 0.002804989694049504 0 -0.017188016111625334 0.0027495434333270103 0 -0.017126014924420535 0.002807373664596974 0 -0.017141262948302538 0.0027272228847923874 0 -0.017188016111625334 0.0027495434333270103 0 -0.017126014924420535 0.002807373664596974 0 -0.01822623879072037 0.00052645122463972202 0 -0.018265440181315595 0.00053890270004331364 0 -0.01832755489259948 0.00061841047556622541 0 -0.01822623879072037 0.00052645122463972202 0 -0.01832755489259948 0.00061841047556622541 0 -0.018203373793529386 0.00065716091394753338 0 -0.017732569383359372 0.0016510831648612165 0 -0.017763284318155111 0.0015488178544156392 0 -0.017763284318155111 0.0015488178544156392 0 -0.017375886493220812 0.0027411242541759227 0 -0.018397443999582302 0.00095707269144260185 0 -0.018093925724218765 0.00077884261513580912 0 -0.018203373793529386 0.00065716091394753338 0 -0.01832755489259948 0.00061841047556622541 0 -0.018397443999582302 0.00095707269144260185 0 -0.018203373793529386 0.00065716091394753338 0 -0.017197674481776021 0.002804989694049504 0 -0.017126014924420535 0.002807373664596974 0 -0.017162661450904743 0.0028520059905057524 0 -0.017126014924420535 0.002807373664596974 0 -0.017162661450904743 0.0028520059905057524 0 -0.017118807605254156 0.0028830383394976471 0 -0.016984812762261801 0.0064508439905600554 0 -0.01545376599712161 0.0045679537955007872 0 -0.014504963137678364 0.0062085185495274866 0 -0.017162661450904743 0.0028520059905057524 0 -0.017118807605254156 0.0028830383394976471 0 -0.017168243729464974 0.0028978256129723488 0 -0.017375886493220812 0.0027411242541759227 0 -0.015894583488902783 0.0047456084594982156 0 -0.017375886493220812 0.0027411242541759227 0 -0.018191141006100354 0.000562331579267745 0 -0.017375886493220812 0.0027411242541759227 0 -0.017356359738820347 0.0029110426733179929 0 -0.017857933602712102 0.0011022706312198633 0 -0.017779667849409875 0.0012421488092221682 0 -0.017792371842629977 0.0011550431463521046 0 -0.016984812762261801 0.0064508439905600554 0 -0.016959592397523593 0.0041640860426653799 0 -0.01545376599712161 0.0045679537955007872 0 -0.01545376599712161 0.0045679537955007872 0 -0.016161794016889434 0.0030903617712146093 0 -0.01405627292192025 0.0029621171823373538 0 -0.016161794016889434 0.0030903617712146093 0 -0.01405627292192025 0.0029621171823373538 0 -0.016195871637979056 0.0019072542331443575 0 -0.016959592397523593 0.0041640860426653799 0 -0.016161794016889434 0.0030903617712146093 0 -0.016866043549872624 0.002061476918420914 0 -0.016959592397523593 0.0041640860426653799 0 -0.01545376599712161 0.0045679537955007872 0 -0.016161794016889434 0.0030903617712146093 0 -0.017779667849409875 0.0012421488092221682 0 -0.017684580525152094 0.0012981485649798412 0 -0.017792371842629977 0.0011550431463521046 0 -0.017779667849409875 0.0012421488092221682 0 -0.017684580525152094 0.0012981485649798412 0 -0.017498114604685117 0.0012645276799344107 0 -0.017356359738820347 0.0029110426733179929 0 -0.017195205111650496 0.0015918568432707161 0 -0.011969489757343842 0.0044051124913345781 0 -0.01253489201478373 0.0042430690762530606 0 -0.012074623241229227 0.0050358086909145453 0 -0.011969489757343842 0.0044051124913345781 0 -0.01253489201478373 0.0042430690762530606 0 -0.01212727159167005 0.0039241326302944367 0 -0.013239103308371634 0.0036316460662879128 0 -0.012148505977331601 0.0049710705476159519 0 -0.01545376599712161 0.0045679537955007872 0 -0.01405627292192025 0.0029621171823373538 0 -0.014035248648869902 0.0046320580564101852 0 -0.01405627292192025 0.0029621171823373538 0 -0.014035248648869902 0.0046320580564101852 0 -0.012074623241229227 0.0050358086909145453 0 -0.014035248648869902 0.0046320580564101852 0 -0.012074623241229227 0.0050358086909145453 0 -0.014504963137678364 0.0062085185495274866 0 -0.01545376599712161 0.0045679537955007872 0 -0.014035248648869902 0.0046320580564101852 0 -0.014504963137678364 0.0062085185495274866 0 -0.011969489757343842 0.0044051124913345781 0 -0.012074623241229227 0.0050358086909145453 0 -0.011623772468109157 0.0048257342623841334 0 -0.012074623241229227 0.0050358086909145453 0 -0.011889107600909029 0.0057759911457845774 0 -0.014504963137678364 0.0062085185495274866 0 -0.012074623241229227 0.0050358086909145453 0 -0.011623772468109157 0.0048257342623841334 0 -0.011584870949737692 0.0051556879986091615 0 -0.012074623241229227 0.0050358086909145453 0 -0.011889107600909029 0.0057759911457845774 0 -0.011584870949737692 0.0051556879986091615 0 -0.017205038712734624 0.0029156222304588678 0 -0.017168243729464974 0.0028978256129723488 0 -0.017196950086107402 0.0028641091816699431 0 -0.014085699415561566 0.0040987189714413903 0 -0.015894583488902783 0.0047456084594982156 0 -0.017205038712734624 0.0029156222304588678 0 -0.017196950086107402 0.0028641091816699431 0 -0.017242244136855447 0.002850178439909539 0 -0.017162661450904743 0.0028520059905057524 0 -0.017168243729464974 0.0028978256129723488 0 -0.017196950086107402 0.0028641091816699431 0 -0.017197674481776021 0.002804989694049504 0 -0.017162661450904743 0.0028520059905057524 0 -0.017196950086107402 0.0028641091816699431 0 -0.017197674481776021 0.002804989694049504 0 -0.017196950086107402 0.0028641091816699431 0 -0.017242244136855447 0.002850178439909539 0 -0.010882803144033049 0.0054769079655756243 0 -0.010948027405943096 0.005556225864458488 0 -0.010895570579641229 0.0055936137310562241 0 -0.010916551234616861 0.0054574253599206637 0 -0.010882803144033049 0.0054769079655756243 0 -0.010895570579641229 0.0055936137310562241 0 -0.010895570579641229 0.0055936137310562241 0 -0.010607161244621306 0.0053837720290993499 0 -0.010640202048360631 0.0057538489361538808 0 -0.010895570579641229 0.0055936137310562241 0 -0.010939602159235472 0.0053306194262238756 0 -0.010607161244621306 0.0053837720290993499 0 -0.010948027405943096 0.005556225864458488 0 -0.010895570579641229 0.0055936137310562241 0 -0.011276670518179476 0.005432327816163659 0 -0.01129644017728091 0.0054326849681982379 0 -0.010948027405943096 0.005556225864458488 0 -0.011276670518179476 0.005432327816163659 0 -0.014085699415561566 0.0040987189714413903 0 -0.014111724417599694 0.0042063603276807941 0 -0.010895570579641229 0.0055936137310562241 0 -0.010939602159235472 0.0053306194262238756 0 -0.011276670518179476 0.005432327816163659 0 -0.014085699415561566 0.0040987189714413903 0 -0.011660378298341966 0.004582103045791615 0 -0.011416494545352866 0.0058171329906643717 0 -0.011151585346626689 0.0057176917210828007 0 -0.011420836841277135 0.0060738064547907374 0 -0.011416494545352866 0.0058171329906643717 0 -0.011151585346626689 0.0057176917210828007 0 -0.01160429995295747 0.0056210285010723201 0 -0.011278748715750219 0.0054185733694110056 0 -0.011151585346626689 0.0057176917210828007 0 -0.01160429995295747 0.0056210285010723201 0 -0.011278748715750219 0.0054185733694110056 0 -0.011151585346626689 0.0057176917210828007 0 -0.010987986702007957 0.0055746819929571719 0 -0.010916551234616861 0.0054574253599206637 0 -0.010987986702007957 0.0055746819929571719 0 -0.010640202048360631 0.0057538489361538808 0 -0.010916551234616861 0.0054574253599206637 0 -0.011278748715750219 0.0054185733694110056 0 -0.010987986702007957 0.0055746819929571719 0 -0.010916551234616861 0.0054574253599206637 0 -0.010895570579641229 0.0055936137310562241 0 -0.010640202048360631 0.0057538489361538808 0 -0.011151585346626689 0.0057176917210828007 0 -0.010987986702007957 0.0055746819929571719 0 -0.010640202048360631 0.0057538489361538808 0 -0.010607161244621306 0.0053837720290993499 0 -0.010640202048360631 0.0057538489361538808 0 -0.0098546758866679962 0.0053833851480790031 0 -0.011151585346626689 0.0057176917210828007 0 -0.010640202048360631 0.0057538489361538808 0 -0.011420836841277135 0.0060738064547907374 0 -0.010702991693568991 0.0057652643841488629 0 -0.0099814721312555532 0.0061296821320782546 0 -0.010640202048360631 0.0057538489361538808 0 -0.0098546758866679962 0.0053833851480790031 0 -0.009086187413459906 0.0057698484524356525 0 -0.009246132339087396 0.0054010387553578131 0 -0.0090846507356609155 0.0057381590413774011 0 -0.009086187413459906 0.0057698484524356525 0 -0.0098546758866679962 0.0053833851480790031 0 -0.009246132339087396 0.0054010387553578131 0 -0.009086187413459906 0.0057698484524356525 0 -0.0091759449679770008 0.0049081222850806145 0 -0.010017590866268057 0.0048730551205210587 0 -0.0094646179693078699 0.0044582230326420513 0 -0.0098546758866679962 0.0053833851480790031 0 -0.0091759449679770008 0.0049081222850806145 0 -0.010017590866268057 0.0048730551205210587 0 -0.009246132339087396 0.0054010387553578131 0 -0.0091759449679770008 0.0049081222850806145 0 -0.0089922272168094508 0.0052504914364022576 0 -0.0098546758866679962 0.0053833851480790031 0 -0.009246132339087396 0.0054010387553578131 0 -0.0091759449679770008 0.0049081222850806145 0 -0.010607161244621306 0.0053837720290993499 0 -0.010017590866268057 0.0048730551205210587 0 -0.010733772791326795 0.0049827657637190785 0 -0.010607161244621306 0.0053837720290993499 0 -0.0098546758866679962 0.0053833851480790031 0 -0.010017590866268057 0.0048730551205210587 0 -0.010017590866268057 0.0048730551205210587 0 -0.010105281931697388 0.003909360949563916 0 -0.010733772791326795 0.0049827657637190785 0 -0.010017590866268057 0.0048730551205210587 0 -0.010105281931697388 0.003909360949563916 0 -0.0094646179693078699 0.0044582230326420513 0 -0.010278416923159133 0.004053549898251377 0 -0.010648835990136159 0.0048994753695428429 0 -0.0091759449679770008 0.0049081222850806145 0 -0.0086981524918633129 0.0040852960024284866 0 -0.0094646179693078699 0.0044582230326420513 0 -0.010105281931697388 0.003909360949563916 0 -0.0086981524918633129 0.0040852960024284866 0 -0.0094646179693078699 0.0044582230326420513 0 -0.011623772468109157 0.0048257342623841334 0 -0.011584870949737692 0.0051556879986091615 0 -0.011211763324762815 0.0050730016736865976 0 -0.011623772468109157 0.0048257342623841334 0 -0.011211763324762815 0.0050730016736865976 0 -0.011292042841305349 0.004579225258832381 0 -0.011276670518179476 0.005432327816163659 0 -0.011584870949737692 0.0051556879986091615 0 -0.011211763324762815 0.0050730016736865976 0 -0.011889107600909029 0.0057759911457845774 0 -0.011276670518179476 0.005432327816163659 0 -0.011584870949737692 0.0051556879986091615 0 -0.010939602159235472 0.0053306194262238756 0 -0.011276670518179476 0.005432327816163659 0 -0.011211763324762815 0.0050730016736865976 0 -0.011211763324762815 0.0050730016736865976 0 -0.010733772791326795 0.0049827657637190785 0 -0.011292042841305349 0.004579225258832381 0 -0.010939602159235472 0.0053306194262238756 0 -0.011211763324762815 0.0050730016736865976 0 -0.010733772791326795 0.0049827657637190785 0 -0.010939602159235472 0.0053306194262238756 0 -0.010607161244621306 0.0053837720290993499 0 -0.010733772791326795 0.0049827657637190785 0 -0.010733772791326795 0.0049827657637190785 0 -0.010843903257175705 0.0042698164633267971 0 -0.011292042841305349 0.004579225258832381 0 -0.010123467300235148 0.004145033861156844 0 -0.010733772791326795 0.0049827657637190785 0 -0.010843903257175705 0.0042698164633267971 0 -0.010843903257175705 0.0042698164633267971 0 -0.011292042841305349 0.004579225258832381 0 -0.011486877362182658 0.00390819807745148 0 -0.011969489757343842 0.0044051124913345781 0 -0.011292042841305349 0.004579225258832381 0 -0.011486877362182658 0.00390819807745148 0 -0.011969489757343842 0.0044051124913345781 0 -0.011623772468109157 0.0048257342623841334 0 -0.011292042841305349 0.004579225258832381 0 -0.011486877362182658 0.00390819807745148 0 -0.010657588628078489 0.0035943070477157685 0 -0.011442520003209052 0.0031212158709739064 0 -0.010123467300235148 0.004145033861156844 0 -0.010843903257175705 0.0042698164633267971 0 -0.010657588628078489 0.0035943070477157685 0 -0.010843903257175705 0.0042698164633267971 0 -0.011486877362182658 0.00390819807745148 0 -0.010657588628078489 0.0035943070477157685 0 -0.010657588628078489 0.0035943070477157685 0 -0.011442520003209052 0.0031212158709739064 0 -0.010521443100636619 0.002764554840261382 0 -0.011486877362182658 0.00390819807745148 0 -0.011442520003209052 0.0031212158709739064 0 -0.012119744189591698 0.0034054417510560675 0 -0.010105281931697388 0.003909360949563916 0 -0.0086981524918633129 0.0040852960024284866 0 -0.009091975026904401 0.0023918496260419936 0 -0.010278416923159133 0.004053549898251377 0 -0.008148662066085886 0.0030529191376292958 0 -0.010123467300235148 0.004145033861156844 0 -0.010657588628078489 0.0035943070477157685 0 -0.0095474306168132662 0.003304268573069829 0 -0.010657588628078489 0.0035943070477157685 0 -0.0095474306168132662 0.003304268573069829 0 -0.010521443100636619 0.002764554840261382 0 -0.008148662066085886 0.0030529191376292958 0 -0.0088442488772045181 0.0028817262398342027 0 -0.008148662066085886 0.0030529191376292958 0 -0.0067559543068916187 0.0027963592649072931 0 -0.0067696649837011083 0.0030842026621888852 0 -0.0068474972484208205 0.0028557819667469862 0 -0.0066201414900536517 0.002861071998152177 0 -0.0068474972484208205 0.0028557819667469862 0 -0.0067072511004461237 0.0026486932770926736 0 -0.0066201414900536517 0.002861071998152177 0 -0.0067696649837011083 0.0030842026621888852 0 -0.0068474972484208205 0.0028557819667469862 0 -0.0070742052022332094 0.0029274329647564264 0 -0.0068474972484208205 0.0028557819667469862 0 -0.0070742052022332094 0.0029274329647564264 0 -0.0070766409319684455 0.002722092095859596 0 -0.0067072511004461237 0.0026486932770926736 0 -0.0070766409319684455 0.002722092095859596 0 -0.0069096604489942599 0.0025473058162962959 0 -0.0068474972484208205 0.0028557819667469862 0 -0.0067072511004461237 0.0026486932770926736 0 -0.0070766409319684455 0.002722092095859596 0 -0.011442520003209052 0.0031212158709739064 0 -0.011480098980727485 0.0022437432082419591 0 -0.012098581550110458 0.0028177182657225901 0 -0.011442520003209052 0.0031212158709739064 0 -0.010521443100636619 0.002764554840261382 0 -0.011480098980727485 0.0022437432082419591 0 -0.0088442488772045181 0.0028817262398342027 0 -0.009151677171507791 0.0023718169554578822 0 -0.0070742052022332094 0.0029274329647564264 0 -0.0070766409319684455 0.002722092095859596 0 -0.0073764569840877306 0.0028058562515643547 0 -0.0070766409319684455 0.002722092095859596 0 -0.0073764569840877306 0.0028058562515643547 0 -0.0071903012863023166 0.0025592150503165891 0 -0.0073764569840877306 0.0028058562515643547 0 -0.0074796952913961058 0.0026400323350514541 0 -0.0071903012863023166 0.0025592150503165891 0 -0.009151677171507791 0.0023718169554578822 0 -0.011714013230393873 0.0035633681859247516 0 -0.0073764569840877306 0.0028058562515643547 0 -0.0077369427876503218 0.0026668089107816958 0 -0.0074796952913961058 0.0026400323350514541 0 -0.011480098980727485 0.0022437432082419591 0 -0.012157745567933238 0.0023344462597719405 0 -0.012419699159849659 0.0017362813723703686 0 -0.011480098980727485 0.0022437432082419591 0 -0.012157745567933238 0.0023344462597719405 0 -0.012098581550110458 0.0028177182657225901 0 -0.012157745567933238 0.0023344462597719405 0 -0.012098581550110458 0.0028177182657225901 0 -0.012780263157918633 0.0026042070518283848 0 -0.012098581550110458 0.0028177182657225901 0 -0.012780263157918633 0.0026042070518283848 0 -0.012598625962379239 0.0031968779250183014 0 -0.014403994715458295 0.0033065102677296474 0 -0.014264361512574405 0.003740626659718453 0 -0.014602250489451941 0.0039141297062075418 0 -0.013673713932479906 0.0029682824862608259 0 -0.011714013230393873 0.0035633681859247516 0 -0.012157745567933238 0.0023344462597719405 0 -0.012780263157918633 0.0026042070518283848 0 -0.012419699159849659 0.0017362813723703686 0 -0.014545996455036143 0.0041262465424860648 0 -0.012673564966629153 0.004114866569839894 0 -0.014264361512574405 0.003740626659718453 0 -0.014602250489451941 0.0039141297062075418 0 -0.014544925741580776 0.00394635853254806 0 -0.014403994715458295 0.0033065102677296474 0 -0.014264361512574405 0.003740626659718453 0 -0.014137753900910786 0.0035335025210212201 0 -0.013980765501513953 0.0038083893550148666 0 -0.013930878200503906 0.0035448699763330595 0 -0.014137753900910786 0.0035335025210212201 0 -0.014264361512574405 0.003740626659718453 0 -0.013980765501513953 0.0038083893550148666 0 -0.014137753900910786 0.0035335025210212201 0 -0.013980765501513953 0.0038083893550148666 0 -0.013930878200503906 0.0035448699763330595 0 -0.013667208877147443 0.0038554574561188693 0 -0.013930878200503906 0.0035448699763330595 0 -0.013667208877147443 0.0038554574561188693 0 -0.013768743144869155 0.0034649190530206177 0 -0.013667208877147443 0.0038554574561188693 0 -0.013505634894675017 0.0035273128661861917 0 -0.013768743144869155 0.0034649190530206177 0 -0.017499528661290807 0.0006504671884532948 0 -0.017201134876946363 0.00068676113023450626 0 -0.01743973072136289 0.00072446932962841912 0 -0.015562387595511184 0.0019285906226541624 0 -0.015531386988876184 0.0018752980313223699 0 -0.013505634894675017 0.0035273128661861917 0 -0.013768743144869155 0.0034649190530206177 0 -0.013840640400132566 0.003098422563451793 0 -0.013930878200503906 0.0035448699763330595 0 -0.013768743144869155 0.0034649190530206177 0 -0.013898862997203968 0.0033056870196128386 0 -0.013768743144869155 0.0034649190530206177 0 -0.013898862997203968 0.0033056870196128386 0 -0.013840640400132566 0.003098422563451793 0 -0.013898862997203968 0.0033056870196128386 0 -0.013840640400132566 0.003098422563451793 0 -0.013986477307956194 0.0031662540364220423 0 -0.017201134876946363 0.00068676113023450626 0 -0.01743973072136289 0.00072446932962841912 0 -0.017358238550936222 0.00082677794657278164 0 -0.014403994715458295 0.0033065102677296474 0 -0.014137753900910786 0.0035335025210212201 0 -0.014102553783504333 0.0032644275569159594 0 -0.013930878200503906 0.0035448699763330595 0 -0.013898862997203968 0.0033056870196128386 0 -0.014102553783504333 0.0032644275569159594 0 -0.013930878200503906 0.0035448699763330595 0 -0.014137753900910786 0.0035335025210212201 0 -0.014102553783504333 0.0032644275569159594 0 -0.014102553783504333 0.0032644275569159594 0 -0.013986477307956194 0.0031662540364220423 0 -0.014103666370272255 0.0029962330260893837 0 -0.013840640400132566 0.003098422563451793 0 -0.013986477307956194 0.0031662540364220423 0 -0.014103666370272255 0.0029962330260893837 0 -0.013898862997203968 0.0033056870196128386 0 -0.014102553783504333 0.0032644275569159594 0 -0.013986477307956194 0.0031662540364220423 0 -0.014403994715458295 0.0033065102677296474 0 -0.014102553783504333 0.0032644275569159594 0 -0.014103666370272255 0.0029962330260893837 0 -0.013673713932479906 0.0029682824862608259 0 -0.014749101585760215 0.0023914560038745341 0 -0.016124517236624506 0.0014373705421096416 0 -0.017108991666327185 0.00087862921644252571 0 -0.016866043549872624 0.002061476918420914 0 -0.014403994715458295 0.0033065102677296474 0 -0.014103666370272255 0.0029962330260893837 0 -0.014179305186928929 0.0026712408348300493 0 -0.013840640400132566 0.003098422563451793 0 -0.014103666370272255 0.0029962330260893837 0 -0.014179305186928929 0.0026712408348300493 0 -0.015531386988876184 0.0018752980313223699 0 -0.014749101585760215 0.0023914560038745341 0 -0.017201134876946363 0.00068676113023450626 0 -0.016124517236624506 0.0014373705421096416 0 -0.017108991666327185 0.00087862921644252571 0 -0.017123787223905947 0.00091267194795244103 0 -0.017195205111650496 0.0015918568432707161 0 -0.017108991666327185 0.00087862921644252571 0 -0.017373486283216291 0.0010067723160388749 0 -0.017498114604685117 0.0012645276799344107 0 -0.01743973072136289 0.00072446932962841912 0 -0.017483488014300563 0.00087547145644242103 0 -0.017358238550936222 0.00082677794657278164 0 -0.017483488014300563 0.00087547145644242103 0 -0.017358238550936222 0.00082677794657278164 0 -0.017373486283216291 0.0010067723160388749 0 -0.017358238550936222 0.00082677794657278164 0 -0.017108991666327185 0.00087862921644252571 0 -0.017373486283216291 0.0010067723160388749 0 -0.017201134876946363 0.00068676113023450626 0 -0.017358238550936222 0.00082677794657278164 0 -0.017108991666327185 0.00087862921644252571 0 -0.017483488014300563 0.00087547145644242103 0 -0.017503636190125543 0.0010984079429046585 0 -0.017373486283216291 0.0010067723160388749 0 -0.017503636190125543 0.0010984079429046585 0 -0.017498114604685117 0.0012645276799344107 0 -0.017601391809285549 0.0012315465150947614 0 -0.017503636190125543 0.0010984079429046585 0 -0.017373486283216291 0.0010067723160388749 0 -0.017498114604685117 0.0012645276799344107 0 -0.017684580525152094 0.0012981485649798412 0 -0.017498114604685117 0.0012645276799344107 0 -0.017601391809285549 0.0012315465150947614 0 -0.01405627292192025 0.0029621171823373538 0 -0.015871742322130476 0.0010790056380164479 0 -0.016195871637979056 0.0019072542331443575 0 -0.014749101585760215 0.0023914560038745341 0 -0.015430868222986919 0.0019775988322804721 0 -0.016124517236624506 0.0014373705421096416 0 -0.016866043549872624 0.002061476918420914 0 -0.016195871637979056 0.0019072542331443575 0 -0.016161794016889434 0.0030903617712146093 0 -0.016866043549872624 0.002061476918420914 0 -0.016195871637979056 0.0019072542331443575 0 -0.01253489201478373 0.0042430690762530606 0 -0.012502326010270026 0.0036436481638656344 0 -0.01212727159167005 0.0039241326302944367 0 -0.01253489201478373 0.0042430690762530606 0 -0.013141093693101248 0.0034766249319793099 0 -0.012502326010270026 0.0036436481638656344 0 -0.013239103308371634 0.0036316460662879128 0 -0.014749101585760215 0.0023914560038745341 0 -0.011486877362182658 0.00390819807745148 0 -0.01212727159167005 0.0039241326302944367 0 -0.012119744189591698 0.0034054417510560675 0 -0.011969489757343842 0.0044051124913345781 0 -0.011486877362182658 0.00390819807745148 0 -0.01212727159167005 0.0039241326302944367 0 -0.012502326010270026 0.0036436481638656344 0 -0.01212727159167005 0.0039241326302944367 0 -0.012119744189591698 0.0034054417510560675 0 -0.011442520003209052 0.0031212158709739064 0 -0.012098581550110458 0.0028177182657225901 0 -0.012119744189591698 0.0034054417510560675 0 -0.012098581550110458 0.0028177182657225901 0 -0.012119744189591698 0.0034054417510560675 0 -0.012598625962379239 0.0031968779250183014 0 -0.013141093693101248 0.0034766249319793099 0 -0.012502326010270026 0.0036436481638656344 0 -0.012598625962379239 0.0031968779250183014 0 -0.012780263157918633 0.0026042070518283848 0 -0.013141093693101248 0.0034766249319793099 0 -0.012598625962379239 0.0031968779250183014 0 -0.012502326010270026 0.0036436481638656344 0 -0.012119744189591698 0.0034054417510560675 0 -0.012598625962379239 0.0031968779250183014 0 -0.010887992615308394 -0.00039394622515841681 0 -0.0094167123067188541 0.0001082543315499211 0 -0.0099065351424259575 1.0479898638377755e-07 0 -0.010159608112542339 -2.0041932111930107e-06 0 -0.0092752905685315728 2.1280685038208226e-06 0 -0.011822198682265734 -0.00076366754541176739 0 -0.011478947772099285 -0.00065584190823894607 0 -0.011560600411490275 -0.0011812375580309111 0 -0.010046356297946864 0.00098639970696991577 0 -0.0094167123067188541 0.0001082543315499211 0 -0.0084171901808637942 0.0028672956890822025 0 -0.0085519387084301828 0.0020378629673872446 0 -0.0077263449812731595 0.0017120831068474338 0 -0.0084171901808637942 0.0028672956890822025 0 -0.0093152288569743457 0.0023974440682440579 0 -0.0090141749829287538 0.0038802139422671454 0 -0.0084171901808637942 0.0028672956890822025 0 -0.0085519387084301828 0.0020378629673872446 0 -0.0093152288569743457 0.0023974440682440579 0 -0.010737785995766748 0.0017952558961463433 0 -0.012392608440997224 0.0016531275055721546 0 -0.012597846378783526 0.0010550639474372575 0 -0.013399190307222393 0.0010753680278719102 0 -0.01315135713191207 0.00104710733172145 0 -0.011822198682265734 -0.00076366754541176739 0 -0.012090776914534038 -0.00027206360245126126 0 -0.011742136704293691 -0.00037553376114784451 0 -0.010046356297946864 0.00098639970696991577 0 -0.012392608440997224 0.0016531275055721546 0 -0.012090776914534038 -0.00027206360245126126 0 -0.011742136704293691 -0.00037553376114784451 0 -0.011795686767507217 -9.565484413310943e-05 0 -0.010887992615308394 -0.00039394622515841681 0 -0.011255959690248639 2.7943210049955674e-07 0 -0.011742136704293691 -0.00037553376114784451 0 -0.011478947772099285 -0.00065584190823894607 0 -0.0112579565529812 -3.230964887630357e-07 0 -0.0099065351424259575 1.0479898638377755e-07 0 -0.010159608112542339 -2.0041932111930107e-06 0 -0.011256049476331438 -1.0876018358750936e-07 0 -0.011822198682265734 -0.00076366754541176739 0 -0.011742136704293691 -0.00037553376114784451 0 -0.011478947772099285 -0.00065584190823894607 0 -0.011742136704293691 -0.00037553376114784451 0 -0.0112579565529812 -3.230964887630357e-07 0 -0.011795686767507217 -9.565484413310943e-05 0 -0.011795686767507217 -9.565484413310943e-05 0 -0.011817642333030849 7.8169830730890995e-05 0 -0.011908664376890161 1.9695787118970123e-06 0 -0.011817642333030849 7.8169830730890995e-05 0 -0.011954496844754851 9.1115086108554719e-05 0 -0.011908664376890161 1.9695787118970123e-06 0 -0.0112579565529812 -3.230964887630357e-07 0 -0.011795686767507217 -9.565484413310943e-05 0 -0.011817642333030849 7.8169830730890995e-05 0 -0.012526199138794382 4.4625144053822871e-07 0 -0.0112579565529812 -3.230964887630357e-07 0 -0.011817642333030849 7.8169830730890995e-05 0 -0.012485832022160342 -2.890054163624224e-05 0 -0.012144329875435346 6.3685573779023247e-05 0 -0.011955770422586534 0.00011441734623595932 0 -0.012526199138794382 4.4625144053822871e-07 0 -0.011817642333030849 7.8169830730890995e-05 0 -0.012144329875435346 6.3685573779023247e-05 0 -0.01319245857851776 -0.00015843193386993811 0 -0.014108088961058148 0.00041370333829284048 0 -0.011954496844754851 9.1115086108554719e-05 0 -0.012144329875435346 6.3685573779023247e-05 0 -0.011955770422586534 0.00011441734623595932 0 -0.011817642333030849 7.8169830730890995e-05 0 -0.011954496844754851 9.1115086108554719e-05 0 -0.012144329875435346 6.3685573779023247e-05 0 -0.012526199138794382 4.4625144053822871e-07 0 -0.012485832022160342 -2.890054163624224e-05 0 -0.012144329875435346 6.3685573779023247e-05 0 -0.014025488975589652 -0.00032839085941798043 0 -0.014148060313020938 -0.00052776561501113298 0 -0.014156441722160604 -0.00056645674856031119 0 -0.015723742904131751 0.0012691134212996036 0 -0.016017183372589824 0.0015820272985263956 0 -0.015468785737086373 0.0020346707847338518 0 -0.014544520336174264 0.00042894316279246889 0 -0.014108088961058148 0.00041370333829284048 0 -0.016017183372589824 0.0015820272985263956 0 -0.015985121899938212 0.0017260948918796351 0 -0.015468785737086373 0.0020346707847338518 0 -0.012392608440997224 0.0016531275055721546 0 -0.014108088961058148 0.00041370333829284048 0 -0.012090776914534038 -0.00027206360245126126 0 -0.011955770422586534 0.00011441734623595932 0 -0.011908664376890161 1.9695787118970123e-06 0 -0.015760421087068585 0.0026145183455234086 0 -0.015985121899938212 0.0017260948918796351 0 -0.015468785737086373 0.0020346707847338518 0 -0.011954496844754851 9.1115086108554719e-05 0 -0.011955770422586534 0.00011441734623595932 0 -0.011908664376890161 1.9695787118970123e-06 0 -0.012090776914534038 -0.00027206360245126126 0 -0.011795686767507217 -9.565484413310943e-05 0 -0.011908664376890161 1.9695787118970123e-06 0 -0.012392608440997224 0.0016531275055721546 0 -0.014764895386968901 0.001780257329178882 0 -0.013964401991230379 0.0012609917093128877 0 -0.01461396411943104 0.0013398059673891181 0 -0.013643199118117968 0.00097450980962830616 0 -0.013399190307222393 0.0010753680278719102 0 -0.013964401991230379 0.0012609917093128877 0 -0.013643199118117968 0.00097450980962830616 0 -0.015723742904131751 0.0012691134212996036 0 -0.015468785737086373 0.0020346707847338518 0 -0.01502369161423682 0.0013903753136730653 0 -0.013964401991230379 0.0012609917093128877 0 -0.01502369161423682 0.0013903753136730653 0 -0.01461396411943104 0.0013398059673891181 0 -0.014764895386968901 0.001780257329178882 0 -0.014833181959481422 0.0013450586722241729 0 -0.015079435588645086 0.001248620860534045 0 -0.01461396411943104 0.0013398059673891181 0 -0.0150103181351671 0.001303152799115495 0 -0.01502369161423682 0.0013903753136730653 0 -0.015079435588645086 0.001248620860534045 0 -0.01461396411943104 0.0013398059673891181 0 -0.01461396411943104 0.0013398059673891181 0 -0.013643199118117968 0.00097450980962830616 0 -0.014995460676147264 0.0010923597285129154 0 -0.013177689318414273 0.0011002243784722942 0 -0.013643199118117968 0.00097450980962830616 0 -0.012886441830446604 0.0011221602017994811 0 -0.013574220012846104 0.0010524306191694679 0 -0.014294630896537616 0.00078375592317820198 0 -0.013177689318414273 0.0011002243784722942 0 -0.013643199118117968 0.00097450980962830616 0 -0.013075546461533293 0.0010322862050145497 0 -0.013399190307222393 0.0010753680278719102 0 -0.013643199118117968 0.00097450980962830616 0 -0.01315135713191207 0.00104710733172145 0 -0.013643199118117968 0.00097450980962830616 0 -0.01315135713191207 0.00104710733172145 0 -0.012886441830446604 0.0011221602017994811 0 -0.012597846378783526 0.0010550639474372575 0 -0.01315135713191207 0.00104710733172145 0 -0.012886441830446604 0.0011221602017994811 0 -0.012597846378783526 0.0010550639474372575 0 -0.012886441830446604 0.0011221602017994811 0 -0.011688621167531114 0.00089792530483405008 0 -0.012886441830446604 0.0011221602017994811 0 -0.013112708059975857 0.0010212455622910935 0 -0.012696352940510485 0.00080024776698852447 0 -0.013177689318414273 0.0011002243784722942 0 -0.012886441830446604 0.0011221602017994811 0 -0.013112708059975857 0.0010212455622910935 0 -0.013112708059975857 0.0010212455622910935 0 -0.013202238396026028 0.00099388523821638489 0 -0.013156182798369763 0.001041171287719411 0 -0.013156182798369763 0.001041171287719411 0 -0.013075546461533293 0.0010322862050145497 0 -0.013169710996340324 0.0010976319552277096 0 -0.013177689318414273 0.0011002243784722942 0 -0.013112708059975857 0.0010212455622910935 0 -0.013075546461533293 0.0010322862050145497 0 -0.013112708059975857 0.0010212455622910935 0 -0.013156182798369763 0.001041171287719411 0 -0.013075546461533293 0.0010322862050145497 0 -0.01461396411943104 0.0013398059673891181 0 -0.014995460676147264 0.0010923597285129154 0 -0.0150103181351671 0.001303152799115495 0 -0.014995460676147264 0.0010923597285129154 0 -0.0150103181351671 0.001303152799115495 0 -0.015003558865600801 0.0012311569272885961 0 -0.015215140010097715 0.0011065134160773479 0 -0.0150103181351671 0.001303152799115495 0 -0.014931732021177839 0.0012557368298156007 0 -0.015215140010097715 0.0011065134160773479 0 -0.015079435588645086 0.001248620860534045 0 -0.0150103181351671 0.001303152799115495 0 -0.0150103181351671 0.001303152799115495 0 -0.014931732021177839 0.0012557368298156007 0 -0.015003558865600801 0.0012311569272885961 0 -0.014816206621360108 0.0029578205523095352 0 -0.012810035053873417 0.0032976770261360518 0 -0.014931732021177839 0.0012557368298156007 0 -0.015003558865600801 0.0012311569272885961 0 -0.015040178519027244 0.0012397763525352891 0 -0.014995460676147264 0.0010923597285129154 0 -0.015003558865600801 0.0012311569272885961 0 -0.015040178519027244 0.0012397763525352891 0 -0.014294630896537616 0.00078375592317820198 0 -0.012810035053873417 0.0032976770261360518 0 -0.012950133439364332 0.0063280158636354819 0 -0.012884311952552499 0.0051392249250804866 0 -0.011934424825487408 0.0060023792519152356 0 -0.012517388537965168 0.0038073887321202903 0 -0.014402714570259458 0.0045440951111759553 0 -0.012884311952552499 0.0051392249250804866 0 -0.014402714570259458 0.0045440951111759553 0 -0.012950133439364332 0.0063280158636354819 0 -0.012884311952552499 0.0051392249250804866 0 -0.012517388537965168 0.0038073887321202903 0 -0.012884311952552499 0.0051392249250804866 0 -0.011934424825487408 0.0060023792519152356 0 -0.011579155179095359 0.005073863800667152 0 -0.01213747634575397 0.0056880761034761116 0 -0.011918682478423714 0.0052609308963467508 0 -0.01160429995295747 0.0056210285010723201 0 -0.011934424825487408 0.0060023792519152356 0 -0.01160429995295747 0.0056210285010723201 0 -0.011576029449946458 0.0058709322029835342 0 -0.011934424825487408 0.0060023792519152356 0 -0.011416494545352866 0.0058171329906643717 0 -0.01160429995295747 0.0056210285010723201 0 -0.011576029449946458 0.0058709322029835342 0 -0.0091808572335185922 0.0056790349098973592 0 -0.0090846507356609155 0.0057381590413774011 0 -0.0091466025912202379 0.0057277589007094874 0 -0.012810035053873417 0.0032976770261360518 0 -0.0099814721312555532 0.0061296821320782546 0 -0.011576029449946458 0.0058709322029835342 0 -0.011420836841277135 0.0060738064547907374 0 -0.011934424825487408 0.0060023792519152356 0 -0.0091808572335185922 0.0056790349098973592 0 -0.0090846507356609155 0.0057381590413774011 0 -0.009086187413459906 0.0057698484524356525 0 -0.012950133439364332 0.0063280158636354819 0 -0.011420836841277135 0.0060738064547907374 0 -0.011934424825487408 0.0060023792519152356 0 -0.011416494545352866 0.0058171329906643717 0 -0.011576029449946458 0.0058709322029835342 0 -0.011420836841277135 0.0060738064547907374 0 -0.0091302817565336713 0.005955323842650683 0 -0.009125758381230616 0.0042085374175928874 0 -0.009246132339087396 0.0054010387553578131 0 -0.0090846507356609155 0.0057381590413774011 0 -0.0089922272168094508 0.0052504914364022576 0 -0.0090846507356609155 0.0057381590413774011 0 -0.0089922272168094508 0.0052504914364022576 0 -0.008396023805624292 0.0050387381360884539 0 -0.0091759449679770008 0.0049081222850806145 0 -0.0086981524918633129 0.0040852960024284866 0 -0.008396023805624292 0.0050387381360884539 0 -0.0091759449679770008 0.0049081222850806145 0 -0.0089922272168094508 0.0052504914364022576 0 -0.008396023805624292 0.0050387381360884539 0 -0.013156182798369763 0.001041171287719411 0 -0.013169710996340324 0.0010976319552277096 0 -0.013167028530657222 0.0010753563538222106 0 -0.012810035053873417 0.0032976770261360518 0 -0.009125758381230616 0.0042085374175928874 0 -0.013202238396026028 0.00099388523821638489 0 -0.013156182798369763 0.001041171287719411 0 -0.013167028530657222 0.0010753563538222106 0 -0.0063554931489854614 0.0041364457708387625 0 -0.0073485984860949868 0.0055085866378866144 0 -0.0072862694347133076 0.0042703362949553497 0 -0.0099105043755586403 0.0024317412304901754 0 -0.009125758381230616 0.0042085374175928874 0 -0.0081997201548394787 0.0046111638865468773 0 -0.009125758381230616 0.0042085374175928874 0 -0.0086981524918633129 0.0040852960024284866 0 -0.0073485984860949868 0.0055085866378866144 0 -0.0072862694347133076 0.0042703362949553497 0 -0.0086981524918633129 0.0040852960024284866 0 -0.0072862694347133076 0.0042703362949553497 0 -0.0073635320288859517 0.003347545159483367 0 -0.008148662066085886 0.0030529191376292958 0 -0.0074732731668749677 0.0032313293428820234 0 -0.0086981524918633129 0.0040852960024284866 0 -0.009091975026904401 0.0023918496260419936 0 -0.0073635320288859517 0.003347545159483367 0 -0.0063554931489854614 0.0041364457708387625 0 -0.0072862694347133076 0.0042703362949553497 0 -0.0065538531588690456 0.0033587842799162799 0 -0.0072862694347133076 0.0042703362949553497 0 -0.0073635320288859517 0.003347545159483367 0 -0.0065538531588690456 0.0033587842799162799 0 -0.0065538531588690456 0.0033587842799162799 0 -0.0070135911979485018 0.0030626167736063923 0 -0.0064608770774963204 0.0028918623101928868 0 -0.0073635320288859517 0.003347545159483367 0 -0.0065538531588690456 0.0033587842799162799 0 -0.0070135911979485018 0.0030626167736063923 0 -0.0074189348093633666 0.0031335775506026423 0 -0.0073635320288859517 0.003347545159483367 0 -0.0070135911979485018 0.0030626167736063923 0 -0.0074189348093633666 0.0031335775506026423 0 -0.0070135911979485018 0.0030626167736063923 0 -0.0070965570373903953 0.0028379847886475214 0 -0.0067559543068916187 0.0027963592649072931 0 -0.0066048873286591678 0.0026484218790059862 0 -0.0070135911979485018 0.0030626167736063923 0 -0.0070965570373903953 0.0028379847886475214 0 -0.0064608770774963204 0.0028918623101928868 0 -0.0067072511004461237 0.0026486932770926736 0 -0.0066201414900536517 0.002861071998152177 0 -0.0065080260923879654 0.0025828503569420578 0 -0.0067072511004461237 0.0026486932770926736 0 -0.0065080260923879654 0.0025828503569420578 0 -0.0065470292708789584 0.0024458660243165146 0 -0.0065080260923879654 0.0025828503569420578 0 -0.0061955018982720921 0.0026673568296717879 0 -0.0060754864394037076 0.0024651106707131226 0 -0.0070965570373903953 0.0028379847886475214 0 -0.0065080260923879654 0.0025828503569420578 0 -0.0064608770774963204 0.0028918623101928868 0 -0.0065080260923879654 0.0025828503569420578 0 -0.0064608770774963204 0.0028918623101928868 0 -0.0061955018982720921 0.0026673568296717879 0 -0.0064608770774963204 0.0028918623101928868 0 -0.0061955018982720921 0.0026673568296717879 0 -0.0059603249762113092 0.0028118783322376587 0 -0.0061955018982720921 0.0026673568296717879 0 -0.0059073095529857799 0.0025864643384746959 0 -0.0059603249762113092 0.0028118783322376587 0 -0.0061955018982720921 0.0026673568296717879 0 -0.0060754864394037076 0.0024651106707131226 0 -0.0059073095529857799 0.0025864643384746959 0 -0.0060754864394037076 0.0024651106707131226 0 -0.0059073095529857799 0.0025864643384746959 0 -0.0058753158441292317 0.0024071922426293032 0 -0.0057175698949451272 0.002481211221720037 0 -0.0059073095529857799 0.0025864643384746959 0 -0.0058753158441292317 0.0024071922426293032 0 -0.0057175698949451272 0.002481211221720037 0 -0.0059073095529857799 0.0025864643384746959 0 -0.0057520158917982673 0.0027098912785504226 0 -0.0059073095529857799 0.0025864643384746959 0 -0.0057520158917982673 0.0027098912785504226 0 -0.0059603249762113092 0.0028118783322376587 0 -0.0057520158917982673 0.0027098912785504226 0 -0.0059603249762113092 0.0028118783322376587 0 -0.0057565869353552665 0.0029065979321737999 0 -0.0057520158917982673 0.0027098912785504226 0 -0.0057565869353552665 0.0029065979321737999 0 -0.0054967289293381414 0.0028281825193098862 0 -0.0096277684632699468 0.0020628434532809869 0 -0.0082034037467550985 0.001100443652611232 0 -0.0057565869353552665 0.0029065979321737999 0 -0.0058290956982799107 0.0032911924690227409 0 -0.0054967289293381414 0.0028281825193098862 0 -0.0059603249762113092 0.0028118783322376587 0 -0.0057565869353552665 0.0029065979321737999 0 -0.0058290956982799107 0.0032911924690227409 0 -0.0065538531588690456 0.0033587842799162799 0 -0.0064608770774963204 0.0028918623101928868 0 -0.0058290956982799107 0.0032911924690227409 0 -0.0064608770774963204 0.0028918623101928868 0 -0.0059603249762113092 0.0028118783322376587 0 -0.0058290956982799107 0.0032911924690227409 0 -0.0063554931489854614 0.0041364457708387625 0 -0.0065538531588690456 0.0033587842799162799 0 -0.0058290956982799107 0.0032911924690227409 0 -0.0099105043755586403 0.0024317412304901754 0 -0.0096277684632699468 0.0020628434532809869 0 -0.013112708059975857 0.0010212455622910935 0 -0.013202238396026028 0.00099388523821638489 0 -0.013154929059520313 0.00061459476449041725 0 -0.013112708059975857 0.0010212455622910935 0 -0.013154929059520313 0.00061459476449041725 0 -0.012838559426540715 0.00055360040812904901 0 -0.013112708059975857 0.0010212455622910935 0 -0.012838559426540715 0.00055360040812904901 0 -0.012696352940510485 0.00080024776698852447 0 -0.012838559426540715 0.00055360040812904901 0 -0.012696352940510485 0.00080024776698852447 0 -0.012400789275139337 0.00031114741450069902 0 -0.010737785995766748 0.0017952558961463433 0 -0.01032076080474143 0.00043104726203396473 0 -0.012886441830446604 0.0011221602017994811 0 -0.012696352940510485 0.00080024776698852447 0 -0.011688621167531114 0.00089792530483405008 0 -0.012597846378783526 0.0010550639474372575 0 -0.011688621167531114 0.00089792530483405008 0 -0.010010392962320301 0.00057645272280216846 0 -0.011688621167531114 0.00089792530483405008 0 -0.010471591319796735 0.00048033346603249872 0 -0.010010392962320301 0.00057645272280216846 0 -0.011403985237611172 0.0010740195332013145 0 -0.011806302293048911 3.7448133467005682e-07 0 -0.012696352940510485 0.00080024776698852447 0 -0.011688621167531114 0.00089792530483405008 0 -0.012400789275139337 0.00031114741450069902 0 -0.010471591319796735 0.00048033346603249872 0 -0.0096343645598374224 0.00047942922118559802 0 -0.010545755086511715 -0.0010112278587045716 0 -0.010471591319796735 0.00048033346603249872 0 -0.010010392962320301 0.00057645272280216846 0 -0.0096343645598374224 0.00047942922118559802 0 -0.010010392962320301 0.00057645272280216846 0 -0.0096343645598374224 0.00047942922118559802 0 -0.0095619542859509497 0.00069282040578683005 0 -0.0096343645598374224 0.00047942922118559802 0 -0.0088245354128604018 0.00011579822170364773 0 -0.0088051440303593322 0.00019376184691270948 0 -0.011806302293048911 3.7448133467005682e-07 0 -0.0082034037467550985 0.001100443652611232 0 -0.013154929059520313 0.00061459476449041725 0 -0.012838559426540715 0.00055360040812904901 0 -0.012682031184252696 -5.6839264442748883e-05 0 -0.012838559426540715 0.00055360040812904901 0 -0.012400789275139337 0.00031114741450069902 0 -0.012682031184252696 -5.6839264442748883e-05 0 -0.010471591319796735 0.00048033346603249872 0 -0.011022187657357735 -0.00049576290310421811 0 -0.010545755086511715 -0.0010112278587045716 0 -0.0041580028268365715 0.0019777799230343953 0 -0.0082034037467550985 0.001100443652611232 0 -0.0057175698949451272 0.002481211221720037 0 -0.0057520158917982673 0.0027098912785504226 0 -0.0054967289293381414 0.0028281825193098862 0 -0.0036036229444904428 0.00087532775792244948 0 -0.003775593794202925 0.00067518062962137234 0 -0.0038385193793083216 0.00075641997081257978 0 -0.0082034037467550985 0.001100443652611232 0 -0.0065915257306109762 6.7892921529145684e-06 0 -0.0036036229444904428 0.00087532775792244948 0 -0.0038385193793083216 0.00075641997081257978 0 -0.0036174960880383622 0.00093461736983226713 0 -0.0033901568263200689 3.3423559028061108e-05 0 -0.003408289367069875 -0.00018152520918185815 0 -0.0032295299360131286 0.00017299499944597744 0 -0.0065915257306109762 6.7892921529145684e-06 0 -0.0029768238100511663 0.00074366178326476897 0 -0.0033901568263200689 3.3423559028061108e-05 0 -0.003408289367069875 -0.00018152520918185815 0 -0.0035479688692970452 -3.3721940810608643e-05 0 -0.0065915257306109762 6.7892921529145684e-06 0 -0.0056580573864392332 -0.00016146920411706412 0 -0.0096343645598374224 0.00047942922118559802 0 -0.0085770130519351694 -4.3626252369841258e-05 0 -0.0088245354128604018 0.00011579822170364773 0 -0.01047563165224169 3.5433635340065536e-05 0 -0.0065915257306109762 6.7892921529145684e-06 0 -0.0085770130519351694 -4.3626252369841258e-05 0 -0.0088245354128604018 0.00011579822170364773 0 -0.0079352258577560231 -0.00024179957253922527 0 -0.0081543919298231078 7.6767427527250491e-05 0 -0.0084466244782552651 0.00018626944331936605 0 -0.0088051440303593322 0.00019376184691270948 0 -0.0081543919298231078 7.6767427527250491e-05 0 -0.0072651527194553906 -1.4288303729213512e-05 0 -0.0079087560402719831 0.00011028055554190531 0 -0.0088245354128604018 0.00011579822170364773 0 -0.0081543919298231078 7.6767427527250491e-05 0 -0.0079352258577560231 -0.00024179957253922527 0 -0.0088245354128604018 0.00011579822170364773 0 -0.0081543919298231078 7.6767427527250491e-05 0 -0.0088051440303593322 0.00019376184691270948 0 -0.0081543919298231078 7.6767427527250491e-05 0 -0.0079087560402719831 0.00011028055554190531 0 -0.0084466244782552651 0.00018626944331936605 0 -0.0081543919298231078 7.6767427527250491e-05 0 -0.0079352258577560231 -0.00024179957253922527 0 -0.0072651527194553906 -1.4288303729213512e-05 0 -0.0072651527194553906 -1.4288303729213512e-05 0 -0.0072741753352216021 4.3305521426052276e-07 0 -0.005990325968304613 -2.3304256019748041e-07 0 -0.0072651527194553906 -1.4288303729213512e-05 0 -0.0072741753352216021 4.3305521426052276e-07 0 -0.0079087560402719831 0.00011028055554190531 0 -0.0072741753352216021 4.3305521426052276e-07 0 -0.0079087560402719831 0.00011028055554190531 0 -0.0080243344274274139 0.00025459466406290717 0 -0.0072741753352216021 4.3305521426052276e-07 0 -0.0085559789599553415 2.7701677114173658e-07 0 -0.0080243344274274139 0.00025459466406290717 0 -0.0079087560402719831 0.00011028055554190531 0 -0.0080243344274274139 0.00025459466406290717 0 -0.0083265279865357821 0.00029344946081334759 0 -0.0079087560402719831 0.00011028055554190531 0 -0.0084466244782552651 0.00018626944331936605 0 -0.0083265279865357821 0.00029344946081334759 0 -0.0084466244782552651 0.00018626944331936605 0 -0.0083265279865357821 0.00029344946081334759 0 -0.0088836847723030594 0.00036673141298252488 0 -0.0096343645598374224 0.00047942922118559802 0 -0.0088051440303593322 0.00019376184691270948 0 -0.0088836847723030594 0.00036673141298252488 0 -0.0084466244782552651 0.00018626944331936605 0 -0.0088051440303593322 0.00019376184691270948 0 -0.0088836847723030594 0.00036673141298252488 0 -0.0096343645598374224 0.00047942922118559802 0 -0.0088836847723030594 0.00036673141298252488 0 -0.0091917785584845688 0.0006989352054996862 0 -0.0088836847723030594 0.00036673141298252488 0 -0.0091917785584845688 0.0006989352054996862 0 -0.0086049128828300306 0.00064061548133758598 0 -0.0091917785584845688 0.0006989352054996862 0 -0.0086049128828300306 0.00064061548133758598 0 -0.0089096364743587557 0.0010294088927613107 0 -0.0091917785584845688 0.0006989352054996862 0 -0.0095619542859509497 0.00069282040578683005 0 -0.0094407085629737812 0.0010245723840060315 0 -0.010010392962320301 0.00057645272280216846 0 -0.0095619542859509497 0.00069282040578683005 0 -0.0094407085629737812 0.0010245723840060315 0 -0.0096343645598374224 0.00047942922118559802 0 -0.0091917785584845688 0.0006989352054996862 0 -0.0095619542859509497 0.00069282040578683005 0 -0.0080243344274274139 0.00025459466406290717 0 -0.0083265279865357821 0.00029344946081334759 0 -0.0086049128828300306 0.00064061548133758598 0 -0.0080243344274274139 0.00025459466406290717 0 -0.0086049128828300306 0.00064061548133758598 0 -0.0084466373121903499 0.0012295701999842257 0 -0.0083265279865357821 0.00029344946081334759 0 -0.0088836847723030594 0.00036673141298252488 0 -0.0086049128828300306 0.00064061548133758598 0 -0.0086049128828300306 0.00064061548133758598 0 -0.0089096364743587557 0.0010294088927613107 0 -0.0084466373121903499 0.0012295701999842257 0 -0.0093152288569743457 0.0023974440682440579 0 -0.0094407085629737812 0.0010245723840060315 0 -0.0089333403578971734 0.0015648642940479169 0 -0.0093152288569743457 0.0023974440682440579 0 -0.010010392962320301 0.00057645272280216846 0 -0.0094407085629737812 0.0010245723840060315 0 -0.0089096364743587557 0.0010294088927613107 0 -0.0084466373121903499 0.0012295701999842257 0 -0.0089333403578971734 0.0015648642940479169 0 -0.0091917785584845688 0.0006989352054996862 0 -0.0089096364743587557 0.0010294088927613107 0 -0.0094407085629737812 0.0010245723840060315 0 -0.0089096364743587557 0.0010294088927613107 0 -0.0094407085629737812 0.0010245723840060315 0 -0.0089333403578971734 0.0015648642940479169 0 -0.0085519387084301828 0.0020378629673872446 0 -0.0093152288569743457 0.0023974440682440579 0 -0.0089333403578971734 0.0015648642940479169 0 -0.0085519387084301828 0.0020378629673872446 0 -0.0084466373121903499 0.0012295701999842257 0 -0.0089333403578971734 0.0015648642940479169 0 -0.0085559789599553415 2.7701677114173658e-07 0 -0.0080243344274274139 0.00025459466406290717 0 -0.0082338208251996163 -0.00060567721752973771 0 -0.0099065351424259575 1.0479898638377755e-07 0 -0.0085581768964311643 -1.0618437641329368e-07 0 -0.0092752905685315728 2.1280685038208226e-06 0 -0.0085519387084301828 0.0020378629673872446 0 -0.0084466373121903499 0.0012295701999842257 0 -0.0077263449812731595 0.0017120831068474338 0 -0.0078888869215941269 0.00051878112870682976 0 -0.0094167123067188541 0.0001082543315499211 0 -0.0080243344274274139 0.00025459466406290717 0 -0.0084466373121903499 0.0012295701999842257 0 -0.0077263449812731595 0.0017120831068474338 0 -0.0085575039121080637 -4.2302416176975294e-07 0 -0.0094167123067188541 0.0001082543315499211 0 -0.0032814768313399784 8.623151172577971e-07 0 -0.0033987297109856688 0.00029860819430820051 0 -0.0028764593355186624 0.0002517312854587146 0 -0.0033987297109856688 0.00029860819430820051 0 -0.0029802731053451266 0.00046740272632837598 0 -0.0028764593355186624 0.0002517312854587146 0 -0.0033987297109856688 0.00029860819430820051 0 -0.0034187014579489645 0.00020259727621744852 0 -0.0029802731053451266 0.00046740272632837598 0 -0.0033987297109856688 0.00029860819430820051 0 -0.0034187014579489645 0.00020259727621744852 0 -0.0047029951250498348 -5.54164564490727e-08 0 -0.0032814768313399784 8.623151172577971e-07 0 -0.0033987297109856688 0.00029860819430820051 0 -0.0047029951250498348 -5.54164564490727e-08 0 -0.0047064777886646455 1.011356889291565e-07 0 -0.0052931032982936749 -0.0001073503232870657 0 -0.0034187014579489645 0.00020259727621744852 0 -0.0047029951250498348 -5.54164564490727e-08 0 -0.0038594320868254864 -0.00014979105399369038 0 -0.0047074152311958935 -9.3351318348563512e-07 0 -0.006543959741477424 -0.00031668251668655334 0 -0.005990325968304613 -2.3304256019748041e-07 0 -0.0072651527194553906 -1.4288303729213512e-05 0 -0.006543959741477424 -0.00031668251668655334 0 -0.005990325968304613 -2.3304256019748041e-07 0 -0.0056580573864392332 -0.00016146920411706412 0 -0.0052931032982936749 -0.0001073503232870657 0 -0.0079352258577560231 -0.00024179957253922527 0 -0.0072651527194553906 -1.4288303729213512e-05 0 -0.006543959741477424 -0.00031668251668655334 0 -0.0035479688692970452 -3.3721940810608643e-05 0 -0.0038594320868254864 -0.00014979105399369038 0 -0.0035290902924763725 4.5923183037515951e-05 0 -0.0034187014579489645 0.00020259727621744852 0 -0.0038594320868254864 -0.00014979105399369038 0 -0.0035290902924763725 4.5923183037515951e-05 0 -0.0033640705362615688 0.00024742401623255756 0 -0.0034045408998703316 0.00014486327920259687 0 -0.003307506572900677 0.00046793252502157093 0 -0.0034187014579489645 0.00020259727621744852 0 -0.0033640705362615688 0.00024742401623255756 0 -0.0032244750068485028 0.00041229142403558796 0 -0.0034187014579489645 0.00020259727621744852 0 -0.0035290902924763725 4.5923183037515951e-05 0 -0.0033640705362615688 0.00024742401623255756 0 -0.0035290902924763725 4.5923183037515951e-05 0 -0.0033640705362615688 0.00024742401623255756 0 -0.0034045408998703316 0.00014486327920259687 0 -0.0035479688692970452 -3.3721940810608643e-05 0 -0.0035290902924763725 4.5923183037515951e-05 0 -0.0034045408998703316 0.00014486327920259687 0 -0.0033901568263200689 3.3423559028061108e-05 0 -0.0035479688692970452 -3.3721940810608643e-05 0 -0.0034045408998703316 0.00014486327920259687 0 -0.0034045408998703316 0.00014486327920259687 0 -0.0032295299360131286 0.00017299499944597744 0 -0.003307506572900677 0.00046793252502157093 0 -0.0033901568263200689 3.3423559028061108e-05 0 -0.0034045408998703316 0.00014486327920259687 0 -0.0032295299360131286 0.00017299499944597744 0 -0.0033640705362615688 0.00024742401623255756 0 -0.003307506572900677 0.00046793252502157093 0 -0.0032244750068485028 0.00041229142403558796 0 -0.003307506572900677 0.00046793252502157093 0 -0.0032498807266139046 0.00058814360733651936 0 -0.0032244750068485028 0.00041229142403558796 0 -0.0032498807266139046 0.00058814360733651936 0 -0.0032244750068485028 0.00041229142403558796 0 -0.0029802731053451266 0.00046740272632837598 0 -0.0034187014579489645 0.00020259727621744852 0 -0.0032244750068485028 0.00041229142403558796 0 -0.0029802731053451266 0.00046740272632837598 0 -0.0032498807266139046 0.00058814360733651936 0 -0.0029802731053451266 0.00046740272632837598 0 -0.0030663878654605108 0.00042545480275243123 0 -0.0029802731053451266 0.00046740272632837598 0 -0.0030663878654605108 0.00042545480275243123 0 -0.0026274997257866688 0.00014820123872587467 0 -0.0030663878654605108 0.00042545480275243123 0 -0.0035226372384097137 0.00046694834639356809 0 -0.0033710239645428344 4.6739602928066097e-05 0 -0.0032498807266139046 0.00058814360733651936 0 -0.0035226372384097137 0.00046694834639356809 0 -0.0036147596754230516 0.00070166816918687351 0 -0.0032498807266139046 0.00058814360733651936 0 -0.0030663878654605108 0.00042545480275243123 0 -0.0035226372384097137 0.00046694834639356809 0 -0.0035226372384097137 0.00046694834639356809 0 -0.0041234295458242066 0.00061921128186128111 0 -0.0040514098615839463 0.00017305663982377181 0 -0.0035226372384097137 0.00046694834639356809 0 -0.0041234295458242066 0.00061921128186128111 0 -0.0036147596754230516 0.00070166816918687351 0 -0.0041234295458242066 0.00061921128186128111 0 -0.0039971359789130927 0.00094011541821242231 0 -0.0036147596754230516 0.00070166816918687351 0 -0.0039971359789130927 0.00094011541821242231 0 -0.0036147596754230516 0.00070166816918687351 0 -0.0034955415025435749 0.00078374007497065761 0 -0.0032498807266139046 0.00058814360733651936 0 -0.0036147596754230516 0.00070166816918687351 0 -0.0034955415025435749 0.00078374007497065761 0 -0.0029768238100511663 0.00074366178326476897 0 -0.0036444769311617725 0.00061389235682043409 0 -0.003307506572900677 0.00046793252502157093 0 -0.0032498807266139046 0.00058814360733651936 0 -0.0034955415025435749 0.00078374007497065761 0 -0.0036174960880383622 0.00093461736983226713 0 -0.0034955415025435749 0.00078374007497065761 0 -0.0035768387714189354 0.00091628395154936561 0 -0.0032295299360131286 0.00017299499944597744 0 -0.003307506572900677 0.00046793252502157093 0 -0.0034955415025435749 0.00078374007497065761 0 -0.0041580028268365715 0.0019777799230343953 0 -0.0047601942548849375 0.0014601145197803385 0 -0.0057175698949451272 0.002481211221720037 0 -0.0058753158441292317 0.0024071922426293032 0 -0.0057564222795615646 0.0021896691570961325 0 -0.0036036229444904428 0.00087532775792244948 0 -0.0036174960880383622 0.00093461736983226713 0 -0.0035768387714189354 0.00091628395154936561 0 -0.0060754864394037076 0.0024651106707131226 0 -0.0059401320974567066 0.0023231322365128777 0 -0.0060565699449903572 0.0022614420393498903 0 -0.0059401320974567066 0.0023231322365128777 0 -0.0057564222795615646 0.0021896691570961325 0 -0.0060565699449903572 0.0022614420393498903 0 -0.0059401320974567066 0.0023231322365128777 0 -0.0058753158441292317 0.0024071922426293032 0 -0.0057564222795615646 0.0021896691570961325 0 -0.0060754864394037076 0.0024651106707131226 0 -0.0059401320974567066 0.0023231322365128777 0 -0.0058753158441292317 0.0024071922426293032 0 -0.0039971359789130927 0.00094011541821242231 0 -0.0034955415025435749 0.00078374007497065761 0 -0.0035768387714189354 0.00091628395154936561 0 -0.0048217423907238252 0.0012917549008262983 0 -0.0047601942548849375 0.0014601145197803385 0 -0.0055709139342189368 0.0017519571107298651 0 -0.0057564222795615646 0.0021896691570961325 0 -0.0060565699449903572 0.0022614420393498903 0 -0.0055709139342189368 0.0017519571107298651 0 -0.0060565699449903572 0.0022614420393498903 0 -0.0062728250280184236 0.0020761671800842785 0 -0.0065080260923879654 0.0025828503569420578 0 -0.0060754864394037076 0.0024651106707131226 0 -0.0060565699449903572 0.0022614420393498903 0 -0.0065080260923879654 0.0025828503569420578 0 -0.0060565699449903572 0.0022614420393498903 0 -0.0065470292708789584 0.0024458660243165146 0 -0.0060565699449903572 0.0022614420393498903 0 -0.0065470292708789584 0.0024458660243165146 0 -0.0062728250280184236 0.0020761671800842785 0 -0.0065470292708789584 0.0024458660243165146 0 -0.0062728250280184236 0.0020761671800842785 0 -0.0067239885311859843 0.0023561928980942149 0 -0.0062728250280184236 0.0020761671800842785 0 -0.006161543521236117 0.0012692183663375787 0 -0.0066904365621264896 0.0014787288624084761 0 -0.0062728250280184236 0.0020761671800842785 0 -0.0057603148549708189 0.0015180279070355256 0 -0.006161543521236117 0.0012692183663375787 0 -0.0048217423907238252 0.0012917549008262983 0 -0.0052050350109005316 0.00073227119116588179 0 -0.0055709139342189368 0.0017519571107298651 0 -0.0062728250280184236 0.0020761671800842785 0 -0.0057603148549708189 0.0015180279070355256 0 -0.0055709139342189368 0.0017519571107298651 0 -0.0057603148549708189 0.0015180279070355256 0 -0.0051841956372311376 0.00079004983854199693 0 -0.0041234295458242066 0.00061921128186128111 0 -0.0051841956372311376 0.00079004983854199693 0 -0.0047434440455590881 0.00026600948644552329 0 -0.0041234295458242066 0.00061921128186128111 0 -0.0039971359789130927 0.00094011541821242231 0 -0.0051841956372311376 0.00079004983854199693 0 -0.0051841956372311376 0.00079004983854199693 0 -0.0056751869429710082 0.00059196000602351761 0 -0.0052595810794865928 0.00030505112024530295 0 -0.0051841956372311376 0.00079004983854199693 0 -0.0056751869429710082 0.00059196000602351761 0 -0.006161543521236117 0.0012692183663375787 0 -0.0056751869429710082 0.00059196000602351761 0 -0.006268988961114671 0.00075654693924202604 0 -0.006161543521236117 0.0012692183663375787 0 -0.0057603148549708189 0.0015180279070355256 0 -0.0051841956372311376 0.00079004983854199693 0 -0.006161543521236117 0.0012692183663375787 0 -0.0032240431035348168 0.00058758503590666702 0 -0.0022755882800552627 0.0014458544855480418 0 -0.0059838723307430166 0.00054271024532835698 0 -0.0063125618165133773 0.0006066017386539863 0 -0.0065020368710154855 0.00041613187824571918 0 -0.006268988961114671 0.00075654693924202604 0 -0.0059838723307430166 0.00054271024532835698 0 -0.0063125618165133773 0.0006066017386539863 0 -0.0056751869429710082 0.00059196000602351761 0 -0.006268988961114671 0.00075654693924202604 0 -0.0054902017593077895 -0.00012444812811847469 0 -0.0056751869429710082 0.00059196000602351761 0 -0.0054902017593077895 -0.00012444812811847469 0 -0.0052595810794865928 0.00030505112024530295 0 -0.0066696575866220095 0.0010077640973722485 0 -0.0032240431035348168 0.00058758503590666702 0 -0.0052595810794865928 0.00030505112024530295 0 -0.0047434440455590881 0.00026600948644552329 0 -0.0052532817568197157 -6.6350674451324732e-05 0 -0.0051841956372311376 0.00079004983854199693 0 -0.0052595810794865928 0.00030505112024530295 0 -0.0047434440455590881 0.00026600948644552329 0 -0.0047434440455590881 0.00026600948644552329 0 -0.0046729995913222912 -0.00023957489863247211 0 -0.0052532817568197157 -6.6350674451324732e-05 0 -0.0054236305276345407 -0.00012683979499529974 0 -0.0046729995913222912 -0.00023957489863247211 0 -0.0052532817568197157 -6.6350674451324732e-05 0 -0.0054902017593077895 -0.00012444812811847469 0 -0.0052595810794865928 0.00030505112024530295 0 -0.0052532817568197157 -6.6350674451324732e-05 0 -0.0032240431035348168 0.00058758503590666702 0 -0.0039828650316479485 0.0003488376398997017 0 0.0012941341309028343 0.002317026486795307 0 0.001566265245264452 0.0020964063621086806 0 0.0013541441786605478 0.0021102196201205625 0 -0.0032240431035348168 0.00058758503590666702 0 -0.0014014182093475809 0.00066880963094828269 0 -0.0054236305276345407 -0.00012683979499529974 0 -0.0046729995913222912 -0.00023957489863247211 0 -0.0045384057201133827 -0.00070514451739519689 0 0.001566265245264452 0.0020964063621086806 0 0.0013541441786605478 0.0021102196201205625 0 0.0014739010775388012 0.0018622558386861448 0 0.0012941341309028343 0.002317026486795307 0 0.001130083949288953 0.0021702551359098032 0 0.00090430047122129823 0.0021965085373801185 0 0.0013541441786605478 0.0021102196201205625 0 0.001252773781489427 0.0021624029928013172 0 0.0012339082533508133 0.0019824577160257747 0 0.0012941341309028343 0.002317026486795307 0 0.001252773781489427 0.0021624029928013172 0 0.001130083949288953 0.0021702551359098032 0 0.0012941341309028343 0.002317026486795307 0 0.0013541441786605478 0.0021102196201205625 0 0.001252773781489427 0.0021624029928013172 0 0.001130083949288953 0.0021702551359098032 0 0.0012339082533508133 0.0019824577160257747 0 0.00098627874583858658 0.0019906536939773589 0 0.001252773781489427 0.0021624029928013172 0 0.001130083949288953 0.0021702551359098032 0 0.0012339082533508133 0.0019824577160257747 0 0.0012339082533508133 0.0019824577160257747 0 0.0012097091591246308 0.0016559775204630085 0 0.00098627874583858658 0.0019906536939773589 0 0.0012339082533508133 0.0019824577160257747 0 0.0012097091591246308 0.0016559775204630085 0 0.0014739010775388012 0.0018622558386861448 0 0.0016602733412368848 0.0014370008179501088 0 0.0012097091591246308 0.0016559775204630085 0 0.0014739010775388012 0.0018622558386861448 0 0.0013541441786605478 0.0021102196201205625 0 0.0012339082533508133 0.0019824577160257747 0 0.0014739010775388012 0.0018622558386861448 0 0.001616554737436016 0.001068283109829708 0 0.0017112323123816703 0.0012573161845105222 0 0.0018615735124528031 0.0011362240382052386 0 -0.0014014182093475809 0.00066880963094828269 0 -0.00075477106315409187 0.00051877108818495056 0 0.001566265245264452 0.0020964063621086806 0 0.0014739010775388012 0.0018622558386861448 0 0.0018217296823821027 0.0018664424517273197 0 0.0016602733412368848 0.0014370008179501088 0 0.0014739010775388012 0.0018622558386861448 0 0.0018217296823821027 0.0018664424517273197 0 0.002104317143726902 0.0015760297560238892 0 -0.00075477106315409187 0.00051877108818495056 0 -0.00075477106315409187 0.00051877108818495056 0 -0.00059148187425103152 -0.00033231844884467059 0 -0.0037080777416821568 -0.0010103601913805012 0 -0.0029959855855687958 -0.0017492965932526974 0 -0.003105804466907826 -0.00090861492494648624 0 -0.00075477106315409187 0.00051877108818495056 0 -0.0039503082953171315 -0.0014155728609392888 0 -0.0037080777416821568 -0.0010103601913805012 0 -0.003105804466907826 -0.00090861492494648624 0 -0.0034046088125071297 -0.000487758669419733 0 -0.003105804466907826 -0.00090861492494648624 0 -0.0034046088125071297 -0.000487758669419733 0 -0.002824618990577787 -0.0003413501703554263 0 -0.0034046088125071297 -0.000487758669419733 0 -0.0033710239645428344 4.6739602928066097e-05 0 -0.002824618990577787 -0.0003413501703554263 0 -0.0034046088125071297 -0.000487758669419733 0 -0.0039521688984995914 -0.00038951041091928371 0 -0.0033710239645428344 4.6739602928066097e-05 0 -0.0037932967135806167 -0.001278507508916402 0 -0.0034046088125071297 -0.000487758669419733 0 -0.0039521688984995914 -0.00038951041091928371 0 -0.0045384057201133827 -0.00070514451739519689 0 -0.0037932967135806167 -0.001278507508916402 0 -0.0039521688984995914 -0.00038951041091928371 0 -0.0046729995913222912 -0.00023957489863247211 0 -0.0045384057201133827 -0.00070514451739519689 0 -0.0039521688984995914 -0.00038951041091928371 0 -0.0039521688984995914 -0.00038951041091928371 0 -0.0040514098615839463 0.00017305663982377181 0 -0.0033710239645428344 4.6739602928066097e-05 0 -0.0046729995913222912 -0.00023957489863247211 0 -0.0039521688984995914 -0.00038951041091928371 0 -0.0040514098615839463 0.00017305663982377181 0 -0.0041234295458242066 0.00061921128186128111 0 -0.0047434440455590881 0.00026600948644552329 0 -0.0040514098615839463 0.00017305663982377181 0 -0.0047434440455590881 0.00026600948644552329 0 -0.0046729995913222912 -0.00023957489863247211 0 -0.0040514098615839463 0.00017305663982377181 0 -0.0035226372384097137 0.00046694834639356809 0 -0.0040514098615839463 0.00017305663982377181 0 -0.0033710239645428344 4.6739602928066097e-05 0 -0.0030663878654605108 0.00042545480275243123 0 -0.0033710239645428344 4.6739602928066097e-05 0 -0.0026274997257866688 0.00014820123872587467 0 -0.0033710239645428344 4.6739602928066097e-05 0 -0.0026274997257866688 0.00014820123872587467 0 -0.002824618990577787 -0.0003413501703554263 0 -0.0029802731053451266 0.00046740272632837598 0 -0.0026274997257866688 0.00014820123872587467 0 -0.0015935844800556171 0.00013584061278463887 0 -0.0028678614268449303 0.00043760535660101817 0 -0.0022185112176093206 0.00016130350792049403 0 -0.0026274997257866688 0.00014820123872587467 0 -0.0016898682102378711 -0.00035605007347590164 0 -0.0015935844800556171 0.00013584061278463887 0 -0.0016898682102378711 -0.00035605007347590164 0 -0.002824618990577787 -0.0003413501703554263 0 -0.0023898039157587178 -0.00082180437532164007 0 -0.0026274997257866688 0.00014820123872587467 0 -0.0016898682102378711 -0.00035605007347590164 0 -0.002824618990577787 -0.0003413501703554263 0 -0.003105804466907826 -0.00090861492494648624 0 -0.002824618990577787 -0.0003413501703554263 0 -0.0023898039157587178 -0.00082180437532164007 0 -0.0029959855855687958 -0.0017492965932526974 0 -0.003105804466907826 -0.00090861492494648624 0 -0.0023898039157587178 -0.00082180437532164007 0 -0.0020271057935580743 -0.0026713799653064517 0 -0.0029959855855687958 -0.0017492965932526974 0 -0.001917380848234685 -0.0016009418718934418 0 -0.0029959855855687958 -0.0017492965932526974 0 -0.0023898039157587178 -0.00082180437532164007 0 -0.001917380848234685 -0.0016009418718934418 0 -0.00096942598513265719 -0.0022964493657523254 0 -0.001917380848234685 -0.0016009418718934418 0 -0.00080915840313632145 -0.00079467775721277863 0 -0.0023898039157587178 -0.00082180437532164007 0 -0.001917380848234685 -0.0016009418718934418 0 -0.0017279041859479261 -0.00092020928976078965 0 -0.001917380848234685 -0.0016009418718934418 0 -0.0017279041859479261 -0.00092020928976078965 0 -0.00080915840313632145 -0.00079467775721277863 0 -0.0016898682102378711 -0.00035605007347590164 0 -0.0023898039157587178 -0.00082180437532164007 0 -0.0017279041859479261 -0.00092020928976078965 0 -0.0016898682102378711 -0.00035605007347590164 0 -0.0017279041859479261 -0.00092020928976078965 0 -0.00080915840313632145 -0.00079467775721277863 0 -0.0016898682102378711 -0.00035605007347590164 0 -0.00080915840313632145 -0.00079467775721277863 0 -0.00036449971278099602 -0.00063186633358174981 0 -0.00080915840313632145 -0.00079467775721277863 0 -8.7445203082368969e-05 -0.00038704627209812392 0 -0.00036449971278099602 -0.00063186633358174981 0 0.00034965546631872451 -0.00014705663529783318 0 -0.00080915840313632145 -0.00079467775721277863 0 -8.7445203082368969e-05 -0.00038704627209812392 0 -0.00039281370319662842 -0.001410384895661608 0 -0.00067770614183629621 -0.00065255778750373215 0 0.00029696904553311901 -2.3423387015329251e-05 0 0.00034965546631872451 -0.00014705663529783318 0 -8.7445203082368969e-05 -0.00038704627209812392 0 -2.5369479558193368e-05 -2.259086672246609e-07 0 -0.00043177655693313696 -1.1918285021643586e-07 0 -0.0018266859010978086 -8.4171639937074974e-05 0 -8.7445203082368969e-05 -0.00038704627209812392 0 -2.4199573282990493e-05 -1.1377480382582054e-06 0 -0.00036449971278099602 -0.00063186633358174981 0 0.00029696904553311901 -2.3423387015329251e-05 0 -8.7445203082368969e-05 -0.00038704627209812392 0 -2.4199573282990493e-05 -1.1377480382582054e-06 0 -0.00021417031112266844 -5.0986666657989774e-05 0 -0.0010711387242409492 -0.00028573594534562357 0 -0.00043177655693313696 -1.1918285021643586e-07 0 -0.0018266859010978086 -8.4171639937074974e-05 0 -0.0018568033753288834 4.907085444604071e-08 0 -0.0018266859010978086 -8.4171639937074974e-05 0 -0.0018568033753288834 4.907085444604071e-08 0 -0.0028764593355186624 0.0002517312854587146 0 -0.0016898682102378711 -0.00035605007347590164 0 -0.00036449971278099602 -0.00063186633358174981 0 -0.0015935844800556171 0.00013584061278463887 0 -0.0010711387242409492 -0.00028573594534562357 0 -0.0022185112176093206 0.00016130350792049403 0 -0.0032814768313399784 8.623151172577971e-07 0 -0.0018568033753288834 4.907085444604071e-08 0 -0.0028764593355186624 0.0002517312854587146 0 -0.011832443223570206 0.0041787882079407021 0 -0.012275484914172026 0.0028258234988466058 0 -0.012175452478768986 0.004282248633865289 0 -0.011823448378294492 0.0041698606360656837 0 -0.012124475554319778 0.004136848442394753 0 -0.011823448378294492 0.0041698606360656837 0 -0.010484857419134547 0.0027254260838298679 0 -0.012093177992466689 0.0018282546428515583 0 -0.012175452478768986 0.004282248633865289 0 -0.011823448378294492 0.0041698606360656837 0 -0.012207506146230037 0.0046512708926953368 0 -0.010484857419134547 0.0027254260838298679 0 -0.010862894886692395 0.0044944294690091912 0 -0.0096585061283819794 0.0039136336879474496 0 -0.011823448378294492 0.0041698606360656837 0 -0.010484857419134547 0.0027254260838298679 0 -0.010862894886692395 0.0044944294690091912 0 -0.010484857419134547 0.0027254260838298679 0 -0.0094886820086151364 0.00098471204442293126 0 -0.011197292143851668 0.0010123132785928015 0 -0.010484857419134547 0.0027254260838298679 0 -0.012093177992466689 0.0018282546428515583 0 -0.011197292143851668 0.0010123132785928015 0 -0.012175452478768986 0.004282248633865289 0 -0.012124475554319778 0.004136848442394753 0 -0.012388525361857547 0.0042639962835899119 0 -0.012124475554319778 0.004136848442394753 0 -0.012402330469308604 0.0040848824499071989 0 -0.012388525361857547 0.0042639962835899119 0 -0.012402330469308604 0.0040848824499071989 0 -0.012554674538962292 0.004213411626838433 0 -0.012388525361857547 0.0042639962835899119 0 -0.012402330469308604 0.0040848824499071989 0 -0.012554674538962292 0.004213411626838433 0 -0.012725098047161602 0.0041491288587820856 0 -0.012554674538962292 0.004213411626838433 0 -0.012388525361857547 0.0042639962835899119 0 -0.012719448934039057 0.0043676981441098332 0 -0.012974218378343434 0.0044281026498750459 0 -0.012725098047161602 0.0041491288587820856 0 -0.013141880190424532 0.0043046286146168795 0 -0.012719448934039057 0.0043676981441098332 0 -0.012974218378343434 0.0044281026498750459 0 -0.012725098047161602 0.0041491288587820856 0 -0.012554674538962292 0.004213411626838433 0 -0.012719448934039057 0.0043676981441098332 0 -0.012725098047161602 0.0041491288587820856 0 -0.012719448934039057 0.0043676981441098332 0 -0.012974218378343434 0.0044281026498750459 0 -0.012867725582119143 0.0045220291261148723 0 -0.012867725582119143 0.0045220291261148723 0 -0.01287554830278378 0.004669301784600244 0 -0.013077469265614476 0.004627540730774345 0 -0.012974218378343434 0.0044281026498750459 0 -0.012867725582119143 0.0045220291261148723 0 -0.013077469265614476 0.004627540730774345 0 -0.012719448934039057 0.0043676981441098332 0 -0.012867725582119143 0.0045220291261148723 0 -0.012669054269701722 0.0044865738995178636 0 -0.012867725582119143 0.0045220291261148723 0 -0.012669054269701722 0.0044865738995178636 0 -0.01287554830278378 0.004669301784600244 0 -0.012669054269701722 0.0044865738995178636 0 -0.01287554830278378 0.004669301784600244 0 -0.012477284229877454 0.0045386645892350847 0 -0.012175452478768986 0.004282248633865289 0 -0.012388525361857547 0.0042639962835899119 0 -0.012477284229877454 0.0045386645892350847 0 -0.012388525361857547 0.0042639962835899119 0 -0.012719448934039057 0.0043676981441098332 0 -0.012669054269701722 0.0044865738995178636 0 -0.012388525361857547 0.0042639962835899119 0 -0.012669054269701722 0.0044865738995178636 0 -0.012477284229877454 0.0045386645892350847 0 -0.012175452478768986 0.004282248633865289 0 -0.012477284229877454 0.0045386645892350847 0 -0.012207506146230037 0.0046512708926953368 0 -0.012723707669214884 0.0050548190980494578 0 -0.011986600068169614 0.0052942599435317371 0 -0.01211051370088383 0.0049998761600438075 0 -0.012723707669214884 0.0050548190980494578 0 -0.01211051370088383 0.0049998761600438075 0 -0.012207506146230037 0.0046512708926953368 0 -0.012477284229877454 0.0045386645892350847 0 -0.012723707669214884 0.0050548190980494578 0 -0.012207506146230037 0.0046512708926953368 0 -0.01287554830278378 0.004669301784600244 0 -0.012723707669214884 0.0050548190980494578 0 -0.013222398448511195 0.0047246778407292848 0 -0.013381290621257261 0.00482867435449071 0 -0.01320833988349402 0.0046961927202089256 0 -0.01287554830278378 0.004669301784600244 0 -0.012477284229877454 0.0045386645892350847 0 -0.012723707669214884 0.0050548190980494578 0 -0.013902863474620945 0.0043738740128638747 0 -0.013418818538377633 0.0043271434489535361 0 -0.013222398448511195 0.0047246778407292848 0 -0.013667208877147443 0.0038554574561188693 0 -0.013902863474620945 0.0043738740128638747 0 -0.013418818538377633 0.0043271434489535361 0 -0.013980765501513953 0.0038083893550148666 0 -0.013667208877147443 0.0038554574561188693 0 -0.013902863474620945 0.0043738740128638747 0 -0.014264361512574405 0.003740626659718453 0 -0.013902863474620945 0.0043738740128638747 0 -0.014572110355875127 0.0039657765367512986 0 -0.013381290621257261 0.00482867435449071 0 -0.012673564966629153 0.004114866569839894 0 -0.014264361512574405 0.003740626659718453 0 -0.013980765501513953 0.0038083893550148666 0 -0.013902863474620945 0.0043738740128638747 0 -0.012723707669214884 0.0050548190980494578 0 -0.011787719235908925 0.0057732297248626963 0 -0.011986600068169614 0.0052942599435317371 0 -0.01159645261704392 0.005688663718263545 0 -0.011986600068169614 0.0052942599435317371 0 -0.011784348340757835 0.0048845754810597245 0 -0.011787719235908925 0.0057732297248626963 0 -0.01159645261704392 0.005688663718263545 0 -0.011986600068169614 0.0052942599435317371 0 -0.011453368520727846 0.0041797537506833736 0 -0.011391291389485679 0.0042157808549289364 0 -0.011494335527603693 0.0042905813160744625 0 -0.011714013230393873 0.0035633681859247516 0 -0.011140786922757419 0.0044131722981470573 0 -0.012673564966629153 0.004114866569839894 0 -0.011140786922757419 0.0044131722981470573 0 -0.011714013230393873 0.0035633681859247516 0 -0.012673564966629153 0.004114866569839894 0 -0.01159645261704392 0.005688663718263545 0 -0.011784348340757835 0.0048845754810597245 0 -0.010862894886692395 0.0044944294690091912 0 -0.01211051370088383 0.0049998761600438075 0 -0.011784348340757835 0.0048845754810597245 0 -0.012207506146230037 0.0046512708926953368 0 -0.011986600068169614 0.0052942599435317371 0 -0.01211051370088383 0.0049998761600438075 0 -0.011784348340757835 0.0048845754810597245 0 -0.011823448378294492 0.0041698606360656837 0 -0.011784348340757835 0.0048845754810597245 0 -0.010862894886692395 0.0044944294690091912 0 -0.011823448378294492 0.0041698606360656837 0 -0.011784348340757835 0.0048845754810597245 0 -0.012207506146230037 0.0046512708926953368 0 -0.011140786922757419 0.0044131722981470573 0 -0.011141081090559043 0.0052709221709996198 0 -0.010077088284570372 0.0055474953402636501 0 -0.010862894886692395 0.0044944294690091912 0 -0.0096585061283819794 0.0039136336879474496 0 -0.01162894509469768 0.0066033331988826363 0 -0.010077088284570372 0.0055474953402636501 0 -0.010862894886692395 0.0044944294690091912 0 -0.011140786922757419 0.0044131722981470573 0 -0.0085446052383167641 0.0039261780085578174 0 -0.0077369427876503218 0.0026668089107816958 0 -0.0077123906628545598 0.0026083231243956644 0 -0.0074796952913961058 0.0026400323350514541 0 -0.0077123906628545598 0.0026083231243956644 0 -0.0074380615021392999 0.0024625658441847762 0 -0.0074796952913961058 0.0026400323350514541 0 -0.0074380615021392999 0.0024625658441847762 0 -0.0074796952913961058 0.0026400323350514541 0 -0.0071903012863023166 0.0025592150503165891 0 -0.0070766409319684455 0.002722092095859596 0 -0.0071903012863023166 0.0025592150503165891 0 -0.0069096604489942599 0.0025473058162962959 0 -0.0071844178222030012 0.0023817713741743291 0 -0.0070125188740040312 0.0024193980279860298 0 -0.0071334575348446462 0.0024718482192671162 0 -0.0071903012863023166 0.0025592150503165891 0 -0.0071844178222030012 0.0023817713741743291 0 -0.0070125188740040312 0.0024193980279860298 0 -0.0074380615021392999 0.0024625658441847762 0 -0.0071903012863023166 0.0025592150503165891 0 -0.0071844178222030012 0.0023817713741743291 0 -0.0085446052383167641 0.0039261780085578174 0 -0.0078493312233523741 0.0032972283995769437 0 -0.010077088284570372 0.0055474953402636501 0 -0.0083460245208076267 0.0042085243238003849 0 -0.0096585061283819794 0.0039136336879474496 0 -0.0065470292708789584 0.0024458660243165146 0 -0.0069096604489942599 0.0025473058162962959 0 -0.0067239885311859843 0.0023561928980942149 0 -0.0067072511004461237 0.0026486932770926736 0 -0.0065470292708789584 0.0024458660243165146 0 -0.0069096604489942599 0.0025473058162962959 0 -0.0071903012863023166 0.0025592150503165891 0 -0.0069096604489942599 0.0025473058162962959 0 -0.0070125188740040312 0.0024193980279860298 0 -0.0069096604489942599 0.0025473058162962959 0 -0.0070125188740040312 0.0024193980279860298 0 -0.0067239885311859843 0.0023561928980942149 0 -0.0070125188740040312 0.0024193980279860298 0 -0.0067239885311859843 0.0023561928980942149 0 -0.0067856814484363341 0.0023334004461987089 0 -0.0062728250280184236 0.0020761671800842785 0 -0.0067239885311859843 0.0023561928980942149 0 -0.0067856814484363341 0.0023334004461987089 0 -0.006161543521236117 0.0012692183663375787 0 -0.0066904365621264896 0.0014787288624084761 0 -0.0066134203342546848 0.0011890353860411322 0 -0.0062718927829292174 0.0020992945575406948 0 -0.0067019703827245758 0.0019157811364153908 0 -0.0070125188740040312 0.0024193980279860298 0 -0.0067856814484363341 0.0023334004461987089 0 -0.0071334575348446462 0.0024718482192671162 0 -0.0067856814484363341 0.0023334004461987089 0 -0.0071334575348446462 0.0024718482192671162 0 -0.0074625727920631301 0.0021552399858699106 0 -0.0067019703827245758 0.0019157811364153908 0 -0.0071105887253496659 0.0017023985133136331 0 -0.0066904365621264896 0.0014787288624084761 0 -0.006727243116621302 0.0012055441793691177 0 -0.0067695375409516584 0.0012303691024157367 0 -0.0065148035021133054 0.0012922006491360278 0 -0.007038581487994763 0.00070386935625563272 0 -0.0066904365621264896 0.0014787288624084761 0 -0.006727243116621302 0.0012055441793691177 0 -0.0066134203342546848 0.0011890353860411322 0 -0.006727243116621302 0.0012055441793691177 0 -0.0066134203342546848 0.0011890353860411322 0 -0.0067556583046384242 0.0012257434193382565 0 -0.006268988961114671 0.00075654693924202604 0 -0.006161543521236117 0.0012692183663375787 0 -0.0066134203342546848 0.0011890353860411322 0 -0.006268988961114671 0.00075654693924202604 0 -0.0066134203342546848 0.0011890353860411322 0 -0.0065084406205751025 0.00070731321033111211 0 -0.0083460245208076267 0.0042085243238003849 0 -0.0096585061283819794 0.0039136336879474496 0 -0.008857633599741413 0.0027800192344206139 0 -0.010484857419134547 0.0027254260838298679 0 -0.0096585061283819794 0.0039136336879474496 0 -0.008857633599741413 0.0027800192344206139 0 -0.0078493312233523741 0.0032972283995769437 0 -0.0071822965696756438 0.0026095013883203027 0 -0.0083460245208076267 0.0042085243238003849 0 -0.008857633599741413 0.0027800192344206139 0 -0.0079073711107982697 0.002862904700240605 0 -0.0083460245208076267 0.0042085243238003849 0 -0.0071334575348446462 0.0024718482192671162 0 -0.0079073711107982697 0.002862904700240605 0 -0.0071334575348446462 0.0024718482192671162 0 -0.0079073711107982697 0.002862904700240605 0 -0.0074625727920631301 0.0021552399858699106 0 -0.008857633599741413 0.0027800192344206139 0 -0.0079073711107982697 0.002862904700240605 0 -0.0074625727920631301 0.0021552399858699106 0 -0.0071105887253496659 0.0017023985133136331 0 -0.0081424821717437923 0.0010353504632623636 0 -0.0067695375409516584 0.0012303691024157367 0 -0.0066729197549490714 0.0012569825384136453 0 -0.0067308077387246814 0.0012472378951957734 0 -0.006727243116621302 0.0012055441793691177 0 -0.0067695375409516584 0.0012303691024157367 0 -0.0067308077387246814 0.0012472378951957734 0 -0.010484857419134547 0.0027254260838298679 0 -0.008857633599741413 0.0027800192344206139 0 -0.0094886820086151364 0.00098471204442293126 0 -0.008857633599741413 0.0027800192344206139 0 -0.0074625727920631301 0.0021552399858699106 0 -0.0094886820086151364 0.00098471204442293126 0 -0.0066729197549490714 0.0012569825384136453 0 -0.0066695076003033251 0.001310102692119737 0 -0.0066404024529696966 0.0013402207042304047 0 -0.0066729197549490714 0.0012569825384136453 0 -0.0067308077387246814 0.0012472378951957734 0 -0.0066695076003033251 0.001310102692119737 0 -0.0067308077387246814 0.0012472378951957734 0 -0.0067312399540568838 0.0013337804216747467 0 -0.0067556583046384242 0.0012257434193382565 0 -0.0067308077387246814 0.0012472378951957734 0 -0.0067312399540568838 0.0013337804216747467 0 -0.0066695076003033251 0.001310102692119737 0 -0.0066695076003033251 0.001310102692119737 0 -0.0065941131194936029 0.0013766902879999504 0 -0.0066404024529696966 0.0013402207042304047 0 -0.0067312399540568838 0.0013337804216747467 0 -0.0066695076003033251 0.001310102692119737 0 -0.0065941131194936029 0.0013766902879999504 0 -0.0066134203342546848 0.0011890353860411322 0 -0.0065084406205751025 0.00070731321033111211 0 -0.0067538383325530752 0.00061514918072039639 0 -0.0063125618165133773 0.0006066017386539863 0 -0.0065084406205751025 0.00070731321033111211 0 -0.0065020368710154855 0.00041613187824571918 0 -0.006268988961114671 0.00075654693924202604 0 -0.0063125618165133773 0.0006066017386539863 0 -0.0065084406205751025 0.00070731321033111211 0 -0.0065084406205751025 0.00070731321033111211 0 -0.0067538383325530752 0.00061514918072039639 0 -0.0065020368710154855 0.00041613187824571918 0 -0.006727243116621302 0.0012055441793691177 0 -0.0067308077387246814 0.0012472378951957734 0 -0.0067556583046384242 0.0012257434193382565 0 -0.0068990702380907687 0.00032891213933495167 0 -0.0067538383325530752 0.00061514918072039639 0 -0.0065020368710154855 0.00041613187824571918 0 0.00052847842805611093 0.0020785012879097836 0 0.00090430047122129823 0.0021965085373801185 0 0.00077450867059092386 0.0019974636733821197 0 -0.0047820662629624493 0.0014741982556093027 0 -0.007038581487994763 0.00070386935625563272 0 -0.0047820662629624493 0.0014741982556093027 0 -0.0022755882800552627 0.0014458544855480418 0 0.00090430047122129823 0.0021965085373801185 0 0.00098627874583858658 0.0019906536939773589 0 0.00077450867059092386 0.0019974636733821197 0 0.001130083949288953 0.0021702551359098032 0 0.00090430047122129823 0.0021965085373801185 0 0.00098627874583858658 0.0019906536939773589 0 0.0012097091591246308 0.0016559775204630085 0 0.00098627874583858658 0.0019906536939773589 0 0.00084016989843444607 0.0018196148316411212 0 0.00098627874583858658 0.0019906536939773589 0 0.00084016989843444607 0.0018196148316411212 0 0.00077450867059092386 0.0019974636733821197 0 0.00052847842805611093 0.0020785012879097836 0 0.00077450867059092386 0.0019974636733821197 0 0.00063849717690485429 0.0019093103383263552 0 0.00084016989843444607 0.0018196148316411212 0 0.00077450867059092386 0.0019974636733821197 0 0.00063849717690485429 0.0019093103383263552 0 0.00084016989843444607 0.0018196148316411212 0 0.00063849717690485429 0.0019093103383263552 0 0.0006353027937004229 0.0017576530541531957 0 0.00084016989843444607 0.0018196148316411212 0 0.0009328146936622893 0.0015898331091652484 0 0.0006353027937004229 0.0017576530541531957 0 0.00070428431909952622 0.001599117063705018 0 0.0009328146936622893 0.0015898331091652484 0 0.0006353027937004229 0.0017576530541531957 0 0.0012097091591246308 0.0016559775204630085 0 0.00084016989843444607 0.0018196148316411212 0 0.0009328146936622893 0.0015898331091652484 0 -0.0064182375144997842 0.0012598980352997451 0 -0.0061886256537827828 0.00130873916324858 0 -0.0065941131194936029 0.0013766902879999504 0 -0.0059832905485539007 0.0016126919178289553 0 -0.0061886256537827828 0.00130873916324858 0 -0.0065941131194936029 0.0013766902879999504 0 -0.0047820662629624493 0.0014741982556093027 0 -0.007245396974800436 0.0013103147278512102 0 -0.0064182375144997842 0.0012598980352997451 0 -0.0061886256537827828 0.00130873916324858 0 -0.0063736187894681629 0.0010800426860501648 0 -0.0047820662629624493 0.0014741982556093027 0 -0.0028637460635660833 0.0016962325379960379 0 0.00052847842805611093 0.0020785012879097836 0 0.00063849717690485429 0.0019093103383263552 0 0.00042874275113069982 0.0018979470063163477 0 0.00063849717690485429 0.0019093103383263552 0 0.00042874275113069982 0.0018979470063163477 0 0.0006353027937004229 0.0017576530541531957 0 0.001423697707766359 0.0017126980939069015 0 -0.0027273766834716886 0.0022940313796821284 0 0.00070428431909952622 0.001599117063705018 0 0.0006353027937004229 0.0017576530541531957 0 0.00031567304693698857 0.0017215901496379481 0 0.00042874275113069982 0.0018979470063163477 0 0.0006353027937004229 0.0017576530541531957 0 0.00031567304693698857 0.0017215901496379481 0 -0.0015161899242852577 0.0028022505354923372 0 -0.00060982405163784355 0.0021219415154061596 0 -0.0015652385636977838 0.0038073831905581952 0 -0.0064182375144997842 0.0012598980352997451 0 -0.0063736187894681629 0.0010800426860501648 0 -0.0066558375341478002 0.0012890105557997167 0 -0.0028637460635660833 0.0016962325379960379 0 -0.0027273766834716886 0.0022940313796821284 0 -0.0015161899242852577 0.0028022505354923372 0 -0.0015652385636977838 0.0038073831905581952 0 -0.0021354069349004564 0.0031969200465215126 0 -0.0016046819811655483 0.0040593371732866364 0 -0.0021354069349004564 0.0031969200465215126 0 -0.0032661946303271364 0.0039479440460981809 0 -0.0027273766834716886 0.0022940313796821284 0 -0.0020800388095403351 0.0032724960753725569 0 -0.0032656911474651567 0.0028948415221812331 0 -0.0032661946303271364 0.0039479440460981809 0 -0.0045468723078732594 0.0032185132652322022 0 -0.0016046819811655483 0.0040593371732866364 0 -0.0032661946303271364 0.0039479440460981809 0 -0.0040954214567536836 0.0054432782602721677 0 -0.0032661946303271364 0.0039479440460981809 0 -0.0045468723078732594 0.0032185132652322022 0 -0.0040954214567536836 0.0054432782602721677 0 -0.0027273766834716886 0.0022940313796821284 0 -0.005543873323622263 0.003463899979901723 0 -0.0032656911474651567 0.0028948415221812331 0 -0.0021354069349004564 0.0031969200465215126 0 -0.0032661946303271364 0.0039479440460981809 0 -0.0045468723078732594 0.0032185132652322022 0 -0.0069581046523762933 0.0032573010144277218 0 -0.0040954214567536836 0.0054432782602721677 0 -0.0074251420996309034 0.0026262725561640625 0 -0.0069184081119752164 0.0037215018470096277 0 -0.0069184081119752164 0.0037215018470096277 0 -0.005543873323622263 0.003463899979901723 0 -0.0066861336180421413 0.0013554430045310984 0 -0.0066411645355873459 0.0013430781728160674 0 -0.0066504447242856915 0.0013533558856146763 0 -0.0069581046523762933 0.0032573010144277218 0 -0.0064701686595873545 0.0067431529922992702 0 -0.0040954214567536836 0.0054432782602721677 0 -0.0066861336180421413 0.0013554430045310984 0 -0.0066558375341478002 0.0012890105557997167 0 -0.0066411645355873459 0.0013430781728160674 0 -0.0064182375144997842 0.0012598980352997451 0 -0.0066558375341478002 0.0012890105557997167 0 -0.0065941131194936029 0.0013766902879999504 0 -0.0066411645355873459 0.0013430781728160674 0 -0.0065941131194936029 0.0013766902879999504 0 -0.0066504447242856915 0.0013533558856146763 0 -0.0066558375341478002 0.0012890105557997167 0 -0.0066411645355873459 0.0013430781728160674 0 -0.0065941131194936029 0.0013766902879999504 0 -0.0065941131194936029 0.0013766902879999504 0 -0.0066404024529696966 0.0013402207042304047 0 -0.0066504447242856915 0.0013533558856146763 0 -0.0066404024529696966 0.0013402207042304047 0 -0.0066536235694607719 0.0013509027487276805 0 -0.0066497713590591215 0.0013475226546304779 0 -0.0066404024529696966 0.0013402207042304047 0 -0.0066504447242856915 0.0013533558856146763 0 -0.0066536235694607719 0.0013509027487276805 0 -0.0066861336180421413 0.0013554430045310984 0 -0.0066673208246016726 0.0013557627057076609 0 -0.0066749037149165013 0.0013630061054561123 0 -0.0069184081119752164 0.0037215018470096277 0 -0.0098396448760580575 0.0024645885785347485 0 -0.0066861336180421413 0.0013554430045310984 0 -0.0066504447242856915 0.0013533558856146763 0 -0.0066673208246016726 0.0013557627057076609 0 -0.0081090378945083176 0.0034921750838586714 0 -0.0079636388391233041 0.0046879706496435122 0 -0.0084301611285296386 0.0041594233986853944 0 -0.0066504447242856915 0.0013533558856146763 0 -0.0066673208246016726 0.0013557627057076609 0 -0.0066536235694607719 0.0013509027487276805 0 -0.0066673208246016726 0.0013557627057076609 0 -0.0066699764376649479 0.0013575757653034705 0 -0.0066749037149165013 0.0013630061054561123 0 -0.0066673208246016726 0.0013557627057076609 0 -0.0066536235694607719 0.0013509027487276805 0 -0.0066699764376649479 0.0013575757653034705 0 -0.0066699764376649479 0.0013575757653034705 0 -0.0066754851982895411 0.0013538173458897853 0 -0.0066749037149165013 0.0013630061054561123 0 -0.0066536235694607719 0.0013509027487276805 0 -0.006655454293973199 0.00135078938398718 0 -0.0066497713590591215 0.0013475226546304779 0 -0.0080495836731661365 0.0014903688138515575 0 -0.008937854781250679 0.0011268226952669035 0 -0.0066536235694607719 0.0013509027487276805 0 -0.0066699764376649479 0.0013575757653034705 0 -0.006655454293973199 0.00135078938398718 0 -0.0066699764376649479 0.0013575757653034705 0 -0.006655454293973199 0.00135078938398718 0 -0.0066497713590591215 0.0013475226546304779 0 -0.012093177992466689 0.0018282546428515583 0 -0.012300580933793701 -0.00020389285693066613 0 -0.011197292143851668 0.0010123132785928015 0 -0.011589307923725731 -0.00023384237435102761 0 -0.012300580933793701 -0.00020389285693066613 0 -0.011197292143851668 0.0010123132785928015 0 -0.012275484914172026 0.0028258234988466058 0 -0.0098396448760580575 0.0024645885785347485 0 -0.012124475554319778 0.004136848442394753 0 -0.012402330469308604 0.0040848824499071989 0 -0.012157364878933548 0.0037893125465592176 0 -0.008937854781250679 0.0011268226952669035 0 -0.0098396448760580575 0.0024645885785347485 0 -0.0094886820086151364 0.00098471204442293126 0 -0.011589307923725731 -0.00023384237435102761 0 -0.011197292143851668 0.0010123132785928015 0 -0.0066729197549490714 0.0012569825384136453 0 -0.0066404024529696966 0.0013402207042304047 0 -0.0066497713590591215 0.0013475226546304779 0 -0.0081424821717437923 0.0010353504632623636 0 -0.008937854781250679 0.0011268226952669035 0 -0.01294402930554287 0.0040725087043151286 0 -0.012725098047161602 0.0041491288587820856 0 -0.013141880190424532 0.0043046286146168795 0 -0.012711840186433008 0.0038401621746123964 0 -0.012725461387571482 0.0040085353806105575 0 -0.012536346725208879 0.0039657939543638132 0 -0.012711840186433008 0.0038401621746123964 0 -0.01294402930554287 0.0040725087043151286 0 -0.012725461387571482 0.0040085353806105575 0 -0.01294402930554287 0.0040725087043151286 0 -0.012725098047161602 0.0041491288587820856 0 -0.012725461387571482 0.0040085353806105575 0 -0.012725098047161602 0.0041491288587820856 0 -0.012725461387571482 0.0040085353806105575 0 -0.012536346725208879 0.0039657939543638132 0 -0.012402330469308604 0.0040848824499071989 0 -0.012157364878933548 0.0037893125465592176 0 -0.012536346725208879 0.0039657939543638132 0 -0.0098396448760580575 0.0024645885785347485 0 -0.011262588197014084 0.0045522888502107142 0 -0.012402330469308604 0.0040848824499071989 0 -0.012725098047161602 0.0041491288587820856 0 -0.012536346725208879 0.0039657939543638132 0 -0.012157364878933548 0.0037893125465592176 0 -0.012711840186433008 0.0038401621746123964 0 -0.012536346725208879 0.0039657939543638132 0 -0.0079636388391233041 0.0046879706496435122 0 -0.0096989274444871428 0.0048107573966278613 0 -0.0084301611285296386 0.0041594233986853944 0 -0.0096989274444871428 0.0048107573966278613 0 -0.0084301611285296386 0.0041594233986853944 0 -0.0090058534871305922 0.0039927170720905139 0 -0.0081090378945083176 0.0034921750838586714 0 -0.0084301611285296386 0.0041594233986853944 0 -0.0090058534871305922 0.0039927170720905139 0 -0.0069184081119752164 0.0037215018470096277 0 -0.0090276372454686001 0.0040537590296398553 0 -0.008808246855016532 0.0039513167045484047 0 -0.0096001608064141975 0.0037683602040580262 0 -0.0099386731327391203 0.00449741193152935 0 -0.0096989274444871428 0.0048107573966278613 0 -0.0090058534871305922 0.0039927170720905139 0 -0.0099386731327391203 0.00449741193152935 0 -0.0090276372454686001 0.0040537590296398553 0 -0.009758323510932922 0.0044162606409241384 0 -0.0096001608064141975 0.0037683602040580262 0 -0.0099386731327391203 0.00449741193152935 0 -0.010279854059826989 0.0036376273974754697 0 -0.0099386731327391203 0.00449741193152935 0 -0.010279854059826989 0.0036376273974754697 0 -0.011050700069343113 0.0038413112546447064 0 -0.010279854059826989 0.0036376273974754697 0 -0.0099568657934284016 0.0031702460739409175 0 -0.010849044255898574 0.0029237716165444036 0 -0.0096001608064141975 0.0037683602040580262 0 -0.010279854059826989 0.0036376273974754697 0 -0.0099568657934284016 0.0031702460739409175 0 -0.0096001608064141975 0.0037683602040580262 0 -0.0099568657934284016 0.0031702460739409175 0 -0.0090211018903431587 0.0028491985185312443 0 -0.0099568657934284016 0.0031702460739409175 0 -0.0090211018903431587 0.0028491985185312443 0 -0.009854890359115482 0.0023974555898482767 0 -0.0099568657934284016 0.0031702460739409175 0 -0.009854890359115482 0.0023974555898482767 0 -0.010849044255898574 0.0029237716165444036 0 -0.0077519206742811845 0.0033877030034596659 0 -0.008808246855016532 0.0039513167045484047 0 -0.0090211018903431587 0.0028491985185312443 0 -0.0078963289888668419 0.0014825046699244479 0 -0.0077519206742811845 0.0033877030034596659 0 -0.0090211018903431587 0.0028491985185312443 0 -0.008808246855016532 0.0039513167045484047 0 -0.0096001608064141975 0.0037683602040580262 0 -0.0090211018903431587 0.0028491985185312443 0 -0.0078963289888668419 0.0014825046699244479 0 -0.0090211018903431587 0.0028491985185312443 0 -0.0092660776848849657 0.0017716862523155866 0 -0.009854890359115482 0.0023974555898482767 0 -0.010056711230709919 0.0014418505834047771 0 -0.010603503679787567 0.0020225194770032823 0 -0.0090211018903431587 0.0028491985185312443 0 -0.009854890359115482 0.0023974555898482767 0 -0.0092660776848849657 0.0017716862523155866 0 -0.009854890359115482 0.0023974555898482767 0 -0.0092660776848849657 0.0017716862523155866 0 -0.010056711230709919 0.0014418505834047771 0 -0.010897531862893117 0.00085998943402908938 0 -0.010056711230709919 0.0014418505834047771 0 -0.010603503679787567 0.0020225194770032823 0 -0.010897531862893117 0.00085998943402908938 0 -0.010603503679787567 0.0020225194770032823 0 -0.011565155925825688 0.0020944017083845694 0 -0.009854890359115482 0.0023974555898482767 0 -0.010603503679787567 0.0020225194770032823 0 -0.010849044255898574 0.0029237716165444036 0 -0.010603503679787567 0.0020225194770032823 0 -0.011565155925825688 0.0020944017083845694 0 -0.010849044255898574 0.0029237716165444036 0 -0.010897531862893117 0.00085998943402908938 0 -0.012304919261286774 0.0013121310957729495 0 -0.011565155925825688 0.0020944017083845694 0 -0.012304919261286774 0.0013121310957729495 0 -0.011565155925825688 0.0020944017083845694 0 -0.012434246553046395 0.0029509390595840995 0 -0.011565155925825688 0.0020944017083845694 0 -0.012434246553046395 0.0029509390595840995 0 -0.010849044255898574 0.0029237716165444036 0 -0.012434246553046395 0.0029509390595840995 0 -0.010849044255898574 0.0029237716165444036 0 -0.011050700069343113 0.0038413112546447064 0 -0.010279854059826989 0.0036376273974754697 0 -0.010849044255898574 0.0029237716165444036 0 -0.011050700069343113 0.0038413112546447064 0 -0.011557137034040951 0.0052459676295996327 0 -0.011295899177923114 0.0053018241826727633 0 -0.012288955719064803 0.0054332341425655691 0 -0.012304919261286774 0.0013121310957729495 0 -0.012434246553046395 0.0029509390595840995 0 -0.01383740640133577 0.0017741338773735551 0 -0.012434246553046395 0.0029509390595840995 0 -0.01383740640133577 0.0017741338773735551 0 -0.013532055739915446 0.0035442232004640143 0 -0.01383740640133577 0.0017741338773735551 0 -0.014604276997017388 0.0035617065593867591 0 -0.013532055739915446 0.0035442232004640143 0 -0.012810872467958553 0.0031747935078896765 0 -0.013463683627330752 0.0045961692310036309 0 -0.011295899177923114 0.0053018241826727633 0 -0.012425029155050261 0.0055968734079713976 0 -0.012288955719064803 0.0054332341425655691 0 -0.013463683627330752 0.0045961692310036309 0 -0.014211989511984676 0.0050183659912153575 0 -0.013532055739915446 0.0035442232004640143 0 -0.014087682243894369 0.0044064693172194162 0 -0.01184121486723598 0.0047901886926592875 0 -0.014604276997017388 0.0035617065593867591 0 -0.013532055739915446 0.0035442232004640143 0 -0.014087682243894369 0.0044064693172194162 0 -0.014087682243894369 0.0044064693172194162 0 -0.013594936869408753 0.0044565755786830051 0 -0.014032611841679333 0.0047263335422775355 0 -0.014604276997017388 0.0035617065593867591 0 -0.014087682243894369 0.0044064693172194162 0 -0.014959813627135676 0.0047756089416814878 0 -0.014087682243894369 0.0044064693172194162 0 -0.014855658365138212 0.0049112670374809632 0 -0.014959813627135676 0.0047756089416814878 0 -0.0099386731327391203 0.00449741193152935 0 -0.011050700069343113 0.0038413112546447064 0 -0.01184121486723598 0.0047901886926592875 0 -0.012434246553046395 0.0029509390595840995 0 -0.011050700069343113 0.0038413112546447064 0 -0.01184121486723598 0.0047901886926592875 0 -0.012434246553046395 0.0029509390595840995 0 -0.013532055739915446 0.0035442232004640143 0 -0.01184121486723598 0.0047901886926592875 0 -0.014087682243894369 0.0044064693172194162 0 -0.013438441875812605 0.0040476053545259886 0 -0.013594936869408753 0.0044565755786830051 0 -0.01397641506439159 0.0044233603909807516 0 -0.012615760584383899 0.004378458436041145 0 -0.0096989274444871428 0.0048107573966278613 0 -0.0099386731327391203 0.00449741193152935 0 -0.01184121486723598 0.0047901886926592875 0 -0.013438441875812605 0.0040476053545259886 0 -0.013141880190424532 0.0043046286146168795 0 -0.013594936869408753 0.0044565755786830051 0 -0.011262588197014084 0.0045522888502107142 0 -0.012615760584383899 0.004378458436041145 0 -0.01294402930554287 0.0040725087043151286 0 -0.013438441875812605 0.0040476053545259886 0 -0.013141880190424532 0.0043046286146168795 0 -0.012711840186433008 0.0038401621746123964 0 -0.01294402930554287 0.0040725087043151286 0 -0.013438441875812605 0.0040476053545259886 0 -0.013141880190424532 0.0043046286146168795 0 -0.013371792255246132 0.004757190572389795 0 -0.013594936869408753 0.0044565755786830051 0 -0.012974218378343434 0.0044281026498750459 0 -0.013141880190424532 0.0043046286146168795 0 -0.013371792255246132 0.004757190572389795 0 -0.01287554830278378 0.004669301784600244 0 -0.013077469265614476 0.004627540730774345 0 -0.013222398448511195 0.0047246778407292848 0 -0.013077469265614476 0.004627540730774345 0 -0.013371792255246132 0.004757190572389795 0 -0.013222398448511195 0.0047246778407292848 0 -0.012974218378343434 0.0044281026498750459 0 -0.013077469265614476 0.004627540730774345 0 -0.013371792255246132 0.004757190572389795 0 -0.013371792255246132 0.004757190572389795 0 -0.013222398448511195 0.0047246778407292848 0 -0.013139914914888765 0.0046333016726804966 0 -0.013394292982979903 0.0046301426999222784 0 -0.013103516836562525 0.0053802092328137287 0 -0.013709373062076841 0.0052411220056050988 0 -0.013371792255246132 0.004757190572389795 0 -0.013423152655635796 0.005538205976053933 0 -0.013709373062076841 0.0052411220056050988 0 -0.013371792255246132 0.004757190572389795 0 -0.013805896568651357 0.0049108051143598331 0 -0.013805896568651357 0.0049108051143598331 0 -0.013594936869408753 0.0044565755786830051 0 -0.014032611841679333 0.0047263335422775355 0 -0.013371792255246132 0.004757190572389795 0 -0.013805896568651357 0.0049108051143598331 0 -0.013594936869408753 0.0044565755786830051 0 -0.014087682243894369 0.0044064693172194162 0 -0.014032611841679333 0.0047263335422775355 0 -0.014855658365138212 0.0049112670374809632 0 -0.014032611841679333 0.0047263335422775355 0 -0.014855658365138212 0.0049112670374809632 0 -0.014166834509558624 0.0052510907721609185 0 -0.014914877072571055 0.0048969364530647317 0 -0.015068956288161446 0.004874525615394319 0 -0.014855658365138212 0.0049112670374809632 0 -0.015886038025555702 0.0046408728740896426 0 -0.015261144637409033 0.004423852117421659 0 -0.013805896568651357 0.0049108051143598331 0 -0.014032611841679333 0.0047263335422775355 0 -0.014166834509558624 0.0052510907721609185 0 -0.013709373062076841 0.0052411220056050988 0 -0.013805896568651357 0.0049108051143598331 0 -0.014166834509558624 0.0052510907721609185 0 -0.015068956288161446 0.004874525615394319 0 -0.015146928704883643 0.0050695191395364655 0 -0.015886038025555702 0.0046408728740896426 0 -0.01609737777805775 0.0040342817947906914 0 -0.016708465253952077 0.0041470761923904694 0 -0.015886038025555702 0.0046408728740896426 0 -0.01609737777805775 0.0040342817947906914 0 -0.015261144637409033 0.004423852117421659 0 -0.01609737777805775 0.0040342817947906914 0 -0.015261144637409033 0.004423852117421659 0 -0.015583540851296091 0.0037276291279936292 0 -0.01609737777805775 0.0040342817947906914 0 -0.015583540851296091 0.0037276291279936292 0 -0.016443033694261561 0.0034092066439177196 0 -0.01609737777805775 0.0040342817947906914 0 -0.016752059891735397 0.0036619629396729223 0 -0.016708465253952077 0.0041470761923904694 0 -0.01609737777805775 0.0040342817947906914 0 -0.016752059891735397 0.0036619629396729223 0 -0.016443033694261561 0.0034092066439177196 0 -0.016752059891735397 0.0036619629396729223 0 -0.017318894937248221 0.0035717002239260376 0 -0.016708465253952077 0.0041470761923904694 0 -0.013435170579781474 0.0059781805844001511 0 -0.013423152655635796 0.005538205976053933 0 -0.013721786782297079 0.0056516129653233728 0 -0.01535174666266533 0.0035715566136612859 0 -0.015146928704883643 0.0050695191395364655 0 -0.01535174666266533 0.0035715566136612859 0 -0.013103516836562525 0.0053802092328137287 0 -0.013418818538377633 0.0043271434489535361 0 -0.013162362197647264 0.003975111595575005 0 -0.013139914914888765 0.0046333016726804966 0 -0.013667208877147443 0.0038554574561188693 0 -0.013418818538377633 0.0043271434489535361 0 -0.013162362197647264 0.003975111595575005 0 -0.013418818538377633 0.0043271434489535361 0 -0.013222398448511195 0.0047246778407292848 0 -0.013139914914888765 0.0046333016726804966 0 -0.013709373062076841 0.0052411220056050988 0 -0.013423152655635796 0.005538205976053933 0 -0.013721786782297079 0.0056516129653233728 0 -0.013709373062076841 0.0052411220056050988 0 -0.014166834509558624 0.0052510907721609185 0 -0.013721786782297079 0.0056516129653233728 0 -0.014390639209283362 0.0039269593382135594 0 -0.014811930738602439 0.0041587641312879715 0 -0.014091831698299247 0.0045331761336830229 0 -0.013829189793851495 0.00431519401200067 0 -0.014390639209283362 0.0039269593382135594 0 -0.014091831698299247 0.0045331761336830229 0 -0.013829189793851495 0.00431519401200067 0 -0.014059773764780374 0.0036807844228727766 0 -0.014390639209283362 0.0039269593382135594 0 -0.015583540851296091 0.0037276291279936292 0 -0.014811930738602439 0.0041587641312879715 0 -0.01497689693189431 0.003557671297866577 0 -0.014390639209283362 0.0039269593382135594 0 -0.014811930738602439 0.0041587641312879715 0 -0.01497689693189431 0.003557671297866577 0 -0.015261144637409033 0.004423852117421659 0 -0.015583540851296091 0.0037276291279936292 0 -0.014811930738602439 0.0041587641312879715 0 -0.015261144637409033 0.004423852117421659 0 -0.014811930738602439 0.0041587641312879715 0 -0.014596198693238589 0.0047699064582494262 0 -0.014811930738602439 0.0041587641312879715 0 -0.014596198693238589 0.0047699064582494262 0 -0.014091831698299247 0.0045331761336830229 0 -0.014855658365138212 0.0049112670374809632 0 -0.015261144637409033 0.004423852117421659 0 -0.014596198693238589 0.0047699064582494262 0 -0.014506076497500115 0.0047528328452481642 0 -0.014211989511984676 0.0050183659912153575 0 -0.014855658365138212 0.0049112670374809632 0 -0.014596198693238589 0.0047699064582494262 0 -0.014959813627135676 0.0047756089416814878 0 -0.014596198693238589 0.0047699064582494262 0 -0.013806448753934514 0.0052593444921946791 0 -0.013503139635801884 0.0054512114779179605 0 -0.014596198693238589 0.0047699064582494262 0 -0.013806448753934514 0.0052593444921946791 0 -0.013870700239502392 0.0050233519452955039 0 -0.013806448753934514 0.0052593444921946791 0 -0.013870700239502392 0.0050233519452955039 0 -0.013538776444495991 0.005298923765913204 0 -0.014596198693238589 0.0047699064582494262 0 -0.013870700239502392 0.0050233519452955039 0 -0.014091831698299247 0.0045331761336830229 0 -0.013829189793851495 0.00431519401200067 0 -0.014091831698299247 0.0045331761336830229 0 -0.013542277378302678 0.0050000593072492905 0 -0.013870700239502392 0.0050233519452955039 0 -0.014091831698299247 0.0045331761336830229 0 -0.013542277378302678 0.0050000593072492905 0 -0.013870700239502392 0.0050233519452955039 0 -0.013542277378302678 0.0050000593072492905 0 -0.013538776444495991 0.005298923765913204 0 -0.013542277378302678 0.0050000593072492905 0 -0.013538776444495991 0.005298923765913204 0 -0.01335057218508756 0.00535556256521026 0 -0.013806448753934514 0.0052593444921946791 0 -0.013538776444495991 0.005298923765913204 0 -0.0133774216806505 0.0054506629988324059 0 -0.013538776444495991 0.005298923765913204 0 -0.013330919071357347 0.0054243745187019261 0 -0.0133774216806505 0.0054506629988324059 0 -0.013330919071357347 0.0054243745187019261 0 -0.0133774216806505 0.0054506629988324059 0 -0.013004786600834459 0.0054430784805182151 0 -0.013330919071357347 0.0054243745187019261 0 -0.01335057218508756 0.00535556256521026 0 -0.013268545461191406 0.0053961693051332027 0 -0.013538776444495991 0.005298923765913204 0 -0.013330919071357347 0.0054243745187019261 0 -0.01335057218508756 0.00535556256521026 0 -0.013503139635801884 0.0054512114779179605 0 -0.0133774216806505 0.0054506629988324059 0 -0.012921937629661163 0.0055240976601905589 0 -0.013806448753934514 0.0052593444921946791 0 -0.013503139635801884 0.0054512114779179605 0 -0.0133774216806505 0.0054506629988324059 0 -0.0133774216806505 0.0054506629988324059 0 -0.012921937629661163 0.0055240976601905589 0 -0.013004786600834459 0.0054430784805182151 0 -0.012425029155050261 0.0055968734079713976 0 -0.013503139635801884 0.0054512114779179605 0 -0.012921937629661163 0.0055240976601905589 0 -0.012921937629661163 0.0055240976601905589 0 -0.012288955719064803 0.0054332341425655691 0 -0.013004786600834459 0.0054430784805182151 0 -0.012425029155050261 0.0055968734079713976 0 -0.012921937629661163 0.0055240976601905589 0 -0.012288955719064803 0.0054332341425655691 0 -0.013004786600834459 0.0054430784805182151 0 -0.012224759573014745 0.005248509513179362 0 -0.012850491393665677 0.0052016871016258024 0 -0.011557137034040951 0.0052459676295996327 0 -0.012288955719064803 0.0054332341425655691 0 -0.012224759573014745 0.005248509513179362 0 -0.012288955719064803 0.0054332341425655691 0 -0.013004786600834459 0.0054430784805182151 0 -0.012224759573014745 0.005248509513179362 0 -0.013004786600834459 0.0054430784805182151 0 -0.013268545461191406 0.0053961693051332027 0 -0.012850491393665677 0.0052016871016258024 0 -0.013330919071357347 0.0054243745187019261 0 -0.013004786600834459 0.0054430784805182151 0 -0.013268545461191406 0.0053961693051332027 0 -0.013268545461191406 0.0053961693051332027 0 -0.012850491393665677 0.0052016871016258024 0 -0.01328614465311362 0.0051942149358963153 0 -0.0094204276394943259 0.0022973635979196732 0 -0.0092893834347019151 0.0024787633771349332 0 -0.0051904750303164784 -0.00057236681456732 0 -0.0055511439191521334 -0.00061070261947934767 0 -0.0052917552658662877 -0.00044862915057049458 0 -0.013268545461191406 0.0053961693051332027 0 -0.01328614465311362 0.0051942149358963153 0 -0.013254225165701438 0.0053961813350099546 0 -0.01335057218508756 0.00535556256521026 0 -0.013268545461191406 0.0053961693051332027 0 -0.013254225165701438 0.0053961813350099546 0 -0.0052917552658662877 -0.00044862915057049458 0 -0.0053241209549841689 -0.00039595645894459602 0 -0.0053285729589811178 -0.00023665289987575861 0 -0.0051904750303164784 -0.00057236681456732 0 -0.0052917552658662877 -0.00044862915057049458 0 -0.0053241209549841689 -0.00039595645894459602 0 -0.0051688376561434017 -0.0005730964669940097 0 -0.0048908572582838337 -0.00061265811625261591 0 -0.0051904750303164784 -0.00057236681456732 0 -0.0053843861334655387 -0.00043162555153066612 0 -0.0053241209549841689 -0.00039595645894459602 0 -0.0053843861334655387 -0.00043162555153066612 0 -0.0054091113654680459 -0.0003056473872666668 0 -0.0054174359549777522 -0.00023396060418155024 0 -0.0048908572582838337 -0.00061265811625261591 0 -0.0046081595972200032 -0.00049783982903367789 0 -0.004051299717031949 -0.00046995672101091411 0 -0.0043951115492100673 -0.00082243838176633338 0 -0.0037873035521746403 -0.00078199030375391252 0 -0.0054091113654680459 -0.0003056473872666668 0 -0.0054174359549777522 -0.00023396060418155024 0 -0.0054269139472817932 -0.00023502295451323409 0 -0.0053843861334655387 -0.00043162555153066612 0 -0.0054091113654680459 -0.0003056473872666668 0 -0.0053241209549841689 -0.00039595645894459602 0 -0.0054091113654680459 -0.0003056473872666668 0 -0.0053241209549841689 -0.00039595645894459602 0 -0.0053285729589811178 -0.00023665289987575861 0 -0.0054091113654680459 -0.0003056473872666668 0 -0.0053285729589811178 -0.00023665289987575861 0 -0.0055067203051783996 -0.00017533189510688564 0 -0.0055067203051783996 -0.00017533189510688564 0 -0.0054269139472817932 -0.00023502295451323409 0 -0.0053988463769197807 -0.00023643235061409292 0 -0.0054091113654680459 -0.0003056473872666668 0 -0.0055067203051783996 -0.00017533189510688564 0 -0.0054269139472817932 -0.00023502295451323409 0 -0.012937846725860512 0.0053365045968861366 0 -0.01245697292883069 0.0050503396277494688 0 -0.012702564876508813 0.0050380156790727467 0 -0.0090742375557267135 0.0025082820973581789 0 -0.0093467449368480459 0.002778047589896773 0 -0.0055067203051783996 -0.00017533189510688564 0 -0.0059221770272071574 0.00019941022596945437 0 -0.0056600835552384314 0.00022645612582996856 0 -0.0053285729589811178 -0.00023665289987575861 0 -0.0055067203051783996 -0.00017533189510688564 0 -0.0056600835552384314 0.00022645612582996856 0 -0.0055439889314787489 -0.00015398488051704629 0 -0.0056190925818052863 -0.00010876933762565895 0 -0.012937846725860512 0.0053365045968861366 0 -0.013109995720105558 0.0051916953414262619 0 -0.01294379881339134 0.0050442494080251976 0 -0.012937846725860512 0.0053365045968861366 0 -0.01294379881339134 0.0050442494080251976 0 -0.012702564876508813 0.0050380156790727467 0 -0.013109995720105558 0.0051916953414262619 0 -0.01328082749404649 0.0051921549282484859 0 -0.01324241266916441 0.0049391095812111718 0 -0.012937846725860512 0.0053365045968861366 0 -0.013109995720105558 0.0051916953414262619 0 -0.013207300146568096 0.0053071058723337698 0 -0.013109995720105558 0.0051916953414262619 0 -0.01328082749404649 0.0051921549282484859 0 -0.013207300146568096 0.0053071058723337698 0 -0.013542277378302678 0.0050000593072492905 0 -0.01335057218508756 0.00535556256521026 0 -0.01328082749404649 0.0051921549282484859 0 -0.01335057218508756 0.00535556256521026 0 -0.01328082749404649 0.0051921549282484859 0 -0.013207300146568096 0.0053071058723337698 0 -0.01335057218508756 0.00535556256521026 0 -0.013254225165701438 0.0053961813350099546 0 -0.013207300146568096 0.0053071058723337698 0 -0.0092893834347019151 0.0024787633771349332 0 -0.0090742375557267135 0.0025082820973581789 0 -0.013254225165701438 0.0053961813350099546 0 -0.012937846725860512 0.0053365045968861366 0 -0.013207300146568096 0.0053071058723337698 0 -0.004005198545152305 -0.00043280968282253911 0 -0.0036213240022265007 -0.00047834834307782832 0 -0.0044802796683554944 -0.00022382847007905476 0 -0.0040586323684210614 -0.00040026948783849245 0 -0.0047538617764388428 -0.00023504023464599241 0 -0.0044802796683554944 -0.00022382847007905476 0 -0.0040586323684210614 -0.00040026948783849245 0 -0.004005198545152305 -0.00043280968282253911 0 -0.0044802796683554944 -0.00022382847007905476 0 -0.0040586323684210614 -0.00040026948783849245 0 -0.004005198545152305 -0.00043280968282253911 0 -0.0037022327557049901 -0.00054330074426087345 0 -0.0035715818375672971 -0.00051010728163449013 0 -0.0040586323684210614 -0.00040026948783849245 0 -0.0037022327557049901 -0.00054330074426087345 0 -0.0037022327557049901 -0.00054330074426087345 0 -0.0036213240022265007 -0.00047834834307782832 0 -0.0035922691440661795 -0.00057861933918920737 0 -0.004005198545152305 -0.00043280968282253911 0 -0.0037022327557049901 -0.00054330074426087345 0 -0.0036213240022265007 -0.00047834834307782832 0 -0.0052459517666514147 -6.7158735145137673e-05 0 -0.0049389339517061613 -0.00027019935883988992 0 -0.0044802796683554944 -0.00022382847007905476 0 -0.0044454000174768398 -0.00029389593101203333 0 -0.0044645962552731277 -0.00022983298451113764 0 -0.0052459517666514147 -6.7158735145137673e-05 0 -0.0054174359549777522 -0.00023396060418155024 0 -0.005379107474427121 -0.00020553235260547761 0 -0.0044454000174768398 -0.00029389593101203333 0 -0.0046081595972200032 -0.00049783982903367789 0 -0.0036213240022265007 -0.00047834834307782832 0 -0.0035922691440661795 -0.00057861933918920737 0 -0.0037873035521746403 -0.00078199030375391252 0 -0.0036733887933514107 -0.00054917406846432789 0 -0.0035922691440661795 -0.00057861933918920737 0 -0.0037873035521746403 -0.00078199030375391252 0 -0.0054174359549777522 -0.00023396060418155024 0 -0.0054269139472817932 -0.00023502295451323409 0 -0.005379107474427121 -0.00020553235260547761 0 -0.005379107474427121 -0.00020553235260547761 0 -0.0053988463769197807 -0.00023643235061409292 0 -0.0052931713010889022 -0.00028942658750540166 0 -0.0054269139472817932 -0.00023502295451323409 0 -0.005379107474427121 -0.00020553235260547761 0 -0.0053988463769197807 -0.00023643235061409292 0 -0.0055067203051783996 -0.00017533189510688564 0 -0.0053659219905058623 -0.00027634900705227083 0 -0.0054102291098111115 -0.00033693665435509233 0 -0.0053659219905058623 -0.00027634900705227083 0 -0.0052798145052550434 -0.0003071841389789611 0 -0.0054102291098111115 -0.00033693665435509233 0 -0.0055067203051783996 -0.00017533189510688564 0 -0.0053988463769197807 -0.00023643235061409292 0 -0.0053659219905058623 -0.00027634900705227083 0 -0.0053988463769197807 -0.00023643235061409292 0 -0.0053659219905058623 -0.00027634900705227083 0 -0.0052931713010889022 -0.00028942658750540166 0 -0.0053659219905058623 -0.00027634900705227083 0 -0.0052798145052550434 -0.0003071841389789611 0 -0.0052931713010889022 -0.00028942658750540166 0 -0.0052798145052550434 -0.0003071841389789611 0 -0.0052931713010889022 -0.00028942658750540166 0 -0.0053183250836626424 -0.00029856782363293856 0 -0.0052459517666514147 -6.7158735145137673e-05 0 -0.0052931713010889022 -0.00028942658750540166 0 -0.0051727439672891824 -0.0002651683445874426 0 -0.0052459517666514147 -6.7158735145137673e-05 0 -0.005379107474427121 -0.00020553235260547761 0 -0.0052931713010889022 -0.00028942658750540166 0 -0.0052931713010889022 -0.00028942658750540166 0 -0.0051727439672891824 -0.0002651683445874426 0 -0.0052117599161390499 -0.00030456368512407292 0 -0.0052459517666514147 -6.7158735145137673e-05 0 -0.0049389339517061613 -0.00027019935883988992 0 -0.0051727439672891824 -0.0002651683445874426 0 -0.0049389339517061613 -0.00027019935883988992 0 -0.0051727439672891824 -0.0002651683445874426 0 -0.0052117599161390499 -0.00030456368512407292 0 -0.0052931713010889022 -0.00028942658750540166 0 -0.0053183250836626424 -0.00029856782363293856 0 -0.0052117599161390499 -0.00030456368512407292 0 -0.0053183250836626424 -0.00029856782363293856 0 -0.0052117599161390499 -0.00030456368512407292 0 -0.0053980965307004044 -0.0002945240411161245 0 -0.0047538617764388428 -0.00023504023464599241 0 -0.0055928865395130879 -0.00025897808715985012 0 -0.0053980965307004044 -0.0002945240411161245 0 -0.0057527439470951361 0.00033257637204227612 0 -0.0061295013170042162 0.00031614333240058369 0 -0.0052117599161390499 -0.00030456368512407292 0 -0.0047538617764388428 -0.00023504023464599241 0 -0.0053980965307004044 -0.0002945240411161245 0 -0.0049389339517061613 -0.00027019935883988992 0 -0.0052117599161390499 -0.00030456368512407292 0 -0.0047538617764388428 -0.00023504023464599241 0 -0.0049389339517061613 -0.00027019935883988992 0 -0.0047538617764388428 -0.00023504023464599241 0 -0.0044802796683554944 -0.00022382847007905476 0 -0.0061295013170042162 0.00031614333240058369 0 -0.0063269511832578776 0.00075084151675687918 0 -0.0055928865395130879 -0.00025897808715985012 0 -0.0057844084196753609 0.00020808558002081967 0 -0.006384413115965556 0.00073382504936515141 0 -0.0067085761383854194 0.00074161536393077402 0 -0.0067380806739208796 0.00086045801839459448 0 -0.006384413115965556 0.00073382504936515141 0 -0.0067085761383854194 0.00074161536393077402 0 -0.0066898248835755543 0.00074247155372939467 0 -0.006384413115965556 0.00073382504936515141 0 -0.0055928865395130879 -0.00025897808715985012 0 -0.0053980965307004044 -0.0002945240411161245 0 -0.0054854271877301597 -0.00010701497582389535 0 -0.0055928865395130879 -0.00025897808715985012 0 -0.0054854271877301597 -0.00010701497582389535 0 -0.0057844084196753609 0.00020808558002081967 0 -0.0053183250836626424 -0.00029856782363293856 0 -0.0053980965307004044 -0.0002945240411161245 0 -0.0054854271877301597 -0.00010701497582389535 0 -0.0054854271877301597 -0.00010701497582389535 0 -0.0055450551544790156 0.00022323260182034396 0 -0.0053573552954301936 5.6197027607689779e-05 0 -0.0054854271877301597 -0.00010701497582389535 0 -0.0057844084196753609 0.00020808558002081967 0 -0.0055450551544790156 0.00022323260182034396 0 -0.0057844084196753609 0.00020808558002081967 0 -0.0058557359816016367 0.00051982770909210984 0 -0.006384413115965556 0.00073382504936515141 0 -0.0057844084196753609 0.00020808558002081967 0 -0.0055450551544790156 0.00022323260182034396 0 -0.0058557359816016367 0.00051982770909210984 0 -0.0055450551544790156 0.00022323260182034396 0 -0.0053693796275779606 0.00045658384531176919 0 -0.0058557359816016367 0.00051982770909210984 0 -0.0055450551544790156 0.00022323260182034396 0 -0.0053693796275779606 0.00045658384531176919 0 -0.0053573552954301936 5.6197027607689779e-05 0 -0.0061383414730110187 0.00093951329818201207 0 -0.007730071416794845 0.0024415641828020541 0 -0.0062812689408232106 0.0011661745578890666 0 -0.0063193258791929838 0.0011643732446982242 0 -0.006379482498570347 0.0012718029664111946 0 -0.0058426939470938005 0.00079598747862693318 0 -0.0061023955702685252 0.00043262354176768782 0 -0.0063193258791929838 0.0011643732446982242 0 -0.006379482498570347 0.0012718029664111946 0 -0.0063860598879033866 0.001227775965820601 0 -0.0061023955702685252 0.00043262354176768782 0 -0.007730071416794845 0.0024415641828020541 0 -0.0053693796275779606 0.00045658384531176919 0 -0.0050977971519871428 -9.1829987836788227e-06 0 -0.0053573552954301936 5.6197027607689779e-05 0 -0.0052334162057200108 -0.00048040493099519872 0 -0.0061023955702685252 0.00043262354176768782 0 -0.0052798145052550434 -0.0003071841389789611 0 -0.0050977971519871428 -9.1829987836788227e-06 0 -0.0053069183983379623 -0.00016162820210280647 0 -0.0054854271877301597 -0.00010701497582389535 0 -0.0053573552954301936 5.6197027607689779e-05 0 -0.0053069183983379623 -0.00016162820210280647 0 -0.0052798145052550434 -0.0003071841389789611 0 -0.0053183250836626424 -0.00029856782363293856 0 -0.0053069183983379623 -0.00016162820210280647 0 -0.0053183250836626424 -0.00029856782363293856 0 -0.0054854271877301597 -0.00010701497582389535 0 -0.0053069183983379623 -0.00016162820210280647 0 -0.0050977971519871428 -9.1829987836788227e-06 0 -0.0053573552954301936 5.6197027607689779e-05 0 -0.0053069183983379623 -0.00016162820210280647 0 -0.007730071416794845 0.0024415641828020541 0 -0.0093467449368480459 0.002778047589896773 0 -0.0064602885745625432 0.00082960720503629686 0 -0.0064292875506395892 0.0010704231037807247 0 -0.0056600835552384314 0.00022645612582996856 0 -0.01192816753543648 0.0046183704671466227 0 -0.01245697292883069 0.0050503396277494688 0 -0.012440705218638402 0.00484030117592767 0 -0.0061023955702685252 0.00043262354176768782 0 -0.0056190925818052863 -0.00010876933762565895 0 -0.0064602885745625432 0.00082960720503629686 0 -0.0059221770272071574 0.00019941022596945437 0 -0.0056600835552384314 0.00022645612582996856 0 -0.0052798145052550434 -0.0003071841389789611 0 -0.005309190503359618 -0.00044026956611249154 0 -0.0054102291098111115 -0.00033693665435509233 0 -0.01192816753543648 0.0046183704671466227 0 -0.012177845427341282 0.0045058546665490895 0 -0.012373165929194019 0.0046584247281246617 0 -0.01192816753543648 0.0046183704671466227 0 -0.012440705218638402 0.00484030117592767 0 -0.012373165929194019 0.0046584247281246617 0 -0.012177845427341282 0.0045058546665490895 0 -0.012281812522028049 0.0043207529629639323 0 -0.012394692685293925 0.0045101530320338376 0 -0.012177845427341282 0.0045058546665490895 0 -0.012373165929194019 0.0046584247281246617 0 -0.012394692685293925 0.0045101530320338376 0 -0.012281812522028049 0.0043207529629639323 0 -0.01197891721169494 0.0040601987376899656 0 -0.012467009847182107 0.0038736111411182403 0 -0.007730071416794845 0.0024415641828020541 0 -0.010466038181884706 0.0033226816278380516 0 -0.012177845427341282 0.0045058546665490895 0 -0.012281812522028049 0.0043207529629639323 0 -0.011998078778144541 0.0040401455942541036 0 -0.01192816753543648 0.0046183704671466227 0 -0.012177845427341282 0.0045058546665490895 0 -0.011998078778144541 0.0040401455942541036 0 -0.012541465971234411 0.0046475082439653426 0 -0.010466038181884706 0.0033226816278380516 0 -0.01197891721169494 0.0040601987376899656 0 -0.012467009847182107 0.0038736111411182403 0 -0.012017425365556077 0.003508760330882983 0 -0.010466038181884706 0.0033226816278380516 0 -0.011979633546045336 0.0041248004399379468 0 -0.0063444624151170288 0.0010857712420925536 0 -0.0063016078632559111 0.0010854155073537766 0 -0.0062907362647113864 0.0010874606827103682 0 -0.01162589738001611 0.005512919068569465 0 -0.01044294335274743 0.0044096008458627068 0 -0.011827816097242153 0.0042486557999531485 0 -0.0063444624151170288 0.0010857712420925536 0 -0.0062907362647113864 0.0010874606827103682 0 -0.0062916159312242682 0.001180349224847685 0 -0.010466038181884706 0.0033226816278380516 0 -0.008111220022867972 0.002718437187815133 0 -0.0063016078632559111 0.0010854155073537766 0 -0.0063011067059947452 0.0011147884715095018 0 -0.0062129400976099194 0.00101875132251763 0 -0.0063193258791929838 0.0011643732446982242 0 -0.0063444624151170288 0.0010857712420925536 0 -0.0063011067059947452 0.0011147884715095018 0 -0.0063193258791929838 0.0011643732446982242 0 -0.0063735140531871598 0.0012149986590997994 0 -0.0063444624151170288 0.0010857712420925536 0 -0.0063444624151170288 0.0010857712420925536 0 -0.0063016078632559111 0.0010854155073537766 0 -0.0063011067059947452 0.0011147884715095018 0 -0.0062812689408232106 0.0011661745578890666 0 -0.0063193258791929838 0.0011643732446982242 0 -0.0063011067059947452 0.0011147884715095018 0 -0.0058426939470938005 0.00079598747862693318 0 -0.0061377588307830362 0.0010053466280844493 0 -0.0062812689408232106 0.0011661745578890666 0 -0.0063011067059947452 0.0011147884715095018 0 -0.0062129400976099194 0.00101875132251763 0 -0.0053693796275779606 0.00045658384531176919 0 -0.0058557359816016367 0.00051982770909210984 0 -0.0062129400976099194 0.00101875132251763 0 -0.0058557359816016367 0.00051982770909210984 0 -0.0062129400976099194 0.00101875132251763 0 -0.006384413115965556 0.00073382504936515141 0 -0.0063016078632559111 0.0010854155073537766 0 -0.0062129400976099194 0.00101875132251763 0 -0.0062907362647113864 0.0010874606827103682 0 -0.0062907362647113864 0.0010874606827103682 0 -0.0065229074592650267 0.0011426852756698429 0 -0.0062916159312242682 0.001180349224847685 0 -0.0062129400976099194 0.00101875132251763 0 -0.0062907362647113864 0.0010874606827103682 0 -0.0065229074592650267 0.0011426852756698429 0 -0.0067920393746687272 0.0011020136514417768 0 -0.0067380806739208796 0.00086045801839459448 0 -0.0065453803975307756 0.00098749548243878263 0 -0.0062129400976099194 0.00101875132251763 0 -0.0065229074592650267 0.0011426852756698429 0 -0.0065453803975307756 0.00098749548243878263 0 -0.0067920393746687272 0.0011020136514417768 0 -0.0065229074592650267 0.0011426852756698429 0 -0.0065453803975307756 0.00098749548243878263 0 -0.0067380806739208796 0.00086045801839459448 0 -0.0065453803975307756 0.00098749548243878263 0 -0.006384413115965556 0.00073382504936515141 0 -0.0062129400976099194 0.00101875132251763 0 -0.0065453803975307756 0.00098749548243878263 0 -0.006384413115965556 0.00073382504936515141 0 -0.01315645167189217 0.0046629948997248018 0 -0.013428574374177753 0.0045669718154609847 0 -0.01324241266916441 0.0049391095812111718 0 -0.01315645167189217 0.0046629948997248018 0 -0.012896044246036856 0.0045963615907947935 0 -0.013182481229498808 0.004328039211509295 0 -0.01315645167189217 0.0046629948997248018 0 -0.013428574374177753 0.0045669718154609847 0 -0.013182481229498808 0.004328039211509295 0 -0.013829189793851495 0.00431519401200067 0 -0.013542277378302678 0.0050000593072492905 0 -0.013428574374177753 0.0045669718154609847 0 -0.013542277378302678 0.0050000593072492905 0 -0.013428574374177753 0.0045669718154609847 0 -0.01324241266916441 0.0049391095812111718 0 -0.013542277378302678 0.0050000593072492905 0 -0.01328082749404649 0.0051921549282484859 0 -0.01324241266916441 0.0049391095812111718 0 -0.01324241266916441 0.0049391095812111718 0 -0.01294379881339134 0.0050442494080251976 0 -0.013000548964569267 0.0048270777978262659 0 -0.013109995720105558 0.0051916953414262619 0 -0.01324241266916441 0.0049391095812111718 0 -0.01294379881339134 0.0050442494080251976 0 -0.01315645167189217 0.0046629948997248018 0 -0.01324241266916441 0.0049391095812111718 0 -0.013000548964569267 0.0048270777978262659 0 -0.01294379881339134 0.0050442494080251976 0 -0.012702025105275492 0.0048184420536644236 0 -0.012702564876508813 0.0050380156790727467 0 -0.01294379881339134 0.0050442494080251976 0 -0.012702025105275492 0.0048184420536644236 0 -0.013000548964569267 0.0048270777978262659 0 -0.01245697292883069 0.0050503396277494688 0 -0.012702564876508813 0.0050380156790727467 0 -0.012440705218638402 0.00484030117592767 0 -0.012702025105275492 0.0048184420536644236 0 -0.012702564876508813 0.0050380156790727467 0 -0.012440705218638402 0.00484030117592767 0 -0.012702025105275492 0.0048184420536644236 0 -0.012440705218638402 0.00484030117592767 0 -0.012373165929194019 0.0046584247281246617 0 -0.012702025105275492 0.0048184420536644236 0 -0.012373165929194019 0.0046584247281246617 0 -0.012615419480372167 0.0045791922903647038 0 -0.012615419480372167 0.0045791922903647038 0 -0.012394692685293925 0.0045101530320338376 0 -0.012703366449418278 0.0042984930366078283 0 -0.012373165929194019 0.0046584247281246617 0 -0.012615419480372167 0.0045791922903647038 0 -0.012394692685293925 0.0045101530320338376 0 -0.01315645167189217 0.0046629948997248018 0 -0.013000548964569267 0.0048270777978262659 0 -0.012896044246036856 0.0045963615907947935 0 -0.012702025105275492 0.0048184420536644236 0 -0.013000548964569267 0.0048270777978262659 0 -0.012896044246036856 0.0045963615907947935 0 -0.012702025105275492 0.0048184420536644236 0 -0.012615419480372167 0.0045791922903647038 0 -0.012896044246036856 0.0045963615907947935 0 -0.012615419480372167 0.0045791922903647038 0 -0.012896044246036856 0.0045963615907947935 0 -0.012703366449418278 0.0042984930366078283 0 -0.012896044246036856 0.0045963615907947935 0 -0.012703366449418278 0.0042984930366078283 0 -0.013182481229498808 0.004328039211509295 0 -0.012703366449418278 0.0042984930366078283 0 -0.01311914916928628 0.0037708709581870509 0 -0.013182481229498808 0.004328039211509295 0 -0.012281812522028049 0.0043207529629639323 0 -0.012703366449418278 0.0042984930366078283 0 -0.012467009847182107 0.0038736111411182403 0 -0.012281812522028049 0.0043207529629639323 0 -0.012394692685293925 0.0045101530320338376 0 -0.012703366449418278 0.0042984930366078283 0 -0.012703366449418278 0.0042984930366078283 0 -0.012467009847182107 0.0038736111411182403 0 -0.01311914916928628 0.0037708709581870509 0 -0.01311914916928628 0.0037708709581870509 0 -0.013574131465108099 0.004037539450134805 0 -0.013657631814088326 0.0035538907080053103 0 -0.01311914916928628 0.0037708709581870509 0 -0.013182481229498808 0.004328039211509295 0 -0.013574131465108099 0.004037539450134805 0 -0.013428574374177753 0.0045669718154609847 0 -0.013182481229498808 0.004328039211509295 0 -0.013574131465108099 0.004037539450134805 0 -0.013829189793851495 0.00431519401200067 0 -0.013428574374177753 0.0045669718154609847 0 -0.013574131465108099 0.004037539450134805 0 -0.013829189793851495 0.00431519401200067 0 -0.014059773764780374 0.0036807844228727766 0 -0.013574131465108099 0.004037539450134805 0 -0.014059773764780374 0.0036807844228727766 0 -0.013574131465108099 0.004037539450134805 0 -0.013657631814088326 0.0035538907080053103 0 -0.014059773764780374 0.0036807844228727766 0 -0.014101765842571393 0.0030262268117434475 0 -0.013657631814088326 0.0035538907080053103 0 -0.013379339335649275 0.0032081114315872863 0 -0.013076848681490522 0.0027505073309049316 0 -0.013607821289483464 0.0026600207912734547 0 -0.014101765842571393 0.0030262268117434475 0 -0.013379339335649275 0.0032081114315872863 0 -0.013607821289483464 0.0026600207912734547 0 -0.014101765842571393 0.0030262268117434475 0 -0.013379339335649275 0.0032081114315872863 0 -0.013657631814088326 0.0035538907080053103 0 -0.01311914916928628 0.0037708709581870509 0 -0.013379339335649275 0.0032081114315872863 0 -0.013657631814088326 0.0035538907080053103 0 -0.012467009847182107 0.0038736111411182403 0 -0.01311914916928628 0.0037708709581870509 0 -0.012662861674928883 0.0032394405090222377 0 -0.01311914916928628 0.0037708709581870509 0 -0.013379339335649275 0.0032081114315872863 0 -0.012662861674928883 0.0032394405090222377 0 -0.012467009847182107 0.0038736111411182403 0 -0.012662861674928883 0.0032394405090222377 0 -0.012017425365556077 0.003508760330882983 0 -0.012662861674928883 0.0032394405090222377 0 -0.012564172559899979 0.0023714583057320216 0 -0.012042191631790815 0.0028714302070803927 0 -0.012662861674928883 0.0032394405090222377 0 -0.013076848681490522 0.0027505073309049316 0 -0.012564172559899979 0.0023714583057320216 0 -0.013379339335649275 0.0032081114315872863 0 -0.012662861674928883 0.0032394405090222377 0 -0.013076848681490522 0.0027505073309049316 0 -0.013076848681490522 0.0027505073309049316 0 -0.012564172559899979 0.0023714583057320216 0 -0.013187178760921361 0.0020244502681191368 0 -0.013076848681490522 0.0027505073309049316 0 -0.013187178760921361 0.0020244502681191368 0 -0.013607821289483464 0.0026600207912734547 0 -0.012564172559899979 0.0023714583057320216 0 -0.01252619634046798 0.0016295312433735854 0 -0.012032071795689709 0.0018803847275496259 0 -0.012564172559899979 0.0023714583057320216 0 -0.01252619634046798 0.0016295312433735854 0 -0.013187178760921361 0.0020244502681191368 0 -0.01252619634046798 0.0016295312433735854 0 -0.013187178760921361 0.0020244502681191368 0 -0.012964795748725506 0.0013336831641803126 0 -0.013187178760921361 0.0020244502681191368 0 -0.013527460736166116 0.0013012558464739359 0 -0.012964795748725506 0.0013336831641803126 0 -0.014231870137170356 0.0021097607866383278 0 -0.014173096264483662 0.0014821072300315926 0 -0.013187178760921361 0.0020244502681191368 0 -0.014182239364973388 0.0021148711738354421 0 -0.013527460736166116 0.0013012558464739359 0 -0.014841067246599855 0.0018702413292020887 0 -0.014182239364973388 0.0021148711738354421 0 -0.014793272030837665 0.0015167595902249502 0 -0.014841067246599855 0.0018702413292020887 0 -0.014182239364973388 0.0021148711738354421 0 -0.014798019113082001 0.0024947373936843095 0 -0.014101765842571393 0.0030262268117434475 0 -0.014182239364973388 0.0021148711738354421 0 -0.014798019113082001 0.0024947373936843095 0 -0.014101765842571393 0.0030262268117434475 0 -0.013607821289483464 0.0026600207912734547 0 -0.014182239364973388 0.0021148711738354421 0 -0.013187178760921361 0.0020244502681191368 0 -0.013607821289483464 0.0026600207912734547 0 -0.014182239364973388 0.0021148711738354421 0 -0.0075891262344776004 0.0014630221005095937 0 -0.0071626878749626701 0.0014112708133768158 0 -0.0067332247627696143 0.0014649798785807131 0 -0.0075317418374400659 0.0015302598731240463 0 -0.0079422887280622429 0.0023134552559109798 0 -0.0071626878749626701 0.0014112708133768158 0 -0.0067332247627696143 0.0014649798785807131 0 -0.0068941777498087156 0.0012984071711455724 0 -0.0065229074592650267 0.0011426852756698429 0 -0.0067332247627696143 0.0014649798785807131 0 -0.0068941777498087156 0.0012984071711455724 0 -0.0067920393746687272 0.0011020136514417768 0 -0.0065229074592650267 0.0011426852756698429 0 -0.0068941777498087156 0.0012984071711455724 0 -0.0065229074592650267 0.0011426852756698429 0 -0.0067332247627696143 0.0014649798785807131 0 -0.0062916159312242682 0.001180349224847685 0 -0.0079422887280622429 0.0023134552559109798 0 -0.008111220022867972 0.002718437187815133 0 -0.0090275122786727426 0.0032190204660857338 0 -0.010516833278568404 0.0028560334782181548 0 -0.0088197759386345175 0.0018562178929716231 0 -0.0090275122786727426 0.0032190204660857338 0 -0.010516833278568404 0.0028560334782181548 0 -0.01044294335274743 0.0044096008458627068 0 -0.010516833278568404 0.0028560334782181548 0 -0.01044294335274743 0.0044096008458627068 0 -0.011827816097242153 0.0042486557999531485 0 -0.012662861674928883 0.0032394405090222377 0 -0.012017425365556077 0.003508760330882983 0 -0.012042191631790815 0.0028714302070803927 0 -0.011979633546045336 0.0041248004399379468 0 -0.012038828904718012 0.0028525947165373286 0 -0.010516833278568404 0.0028560334782181548 0 -0.011827816097242153 0.0042486557999531485 0 -0.012042191631790815 0.0028714302070803927 0 -0.012042191631790815 0.0028714302070803927 0 -0.012032071795689709 0.0018803847275496259 0 -0.01116955386653401 0.0017580697961758255 0 -0.012564172559899979 0.0023714583057320216 0 -0.012042191631790815 0.0028714302070803927 0 -0.012032071795689709 0.0018803847275496259 0 -0.01252619634046798 0.0016295312433735854 0 -0.012032071795689709 0.0018803847275496259 0 -0.011950725004045985 0.0012452254788821449 0 -0.012032071795689709 0.0018803847275496259 0 -0.01116955386653401 0.0017580697961758255 0 -0.011950725004045985 0.0012452254788821449 0 -0.011166545651103948 0.0017470308355169418 0 -0.010661850720552287 0.00097307914881422457 0 -0.01116955386653401 0.0017580697961758255 0 -0.011698157328674373 0.0012362705492764022 0 -0.011950725004045985 0.0012452254788821449 0 -0.010516833278568404 0.0028560334782181548 0 -0.012042191631790815 0.0028714302070803927 0 -0.01116955386653401 0.0017580697961758255 0 -0.010516833278568404 0.0028560334782181548 0 -0.01116955386653401 0.0017580697961758255 0 -0.0095034295189324845 0.001344986302670935 0 -0.010516833278568404 0.0028560334782181548 0 -0.0095034295189324845 0.001344986302670935 0 -0.0088197759386345175 0.0018562178929716231 0 -0.01116955386653401 0.0017580697961758255 0 -0.0095034295189324845 0.001344986302670935 0 -0.0095177182691234506 0.00047417976134600097 0 -0.0095034295189324845 0.001344986302670935 0 -0.0086110525251262959 0.00077872195768909178 0 -0.0095177182691234506 0.00047417976134600097 0 -0.0095034295189324845 0.001344986302670935 0 -0.0086110525251262959 0.00077872195768909178 0 -0.0083760184440921925 0.001120597509822633 0 -0.0081452117484332454 0.00084567977592501142 0 -0.0086110525251262959 0.00077872195768909178 0 -0.0083760184440921925 0.001120597509822633 0 -0.0078632468286058219 0.0012240936922627696 0 -0.0083760184440921925 0.001120597509822633 0 -0.0088197759386345175 0.0018562178929716231 0 -0.0095034295189324845 0.001344986302670935 0 -0.0083760184440921925 0.001120597509822633 0 -0.0088197759386345175 0.0018562178929716231 0 -0.0075891262344776004 0.0014630221005095937 0 -0.0090275122786727426 0.0032190204660857338 0 -0.0088197759386345175 0.0018562178929716231 0 -0.0081610294441759566 0.00038531260582677342 0 -0.0082562208944658884 0.00038854617302796379 0 -0.0085010767921211566 0.00028093198355803861 0 -0.0082562208944658884 0.00038854617302796379 0 -0.0085010767921211566 0.00028093198355803861 0 -0.008261612428920536 0.00045460675158076516 0 -0.0085010767921211566 0.00028093198355803861 0 -0.008261612428920536 0.00045460675158076516 0 -0.0085788714109760744 0.00049594289888688125 0 -0.0085010767921211566 0.00028093198355803861 0 -0.0085788714109760744 0.00049594289888688125 0 -0.0095177182691234506 0.00047417976134600097 0 -0.0081940461751625251 0.0006435695421240597 0 -0.008261612428920536 0.00045460675158076516 0 -0.0085788714109760744 0.00049594289888688125 0 -0.0086110525251262959 0.00077872195768909178 0 -0.0085788714109760744 0.00049594289888688125 0 -0.0095177182691234506 0.00047417976134600097 0 -0.0081940461751625251 0.0006435695421240597 0 -0.0081452117484332454 0.00084567977592501142 0 -0.0086110525251262959 0.00077872195768909178 0 -0.0081940461751625251 0.0006435695421240597 0 -0.0086110525251262959 0.00077872195768909178 0 -0.0085788714109760744 0.00049594289888688125 0 -0.010216857248547904 0.00058311942588223508 0 -0.010661850720552287 0.00097307914881422457 0 -0.012020618681803825 0.00098383156703482763 0 -0.011698157328674373 0.0012362705492764022 0 -0.012033137999353228 0.00096976335882530823 0 -0.012020618681803825 0.00098383156703482763 0 -0.012033137999353228 0.00096976335882530823 0 -0.0122392285150346 0.00079170722217973425 0 -0.012033137999353228 0.00096976335882530823 0 -0.011950725004045985 0.0012452254788821449 0 -0.012271472551126249 0.0009286159227723951 0 -0.011698157328674373 0.0012362705492764022 0 -0.012033137999353228 0.00096976335882530823 0 -0.011950725004045985 0.0012452254788821449 0 -0.011950725004045985 0.0012452254788821449 0 -0.012271472551126249 0.0009286159227723951 0 -0.012554861151420181 0.0011200599034090204 0 -0.012271472551126249 0.0009286159227723951 0 -0.012174109397893458 0.00086164161102401124 0 -0.012438728033800436 0.00076005414215956724 0 -0.012293428316354474 0.00069662195159534617 0 -0.012174109397893458 0.00086164161102401124 0 -0.012438728033800436 0.00076005414215956724 0 -0.012293428316354474 0.00069662195159534617 0 -0.012174109397893458 0.00086164161102401124 0 -0.012227152084159011 0.0010781459438507189 0 -0.012033137999353228 0.00096976335882530823 0 -0.012174109397893458 0.00086164161102401124 0 -0.0122392285150346 0.00079170722217973425 0 -0.012033137999353228 0.00096976335882530823 0 -0.012271472551126249 0.0009286159227723951 0 -0.012174109397893458 0.00086164161102401124 0 -0.0122392285150346 0.00079170722217973425 0 -0.012227152084159011 0.0010781459438507189 0 -0.01272356626687811 0.0010288410779625205 0 -0.012174109397893458 0.00086164161102401124 0 -0.0122392285150346 0.00079170722217973425 0 -0.012227152084159011 0.0010781459438507189 0 -0.013344377211686624 0.0012638807761277547 0 -0.013331570541890804 0.0012394407195738032 0 -0.013578617561578856 0.0010705671923059421 0 -0.0143088151757491 0.0015085627239829484 0 -0.013310166686439452 0.0012313428325441485 0 -0.012227152084159011 0.0010781459438507189 0 -0.01272356626687811 0.0010288410779625205 0 -0.013310166686439452 0.0012313428325441485 0 -0.013287967051462681 0.0010513725285910892 0 -0.01272356626687811 0.0010288410779625205 0 -0.013310166686439452 0.0012313428325441485 0 -0.013287967051462681 0.0010513725285910892 0 -0.0122392285150346 0.00079170722217973425 0 -0.01272356626687811 0.0010288410779625205 0 -0.010337614745723648 0.00084420039849493467 0 -0.013057258363896145 0.00098329998870046848 0 -0.010337614745723648 0.00084420039849493467 0 -0.010216857248547904 0.00058311942588223508 0 -0.0081610294441759566 0.00038531260582677342 0 -0.0081106999010077067 0.00036877124368196057 0 -0.0085010767921211566 0.00028093198355803861 0 -0.011847972100695764 0.0006525766060454664 0 -0.012020618681803825 0.00098383156703482763 0 -0.0122392285150346 0.00079170722217973425 0 -0.014194721097112423 0.0010449334296602102 0 -0.014173096264483662 0.0014821072300315926 0 -0.015299918650818846 0.0010943247162859119 0 -0.015323076725686897 0.0011806976577423054 0 -0.014793272030837665 0.0015167595902249502 0 -0.015323076725686897 0.0011806976577423054 0 -0.015616333241102624 0.0010854764350262836 0 -0.015213742249215675 0.0014814745454541859 0 -0.014841067246599855 0.0018702413292020887 0 -0.014793272030837665 0.0015167595902249502 0 -0.015213742249215675 0.0014814745454541859 0 -0.015323076725686897 0.0011806976577423054 0 -0.014793272030837665 0.0015167595902249502 0 -0.015213742249215675 0.0014814745454541859 0 -0.013036692700026517 0.00088866224993534089 0 -0.013527460736166116 0.0013012558464739359 0 -0.012964795748725506 0.0013336831641803126 0 -0.01252619634046798 0.0016295312433735854 0 -0.012964795748725506 0.0013336831641803126 0 -0.012554861151420181 0.0011200599034090204 0 -0.01252619634046798 0.0016295312433735854 0 -0.011950725004045985 0.0012452254788821449 0 -0.012554861151420181 0.0011200599034090204 0 -0.012271472551126249 0.0009286159227723951 0 -0.012554861151420181 0.0011200599034090204 0 -0.012578433508681239 0.0008539851340411583 0 -0.013036692700026517 0.00088866224993534089 0 -0.012964795748725506 0.0013336831641803126 0 -0.012554861151420181 0.0011200599034090204 0 -0.013036692700026517 0.00088866224993534089 0 -0.012554861151420181 0.0011200599034090204 0 -0.012578433508681239 0.0008539851340411583 0 -0.013036692700026517 0.00088866224993534089 0 -0.012578433508681239 0.0008539851340411583 0 -0.012746950567891427 0.00070637415250142475 0 -0.014194721097112423 0.0010449334296602102 0 -0.014232320481994432 0.00077308561719663545 0 -0.012271472551126249 0.0009286159227723951 0 -0.012578433508681239 0.0008539851340411583 0 -0.012438728033800436 0.00076005414215956724 0 -0.012578433508681239 0.0008539851340411583 0 -0.012438728033800436 0.00076005414215956724 0 -0.012746950567891427 0.00070637415250142475 0 -0.01262124894075759 0.00052594419978359156 0 -0.012438728033800436 0.00076005414215956724 0 -0.012746950567891427 0.00070637415250142475 0 -0.014971944677236754 0.00075128878457478786 0 -0.014232320481994432 0.00077308561719663545 0 -0.016070275230886902 0.000764239927848803 0 -0.015797912702033769 0.000832618824532976 0 -0.015670171935264297 0.00087408722292329978 0 -0.016070275230886902 0.000764239927848803 0 -0.015997580716601841 0.00066510488447175269 0 -0.015670171935264297 0.00087408722292329978 0 -0.015299918650818846 0.0010943247162859119 0 -0.015323076725686897 0.0011806976577423054 0 -0.015670171935264297 0.00087408722292329978 0 -0.015299918650818846 0.0010943247162859119 0 -0.015797912702033769 0.000832618824532976 0 -0.015670171935264297 0.00087408722292329978 0 -0.015670171935264297 0.00087408722292329978 0 -0.015840834577584631 0.00080667459748958348 0 -0.015616333241102624 0.0010854764350262836 0 -0.015323076725686897 0.0011806976577423054 0 -0.015670171935264297 0.00087408722292329978 0 -0.015616333241102624 0.0010854764350262836 0 -0.015997580716601841 0.00066510488447175269 0 -0.015670171935264297 0.00087408722292329978 0 -0.015840834577584631 0.00080667459748958348 0 -0.016029223048950072 0.00056438147732855014 0 -0.015840834577584631 0.00080667459748958348 0 -0.016214678262932585 0.00077287849980494738 0 -0.015840834577584631 0.00080667459748958348 0 -0.016214678262932585 0.00077287849980494738 0 -0.0159568757856875 0.0010896008097050459 0 -0.015840834577584631 0.00080667459748958348 0 -0.0159568757856875 0.0010896008097050459 0 -0.015616333241102624 0.0010854764350262836 0 -0.015616333241102624 0.0010854764350262836 0 -0.015662266043955625 0.0014496270333222341 0 -0.015213742249215675 0.0014814745454541859 0 -0.0159568757856875 0.0010896008097050459 0 -0.015616333241102624 0.0010854764350262836 0 -0.015662266043955625 0.0014496270333222341 0 -0.0159568757856875 0.0010896008097050459 0 -0.015662266043955625 0.0014496270333222341 0 -0.016088947817682716 0.0014251806500409829 0 -0.015662266043955625 0.0014496270333222341 0 -0.015908096718245952 0.0018351650015733295 0 -0.015326381040157114 0.0019971489640242053 0 -0.015662266043955625 0.0014496270333222341 0 -0.015213742249215675 0.0014814745454541859 0 -0.015326381040157114 0.0019971489640242053 0 -0.016424814007112119 0.0016411086645407307 0 -0.015908096718245952 0.0018351650015733295 0 -0.016323051074483775 0.0020742808322918994 0 -0.015662266043955625 0.0014496270333222341 0 -0.015908096718245952 0.0018351650015733295 0 -0.016088947817682716 0.0014251806500409829 0 -0.016424814007112119 0.0016411086645407307 0 -0.015908096718245952 0.0018351650015733295 0 -0.016088947817682716 0.0014251806500409829 0 -0.016424814007112119 0.0016411086645407307 0 -0.016088947817682716 0.0014251806500409829 0 -0.016554346713770516 0.0011261321226774803 0 -0.016424814007112119 0.0016411086645407307 0 -0.016554346713770516 0.0011261321226774803 0 -0.017040742701628513 0.0013806111237110435 0 -0.0159568757856875 0.0010896008097050459 0 -0.016088947817682716 0.0014251806500409829 0 -0.016554346713770516 0.0011261321226774803 0 -0.016214678262932585 0.00077287849980494738 0 -0.0159568757856875 0.0010896008097050459 0 -0.016554346713770516 0.0011261321226774803 0 -0.016949925567561839 0.00061425799968640505 0 -0.016214678262932585 0.00077287849980494738 0 -0.016554346713770516 0.0011261321226774803 0 -0.016949925567561839 0.00061425799968640505 0 -0.016554346713770516 0.0011261321226774803 0 -0.017263962793154872 0.00094212225045846071 0 -0.017904030979226149 0.00053385313196420414 0 -0.016949925567561839 0.00061425799968640505 0 -0.017263962793154872 0.00094212225045846071 0 -0.017904030979226149 0.00053385313196420414 0 -0.017263962793154872 0.00094212225045846071 0 -0.017937203656398563 0.00069365822754877268 0 -0.017263962793154872 0.00094212225045846071 0 -0.017937203656398563 0.00069365822754877268 0 -0.017600897736755546 0.0010502725404605824 0 -0.017263962793154872 0.00094212225045846071 0 -0.017600897736755546 0.0010502725404605824 0 -0.017040742701628513 0.0013806111237110435 0 -0.016554346713770516 0.0011261321226774803 0 -0.017263962793154872 0.00094212225045846071 0 -0.017040742701628513 0.0013806111237110435 0 -0.018093925724218765 0.00077884261513580912 0 -0.018203373793529386 0.00065716091394753338 0 -0.018163443866437725 0.00059663486096520762 0 -0.018093925724218765 0.00077884261513580912 0 -0.017999433406635058 0.00081905583114209543 0 -0.018163443866437725 0.00059663486096520762 0 -0.017937203656398563 0.00069365822754877268 0 -0.017600897736755546 0.0010502725404605824 0 -0.017999433406635058 0.00081905583114209543 0 -0.017937203656398563 0.00069365822754877268 0 -0.017999433406635058 0.00081905583114209543 0 -0.018163443866437725 0.00059663486096520762 0 -0.017600897736755546 0.0010502725404605824 0 -0.017999433406635058 0.00081905583114209543 0 -0.017718235277804688 0.0014208301710129298 0 -0.017999433406635058 0.00081905583114209543 0 -0.017759137634890832 0.0010365620587557186 0 -0.017476607378615401 0.0011404804575774086 0 -0.017944253165229192 0.00084926242205009413 0 -0.017602609426625473 0.0012843251457338059 0 -0.017999433406635058 0.00081905583114209543 0 -0.017759137634890832 0.0010365620587557186 0 -0.01791813529893168 0.00093625454408747882 0 -0.017759137634890832 0.0010365620587557186 0 -0.01791813529893168 0.00093625454408747882 0 -0.017792371842629977 0.0011550431463521046 0 -0.018397443999582302 0.00095707269144260185 0 -0.018093925724218765 0.00077884261513580912 0 -0.01791813529893168 0.00093625454408747882 0 -0.017857933602712102 0.0011022706312198633 0 -0.01791813529893168 0.00093625454408747882 0 -0.017792371842629977 0.0011550431463521046 0 -0.018093925724218765 0.00077884261513580912 0 -0.017999433406635058 0.00081905583114209543 0 -0.01791813529893168 0.00093625454408747882 0 -0.017759137634890832 0.0010365620587557186 0 -0.017792371842629977 0.0011550431463521046 0 -0.017476607378615401 0.0011404804575774086 0 -0.017792371842629977 0.0011550431463521046 0 -0.017476607378615401 0.0011404804575774086 0 -0.017715277256717257 0.0013596752592124654 0 -0.017476607378615401 0.0011404804575774086 0 -0.017715277256717257 0.0013596752592124654 0 -0.017042018362849385 0.0017345187744249656 0 -0.017602609426625473 0.0012843251457338059 0 -0.017148559364089426 0.0019109620213802764 0 -0.017684580525152094 0.0012981485649798412 0 -0.017792371842629977 0.0011550431463521046 0 -0.017715277256717257 0.0013596752592124654 0 -0.017684580525152094 0.0012981485649798412 0 -0.017601391809285549 0.0012315465150947614 0 -0.017715277256717257 0.0013596752592124654 0 -0.017600897736755546 0.0010502725404605824 0 -0.017718235277804688 0.0014208301710129298 0 -0.017040742701628513 0.0013806111237110435 0 -0.017718235277804688 0.0014208301710129298 0 -0.017040742701628513 0.0013806111237110435 0 -0.016904493816528129 0.0018152716484406896 0 -0.017718235277804688 0.0014208301710129298 0 -0.016904493816528129 0.0018152716484406896 0 -0.017260547700321753 0.0020760151965898846 0 -0.016424814007112119 0.0016411086645407307 0 -0.016904493816528129 0.0018152716484406896 0 -0.016323051074483775 0.0020742808322918994 0 -0.016424814007112119 0.0016411086645407307 0 -0.017040742701628513 0.0013806111237110435 0 -0.016904493816528129 0.0018152716484406896 0 -0.016904493816528129 0.0018152716484406896 0 -0.016664703671941554 0.0023197836091623575 0 -0.016323051074483775 0.0020742808322918994 0 -0.016904493816528129 0.0018152716484406896 0 -0.016664703671941554 0.0023197836091623575 0 -0.017260547700321753 0.0020760151965898846 0 -0.016664703671941554 0.0023197836091623575 0 -0.017260547700321753 0.0020760151965898846 0 -0.01672866651725299 0.0026880992427537964 0 -0.017148559364089426 0.0019109620213802764 0 -0.016778917896820279 0.002639162917222822 0 -0.016664703671941554 0.0023197836091623575 0 -0.016323051074483775 0.0020742808322918994 0 -0.016082578412708357 0.0026496817276214532 0 -0.016664703671941554 0.0023197836091623575 0 -0.01672866651725299 0.0026880992427537964 0 -0.016082578412708357 0.0026496817276214532 0 -0.017712731703158586 0.0013489207645023577 0 -0.017631092137096141 0.0016455842365386518 0 -0.017601391809285549 0.0012315465150947614 0 -0.017715277256717257 0.0013596752592124654 0 -0.017673489249731666 0.0010668014449648519 0 -0.017715277256717257 0.0013596752592124654 0 -0.017042018362849385 0.0017345187744249656 0 -0.017648206142233315 0.0020834358975430323 0 -0.017503636190125543 0.0010984079429046585 0 -0.017601391809285549 0.0012315465150947614 0 -0.017673489249731666 0.0010668014449648519 0 -0.017042018362849385 0.0017345187744249656 0 -0.017216953696957978 0.0024429906855707117 0 -0.017648206142233315 0.0020834358975430323 0 -0.017042018362849385 0.0017345187744249656 0 -0.017216953696957978 0.0024429906855707117 0 -0.01672866651725299 0.0026880992427537964 0 -0.017631092137096141 0.0016455842365386518 0 -0.017734770809475872 0.0014338623568639897 0 -0.017483488014300563 0.00087547145644242103 0 -0.017673489249731666 0.0010668014449648519 0 -0.017572156503332985 0.00067789510966630357 0 -0.017216953696957978 0.0024429906855707117 0 -0.017648206142233315 0.0020834358975430323 0 -0.017491275561529556 0.0028272636978362749 0 -0.017483488014300563 0.00087547145644242103 0 -0.017503636190125543 0.0010984079429046585 0 -0.017673489249731666 0.0010668014449648519 0 -0.017499528661290807 0.0006504671884532948 0 -0.01743973072136289 0.00072446932962841912 0 -0.017572156503332985 0.00067789510966630357 0 -0.01743973072136289 0.00072446932962841912 0 -0.017483488014300563 0.00087547145644242103 0 -0.017572156503332985 0.00067789510966630357 0 -0.017216953696957978 0.0024429906855707117 0 -0.017491275561529556 0.0028272636978362749 0 -0.017026440716435689 0.0031486608112099536 0 -0.017216953696957978 0.0024429906855707117 0 -0.017026440716435689 0.0031486608112099536 0 -0.01672866651725299 0.0026880992427537964 0 -0.016752059891735397 0.0036619629396729223 0 -0.017318894937248221 0.0035717002239260376 0 -0.017026440716435689 0.0031486608112099536 0 -0.016752059891735397 0.0036619629396729223 0 -0.017026440716435689 0.0031486608112099536 0 -0.016443033694261561 0.0034092066439177196 0 -0.013667208877147443 0.0038554574561188693 0 -0.013505634894675017 0.0035273128661861917 0 -0.013162362197647264 0.003975111595575005 0 -0.017499528661290807 0.0006504671884532948 0 -0.017498529002836577 0.00067750713885630432 0 -0.017572156503332985 0.00067789510966630357 0 -0.015562387595511184 0.0019285906226541624 0 -0.01535174666266533 0.0035715566136612859 0 -0.01535174666266533 0.0035715566136612859 0 -0.017734770809475872 0.0014338623568639897 0 -0.017318894937248221 0.0035717002239260376 0 -0.017491275561529556 0.0028272636978362749 0 -0.017026440716435689 0.0031486608112099536 0 -0.01672866651725299 0.0026880992427537964 0 -0.016080090531626619 0.0031236526576616766 0 -0.016082578412708357 0.0026496817276214532 0 -0.01672866651725299 0.0026880992427537964 0 -0.016443033694261561 0.0034092066439177196 0 -0.016080090531626619 0.0031236526576616766 0 -0.017026440716435689 0.0031486608112099536 0 -0.01672866651725299 0.0026880992427537964 0 -0.016443033694261561 0.0034092066439177196 0 -0.015583540851296091 0.0037276291279936292 0 -0.016443033694261561 0.0034092066439177196 0 -0.016080090531626619 0.0031236526576616766 0 -0.015583540851296091 0.0037276291279936292 0 -0.016080090531626619 0.0031236526576616766 0 -0.015597851744905048 0.0031792237072844668 0 -0.015583540851296091 0.0037276291279936292 0 -0.015597851744905048 0.0031792237072844668 0 -0.01497689693189431 0.003557671297866577 0 -0.015597851744905048 0.0031792237072844668 0 -0.015329495730320311 0.0027901374048654179 0 -0.016082578412708357 0.0026496817276214532 0 -0.016080090531626619 0.0031236526576616766 0 -0.015597851744905048 0.0031792237072844668 0 -0.016082578412708357 0.0026496817276214532 0 -0.015597851744905048 0.0031792237072844668 0 -0.015329495730320311 0.0027901374048654179 0 -0.01497689693189431 0.003557671297866577 0 -0.014390639209283362 0.0039269593382135594 0 -0.01497689693189431 0.003557671297866577 0 -0.014630263455657105 0.0032549404204672222 0 -0.015329495730320311 0.0027901374048654179 0 -0.01497689693189431 0.003557671297866577 0 -0.014630263455657105 0.0032549404204672222 0 -0.014059773764780374 0.0036807844228727766 0 -0.014101765842571393 0.0030262268117434475 0 -0.014630263455657105 0.0032549404204672222 0 -0.014059773764780374 0.0036807844228727766 0 -0.014390639209283362 0.0039269593382135594 0 -0.014630263455657105 0.0032549404204672222 0 -0.014101765842571393 0.0030262268117434475 0 -0.014630263455657105 0.0032549404204672222 0 -0.014798019113082001 0.0024947373936843095 0 -0.015329495730320311 0.0027901374048654179 0 -0.014630263455657105 0.0032549404204672222 0 -0.014798019113082001 0.0024947373936843095 0 -0.015329495730320311 0.0027901374048654179 0 -0.014798019113082001 0.0024947373936843095 0 -0.015326381040157114 0.0019971489640242053 0 -0.014841067246599855 0.0018702413292020887 0 -0.014798019113082001 0.0024947373936843095 0 -0.015326381040157114 0.0019971489640242053 0 -0.014841067246599855 0.0018702413292020887 0 -0.015213742249215675 0.0014814745454541859 0 -0.015326381040157114 0.0019971489640242053 0 -0.015908096718245952 0.0018351650015733295 0 -0.016323051074483775 0.0020742808322918994 0 -0.015794425347326359 0.0022658032330637057 0 -0.015908096718245952 0.0018351650015733295 0 -0.015326381040157114 0.0019971489640242053 0 -0.015794425347326359 0.0022658032330637057 0 -0.016323051074483775 0.0020742808322918994 0 -0.016082578412708357 0.0026496817276214532 0 -0.015794425347326359 0.0022658032330637057 0 -0.015329495730320311 0.0027901374048654179 0 -0.015326381040157114 0.0019971489640242053 0 -0.015794425347326359 0.0022658032330637057 0 -0.015329495730320311 0.0027901374048654179 0 -0.016082578412708357 0.0026496817276214532 0 -0.015794425347326359 0.0022658032330637057 0 
</DataArray>
</PointData>
<CellData Scalars="region_id,cross_section_updated," Vectors="" Tensors="stress,">
<DataArray type="Float64" Name="region_id" format="ascii">
5 5 5 5 5 6 5 5 5 5 6 5 5 5 5 5 5 6 5 6 5 5 5 5 5 5 5 5 5 5 5 5 5 5 5 5 6 5 5 5 5 5 5 5 5 6 5 5 5 5 5 5 5 5 5 5 6 5 5 5 5 5 5 5 5 5 5 5 5 5 5 5 5 6 6 5 5 5 5 5 6 5 6 5 5 5 5 5 6 5 5 5 6 5 5 6 5 5 5 6 5 6 5 5 5 5 6 5 5 6 5 5 5 5 5 5 5 5 5 5 6 5 5 6 5 5 5 5 6 5 5 5 5 6 5 5 5 5 6 5 5 6 5 5 6 5 5 5 6 5 5 5 5 5 5 6 5 5 5 5 5 5 6 5 5 5 5 5 5 5 5 5 6 5 6 5 5 5 5 5 5 5 6 5 5 5 5 6 5 5 5 5 6 6 5 5 5 5 5 5 5 5 6 5 5 5 5 6 5 6 5 5 5 5 5 6 5 5 5 5 5 5 5 5 5 5 5 5 5 5 5 5 5 5 5 5 6 5 5 5 5 5 6 5 5 5 5 5 5 5 5 5 5 5 5 5 6 5 5 5 6 5 6 5 5 5 6 5 5 5 5 5 5 5 5 6 6 5 5 5 5 5 5 5 5 5 5 5 5 6 5 6 5 5 5 5 5 5 5 5 6 5 5 6 5 5 5 5 6 5 5 5 6 5 5 5 6 5 5 6 5 5 5 5 6 5 5 5 5 5 5 5 5 6 5 5 5 6 5 6 5 5 6 5 5 5 6 5 5 6 5 5 5 5 5 5 5 5 5 5 5 5 5 5 5 5 5 6 5 5 5 5 6 5 5 6 5 5 5 5 5 5 5 5 5 6 5 5 5 6 5 5 5 5 5 5 5 5 5 5 5 5 5 5 5 5 5 5 5 5 5 5 5 5 5 5 5 5 5 5 5 6 5 5 5 5 5 5 5 6 5 5 5 5 6 5 5 5 5 5 5 5 6 5 5 5 5 5 5 5 5 5 5 5 5 5 5 5 5 5 5 5 5 6 5 6 5 5 5 5 5 5 5 5 6 5 6 5 5 5 5 6 5 6 5 5 6 6 5 5 6 6 5 5 5 5 5 5 5 5 5 5 6 5 5 5 5 5 5 5 5 5 5 5 5 5 6 5 6 5 5 5 5 5 5 5 6 5 5 5 5 5 5 5 5 5 5 5 5 6 5 6 5 5 5 5 6 5 5 6 5 5 5 5 5 5 5 5 5 5 6 5 5 5 5 5 6 5 6 5 5 6 6 5 5 5 6 6 5 5 5 5 6 5 5 6 5 5 6 6 6 6 6 5 6 5 6 5 5 6 5 6 5 5 6 6 5 5 5 5 6 5 6 6 5 5 5 6 5 5 5 5 5 6 5 5 5 5 5 5 5 5 5 5 5 6 5 6 5 6 5 5 5 5 5 6 5 5 5 5 5 5 6 5 5 5 5 5 6 5 5 5 5 5 5 5 5 5 5 5 6 5 5 5 5 5 5 5 6 6 5 5 5 5 5 5 5 5 5 5 5 5 6 5 5 5 6 5 5 5 5 5 5 5 5 5 5 5 5 5 5 5 5 5 5 5 5 5 5 5 5 6 6 5 5 5 5 5 5 6 5 5 5 5 5 5 5 5 5 5 5 5 5 5 5 5 5 5 5 5 5 5 5 5 6 5 6 5 5 5 5 5 5 6 5 5 5 5 5 5 5 5 5 5 6 5 5 5 5 5 6 5 5 6 5 5 5 5 5 5 5 5 5 5 5 6 5 5 5 5 5 6 5 5 5 6 5 5 5 6 5 5 5 5 5 5 5 5 5 5 6 5 5 5 5 5 5 5 5 5 5 5 5 5 5 5 5 6 5 5 5 6 5 5 5 5 5 6 5 5 5 5 5 5 5 5 5 5 5 6 5 5 5 5 5 5 5 5 6 5 5 5 5 5 5 5 5 5 5 5 5 5 5 5 5 5 5 5 6 5 5 5 5 5 5 6 5 5 5 5 5 5 5 5 5 5 5 5 5 5 5 5 5 5 5 5 5 5 5 5 5 6 5 5 5 5 5 5 5 5 5 5 5 5 5 5 5 5 5 6 5 6 5 5 5 5 5 6 6 5 5 5 5 5 5 5 5 6 5 5 5 5 5 5 6 5 5 5 5 5 5 5 5 5 5 5 5 5 5 5 5 5 5 5 5 6 5 5 5 5 5 5 6 5 5 6 5 5 5 5 5 5 5 5 6 5 6 5 5 6 5 5 5 6 5 5 5 5 5 5 5 5 5 5 5 5 5 5 5 5 5 5 5 5 5 5 5 5 5 5 5 5 5 5 5 5 5 5 6 5 5 5 6 5 5 5 5 6 5 5 5 5 5 5 6 5 5 5 5 6 5 5 5 5 6 5 5 5 5 6 5 5 6 5 5 5 5 5 5 6 5 6 5 5 6 5 5 5 6 5 5 5 5 5 5 5 5 5 6 5 5 5 5 5 5 5 5 6 5 5 5 5 5 5 5 5 5 5 5 5 5 5 5 5 5 5 5 5 5 5 5 5 5 5 5 5 5 5 5 5 5 5 6 5 5 5 5 6 5 5 5 5 5 5 5 5 5 5 5 5 5 5 5 5 6 5 5 6 6 5 5 5 5 5 6 5 5 5 6 6 6 5 6 5 6 6 5 5 5 5 6 5 5 5 5 5 5 5 5 5 5 6 5 5 5 5 6 5 5 6 5 5 5 5 6 5 5 5 5 5 5 5 5 5 5 5 5 6 5 5 5 5 5 5 5 5 5 5 5 5 6 5 5 5 5 5 5 5 5 5 6 5 6 5 6 5 5 5 5 5 5 5 5 5 5 5 5 5 5 5 5 5 5 5 5 5 5 5 5 5 6 5 5 5 6 5 5 5 5 5 5 5 5 6 5 5 5 5 5 5 5 6 5 6 5 5 5 5 5 5 5 5 5 6 5 5 6 6 5 5 5 5 5 5 5 5 5 5 6 5 5 5 5 5 5 5 5 5 5 5 5 5 5 5 5 6 5 5 5 6 5 5 6 5 6 5 6 5 5 5 5 5 5 5 5 6 5 5 5 5 6 6 5 5 5 5 6 5 5 5 5 5 5 5 5 5 5 5 5 5 5 5 5 5 5 5 5 5 5 5 5 5 5 5 5 6 5 6 5 5 5 5 6 5 5 5 5 5 5 5 5 5 5 5 5 6 6 5 5 5 5 5 5 5 5 5 5 5 5 5 6 5 5 5 5 5 5 5 5 5 5 6 5 5 5 5 5 5 5 5 5 5 6 5 5 5 5 6 5 5 5 5 5 5 5 5 5 6 5 5 5 6 5 5 5 5 5 5 5 5 5 5 5 5 5 5 5 5 5 5 5 5 5 5 5 5 5 5 5 5 5 5 5 5 6 5 5 5 5 5 5 5 5 5 6 5 5 5 6 6 5 6 5 5 6 5 5 5 5 5 5 5 5 6 5 5 6 6 6 6 5 5 5 5 6 6 6 5 5 5 6 5 5 5 5 5 6 5 5 5 5 5 5 5 5 6 5 6 5 5 5 5 5 5 5 5 5 5 6 5 6 5 5 5 5 5 5 5 5 5 5 5 5 5 5 5 5 5 6 5 5 5 5 5 5 5 5 5 5 5 5 5 5 5 5 6 5 5 5 5 5 5 5 5 6 5 5 5 6 5 5 5 5 6 5 5 5 5 5 5 5 5 5 6 5 5 5 6 5 5 6 5 5 5 5 5 5 5 6 5 5 5 5 5 5 5 5 5 5 5 5 5 6 5 5 5 5 5 5 5 5 5 6 5 5 6 5 5 5 5 5 5 5 5 5 6 5 5 5 6 5 5 5 5 5 6 5 5 6 5 5 6 5 5 6 5 5 5 5 5 5 5 5 5 5 5 5 5 5 5 5 5 5 5 5 5 5 5 6 5 5 5 5 5 5 5 5 5 5 6 5 5 6 5 6 5 5 5 5 5 5 6 5 6 5 5 5 5 5 5 5 5 5 5 5 5 5 5 5 5 5 6 5 5 5 5 5 5 6 5 5 5 6 5 5 5 5 5 5 5 5 6 5 5 5 5 5 5 5 5 6 5 5 5 5 5 5 5 5 5 5 5 6 5 5 5 6 5 5 5 5 6 5 5 5 5 5 5 5 5 6 5 5 5 6 5 5 5 6 5 5 5 5 5 5 5 5 5 5 6 5 6 5 5 6 5 5 5 5 5 5 5 5 5 6 5 6 5 5 5 6 6 5 5 5 6 5 5 5 5 5 5 5 5 5 5 5 5 6 5 5 5 6 5 5 5 5 5 5 6 5 5 5 5 5 5 5 5 5 5 6 5 6 5 5 5 5 5 5 6 5 5 5 5 5 5 5 6 5 5 5 5 5 5 5 6 5 5 5 6 5 5 6 5 5 5 5 5 5 6 5 5 5 5 5 6 5 5 5 5 5 5 6 5 5 5 5 5 5 5 5 6 5 6 5 5 5 5 5 5 5 6 5 5 5 6 5 5 5 5 5 5 5 5 5 5 5 5 5 5 5 5 5 5 5 5 5 5 5 5 5 5 5 5 5 5 5 6 5 6 5 5 5 5 5 5 5 5 5 5 5 5 5 5 6 5 5 5 5 5 5 5 5 5 5 5 5 5 5 5 6 5 5 6 5 5 5 5 5 5 5 5 5 5 5 5 6 5 5 5 5 5 5 5 5 5 5 5 5 5 5 5 5 5 5 5 6 5 5 5 5 5 5 5 5 5 5 5 5 5 5 5 5 5 5 5 5 5 5 5 5 5 5 5 5 5 5 5 5 5 5 5 5 5 5 5 5 5 5 5 5 5 5 5 5 5 5 5 5 5 5 6 5 5 5 5 5 5 5 5 5 5 6 5 5 6 5 5 6 5 5 5 5 5 5 5 6 5 5 6 5 5 5 5 5 5 5 5 5 6 5 6 5 5 5 5 5 5 5 6 5 5 6 5 5 5 6 5 5 5 5 6 6 5 5 5 6 5 5 5 6 6 5 5 5 6 5 6 5 6 5 5 5 5 5 5 6 5 5 5 5 5 5 5 5 5 5 5 5 5 5 5 5 5 5 5 6 5 5 5 6 5 5 5 5 5 5 5 5 5 5 5 5 6 5 5 5 5 6 5 6 5 5 5 5 5 5 6 6 5 5 5 5 5 5 5 5 5 5 5 6 5 5 5 5 6 5 5 6 5 5 5 5 5 5 5 5 6 5 5 6 5 5 5 5 5 5 5 5 5 5 5 5 5 5 5 5 5 5 5 5 5 5 5 5 6 5 5 5 5 5 5 5 5 5 5 5 5 5 6 5 5 6 5 5 5 6 5 5 5 6 6 5 5 5 5 5 5 6 5 5 5 5 6 6 6 6 5 5 5 6 5 5 6 5 5 5 6 5 5 5 5 5 5 5 5 6 5 5 6 5 5 5 5 5 5 6 5 5 5 5 5 6 5 5 5 5 5 5 5 5 5 5 5 5 5 5 5 5 5 6 5 5 5 5 5 5 5 6 5 5 5 5 5 5 5 5 5 5 5 5 5 6 5 5 5 5 5 5 5 5 5 5 6 5 5 6 5 5 5 6 5 6 5 6 5 5 5 5 5 5 5 6 5 6 5 6 5 5 6 5 6 5 5 6 6 5 5 6 6 5 5 5 5 5 5 5 5 5 5 5 5 5 5 5 6 6 5 5 5 6 6 6 5 5 5 5 5 5 6 5 6 6 5 5 5 5 6 5 5 5 6 5 5 5 6 5 6 5 5 5 6 5 5 5 5 5 5 5 5 5 5 5 5 5 5 5 6 6 5 5 5 5 6 5 5 6 5 5 6 5 5 5 5 5 5 6 5 5 5 6 5 6 5 5 6 5 5 5 5 6 5 5 6 6 5 5 5 5 5 5 5 5 5 6 5 5 5 5 5 5 5 6 6 5 5 6 5 5 5 5 6 5 5 5 5 5 6 5 5 5 5 6 5 5 5 6 5 5 5 5 5 5 5 6 5 5 5 5 6 5 5 5 5 6 5 5 5 5 5 5 5 5 5 5 5 5 5 5 5 5 5 5 6 5 6 5 5 5 5 5 5 5 5 5 5 5 6 5 5 5 5 5 5 5 5 5 5 5 5 5 5 5 5 6 5 6 5 5 6 6 5 5 5 5 5 5 5 6 5 6 6 5 6 5 5 5 5 6 5 6 5 6 6 6 5 5 6 5 5 5 6 5 5 5 5 5 5 5 5 5 5 5 5 6 5 5 5 5 5 5 5 5 5 5 5 5 5 5 5 5 6 5 6 6 5 5 5 5 6 5 5 5 5 5 5 5 5 5 5 5 5 5 5 5 5 5 5 5 5 5 5 5 5 5 5 5 5 5 5 5 5 5 5 5 5 5 5 5 5 5 5 5 5 6 5 5 5 5 5 6 5 6 5 5 5 6 5 5 5 5 5 6 5 5 5 5 5 6 5 6 5 5 6 5 5 6 5 5 5 5 5 5 5 5 5 5 5 5 5 5 6 5 6 5 5 5 5 5 5 5 5 5 5 6 5 5 5 5 5 5 5 5 5 5 5 5 5 5 5 5 5 5 5 5 5 5 5 5 5 5 5 5 5 5 5 5 5 5 5 5 5 5 5 5 5 5 5 5 5 5 5 5 5 5 5 5 5 5 5 5 5 5 5 5 5 5 5 5 5 5 5 5 5 5 5 5 6 6 6 5 6 5 5 5 5 6 5 5 5 5 5 5 6 5 5 5 5 5 5 5 6 5 5 5 5 6 5 6 5 5 5 5 5 5 5 5 5 5 5 5 5 5 5 5 5 5 5 5 6 5 6 5 6 5 5 5 6 5 6 5 5 5 5 6 5 5 5 6 5 5 5 5 5 5 6 5 5 5 5 5 5 5 5 5 5 5 5 6 5 5 6 5 5 6 5 5 5 5 6 5 5 6 5 5 6 5 6 5 5 5 6 5 6 5 5 6 6 5 5 6 5 5 6 6 5 5 6 5 6 5 5 5 6 5 6 5 5 6 5 5 5 5 5 5 5 5 5 5 5 5 5 5 5 5 5 5 5 5 5 6 5 5 5 5 5 5 5 6 5 5 5 5 5 5 5 5 5 5 5 5 5 5 5 5 5 5 5 5 5 6 5 5 6 5 5 5 5 5 5 5 5 6 5 5 5 5 6 6 5 5 6 5 6 5 5 5 5 6 5 5 5 6 5 5 5 5 6 5 5 5 5 5 6 6 5 6 6 5 5 6 5 6 5 5 5 5 5 6 5 5 5 5 5 6 5 6 5 6 5 5 6 5 6 5 5 5 5 6 5 5 5 5 5 6 5 6 5 5 5 5 5 5 5 5 5 5 5 6 5 6 5 5 5 5 5 5 5 5 5 6 5 5 5 5 5 6 5 5 5 5 6 5 5 6 6 5 5 6 5 5 5 5 5 5 5 5 5 5 5 6 5 5 5 5 5 5 5 5 5 5 5 5 6 5 5 5 5 5 6 5 5 5 5 5 5 5 6 5 5 5 5 5 5 5 5 6 5 5 5 5 6 5 5 5 5 5 5 6 5 5 5 5 6 5 5 5 6 6 6 5 5 5 5 5 5 5 5 5 5 6 5 6 5 5 6 5 5 5 5 5 5 5 6 5 5 6 5 6 5 5 5 5 5 5 5 6 5 5 5 6 5 5 5 5 5 5 5 5 5 5 5 5 6 5 5 5 5 5 5 5 5 5 5 5 5 5 5 5 5 5 5 5 5 5 5 5 5 5 5 5 6 6 5 5 6 5 5 5 5 5 6 5 5 5 6 5 5 5 5 5 5 5 5 5 6 5 5 5 5 5 5 5 5 5 5 5 5 5 5 6 5 5 5 5 5 5 5 5 5 5 5 5 6 5 5 5 5 5 5 5 6 5 5 5 5 5 5 5 5 5 5 5 5 5 5 5 5 5 5 5 5 5 5 5 5 5 5 5 5 5 5 5 5 5 5 5 5 5 5 5 5 5 5 5 5 5 5 5 5 5 5 6 5 5 5 6 5 6 5 5 5 5 5 5 5 5 6 5 5 5 5 5 5 5 5 6 6 5 5 5 5 5 5 5 5 5 5 6 6 6 5 5 5 6 5 5 5 5 6 5 5 5 5 5 5 5 5 5 5 5 5 6 5 5 5 5 5 5 5 5 6 6 5 5 6 5 5 5 5 5 5 5 5 5 5 5 5 5 6 5 5 5 5 5 6 5 5 5 5 6 5 5 5 5 6 5 5 6 5 5 5 6 5 5 5 5 5 5 5 5 6 5 5 5 6 5 5 5 6 6 5 5 6 5 5 6 5 5 6 5 6 5 5 5 5 5 5 5 5 5 5 5 5 6 5 5 5 5 5 5 5 5 6 5 5 6 5 5 5 5 6 5 5 5 5 5 5 5 5 5 6 5 5 5 5 5 5 5 5 6 5 5 5 6 5 5 5 6 5 5 5 6 5 5 5 5 5 5 5 5 5 5 5 6 5 5 5 6 5 5 5 5 5 5 5 6 5 5 5 5 5 6 5 5 5 6 5 5 5 5 5 5 5 5 5 5 5 5 6 5 5 6 5 6 5 5 5 5 5 5 5 5 5 5 6 6 5 5 5 5 5 6 5 6 6 5 6 5 6 5 5 5 5 5 5 5 5 5 5 5 5 5 5 5 5 5 5 5 5 5 5 6 5 5 5 5 5 5 5 5 6 5 5 5 5 6 5 5 5 5 5 5 5 5 5 6 5 6 5 5 5 5 5 5 5 5 5 5 5 5 6 5 5 5 5 5 5 5 5 5 6 5 6 5 5 6 5 5 6 5 5 6 5 5 5 5 6 5 5 5 5 5 5 5 5 5 5 5 5 5 5 5 5 5 5 5 5 5 6 5 5 6 5 5 6 6 5 5 5 5 6 5 5 6 5 5 5 5 5 5 5 6 5 5 5 5 5 5 6 5 5 5 6 5 6 6 5 5 5 5 5 5 5 6 5 5 5 5 5 5 5 6 5 5 5 5 5 5 5 5 5 5 5 5 5 5 5 5 6 5 5 5 5 6 5 5 5 5 5 5 5 5 5 5 5 5 5 5 5 5 5 5 6 6 6 5 6 5 6 5 5 5 5 6 5 5 5 5 5 5 5 6 5 5 5 5 5 5 5 6 5 5 6 5 5 5 5 5 5 5 5 6 5 5 5 6 5 5 5 5 5 6 5 5 6 5 5 5 5 6 5 5 6 5 6 5 5 5 5 5 5 5 5 5 5 5 5 6 5 5 5 5 5 6 5 5 5 5 5 5 5 6 5 5 5 6 5 5 5 5 6 5 5 5 6 5 5 5 5 5 6 5 5 5 5 5 5 5 5 5 5 5 5 6 5 5 5 5 5 5 6 5 5 6 5 6 5 5 6 5 5 5 5 5 5 5 5 5 5 5 5 5 5 6 5 5 6 5 6 5 5 5 5 5 6 5 5 5 5 5 5 5 5 5 5 5 5 5 5 5 5 5 5 5 5 5 5 6 6 5 5 5 5 5 5 6 5 5 6 5 5 5 5 6 5 6 5 6 6 5 5 5 5 5 6 5 5 6 5 5 5 5 5 6 5 6 5 5 6 5 6 5 5 5 5 5 5 5 5 5 5 5 5 5 5 5 5 5 5 5 5 5 5 5 5 5 5 5 5 5 5 5 5 5 5 5 5 5 6 5 6 5 6 5 5 5 6 5 5 5 5 5 5 6 5 5 5 5 5 5 5 5 5 5 5 5 5 5 5 5 5 5 5 5 6 5 5 5 5 5 5 5 5 5 5 5 5 5 6 6 5 5 5 5 5 5 5 5 5 5 5 6 5 5 5 6 5 5 5 5 5 5 5 5 5 5 5 5 5 5 5 5 5 5 5 6 5 6 5 5 5 5 5 5 5 5 5 5 5 5 5 6 5 5 5 5 5 5 5 5 5 5 6 5 5 6 5 5 5 5 5 5 5 5 5 5 5 5 5 5 5 5 5 5 5 5 5 5 5 5 6 5 5 5 5 5 5 5 5 5 5 5 5 5 5 5 5 5 5 5 5 5 5 5 5 5 6 5 5 5 5 6 5 5 5 5 5 5 6 5 5 5 5 5 5 5 5 5 5 6 5 5 5 5 5 6 5 5 6 5 5 5 5 5 5 5 5 5 5 5 5 5 5 6 5 5 5 5 6 5 6 5 5 6 6 5 5 6 5 5 6 5 5 5 5 5 5 5 5 5 5 5 5 5 5 5 5 6 5 5 5 5 6 5 5 5 6 5 5 5 6 5 5 5 5 5 5 5 6 5 5 5 6 5 5 5 5 5 5 5 5 5 5 5 5 5 5 5 5 5 5 5 5 5 5 5 5 5 5 5 5 6 5 5 5 5 5 5 5 5 5 5 5 6 5 5 5 5 6 5 5 5 5 5 5 5 5 5 5 5 6 5 5 5 5 5 5 5 5 5 5 5 5 5 5 5 5 5 5 5 5 5 5 5 5 5 5 5 5 5 5 5 5 5 5 5 5 5 5 5 6 5 6 5 5 5 5 5 6 5 5 5 6 5 5 5 5 5 6 5 5 5 5 5 5 5 5 5 6 5 5 5 6 5 5 5 5 5 5 5 5 5 5 5 5 5 5 5 5 5 5 5 5 5 5 5 5 5 5 5 5 5 5 5 5 5 5 5 5 6 5 5 5 5 5 5 5 5 6 5 5 5 5 5 5 5 5 5 5 5 5 5 6 5 5 5 5 5 5 6 5 5 5 5 5 5 5 5 5 5 5 5 5 6 5 5 5 5 5 5 5 5 5 5 5 5 5 5 5 5 5 5 5 5 5 5 6 5 5 5 5 5 5 5 5 5 5 6 6 5 5 5 5 5 5 5 5 5 5 5 5 5 5 5 5 5 6 6 5 5 5 5 5 5 6 5 5 5 5 5 5 5 5 5 5 5 5 5 6 5 5 5 5 5 5 5 5 5 5 5 5 5 5 5 5 5 5 5 5 5 5 5 5 5 5 5 6 5 5 6 5 5 5 5 5 5 5 5 5 5 5 5 5 5 5 5 5 6 5 6 5 5 5 5 5 5 5 5 5 5 5 6 6 5 5 5 6 6 5 5 5 5 6 5 5 6 5 5 5 5 5 5 5 5 5 5 5 5 5 5 5 5 5 5 5 5 5 5 5 5 5 5 5 5 5 5 5 5 5 5 5 5 5 5 5 5 5 5 5 5 5 5 5 5 5 5 5 5 5 5 5 5 5 5 6 5 5 5 5 5 5 5 5 5 5 5 5 6 5 5 6 5 5 6 5 5 5 5 5 6 5 5 5 5 6 5 5 5 5 5 5 5 5 5 5 5 5 5 5 6 5 5 5 5 5 6 6 5 5 5 5 6 5 5 5 5 5 6 5 5 5 5 5 5 5 5 5 5 5 5 5 5 5 5 5 5 5 5 5 5 5 5 5 5 5 5 5 5 5 5 5 5 5 5 5 5 5 5 5 5 5 5 5 5 5 5 5 5 5 5 5 5 5 5 5 5 5 6 5 5 5 5 5 5 5 5 5 5 5 5 5 5 5 5 5 5 5 6 5 5 5 5 6 5 5 6 6 5 5 5 5 5 5 5 5 5 5 5 5 5 5 5 5 5 5 5 5 5 5 5 6 5 6 5 5 5 5 5 5 5 5 5 5 5 5 5 5 5 6 5 5 5 5 5 5 5 5 5 5 5 6 5 5 5 5 5 5 5 5 5 5 5 5 5 5 5 5 6 5 5 6 5 5 5 5 5 6 5 5 5 6 5 5 6 5 5 5 5 5 5 5 5 5 5 5 5 5 5 5 5 5 5 5 5 6 5 5 5 5 5 6 5 5 5 6 5 5 5 5 6 6 6 5 5 5 5 5 6 5 6 5 5 5 6 6 5 5 5 6 5 5 5 6 5 6 5 5 5 5 5 5 5 5 5 5 5 5 5 5 5 5 5 5 5 5 5 5 5 6 5 6 5 5 5 5 5 5 5 5 5 5 5 5 5 5 5 5 5 5 5 5 5 5 5 5 5 5 5 5 5 5 5 5 5 6 5 6 5 5 5 5 5 5 5 5 5 5 5 5 5 5 5 5 5 5 5 5 5 5 6 5 5 5 5 5 5 6 5 5 5 5 5 5 5 5 6 5 5 5 5 5 5 5 5 5 5 5 5 5 5 6 5 5 5 5 6 5 5 5 5 5 5 5 5 5 5 5 5 5 5 6 5 5 5 5 5 5 5 5 5 6 5 5 5 5 5 6 5 5 5 5 5 5 5 5 5 5 6 5 6 5 5 5 5 6 5 5 5 5 5 5 5 5 5 5 5 5 5 5 5 5 5 5 6 5 5 5 6 5 5 5 5 5 6 6 5 5 6 5 5 5 5 5 6 5 5 5 5 5 6 5 5 5 5 5 5 5 5 5 5 5 5 5 5 5 5 5 5 6 5 5 5 5 5 5 6 5 5 5 5 5 5 5 5 5 5 5 5 5 5 5 5 5 5 5 5 5 5 5 5 5 5 5 5 5 5 5 6 5 5 5 5 5 5 5 5 5 5 5 5 5 5 5 5 5 5 6 5 5 5 5 5 5 5 5 5 5 5 5 5 5 6 5 5 5 5 5 5 5 5 5 5 6 5 5 6 6 5 5 6 5 5 5 5 5 5 6 5 5 5 5 6 5 5 5 6 6 5 5 5 6 6 5 5 6 6 5 6 5 5 6 5 5 6 5 5 6 5 5 6 5 5 5 5 6 6 5 5 5 5 5 6 5 5 5 6 5 6 5 5 6 6 5 5 5 5 5 5 5 6 5 5 5 5 5 5 5 5 5 5 5 5 5 5 6 5 5 5 5 6 5 5 5 5 6 5 5 5 5 6 5 5 5 5 5 5 5 6 5 5 5 6 5 5 5 6 5 5 5 5 5 5 5 6 5 5 6 5 5 6 5 5 5 5 5 5 5 5 6 5 6 5 5 5 6 5 5 5 5 5 5 5 5 5 6 5 5 5 6 5 5 5 6 5 5 6 5 5 5 5 5 6 5 5 5 5 5 5 5 5 5 5 5 5 5 5 5 5 5 5 5 5 5 6 5 5 5 5 6 5 6 5 6 5 5 5 5 5 5 5 5 5 5 5 5 5 5 5 5 5 5 5 5 5 5 5 5 5 5 5 5 5 5 5 5 6 5 5 5 5 5 5 5 5 5 5 5 6 5 5 5 5 5 5 5 5 5 5 5 6 5 5 5 5 5 5 5 5 5 5 5 5 5 5 5 6 5 5 5 5 5 6 5 5 6 5 5 5 5 5 5 5 5 5 5 5 5 5 5 5 5 5 5 5 5 5 5 5 5 5 5 5 5 5 5 5 5 5 5 5 5 5 5 5 5 5 5 5 5 5 5 5 6 5 5 5 5 5 5 5 5 5 5 5 5 5 5 5 5 5 5 5 5 5 5 5 6 5 5 5 5 5 5 5 6 5 5 5 5 5 5 5 5 6 5 5 5 5 5 5 5 6 5 5 6 5 5 5 5 5 6 5 5 5 5 5 5 5 5 5 6 5 5 5 5 5 5 5 5 5 5 5 5 5 5 5 5 5 5 5 5 5 5 5 5 5 5 5 5 5 5 5 6 5 5 6 5 5 6 5 6 5 5 6 5 5 5 6 5 5 6 5 5 5 6 5 5 5 5 5 5 5 5 5 5 5 5 5 5 6 5 6 5 5 5 5 5 5 5 5 5 5 5 5 5 6 5 5 5 5 5 5 6 5 5 5 5 5 5 5 5 5 5 5 5 5 5 5 5 5 6 5 5 5 6 5 5 5 5 5 5 5 5 5 5 5 5 5 5 5 5 5 5 5 5 5 5 5 5 5 5 6 5 5 5 5 5 6 5 6 5 5 6 5 5 5 6 5 6 5 5 6 5 5 5 5 6 5 5 5 6 5 6 5 5 5 6 5 6 5 5 5 5 6 5 5 6 5 6 5 5 6 5 5 5 6 6 5 5 5 5 5 6 6 5 5 5 5 5 6 6 6 5 5 6 5 5 5 6 5 5 5 5 6 5 5 6 5 5 5 5 5 5 5 5 6 5 6 5 5 5 5 5 5 5 5 5 5 5 5 6 5 5 5 5 5 5 5 5 5 5 5 5 5 5 5 5 5 5 5 5 5 5 5 5 5 5 5 6 6 5 5 6 6 6 5 5 5 5 5 6 5 6 5 5 5 5 5 6 5 5 5 5 5 5 5 5 6 5 5 5 5 5 5 5 5 5 5 6 5 5 6 5 5 5 5 5 5 6 5 5 5 6 5 5 6 5 5 6 6 5 5 6 5 5 5 5 5 5 5 5 5 5 5 5 5 5 5 5 5 6 5 5 5 5 5 5 6 5 5 6 5 5 6 5 5 5 5 5 5 5 5 5 5 5 5 5 5 5 5 5 6 6 5 5 5 5 6 5 5 5 5 6 5 5 5 5 6 5 5 5 5 5 5 5 6 5 6 5 5 6 5 5 6 5 5 5 5 5 5 5 5 5 5 5 5 5 5 5 5 5 5 5 5 5 5 5 5 6 5 5 5 5 5 5 5 6 5 5 6 5 6 5 6 5 5 5 5 5 5 5 5 5 5 5 5 5 5 5 5 5 5 5 5 5 5 5 5 6 5 5 5 5 5 5 5 5 5 5 5 5 5 6 5 6 5 5 5 5 5 5 5 5 5 5 5 5 5 5 5 5 5 5 5 6 5 6 6 5 5 5 6 5 5 5 6 5 5 5 6 5 5 5 5 5 5 5 5 5 5 5 5 6 6 6 5 5 5 5 5 5 5 6 5 5 5 5 5 5 6 5 5 5 5 5 5 5 6 5 5 5 5 6 5 5 5 5 5 5 5 6 6 5 5 5 5 5 5 6 5 5 5 5 5 5 5 5 5 5 6 5 5 5 5 5 5 6 5 5 5 5 5 5 5 5 5 5 5 5 5 5 5 5 5 5 5 5 5 5 6 5 5 5 5 6 6 5 5 5 6 5 5 6 5 5 5 5 5 5 5 5 5 5 5 5 5 5 5 5 5 5 5 5 5 5 6 5 5 5 5 6 5 5 5 5 5 5 5 6 5 5 5 5 5 5 5 6 5 5 5 6 5 5 5 5 5 5 5 5 5 5 5 5 5 5 5 5 5 5 5 5 5 5 6 6 5 5 5 6 6 5 5 6 6 6 5 5 5 5 5 5 5 5 5 5 5 5 5 5 5 5 5 5 5 5 6 6 5 5 6 5 5 6 5 5 5 5 5 5 5 6 5 5 5 5 5 5 5 5 5 5 5 5 5 5 5 5 5 5 5 5 5 5 6 5 5 5 6 5 5 5 6 5 5 5 6 5 5 5 5 5 5 5 5 5 5 5 5 5 5 5 5 5 5 5 5 5 6 5 5 5 5 5 5 5 5 5 6 5 6 5 6 5 5 5 5 5 5 5 5 5 5 5 6 5 5 5 5 6 5 6 5 6 5 5 5 6 5 5 5 6 5 5 5 5 5 6 5 5 5 5 6 5 5 5 5 5 5 5 6 5 6 5 5 5 5 6 5 5 5 5 6 5 5 5 5 5 5 5 5 5 6 5 5 5 5 6 5 5 5 5 5 6 6 6 5 5 5 5 5 6 5 6 5 5 5 5 5 6 5 6 5 5 5 6 5 5 5 6 5 5 5 6 5 6 5 5 6 5 6 5 5 5 5 5 5 6 5 5 5 5 6 5 5 5 5 5 5 6 5 6 5 5 6 5 5 5 5 5 5 5 5 6 5 5 6 5 5 5 5 5 6 5 5 5 5 5 5 5 5 5 5 5 5 5 5 6 5 6 5 5 6 5 5 5 5 5 5 5 6 5 5 5 5 6 5 5 5 5 5 5 5 5 5 5 6 5 5 5 6 5 5 5 5 5 5 5 6 5 6 5 5 5 5 5 5 6 5 6 5 5 5 5 6 5 5 6 5 5 5 5 5 5 5 6 5 5 5 5 5 6 5 6 5 5 5 5 5 5 5 5 5 5 5 5 5 5 5 5 5 5 5 5 5 5 6 6 6 5 6 5 5 6 5 5 6 5 5 5 5 5 5 5 6 5 5 5 5 5 5 5 5 5 5 5 6 5 5 6 6 5 5 5 6 5 5 5 5 5 5 5 6 5 5 5 5 5 5 5 5 5 5 5 5 5 5 5 5 5 5 5 5 5 5 5 5 5 5 5 5 5 5 5 5 5 5 5 5 5 5 5 5 5 5 6 5 5 5 5 6 5 5 5 5 5 5 5 5 5 5 5 5 5 5 5 5 5 5 5 6 5 6 5 5 6 5 5 5 5 5 5 5 6 5 5 5 5 5 5 5 5 5 6 6 5 5 6 5 6 5 5 5 5 5 5 5 5 5 5 6 5 5 5 5 5 5 5 5 5 5 5 5 5 5 5 5 5 5 5 5 6 5 5 5 5 5 5 6 5 5 5 6 5 5 5 5 5 5 5 5 5 6 6 5 5 5 5 5 5 5 6 5 5 5 6 5 6 5 5 5 5 5 5 5 5 5 5 5 5 5 5 5 6 5 5 5 6 5 5 5 5 5 5 5 5 5 5 5 5 5 6 5 6 5 5 5 5 5 5 5 5 5 5 5 5 5 5 5 5 5 6 5 5 5 5 5 5 5 5 5 5 5 5 5 5 5 5 5 5 5 5 5 5 5 5 5 5 5 5 5 5 5 5 5 5 5 5 5 5 5 5 5 5 5 5 5 5 5 5 5 5 5 5 5 5 5 5 5 5 5 5 5 6 5 5 6 5 5 5 5 5 5 5 6 5 5 5 5 5 5 5 5 5 5 5 5 5 5 5 5 5 5 6 5 5 5 5 5 5 5 6 5 5 5 5 5 5 6 5 5 5 5 6 5 5 6 6 5 5 5 5 5 5 5 5 5 5 5 6 5 5 5 5 5 5 5 5 6 5 5 5 5 5 5 5 5 5 6 5 5 5 5 5 5 5 6 5 5 5 5 6 5 5 5 5 6 5 5 6 6 5 5 5 5 5 6 5 5 5 6 5 5 5 5 5 6 5 6 5 5 5 5 5 5 6 5 5 5 6 5 5 5 6 5 5 5 5 5 5 5 6 5 5 5 6 5 5 5 5 5 5 5 5 5 5 5 5 5 5 5 5 6 5 5 5 5 6 5 5 5 6 5 6 5 6 5 6 5 5 6 5 6 5 6 5 5 5 5 5 5 5 5 5 5 5 5 5 5 5 5 5 5 5 5 5 5 5 5 5 5 5 6 5 6 5 5 5 6 5 5 5 5 5 5 5 5 5 6 6 6 5 5 6 5 5 6 5 6 5 5 5 5 5 5 5 6 5 5 5 5 5 5 6 6 5 5 6 5 5 6 5 6 5 6 6 5 5 5 5 5 6 6 5 5 5 6 5 5 5 5 5 6 5 5 5 5 5 5 5 5 5 5 5 5 5 5 6 5 5 6 5 5 6 5 5 6 5 5 5 5 5 6 5 5 5 6 5 5 5 6 5 5 5 6 6 5 5 6 5 5 5 5 5 5 6 5 5 5 5 5 6 5 5 5 5 5 5 5 5 5 5 5 5 5 5 5 5 5 5 5 5 5 6 5 5 5 5 5 5 6 6 6 5 6 5 6 5 5 5 5 5 5 5 5 5 6 5 5 5 5 5 6 5 5 5 6 5 5 5 5 6 5 5 6 5 5 5 5 5 5 5 5 5 5 5 5 5 5 5 5 5 5 5 5 5 5 5 5 5 5 5 5 5 5 5 5 5 6 6 6 5 6 5 5 5 6 5 5 5 5 5 5 5 6 5 5 5 5 5 5 5 5 5 5 5 5 5 5 5 5 5 5 5 5 5 5 5 5 5 5 5 5 5 5 5 5 5 5 5 6 5 5 5 6 5 5 5 5 5 5 5 5 5 5 5 5 6 5 5 5 5 6 5 5 5 5 5 6 5 5 5 5 5 6 5 5 5 6 5 6 5 5 5 6 6 5 6 6 5 6 5 5 5 5 5 6 5 6 5 5 5 5 5 5 6 5 5 5 5 6 5 5 5 6 5 5 5 5 5 6 5 5 5 6 5 5 5 5 5 6 5 5 5 5 5 6 5 5 5 5 5 5 5 5 5 5 6 6 5 5 5 5 5 5 5 5 5 6 5 5 5 5 5 5 5 5 5 5 5 5 5 6 5 6 5 5 5 5 5 5 5 5 5 5 5 5 5 5 6 5 5 5 5 5 6 5 5 5 5 5 5 5 5 5 5 5 5 5 5 5 5 5 6 5 5 5 5 5 5 5 5 5 5 5 6 5 5 5 5 5 5 6 5 5 6 5 5 5 5 5 5 5 5 5 5 5 6 5 5 5 5 5 6 5 5 5 5 5 5 5 5 5 5 5 5 5 5 5 5 5 5 5 5 5 5 5 5 5 5 5 5 5 5 5 5 5 5 5 5 5 5 5 5 5 5 5 5 5 5 5 5 5 5 5 5 5 5 5 5 5 5 5 5 5 5 5 5 5 5 5 5 5 5 5 5 5 6 5 5 6 5 5 5 6 5 5 5 5 5 5 5 5 5 5 5 5 5 5 5 5 5 5 6 5 6 5 6 5 5 5 6 5 5 5 6 5 6 6 5 5 5 6 5 5 6 5 5 5 5 5 5 5 5 5 5 6 5 5 5 5 5 5 5 5 5 5 5 5 6 5 5 6 5 5 5 5 5 5 5 5 6 5 5 5 5 5 5 5 6 5 5 6 5 5 5 5 5 5 5 5 5 5 5 5 5 5 6 5 5 5 5 5 5 5 5 6 5 5 5 5 5 5 6 5 5 5 6 5 5 5 5 5 5 6 5 5 5 5 5 5 5 5 6 5 5 5 5 5 5 5 5 5 5 5 5 5 5 5 5 5 6 5 5 6 5 5 5 5 5 5 5 5 6 5 5 5 5 6 5 5 5 5 5 6 5 5 5 5 5 5 5 5 5 5 5 5 6 5 5 5 5 5 5 5 5 5 6 5 5 5 5 5 5 5 5 5 5 5 5 5 5 5 5 5 5 5 5 5 5 5 5 5 5 5 5 5 6 5 5 5 5 5 5 6 6 6 5 5 5 5 6 5 5 5 6 5 5 5 5 5 5 5 5 5 5 5 5 5 5 5 5 5 5 5 5 5 5 5 6 5 5 5 6 5 5 5 5 5 5 5 5 5 5 5 5 5 5 6 5 5 5 5 5 5 6 5 6 5 5 5 5 6 5 5 6 5 5 6 5 5 5 5 5 5 5 5 6 5 6 6 5 5 5 5 5 5 5 5 5 5 5 6 5 5 5 5 5 5 5 5 5 5 5 5 6 5 5 5 6 5 5 5 5 5 5 5 5 5 5 5 5 5 5 5 5 5 5 6 5 5 5 5 6 6 6 5 5 5 5 5 5 5 6 5 5 5 5 5 5 5 5 5 5 5 5 5 6 5 5 5 5 5 5 5 5 5 5 5 5 5 5 6 5 5 5 5 5 5 5 5 5 5 5 5 5 6 5 5 5 6 5 5 6 5 5 5 6 5 5 5 5 5 5 5 5 5 5 5 5 5 5 5 6 5 5 6 5 5 5 5 5 5 5 5 5 5 5 5 5 5 5 5 5 5 6 5 5 5 5 5 5 5 5 5 5 6 5 5 5 5 5 5 5 5 6 5 5 5 5 5 5 5 5 6 5 5 6 5 6 5 6 5 5 5 5 5 5 6 5 5 5 5 5 5 5 5 5 5 5 5 5 5 5 5 5 5 5 5 5 6 5 5 5 5 6 5 5 5 5 5 5 5 5 5 5 6 5 5 5 5 5 5 5 5 5 5 5 5 5 5 5 5 5 5 5 5 5 5 5 6 5 5 5 5 5 6 5 5 5 5 5 6 5 6 5 5 5 5 5 5 5 5 6 5 5 5 5 6 5 5 5 6 5 5 5 5 6 5 5 6 5 5 5 5 5 5 5 5 5 5 5 5 5 5 5 5 5 5 5 6 5 6 5 5 5 6 5 5 5 5 5 5 5 5 6 5 5 5 5 6 5 5 5 5 6 5 5 5 6 6 5 5 5 5 5 5 5 5 5 6 5 5 5 5 5 5 5 5 5 5 5 5 5 5 5 5 5 5 5 5 5 5 5 5 5 5 5 5 5 5 5 5 5 5 5 5 5 5 5 5 5 5 5 5 5 5 5 5 6 5 5 5 5 6 6 5 5 5 5 5 6 5 5 5 5 5 5 6 5 6 5 5 5 5 5 5 6 5 6 5 5 6 6 5 6 5 5 5 6 5 5 6 5 5 5 5 5 5 5 6 5 5 5 5 5 5 5 5 5 5 5 5 5 5 6 5 5 5 5 6 5 5 5 5 5 5 5 5 5 5 6 5 5 5 5 6 6 5 6 5 5 5 5 6 6 5 5 5 5 5 5 6 5 6 5 5 6 5 6 5 6 5 5 5 5 5 6 6 5 5 6 5 6 6 5 6 5 5 6 6 6 5 6 5 5 6 5 5 5 5 5 6 5 5 5 5 5 5 5 5 5 5 5 5 5 5 5 5 5 6 5 5 5 5 5 6 5 5 5 5 5 5 5 5 5 5 5 5 5 5 5 5 6 5 5 5 5 5 6 5 5 5 5 5 5 5 6 6 5 5 5 5 5 5 6 6 6 5 5 5 5 5 5 5 5 6 5 5 6 5 5 5 5 5 5 5 5 5 6 5 5 5 5 5 5 5 5 5 5 6 5 6 5 5 5 5 5 5 5 5 5 5 6 5 5 5 5 5 5 5 5 5 5 5 6 5 5 5 5 5 5 5 5 5 5 5 5 5 5 5 5 5 5 5 5 5 6 5 5 6 6 5 5 5 5 5 5 5 5 6 5 5 5 6 5 5 5 5 5 5 6 5 6 5 5 5 5 5 5 5 5 6 5 5 5 5 5 5 5 5 5 5 5 5 6 5 5 5 6 5 6 5 5 5 5 5 5 5 5 5 5 6 5 5 5 5 6 5 5 5 5 5 5 5 5 6 5 5 6 5 5 5 6 5 5 6 5 6 5 5 5 5 5 5 5 5 5 5 6 5 5 5 5 5 6 5 6 5 5 5 5 6 5 5 5 5 6 5 5 5 5 6 5 5 5 5 5 5 5 5 5 5 5 5 5 5 5 5 6 5 5 6 5 5 5 5 6 5 5 5 5 6 5 5 5 5 6 5 5 5 5 5 6 5 5 6 6 5 5 6 5 5 5 5 5 5 5 6 5 5 5 5 5 5 5 5 5 5 5 5 5 5 5 6 5 5 5 5 5 6 5 5 5 5 6 5 5 5 6 5 5 5 5 5 6 5 5 5 6 5 5 6 5 5 6 5 6 5 6 5 5 5 5 5 5 5 5 5 5 5 5 5 5 5 5 5 5 5 5 5 5 5 5 5 5 5 5 5 5 5 5 5 5 5 5 6 5 6 5 5 5 5 5 6 5 5 5 6 5 5 5 5 5 5 5 5 5 5 5 5 5 5 5 5 5 5 5 5 5 5 5 5 5 6 5 5 5 6 5 5 5 5 5 5 5 6 5 5 5 5 5 5 5 5 6 5 5 5 5 5 5 5 5 6 5 5 5 5 6 5 5 5 5 5 6 5 6 5 5 5 5 5 5 5 5 5 5 5 5 5 6 5 5 6 6 5 6 5 5 5 5 5 5 5 5 5 5 5 5 5 5 5 6 5 5 5 5 5 5 5 5 5 5 5 5 5 5 5 6 5 5 5 5 6 5 5 5 6 5 6 5 5 5 5 5 5 5 5 5 5 5 5 5 5 5 5 5 5 5 5 5 5 5 5 5 5 5 5 5 6 5 5 5 5 5 6 5 5 5 5 5 6 6 6 5 5 5 5 5 6 5 5 6 5 5 5 5 5 5 5 6 5 5 5 5 5 5 5 5 6 5 5 6 5 6 5 5 5 5 5 5 6 5 5 5 5 6 5 5 5 5 5 5 5 5 5 5 5 5 5 5 5 5 5 6 6 5 5 5 5 5 5 5 5 5 5 5 5 6 5 6 5 5 6 5 5 5 5 6 5 5 6 5 5 5 6 5 5 6 6 5 5 5 5 5 5 5 5 5 5 6 5 5 5 5 5 5 5 6 5 5 5 5 6 5 6 5 5 6 5 5 5 5 5 5 6 5 5 5 5 5 6 5 5 6 5 5 5 5 5 5 5 5 5 5 5 5 5 5 5 5 5 5 5 5 5 5 5 5 5 5 5 6 5 6 5 5 5 5 5 5 5 5 5 6 5 5 6 5 5 5 5 5 5 5 5 6 5 5 5 5 5 5 6 5 5 5 6 5 5 5 5 5 5 5 5 6 6 5 5 5 5 5 5 5 5 5 5 5 5 5 5 6 5 5 5 5 5 5 5 5 5 5 5 5 5 5 5 5 5 5 5 5 5 5 5 5 5 5 6 5 5 5 5 5 6 5 5 6 5 5 5 5 5 5 5 5 6 5 5 6 5 5 5 5 5 5 5 5 6 5 5 5 5 5 5 5 5 5 6 5 6 5 5 5 5 5 5 5 5 5 5 5 5 5 5 5 5 5 5 5 6 5 5 5 6 5 5 5 5 5 5 5 5 5 5 5 5 6 5 6 5 6 5 6 5 5 5 5 5 6 5 5 6 5 5 5 5 5 5 5 6 5 5 6 5 6 5 5 5 6 5 5 5 5 5 6 5 5 5 5 5 5 5 5 5 5 5 5 5 5 5 5 5 5 5 5 5 5 5 5 5 5 5 5 5 5 5 5 5 5 5 5 5 5 5 5 5 5 5 5 5 5 5 5 5 5 5 5 5 5 5 5 5 5 5 5 6 5 5 5 5 5 5 5 6 5 5 5 5 6 5 5 5 5 6 5 5 5 5 5 6 5 5 5 5 5 5 5 5 5 5 5 5 5 5 5 5 5 5 5 6 5 5 5 5 5 5 5 5 5 5 5 5 6 5 5 5 5 6 6 5 5 6 5 5 5 5 5 5 5 5 5 5 5 6 5 5 5 6 5 5 5 5 5 5 5 5 5 5 5 5 5 5 5 5 5 5 5 5 5 5 5 5 5 5 5 5 5 5 5 5 5 5 5 6 5 5 5 5 5 5 5 5 6 5 5 5 5 5 5 5 5 5 5 6 5 5 6 5 5 5 5 5 6 5 5 5 5 5 5 5 5 5 5 5 6 6 5 5 5 5 5 5 5 5 5 5 5 5 5 5 5 5 5 5 5 5 5 5 5 5 
</DataArray>
<DataArray type="Float64" Name="stress" NumberOfComponents="9" format="ascii">
-2117.1990496454928 249.89610529626211 0 249.89610529626211 71.463680575983076 0 0 0 0 -1156.5949888335454 152.508581421255 0 152.508581421255 -0.22848534482614885 0 0 0 0 -2497.1692300415561 447.18294889311062 0 447.18294889311062 237.96179511117236 0 0 0 0 -1915.3675950965808 682.54830211007891 0 682.54830211007891 -197.72437351265305 0 0 0 0 -1637.7375232325103 395.69831791258383 0 395.69831791258383 -100.52741138520163 0 0 0 0 -12.563167443489391 -4.3577586677042888 0 -4.3577586677042888 1.7804146184005336 0 0 0 0 -732.43071328433871 434.4521648365606 0 434.4521648365606 -182.41962466611682 0 0 0 0 -774.44969477275299 85.968979197375944 0 85.968979197375944 -148.16215904838424 0 0 0 0 -948.53145916147332 336.48795613571099 0 336.48795613571099 -127.98993853837077 0 0 0 0 -279.81277677651087 171.83409458844272 0 171.83409458844272 -167.29933325524445 0 0 0 0 -5.4968612821320733 -0.98135110334453657 0 -0.98135110334453657 0.7457803314860777 0 0 0 0 -1962.1958574776581 989.35127054701559 0 989.35127054701559 -397.68026756526683 0 0 0 0 -273.49449833903782 99.923059962222567 0 99.923059962222567 -218.00315171957533 0 0 0 0 -1405.0314954525425 354.30609537265582 0 354.30609537265582 -9.419524208109209 0 0 0 0 -1385.3688165668937 88.694100029726542 0 88.694100029726542 -4.9859227877721093 0 0 0 0 -1442.1169081786311 543.76704151606214 0 543.76704151606214 -152.76051766302169 0 0 0 0 -302.6211878087197 -330.50633903116602 0 -330.50633903116602 -309.37601136481942 0 0 0 0 -8.7889604711414222 -1.888051959397302 0 -1.888051959397302 -0.84214473935092249 0 0 0 0 -1215.5402524735764 540.400002993567 0 540.400002993567 -388.9269842993852 0 0 0 0 -11.366629633806383 -3.9014816300476127 0 -3.9014816300476127 1.7898929173025282 0 0 0 0 -1468.1920827724275 239.99356657943471 0 239.99356657943471 -317.79255730471209 0 0 0 0 -1186.0008770657296 449.7662050882571 0 449.7662050882571 -183.42036827329812 0 0 0 0 -958.63367148401449 553.47016272859582 0 553.47016272859582 -663.06813901864155 0 0 0 0 -753.91582853282489 529.98746261169094 0 529.98746261169094 -425.8105742889245 0 0 0 0 -930.3290015645689 625.93597918157877 0 625.93597918157877 -242.97642777287976 0 0 0 0 -1012.3533820143493 495.98531437127474 0 495.98531437127474 -193.9276222657906 0 0 0 0 -813.67850107132836 512.95062549674208 0 512.95062549674208 -200.2753632035047 0 0 0 0 -1038.8104648512744 451.08093459325181 0 451.08093459325181 19.578758512946308 0 0 0 0 -863.41452523658518 574.78588695359031 0 574.78588695359031 -130.82238853608189 0 0 0 0 -863.55222239713657 599.25091417302951 0 599.25091417302951 -155.75654769782295 0 0 0 0 -444.81355757296842 -3.6582379650882899 0 -3.6582379650882899 -31.436865544725801 0 0 0 0 -1500.8176843972215 86.546784068268039 0 86.546784068268039 -12.719578569828059 0 0 0 0 -222.60360458899231 -194.07628554625151 0 -194.07628554625151 -111.30286222213044 0 0 0 0 -391.0385254277171 46.961490333469776 0 46.961490333469776 10.023938465672586 0 0 0 0 -277.66569809985231 -0.12614565444323489 0 -0.12614565444323489 29.562784124379192 0 0 0 0 -68.533940394037927 -14.679297750694829 0 -14.679297750694829 -0.79425555187548724 0 0 0 0 -0.74843906132210236 0.59575546244494149 0 0.59575546244494149 1.1440343622855829 0 0 0 0 -404.01898165888633 187.14175958007212 0 187.14175958007212 -9.1133229093300372 0 0 0 0 -152.48832290887367 91.968928960636546 0 91.968928960636546 -76.205660657694693 0 0 0 0 -181.92956946708728 7.8397973072833071 0 7.8397973072833071 157.07956178970568 0 0 0 0 -715.57351441344872 513.82894501025146 0 513.82894501025146 -211.93670209941098 0 0 0 0 -529.26693733628053 234.10684251119716 0 234.10684251119716 -20.417599537563625 0 0 0 0 -771.33612308755255 430.37701758923572 0 430.37701758923572 -128.28091048448414 0 0 0 0 -396.49770158977481 271.83115046524858 0 271.83115046524858 -173.49375892846578 0 0 0 0 -282.07057477373746 76.776956167283259 0 76.776956167283259 54.589703871248105 0 0 0 0 1.6923459984102465 1.9115103307614447 0 1.9115103307614447 1.7706737899605884 0 0 0 0 -637.09731519762863 531.95513746047629 0 531.95513746047629 -308.70997260646334 0 0 0 0 -869.94833151709463 501.33585849222254 0 501.33585849222254 -156.04281435462812 0 0 0 0 -1577.4721181453715 819.95218913521239 0 819.95218913521239 -256.14623107592365 0 0 0 0 -1221.2245046296812 683.72410310095233 0 683.72410310095233 -182.57126397778885 0 0 0 0 -878.48078568045003 579.81143859822612 0 579.81143859822612 -256.82246630918024 0 0 0 0 -1597.8412024208119 740.22399393573903 0 740.22399393573903 -82.154844942643322 0 0 0 0 -2202.1926879670646 902.44921281846996 0 902.44921281846996 -23.700096456178578 0 0 0 0 -2820.3277276352455 898.80376361336744 0 898.80376361336744 -183.84209499206233 0 0 0 0 -2501.160287970155 693.8723283065807 0 693.8723283065807 -66.468404998356363 0 0 0 0 -1788.6700735269005 207.40474540244841 0 207.40474540244841 37.215044574256162 0 0 0 0 -6.8780970815639364 -1.430965205329926 0 -1.430965205329926 0.89778396681164052 0 0 0 0 -730.35590520860569 547.07215843122617 0 547.07215843122617 -187.70016907998522 0 0 0 0 -700.27286552659643 -41.059908057679138 0 -41.059908057679138 86.679520656684389 0 0 0 0 -809.72429650839331 579.61630664075699 0 579.61630664075699 -166.48667335115604 0 0 0 0 -815.27746570138697 559.43055897554007 0 559.43055897554007 -208.49729717394121 0 0 0 0 -868.53673117910557 524.15250733387848 0 524.15250733387848 -174.05020520065295 0 0 0 0 -11.956449829609483 0.57308395560924352 0 0.57308395560924352 -0.17598140841292789 0 0 0 0 -7.7392245899827685 -0.047418124273736997 0 -0.047418124273736997 -0.085927207336085554 0 0 0 0 -179.225480059853 -82.59777162591422 0 -82.59777162591422 -70.50206209987698 0 0 0 0 -358.03372857040085 -62.355538484862734 0 -62.355538484862734 -29.591756255514952 0 0 0 0 -7.1606988140265457 16.525939118703462 0 16.525939118703462 -54.9559350889092 0 0 0 0 -151.35005304025981 24.49017818873158 0 24.49017818873158 -20.103065102018149 0 0 0 0 -58.364739151118556 -11.698564773111258 0 -11.698564773111258 -56.056550569387184 0 0 0 0 -518.91065462230472 -40.954278067384735 0 -40.954278067384735 47.92025250707286 0 0 0 0 -284.11600175018611 51.390645266543522 0 51.390645266543522 -7.4547471540030301 0 0 0 0 -304.46928738385395 10.917358256239567 0 10.917358256239567 55.725850636418386 0 0 0 0 -349.65287000499666 240.94880921154635 0 240.94880921154635 -93.746049927722922 0 0 0 0 -2.3470392402506945 0.058193387576729094 0 0.058193387576729094 0.066223747004861541 0 0 0 0 -4.4819121212416348 -1.2333902819946445 0 -1.2333902819946445 -0.22092055275037542 0 0 0 0 -20.363856395553739 15.021092546037863 0 15.021092546037863 -61.513001726203242 0 0 0 0 -68.96897548864581 -28.932595433635335 0 -28.932595433635335 42.437153103637797 0 0 0 0 20.605634676307091 -1.6868333543068559 0 -1.6868333543068559 -41.758209036911126 0 0 0 0 -15.765446786943357 -1.1026822943830838 0 -1.1026822943830838 0.8676543849271402 0 0 0 0 16.252929646206212 -16.780207984072234 0 -16.780207984072234 7.0608119264287552 0 0 0 0 -6.6952714533908591 0.040300189183440693 0 0.040300189183440693 0.12535692542748883 0 0 0 0 30.223762800400436 8.0486349367166952 0 8.0486349367166952 -12.804319522939949 0 0 0 0 -15.348213750690547 7.7535144427141631 0 7.7535144427141631 5.2891529084459989 0 0 0 0 -33.395284322352381 28.581082862474602 0 28.581082862474602 -20.681541806583823 0 0 0 0 5.6467455009842524 -1.9423383511149552 0 -1.9423383511149552 -7.6750006000291364 0 0 0 0 -18.133903438669222 40.009487222292421 0 40.009487222292421 28.265617464588274 0 0 0 0 27.645056992652826 54.344332642962002 0 54.344332642962002 -20.132533602727023 0 0 0 0 -45.523399099842209 2.2771601606856962 0 2.2771601606856962 0.78573323099271875 0 0 0 0 -11.904500496358395 11.226263469394411 0 11.226263469394411 4.0441201676923804 0 0 0 0 -369.87724399282888 78.346032568181755 0 78.346032568181755 0.068671232515890149 0 0 0 0 -54.596942911157385 -8.6946896285301136 0 -8.6946896285301136 0.87968798851755992 0 0 0 0 -39.606369584340428 -19.250111705264317 0 -19.250111705264317 -13.908527242196442 0 0 0 0 -4.759254002797519 -1.3453883914545202 0 -1.3453883914545202 -0.5908643553362154 0 0 0 0 -37.644433357640082 -14.843917188544026 0 -14.843917188544026 -5.804324676285205 0 0 0 0 -25.145088991073862 -17.774558707990423 0 -17.774558707990423 -5.1881136098543266 0 0 0 0 -24.294510755223797 -8.3236422714331155 0 -8.3236422714331155 -3.0324210171397294 0 0 0 0 -43.904798601422954 -7.2516367754969906 0 -7.2516367754969906 7.846199463702078 0 0 0 0 -42.612755650239706 -6.8872799956773179 0 -6.8872799956773179 1.1047656639796628 0 0 0 0 -29.705113277734199 12.727142059825059 0 12.727142059825059 -28.214373609974107 0 0 0 0 -5.1092562917350506 -1.4342994517137697 0 -1.4342994517137697 -0.013254568640224063 0 0 0 0 -22.607403122965479 -23.274356658084709 0 -23.274356658084709 0.083162715680220711 0 0 0 0 -28.113179081210518 -8.045898578775649 0 -8.045898578775649 -1.2798407814317703 0 0 0 0 -31.269840845488943 7.1200244289814396 0 7.1200244289814396 -2.3105752973798674 0 0 0 0 -58.124583885258289 79.289371190209081 0 79.289371190209081 -90.107240380459899 0 0 0 0 -25.882121938079763 29.196222859665294 0 29.196222859665294 -96.101441673445564 0 0 0 0 -70.14620117447339 20.725615670536058 0 20.725615670536058 4.17382395381183 0 0 0 0 -5.0534399725734716 -2.8608911333173381 0 -2.8608911333173381 -0.48592387821282312 0 0 0 0 -33.549157841553097 -26.541714050702311 0 -26.541714050702311 -51.608097129580429 0 0 0 0 -308.21013709460385 88.487536174183361 0 88.487536174183361 -37.949755734328846 0 0 0 0 -20.567718180745231 -5.7829312942788746 0 -5.7829312942788746 -1.4622164260186756 0 0 0 0 -14.941958546012756 12.758710802614701 0 12.758710802614701 -49.273469980911955 0 0 0 0 -30.314464061037143 56.326029617836895 0 56.326029617836895 -106.43745201129218 0 0 0 0 -45.620125032932265 -27.871132933651666 0 -27.871132933651666 9.33744921426171 0 0 0 0 -39.67259739767178 -93.037430610943716 0 -93.037430610943716 -232.7480577575613 0 0 0 0 -18.475741773349 -38.485503610341368 0 -38.485503610341368 -36.997123714767511 0 0 0 0 -2.8364284415292786 -21.637991605653269 0 -21.637991605653269 -107.43672910750331 0 0 0 0 -8.4212720405921573 -108.2615056913321 0 -108.2615056913321 -99.661173895290744 0 0 0 0 -131.02115147332734 -88.28110389821552 0 -88.28110389821552 -5.0852285304930263 0 0 0 0 -19.062492648030457 -68.371594725146679 0 -68.371594725146679 -1.5689185562928856 0 0 0 0 -99.503507806547532 -168.46722033036218 0 -168.46722033036218 166.3471798771717 0 0 0 0 -85.723232176853884 -28.265319143026122 0 -28.265319143026122 -8.1899626844497107 0 0 0 0 -28.705319750130002 -81.365569901554863 0 -81.365569901554863 -70.610062796348984 0 0 0 0 -39.369413553037703 -147.39506666449367 0 -147.39506666449367 58.880253501621226 0 0 0 0 -88.546392130341133 -30.56461519406465 0 -30.56461519406465 -9.348729347177466 0 0 0 0 -82.140356828822405 -151.91606305843334 0 -151.91606305843334 41.468838715126594 0 0 0 0 -83.474261984847544 -35.852714864352038 0 -35.852714864352038 -43.211072563715334 0 0 0 0 -179.52526728473822 -141.82618091022823 0 -141.82618091022823 162.83691863487797 0 0 0 0 -134.16755718342029 -60.41813503164758 0 -60.41813503164758 23.692726546574931 0 0 0 0 -92.228366563530585 -28.633782353637873 0 -28.633782353637873 -8.9940495252748018 0 0 0 0 -99.888075125069008 -79.237353720775104 0 -79.237353720775104 -12.118313131793911 0 0 0 0 -28.306940576905617 -72.12334971323537 0 -72.12334971323537 2.9335728880115823 0 0 0 0 -33.222643949629855 -55.382896608052022 0 -55.382896608052022 -43.797485519792815 0 0 0 0 -30.878812949245912 -56.084937401269059 0 -56.084937401269059 -43.606016206601794 0 0 0 0 0.032456702829932738 0.51690587056913273 0 0.51690587056913273 0.29540716222919006 0 0 0 0 -69.37858494543616 -13.137899094451399 0 -13.137899094451399 -14.91384384123603 0 0 0 0 -76.30547761622438 -32.532249057853733 0 -32.532249057853733 -9.5734413987981952 0 0 0 0 -78.346829479502048 1.6335606861149472 0 1.6335606861149472 -0.4969663197165346 0 0 0 0 -45.865163326467155 -10.342330162017561 0 -10.342330162017561 -3.439700160000001 0 0 0 0 -15.3834791461192 10.729745359840493 0 10.729745359840493 1.1100422814775814 0 0 0 0 -29.690208784919378 16.464501098262758 0 16.464501098262758 -13.213613102043951 0 0 0 0 -19.926205654548539 27.321281489274668 0 27.321281489274668 35.590175678341211 0 0 0 0 -29.387055408834726 -1.9173538880571215 0 -1.9173538880571215 -2.6523644667769801 0 0 0 0 -100.28442717529288 40.535158846170361 0 40.535158846170361 10.370639032560121 0 0 0 0 -51.73240918891679 3.8353143229229829 0 3.8353143229229829 -5.2926865991635879 0 0 0 0 -78.625834365800614 -3.3818949402782081 0 -3.3818949402782081 -3.1635203868191204 0 0 0 0 -65.635322309972253 -14.181074975778188 0 -14.181074975778188 -22.131636982429256 0 0 0 0 -83.302976458035118 21.037552228185405 0 21.037552228185405 -43.877962531824096 0 0 0 0 -150.15911517853965 -45.81553109291383 0 -45.81553109291383 -27.975429413972734 0 0 0 0 -4.4229431645068473 -24.56698672914305 0 -24.56698672914305 -2.8914642416172498 0 0 0 0 -154.1231590172797 30.295102839773193 0 30.295102839773193 44.839159321914849 0 0 0 0 -359.754450383316 137.28933827986566 0 137.28933827986566 2.3928563043625672 0 0 0 0 -354.59677109352924 -78.721061162352953 0 -78.721061162352953 -11.764382132612582 0 0 0 0 -229.65869666303843 18.512291001452013 0 18.512291001452013 205.3361386910953 0 0 0 0 -132.97599262747644 69.162490608834332 0 69.162490608834332 22.016517841072528 0 0 0 0 -164.10001113130238 89.175291538915417 0 89.175291538915417 84.197172826020505 0 0 0 0 -99.446105342338598 7.3545188426473374 0 7.3545188426473374 -4.2656100809747342 0 0 0 0 -103.51728329226898 86.070671597071851 0 86.070671597071851 -53.163243147928597 0 0 0 0 -5.7402562568313442 157.09118324380501 0 157.09118324380501 -23.824313320112196 0 0 0 0 -146.59687843957363 -42.298163125278279 0 -42.298163125278279 -106.74804848025815 0 0 0 0 -304.57004471347318 123.70442869186218 0 123.70442869186218 -2.4084872679734701 0 0 0 0 11.608081033757117 398.58008929996623 0 398.58008929996623 512.78451971447066 0 0 0 0 -112.17778074080707 105.3132225189338 0 105.3132225189338 -0.85617299428758997 0 0 0 0 -27.096604559970302 -11.456857130978463 0 -11.456857130978463 3.7257696828212783 0 0 0 0 -108.05727691006905 258.14090777077877 0 258.14090777077877 -227.63951708700426 0 0 0 0 -288.41393150764634 -7.4957488373092929 0 -7.4957488373092929 167.7408222928027 0 0 0 0 -239.43244365375722 124.47577130781792 0 124.47577130781792 207.42399077051459 0 0 0 0 -177.4340119800836 234.97946609281939 0 234.97946609281939 116.67801239599794 0 0 0 0 -189.93108024302637 90.591425733163305 0 90.591425733163305 161.45728849499665 0 0 0 0 -78.907081308901979 10.251133068791319 0 10.251133068791319 -128.94449468812309 0 0 0 0 -257.38951563629962 252.58709119786033 0 252.58709119786033 -61.323681382328637 0 0 0 0 -171.17768459371291 115.65814062538175 0 115.65814062538175 -54.140379469017716 0 0 0 0 -40.078869539480365 19.861186893887364 0 19.861186893887364 117.04226467637523 0 0 0 0 -30.292368545494668 -5.8079403135967951 0 -5.8079403135967951 -0.26034597835336981 0 0 0 0 -6.0414344900782453 92.755713001012538 0 92.755713001012538 57.528227061211169 0 0 0 0 -10.737140062282691 -1.3242500854878472 0 -1.3242500854878472 -0.039590009547477489 0 0 0 0 35.943936699899496 -80.986214304728861 0 -80.986214304728861 -84.832592554975065 0 0 0 0 -267.39497253017907 -258.43692061868285 0 -258.43692061868285 26.927468142039061 0 0 0 0 -292.63705588332959 269.15898421046268 0 269.15898421046268 -472.35662954290905 0 0 0 0 3.046455784678983 -39.525157570492865 0 -39.525157570492865 -10.225970076353406 0 0 0 0 -33.784697047671216 12.707594304617203 0 12.707594304617203 16.33758467051149 0 0 0 0 -50.077635374076635 63.882131157033371 0 63.882131157033371 -4.9610059733340677 0 0 0 0 -188.34934880182846 -143.13089874323759 0 -143.13089874323759 -68.105663377472183 0 0 0 0 -14.3831443113489 4.1092941493043327 0 4.1092941493043327 0.38772269351541055 0 0 0 0 21.768884003307903 -116.30243101223732 0 -116.30243101223732 -344.22655961861801 0 0 0 0 -18.787184701937804 -110.3740248243015 0 -110.3740248243015 2.3925843925862864 0 0 0 0 -104.63661894274628 -137.82435132438081 0 -137.82435132438081 -555.34047736725734 0 0 0 0 -58.493001354669104 60.137259102157259 0 60.137259102157259 -102.71294709665835 0 0 0 0 -0.62130687729275991 0.99644744659130424 0 0.99644744659130424 -1.4160120343258242 0 0 0 0 -181.96461323432959 -276.73615293771809 0 -276.73615293771809 395.54716998430564 0 0 0 0 -154.45359928926518 9.6888333098419253 0 9.6888333098419253 -17.313693174948639 0 0 0 0 -61.658603887233767 48.628755341650503 0 48.628755341650503 -26.465329312925405 0 0 0 0 -51.338307039786741 42.976673162787392 0 42.976673162787392 -62.558370276653932 0 0 0 0 -11.576362666863261 -0.11177842514606873 0 -0.11177842514606873 0.52642244829354823 0 0 0 0 -4.6749489504677086 -0.50685331466512373 0 -0.50685331466512373 -0.24961215881964827 0 0 0 0 -119.19014298502952 191.71399596606415 0 191.71399596606415 -256.43606470836312 0 0 0 0 -23.043763962827143 -294.25548517267748 0 -294.25548517267748 -123.37822199365473 0 0 0 0 62.61106630102222 -253.63229021205973 0 -253.63229021205973 -254.35293311409077 0 0 0 0 -272.01315435726428 233.2789110556796 0 233.2789110556796 -112.77710979994549 0 0 0 0 -174.22657250835618 -236.15515909942496 0 -236.15515909942496 -96.169600600608646 0 0 0 0 -194.68161145359409 -66.822903943748315 0 -66.822903943748315 -279.48280995712958 0 0 0 0 -399.62165929937328 58.808294227370425 0 58.808294227370425 -306.22833088923051 0 0 0 0 7.9394498815163388 -221.70896653411592 0 -221.70896653411592 -254.70156131005729 0 0 0 0 -5.8842475526792839 0.86684766495172738 0 0.86684766495172738 0.71116260225038719 0 0 0 0 -746.94876645028125 -463.71916109381891 0 -463.71916109381891 -230.28230855884203 0 0 0 0 -279.96803963649563 -67.509741964062357 0 -67.509741964062357 6.6346059527977559 0 0 0 0 -345.59879955631186 -219.109115617154 0 -219.109115617154 -90.268874908419775 0 0 0 0 -92.994007880544814 -61.848236331827451 0 -61.848236331827451 -49.058402246859544 0 0 0 0 -3.4284416128662016 2.73439095316742 0 2.73439095316742 -0.20813849972990495 0 0 0 0 -497.75809036481223 60.960397810716131 0 60.960397810716131 229.7503678716248 0 0 0 0 -5.8195141430604735 -0.67226388821501359 0 -0.67226388821501359 3.8314716116312346 0 0 0 0 -56.005855990002829 -40.123105979332422 0 -40.123105979332422 -11.324506860828592 0 0 0 0 -1.98073984230723 51.974443152546598 0 51.974443152546598 205.99700600809177 0 0 0 0 -54.664100382426113 -26.939516644107641 0 -26.939516644107641 -18.595482671736931 0 0 0 0 -150.44920168217504 -94.781650144341256 0 -94.781650144341256 -57.497541896101666 0 0 0 0 112.8549187659919 202.84640120249992 0 202.84640120249992 -170.07831359845432 0 0 0 0 -1.9499016153810231 0.35545900254759744 0 0.35545900254759744 0.70292979219649876 0 0 0 0 22.949060630780878 -56.178865298446226 0 -56.178865298446226 -132.59679850329303 0 0 0 0 -132.96106934185809 175.08899510655601 0 175.08899510655601 -475.48356591693391 0 0 0 0 -59.077263498402317 -9.561450149435359 0 -9.561450149435359 -251.49443027406687 0 0 0 0 -247.33654418662263 -235.71577703022342 0 -235.71577703022342 -485.0244721894951 0 0 0 0 -251.94951825307908 -175.23849943015773 0 -175.23849943015773 -151.45804646173019 0 0 0 0 -32.824523061273794 -33.131265504433713 0 -33.131265504433713 -308.18555098532852 0 0 0 0 -17.734521757145558 -53.021585549063275 0 -53.021585549063275 -185.91504776263082 0 0 0 0 -61.093782523415939 -30.789896490440469 0 -30.789896490440469 -152.9755267130713 0 0 0 0 -20.266621003043838 -51.008128069130635 0 -51.008128069130635 -160.75351309019106 0 0 0 0 -41.492052623885684 -23.32632722116341 0 -23.32632722116341 -139.56688547787962 0 0 0 0 -12.663730531863621 -38.150455907445689 0 -38.150455907445689 -143.16990332900423 0 0 0 0 -10.429776919027063 2.7659180997055728 0 2.7659180997055728 -125.76113650519437 0 0 0 0 -0.28056338174792472 -18.513898591666475 0 -18.513898591666475 -109.19770670865228 0 0 0 0 -14.642986985761127 -14.715964373442944 0 -14.715964373442944 -88.618417550088907 0 0 0 0 -192.95670220425563 65.54892468601912 0 65.54892468601912 -69.544411656538159 0 0 0 0 -16.32655476337095 31.281979026295858 0 31.281979026295858 -228.91382747518912 0 0 0 0 -54.14663704099803 -38.505911772016816 0 -38.505911772016816 6.4154782027483179 0 0 0 0 -37.030876917648129 -32.078292467085703 0 -32.078292467085703 -63.137140365366577 0 0 0 0 -11.721932490989275 54.260622662138985 0 54.260622662138985 -34.364925594225042 0 0 0 0 -25.95597460600402 26.232141831842682 0 26.232141831842682 42.911818760256665 0 0 0 0 -37.086296028383529 -4.4292530863842714 0 -4.4292530863842714 11.768964892504373 0 0 0 0 -1.0056168722876464 53.423112036677139 0 53.423112036677139 -130.97730214623661 0 0 0 0 -29.747258290677564 -17.697739581350106 0 -17.697739581350106 -65.21055957531371 0 0 0 0 -32.09198959589412 -10.910339286610906 0 -10.910339286610906 -55.051158942573238 0 0 0 0 -36.85319738068938 -10.756836506307991 0 -10.756836506307991 -42.479474372043114 0 0 0 0 -53.200655987509435 -61.273305577627809 0 -61.273305577627809 -52.147392361551283 0 0 0 0 -41.824457787191392 -0.42424603824933627 0 -0.42424603824933627 12.797658555931624 0 0 0 0 -86.075638442915078 41.342830677583748 0 41.342830677583748 79.065880647910461 0 0 0 0 -31.663824839693916 -43.051183492938918 0 -43.051183492938918 -4.7028747132853823 0 0 0 0 -4.0131600952518056 -39.249094474169624 0 -39.249094474169624 -44.968409316050383 0 0 0 0 -25.750536772779014 -19.785820267039753 0 -19.785820267039753 -36.785785189040098 0 0 0 0 -21.794213097054126 -11.32092083660666 0 -11.32092083660666 -27.253975512584475 0 0 0 0 -4.9670361309581494 -56.856086101512432 0 -56.856086101512432 -2.4903756901376255 0 0 0 0 7.6929776012821094 -26.448398248696094 0 -26.448398248696094 -23.534957977001795 0 0 0 0 -8.5017443427627768 -72.217816296557956 0 -72.217816296557956 90.016537818322945 0 0 0 0 14.802899517271726 -14.103995028451664 0 -14.103995028451664 47.238754252996046 0 0 0 0 40.293496867213207 -117.04478425173592 0 -117.04478425173592 4.1166179368217399 0 0 0 0 -109.51374123105779 -102.94547337825315 0 -102.94547337825315 5.1285567827853811 0 0 0 0 -74.272051777115848 48.933793693455527 0 48.933793693455527 -9.5706712769353572 0 0 0 0 -297.79069242352125 50.314286579741633 0 50.314286579741633 -9.4806693556659525 0 0 0 0 0.56770601040891222 -1.4766880916387706 0 -1.4766880916387706 -2.7381533380091478 0 0 0 0 -389.76757976450244 -37.490368119734057 0 -37.490368119734057 70.446197069566324 0 0 0 0 -333.02223471422258 12.459347739564464 0 12.459347739564464 113.95439651828474 0 0 0 0 156.68430121566053 -160.47228453981813 0 -160.47228453981813 23.33057087932707 0 0 0 0 1.4559392783586809 2.0310249846255104 0 2.0310249846255104 2.6324395790262285 0 0 0 0 -89.799878683818861 -60.918008900509335 0 -60.918008900509335 -21.122930232369981 0 0 0 0 -10.910743323725328 1.2230028461344027 0 1.2230028461344027 11.665226495403513 0 0 0 0 -39.515899445586911 -19.382641159298544 0 -19.382641159298544 55.590524195210946 0 0 0 0 -151.7123584767578 66.159178288047315 0 66.159178288047315 -211.873374660835 0 0 0 0 -186.62670363056986 -71.640149820690056 0 -71.640149820690056 45.25573906668069 0 0 0 0 -47.798028618235058 1.6919915856718859 0 1.6919915856718859 14.582705947463712 0 0 0 0 -155.61899487148003 -8.6671250269264419 0 -8.6671250269264419 44.850983598378662 0 0 0 0 -64.100122522475431 -10.951257363073154 0 -10.951257363073154 39.056395577623874 0 0 0 0 -72.247037642275245 -85.544808194040797 0 -85.544808194040797 12.704095592989688 0 0 0 0 -88.025292456244642 -51.398562613391732 0 -51.398562613391732 41.389719730709089 0 0 0 0 -55.748711709957206 -41.692128470267235 0 -41.692128470267235 -0.77223563093684788 0 0 0 0 -52.839301846717717 -28.91929607605806 0 -28.91929607605806 -10.715704538004388 0 0 0 0 -63.096907214676321 -31.903119558654339 0 -31.903119558654339 33.292298022550199 0 0 0 0 -54.63590743972054 -15.182275959661609 0 -15.182275959661609 14.940492901127868 0 0 0 0 -13.643273894706923 -9.6105761934141469 0 -9.6105761934141469 8.7358269759824783 0 0 0 0 -21.51951400576354 7.2972570907095218 0 7.2972570907095218 0.35935811078588742 0 0 0 0 -44.977798179337697 12.287611453567479 0 12.287611453567479 46.449983362048897 0 0 0 0 -39.314640222190064 7.1047670329894572 0 7.1047670329894572 29.205695011499301 0 0 0 0 -234.63003452533303 -64.591185971948335 0 -64.591185971948335 -48.707642368417623 0 0 0 0 -212.63750938431349 -129.58208123378242 0 -129.58208123378242 -75.431675005328998 0 0 0 0 -7.1016597997493136 77.502598508623407 0 77.502598508623407 81.045839997148505 0 0 0 0 4.6011441716091213 3.0968589714764789 0 3.0968589714764789 8.3104552592812979 0 0 0 0 -38.759837106772466 -3.3738403166321405 0 -3.3738403166321405 41.360985580457964 0 0 0 0 -37.954725477196916 17.526248973335896 0 17.526248973335896 3.5095759685614212 0 0 0 0 -67.510195480281254 -7.5441748126204402 0 -7.5441748126204402 20.082236708532719 0 0 0 0 -39.807413386675762 4.0636436475847404 0 4.0636436475847404 19.209983877039122 0 0 0 0 -48.814923358193482 -10.413310609203108 0 -10.413310609203108 9.6702757556668075 0 0 0 0 -54.90458629236673 -18.373218946819179 0 -18.373218946819179 8.5748283483559362 0 0 0 0 -30.207955453464365 -1.7417073387709188 0 -1.7417073387709188 13.884900372441878 0 0 0 0 -37.656401274041855 -12.62622110531106 0 -12.62622110531106 5.1528892498259893 0 0 0 0 -4.3476714615535421 -3.4578891882900251 0 -3.4578891882900251 18.540900573039757 0 0 0 0 -23.574638427325226 13.328034964273456 0 13.328034964273456 51.039497974131791 0 0 0 0 -82.505471532400406 -8.461743379431482 0 -8.461743379431482 65.102252010542088 0 0 0 0 -65.922373413189234 31.531392570314011 0 31.531392570314011 58.003113704653515 0 0 0 0 47.651647906863218 49.202852722930402 0 49.202852722930402 60.204195551255339 0 0 0 0 -2.721428221968381 22.621092416435204 0 22.621092416435204 34.938798495934861 0 0 0 0 -26.409232805472129 -66.969951506689085 0 -66.969951506689085 22.65475701789893 0 0 0 0 -31.805998966985499 -48.430484050785253 0 -48.430484050785253 -25.805583816723129 0 0 0 0 -58.356084290774561 3.646937737861208 0 3.646937737861208 55.659904070765151 0 0 0 0 -20.980824779648785 10.387535479856378 0 10.387535479856378 -0.6572457682167645 0 0 0 0 -86.343059730520508 0.8352830923605552 0 0.8352830923605552 99.064437666785125 0 0 0 0 34.814572205701552 -56.528414221851108 0 -56.528414221851108 -70.773158548641277 0 0 0 0 -14.550270312672467 5.4409273705255785 0 5.4409273705255785 -1.9321501185816281 0 0 0 0 -31.473287272209745 57.479326479660244 0 57.479326479660244 165.90457618892287 0 0 0 0 43.766348593832845 -30.690823345250806 0 -30.690823345250806 -40.291015454848093 0 0 0 0 -58.62036454808549 -33.795317928512759 0 -33.795317928512759 141.3236886336033 0 0 0 0 -947.47311690987408 -429.61266513584224 0 -429.61266513584224 -172.47941284230501 0 0 0 0 -5.3452509066816276 1.9957789250773992 0 1.9957789250773992 -0.93282140347020004 0 0 0 0 -165.77830006275508 324.90649940280821 0 324.90649940280821 -18.928644360571525 0 0 0 0 -796.03735299732034 -764.90285960378151 0 -764.90285960378151 -254.6626933178959 0 0 0 0 -64.740152929098258 135.06465130809579 0 135.06465130809579 127.66342744272538 0 0 0 0 -5.8095799087597584 0.65390449612842616 0 0.65390449612842616 1.4038887620587559 0 0 0 0 -274.0828087742907 -327.78746540579539 0 -327.78746540579539 -379.74818518839857 0 0 0 0 -262.71750241639529 -38.995059762397659 0 -38.995059762397659 -66.07517243539246 0 0 0 0 -390.73229260806329 -259.8897814692624 0 -259.8897814692624 -124.50802623808931 0 0 0 0 -13.368166846349453 4.1297986667938318 0 4.1297986667938318 1.2332381364312672 0 0 0 0 -177.53723374116089 -127.71914662371194 0 -127.71914662371194 -99.747517126139655 0 0 0 0 -157.42228439628161 -139.78103974061855 0 -139.78103974061855 -92.546153558036622 0 0 0 0 -18.663735910246885 8.2931840931532683 0 8.2931840931532683 -2.016309819232986 0 0 0 0 -202.30070293543895 12.185901001450176 0 12.185901001450176 46.096134008461377 0 0 0 0 -153.9040597495441 -110.88786751229634 0 -110.88786751229634 -18.951359610526083 0 0 0 0 -2496.8201963267379 1418.4406150489574 0 1418.4406150489574 -489.864541591604 0 0 0 0 -75.222920076303126 -47.540346171683268 0 -47.540346171683268 72.076671656877693 0 0 0 0 -44.057468650028255 -7.0519751199089313 0 -7.0519751199089313 0.17765541889321579 0 0 0 0 -10.088654057886743 114.02000409265202 0 114.02000409265202 -262.71763500907866 0 0 0 0 -159.44405176151486 218.58718026596063 0 218.58718026596063 -164.12337494591708 0 0 0 0 -106.55592207203881 226.60253155808886 0 226.60253155808886 -214.35148732846085 0 0 0 0 -199.04985680189384 139.75019159926165 0 139.75019159926165 -25.716958494811024 0 0 0 0 -997.93861797994759 1792.5288229133571 0 1792.5288229133571 -2253.8120613225055 0 0 0 0 11.206589660534519 143.83232369239454 0 143.83232369239454 -483.49918379255905 0 0 0 0 -488.83950061580617 -739.74184830987122 0 -739.74184830987122 -781.85634339112653 0 0 0 0 -2495.8402765837091 -808.18437844654648 0 -808.18437844654648 -133.16475398054919 0 0 0 0 -18.08649771256745 -1.4293341566430122 0 -1.4293341566430122 -1.8873309612276177 0 0 0 0 -500.63780518378189 608.61631360484034 0 608.61631360484034 -729.33611882228956 0 0 0 0 -1178.1641379646271 948.4334026913848 0 948.4334026913848 -866.91598601429359 0 0 0 0 -164.49448500804647 -3.5502345310042074 0 -3.5502345310042074 38.129238389383772 0 0 0 0 -58.709967351160145 -10.560947326592768 0 -10.560947326592768 0.87292112765411822 0 0 0 0 -656.48356599412546 406.92717786993063 0 406.92717786993063 -293.9869029347085 0 0 0 0 -15.816413052193852 6.3528556331728794 0 6.3528556331728794 4.7858454336611853 0 0 0 0 -338.27163122132333 186.88337778637515 0 186.88337778637515 -276.56160396276698 0 0 0 0 17.504273681624909 19.280120599268002 0 19.280120599268002 -11.550989848403162 0 0 0 0 -74.155808605090726 -20.511684305461753 0 -20.511684305461753 -4.4823041805381001 0 0 0 0 -186.36750538652632 -14.593869364947722 0 -14.593869364947722 86.222448698939274 0 0 0 0 -127.60344300995348 74.003940735120295 0 74.003940735120295 -152.21882484047353 0 0 0 0 -82.469317058443266 68.174858185994253 0 68.174858185994253 -152.71587939041137 0 0 0 0 -16.785595579154972 2.9686127578573434 0 2.9686127578573434 -1.456107846873838 0 0 0 0 -60.581467691812577 12.161238518862717 0 12.161238518862717 -155.75558741198438 0 0 0 0 -198.36747881340852 -120.98740877350852 0 -120.98740877350852 229.62790630773171 0 0 0 0 -80.589845217955087 -25.090712828746746 0 -25.090712828746746 -6.4873788408855093 0 0 0 0 -107.5447732951252 37.179030704933439 0 37.179030704933439 -151.07545755242199 0 0 0 0 -24.786162741627777 12.993355217148292 0 12.993355217148292 -150.01047274019581 0 0 0 0 -39.337181315662747 -12.90322770236935 0 -12.90322770236935 -157.20939917360283 0 0 0 0 -23.62807347036869 -2.4865026223205859 0 -2.4865026223205859 -151.73348840355879 0 0 0 0 1.9071904185257154 -12.720789828054421 0 -12.720789828054421 -158.93985437689264 0 0 0 0 -6.9983974491915433 -8.0775131074860838 0 -8.0775131074860838 -126.85455020325844 0 0 0 0 -1.38382064763573 3.5619662247927408 0 3.5619662247927408 -109.58946581992041 0 0 0 0 -20.804517575757927 -15.587615745042967 0 -15.587615745042967 -126.91996155439392 0 0 0 0 -28.510066834582176 3.9818936821098418 0 3.9818936821098418 -122.56852335005988 0 0 0 0 5.8586510997629375 3.6104987964326938 0 3.6104987964326938 -125.16153012005634 0 0 0 0 -11.054536097108212 -10.895480150237063 0 -10.895480150237063 -97.515455783867765 0 0 0 0 -3.9386903051636182 5.3609114149498964 0 5.3609114149498964 -97.193674878573688 0 0 0 0 -11.117674653294671 25.008164210112682 0 25.008164210112682 -139.54680226285518 0 0 0 0 4.2898988296656171 -20.138263873478536 0 -20.138263873478536 -85.650611845929234 0 0 0 0 5.5725461046240525 -2.0784313037893298 0 -2.0784313037893298 -139.93734277341781 0 0 0 0 16.132246698543895 -49.570673309518156 0 -49.570673309518156 -75.76915042680946 0 0 0 0 -41.452676441676886 -15.244863736328398 0 -15.244863736328398 -30.325745401963104 0 0 0 0 -27.562502037780419 -20.261031337817279 0 -20.261031337817279 -12.155566766037147 0 0 0 0 -21.777651770251396 -47.100349647341091 0 -47.100349647341091 -13.203234982385425 0 0 0 0 5.8728419486433268 28.502817113972924 0 28.502817113972924 -23.952534829270917 0 0 0 0 -15.100271944567794 -0.83479954425820324 0 -0.83479954425820324 -27.631371890266564 0 0 0 0 -26.058394204359502 -3.4170537272425463 0 -3.4170537272425463 -66.754561887179079 0 0 0 0 -4.2834349779990077 -3.7415044680294613 0 -3.7415044680294613 0.86528430417632052 0 0 0 0 -45.780112286291114 -24.663113696414712 0 -24.663113696414712 -48.353559531957217 0 0 0 0 -21.109740994099411 12.988129301280424 0 12.988129301280424 -113.38266935243223 0 0 0 0 -7.7210862369428668 4.4411408709709086 0 4.4411408709709086 7.2371946485905827 0 0 0 0 -54.635304698771506 82.707150892257459 0 82.707150892257459 -261.34033691294758 0 0 0 0 -191.32833546400798 172.57687580166896 0 172.57687580166896 -207.05563698703463 0 0 0 0 -50.595372921517992 -0.73232356390951736 0 -0.73232356390951736 -140.61088714893918 0 0 0 0 -68.293525713577765 83.568620178529841 0 83.568620178529841 -181.93606322618962 0 0 0 0 -1.0839874426492315 32.944184765023806 0 32.944184765023806 -118.02478941106369 0 0 0 0 13.717634658176394 16.701240831500257 0 16.701240831500257 -170.63934660324395 0 0 0 0 -165.03721808647379 43.817296467413072 0 43.817296467413072 -138.77277462282859 0 0 0 0 -48.378354457086971 -75.482767602234702 0 -75.482767602234702 82.752991179637945 0 0 0 0 -2.8942348710438637 -108.3331716588085 0 -108.3331716588085 20.924120526799697 0 0 0 0 -20.68138232824468 -16.736284426613079 0 -16.736284426613079 -12.62219337087209 0 0 0 0 -34.190331788020558 -15.800533526061145 0 -15.800533526061145 -45.827502690505753 0 0 0 0 -24.451181088577869 -0.73418027264847296 0 -0.73418027264847296 -71.454501756232844 0 0 0 0 -32.643879274980463 -38.99550513379711 0 -38.99550513379711 -143.48586717866692 0 0 0 0 -14.104412432740304 -11.998686744939423 0 -11.998686744939423 -9.2447205065972238 0 0 0 0 -36.048639267959516 -20.716646702032904 0 -20.716646702032904 -51.712315685031172 0 0 0 0 -33.781961480059181 -10.394930883618485 0 -10.394930883618485 -39.52998957422642 0 0 0 0 -35.186372769538139 -7.1357825821692131 0 -7.1357825821692131 -45.04774632670069 0 0 0 0 -32.922214850674209 -2.197213753970118 0 -2.197213753970118 -34.400573226203051 0 0 0 0 -32.321511945709062 0.1560369061428446 0 0.1560369061428446 -41.553609213354775 0 0 0 0 -26.947979760461749 -1.3223211042979983 0 -1.3223211042979983 -48.740014163166052 0 0 0 0 -22.394781071838224 -5.9250355322749328 0 -5.9250355322749328 -45.133440274307304 0 0 0 0 -27.518592272255773 -18.757473799401573 0 -18.757473799401573 19.055726145176649 0 0 0 0 -29.49888516309511 -29.511928077831492 0 -29.511928077831492 -33.959232993699608 0 0 0 0 -32.135613310012559 -32.030106310835663 0 -32.030106310835663 -36.026808544985556 0 0 0 0 -36.708360966244072 -30.841007928729056 0 -30.841007928729056 -30.989055092890226 0 0 0 0 -34.098963509099121 -28.195975680560849 0 -28.195975680560849 -28.499092150508375 0 0 0 0 -118.63945761680225 -103.47443803391275 0 -103.47443803391275 -8.3508814002337886 0 0 0 0 -98.225020930636674 -119.93283285675045 0 -119.93283285675045 -2.4137180597870156 0 0 0 0 -40.407960908731184 -38.803896544630334 0 -38.803896544630334 36.607094488592793 0 0 0 0 13.288148556487613 -32.90034058882663 0 -32.90034058882663 14.584060316840635 0 0 0 0 -20.592303296587488 -82.606441227357891 0 -82.606441227357891 86.694950751251326 0 0 0 0 -44.484885461948579 -68.309720468706956 0 -68.309720468706956 -138.41916114030042 0 0 0 0 -113.2197457722541 -157.97554726058479 0 -157.97554726058479 -80.054769925983237 0 0 0 0 -68.115764132002369 -132.68647360601534 0 -132.68647360601534 -66.135912594612819 0 0 0 0 -46.311007948012048 -163.91265006300543 0 -163.91265006300543 -114.97163042082025 0 0 0 0 -79.273751108172291 -195.33978081678993 0 -195.33978081678993 -122.77445057003865 0 0 0 0 -202.41525488537445 -248.62189137741052 0 -248.62189137741052 -49.709040272174434 0 0 0 0 -152.09295864419983 -252.75260366487817 0 -252.75260366487817 -50.266031337119216 0 0 0 0 -93.254757524307934 339.72409364726013 0 339.72409364726013 338.27051098542285 0 0 0 0 -424.83621266386035 -107.265331552063 0 -107.265331552063 349.17039029091393 0 0 0 0 -207.7384567031113 -544.73592701677899 0 -544.73592701677899 -593.51265606763832 0 0 0 0 -69.199790681985178 -250.16471564525696 0 -250.16471564525696 -335.2254862129181 0 0 0 0 8.6560354778630426 -33.920741781504148 0 -33.920741781504148 -902.19485348904323 0 0 0 0 6.239209118160943 6.5016955081355263 0 6.5016955081355263 -233.18486013329289 0 0 0 0 -697.77160100630135 -273.26586169920074 0 -273.26586169920074 104.45955883528524 0 0 0 0 -4.7965543024366752 -4.8228156557569513 0 -4.8228156557569513 -4.4391246922566756 0 0 0 0 -213.90075321204495 110.18817902859612 0 110.18817902859612 -152.95804458718192 0 0 0 0 -15.558142351786955 -3.8900926648317196 0 -3.8900926648317196 -284.03572199965635 0 0 0 0 -982.0233562401736 -197.46012270242966 0 -197.46012270242966 -78.590451456584475 0 0 0 0 -783.0404472320588 -368.52100593382022 0 -368.52100593382022 -375.87640667424853 0 0 0 0 -695.66496788002041 -159.93034869515353 0 -159.93034869515353 -490.6286770365428 0 0 0 0 -1062.2125236744105 -207.85475179262508 0 -207.85475179262508 -69.416211396658269 0 0 0 0 -2494.7259251494579 687.46652912954789 0 687.46652912954789 -16.639904967127656 0 0 0 0 -9.5593768961253005 3.6997017766385767 0 3.6997017766385767 0.48170297774843596 0 0 0 0 214.84132930909254 990.92960825725913 0 990.92960825725913 -29.161865165935055 0 0 0 0 252.03056007685518 -208.19631509856939 0 -208.19631509856939 -590.93014927938998 0 0 0 0 -1259.2143344703509 -255.75289640817925 0 -255.75289640817925 154.3563440948044 0 0 0 0 -894.1400250310835 -24.254547887414084 0 -24.254547887414084 394.54590111096036 0 0 0 0 -18.912636117904128 8.851576601281451 0 8.851576601281451 4.2936753953299522 0 0 0 0 353.00352448150807 332.19363785621238 0 332.19363785621238 224.0186834570145 0 0 0 0 -1220.5167678698508 -283.47226313945993 0 -283.47226313945993 141.50777638258114 0 0 0 0 -2497.6615332508773 -1286.0077922680541 0 -1286.0077922680541 -443.33777758088786 0 0 0 0 -1350.0763223297927 -529.62443152169453 0 -529.62443152169453 53.229639814325182 0 0 0 0 -2500.4247979264546 -518.4262991310037 0 -518.4262991310037 396.8367391643925 0 0 0 0 -1552.1387617339424 -664.165319118159 0 -664.165319118159 49.95298664879509 0 0 0 0 -1057.9695662261802 -330.68121079850584 0 -330.68121079850584 23.742321175473023 0 0 0 0 0.38324107012223863 -1.0701443081904216 0 -1.0701443081904216 1.7857770052852393 0 0 0 0 -809.99842986600197 52.394979114644528 0 52.394979114644528 -102.32770424431317 0 0 0 0 -1518.1333575968074 -408.1976935972508 0 -408.1976935972508 173.12001384276329 0 0 0 0 -833.96464152147018 95.391558376596436 0 95.391558376596436 27.797933438463815 0 0 0 0 118.36338591841923 -340.34926785954895 0 -340.34926785954895 -508.91040854503194 0 0 0 0 -1782.7818184008211 -366.39295654468793 0 -366.39295654468793 139.10120954823654 0 0 0 0 -811.58677593369794 174.20363892990389 0 174.20363892990389 13.640225313397949 0 0 0 0 -1481.0531269486819 145.53670039340145 0 145.53670039340145 110.94542414501007 0 0 0 0 -736.05200375700952 -169.57823216571848 0 -169.57823216571848 130.47930716510257 0 0 0 0 -1947.6107360837705 452.48962077974261 0 452.48962077974261 119.16779040003229 0 0 0 0 -1988.4744878393522 -146.97054755857661 0 -146.97054755857661 223.03730233418412 0 0 0 0 -2126.8975156381493 -368.70284188689476 0 -368.70284188689476 37.4714497949453 0 0 0 0 -142.71161884451067 -146.48550590040367 0 -146.48550590040367 89.78547788014248 0 0 0 0 -67.302991582007962 -84.408902839701568 0 -84.408902839701568 26.172545859878028 0 0 0 0 -132.51288174228466 -37.211557644229174 0 -37.211557644229174 138.71803420356628 0 0 0 0 -102.94890208832658 50.304486202974886 0 50.304486202974886 190.35676014714772 0 0 0 0 -57.449009983552969 57.57209500125191 0 57.57209500125191 136.08658312592092 0 0 0 0 -130.86692083916569 8.9814774996311826 0 8.9814774996311826 156.95219366022161 0 0 0 0 -254.80346769146854 108.3464106390461 0 108.3464106390461 309.94121934666487 0 0 0 0 -98.147450133605162 178.63611705339554 0 178.63611705339554 269.58116713631716 0 0 0 0 21.437206925998908 199.82942276627273 0 199.82942276627273 185.23110745354279 0 0 0 0 -20.911726363709363 7.7302727286316397 0 7.7302727286316397 8.8478752140147545 0 0 0 0 155.35749731986971 27.010816935559255 0 27.010816935559255 -25.49650684277151 0 0 0 0 -1.0253751408997545 -6.7964432639067169 0 -6.7964432639067169 6.2125064360230029 0 0 0 0 -29.610401866862958 -59.577716047421745 0 -59.577716047421745 -76.341651047129744 0 0 0 0 -290.75788538261986 -50.439844608552903 0 -50.439844608552903 25.884719414259052 0 0 0 0 153.22856745642639 -18.653765979358525 0 -18.653765979358525 -315.15410420604769 0 0 0 0 134.46422917582095 62.110124431327677 0 62.110124431327677 57.005199451479712 0 0 0 0 -6.7696716062782798 92.656817681647226 0 92.656817681647226 143.83669217146053 0 0 0 0 28.828271964157466 -2.609495400481137 0 -2.609495400481137 73.132470673515854 0 0 0 0 -26.140622332866769 -0.88830408343164891 0 -0.88830408343164891 94.574759223596629 0 0 0 0 56.955102929176064 -11.524946562522473 0 -11.524946562522473 65.106023201495191 0 0 0 0 -11.828532510471859 4.6202231643069425 0 4.6202231643069425 8.0077914496219993 0 0 0 0 -13.781693130353233 4.0109608314278375 0 4.0109608314278375 68.147759288886277 0 0 0 0 -14.214306854031719 -0.79991754814493987 0 -0.79991754814493987 2.9318866321473234 0 0 0 0 -15.392778841363906 10.044720824198521 0 10.044720824198521 51.826786863374991 0 0 0 0 -65.547295893607952 -47.247825405325329 0 -47.247825405325329 75.770044944440997 0 0 0 0 -32.198030004145949 -33.489851670021437 0 -33.489851670021437 41.75474307309014 0 0 0 0 -34.348329511652992 -11.201877100087358 0 -11.201877100087358 2.9023428149030224 0 0 0 0 -18.244897770558588 2.2745149621439822 0 2.2745149621439822 15.657676344811273 0 0 0 0 -36.452708041742881 -6.9596544710660737 0 -6.9596544710660737 0.10326360615636077 0 0 0 0 -14.270520859392342 -3.5640752941384051 0 -3.5640752941384051 1.5210354509486375 0 0 0 0 -68.066715760942316 -18.567646724635779 0 -18.567646724635779 -3.9491915907710791 0 0 0 0 -8.9181053916981909 2.4403262048635952 0 2.4403262048635952 5.9876401517067279 0 0 0 0 -13.15118668304406 8.948501728045148 0 8.948501728045148 21.711871101342467 0 0 0 0 -18.64362977928046 12.375686330807454 0 12.375686330807454 24.034343543715629 0 0 0 0 27.087599146463617 343.38893637336093 0 343.38893637336093 110.95450954697458 0 0 0 0 -23.067351891819271 -9.9799160670207812 0 -9.9799160670207812 -3.2013496755146207 0 0 0 0 -19.425244732227853 3.1342746948219329 0 3.1342746948219329 9.186936271600457 0 0 0 0 -36.810445834794265 -6.8072613083085081 0 -6.8072613083085081 3.4815720080828125 0 0 0 0 -287.07381854540017 -84.304746108308677 0 -84.304746108308677 368.24284249323728 0 0 0 0 12.580585822746798 -151.19404115513282 0 -151.19404115513282 145.64977832242596 0 0 0 0 -27.708489839242247 -256.34900548074245 0 -256.34900548074245 -101.70692942683627 0 0 0 0 -643.07859672544146 -949.03976977699404 0 -949.03976977699404 -880.56464944707807 0 0 0 0 -420.92207282652817 369.28367560480183 0 369.28367560480183 -246.01960803967472 0 0 0 0 -544.9627427439591 -213.98542185011331 0 -213.98542185011331 70.766945971702171 0 0 0 0 231.60298742922805 124.73108799212389 0 124.73108799212389 -113.82008687316011 0 0 0 0 48.411228076358384 -228.14497915249444 0 -228.14497915249444 -329.5120653674237 0 0 0 0 -2499.7301889228402 -570.83272141175451 0 -570.83272141175451 -1696.0282697231796 0 0 0 0 -3343.7092313970606 -709.69302156679203 0 -709.69302156679203 241.25287349405909 0 0 0 0 -15.615007106013977 -4.027310549952503 0 -4.027310549952503 -1.7334514734276327 0 0 0 0 -2263.4364183132257 758.93830773099751 0 758.93830773099751 -123.81249323818145 0 0 0 0 -1329.723831884432 -1620.2206679770893 0 -1620.2206679770893 -1221.544431722072 0 0 0 0 -364.49319562300661 370.06820628165474 0 370.06820628165474 -247.83451894199948 0 0 0 0 -55.459683974343534 -629.24879562822741 0 -629.24879562822741 -730.89059196070207 0 0 0 0 -1777.6488640330717 -1356.3016351654533 0 -1356.3016351654533 -762.63500965079447 0 0 0 0 -1634.3009113530097 -572.85129613523702 0 -572.85129613523702 -358.45661514249184 0 0 0 0 -3446.6068952671812 -564.1243151040901 0 -564.1243151040901 -312.73418627277385 0 0 0 0 -2500.0645834738143 -724.95239820380402 0 -724.95239820380402 180.73171545024528 0 0 0 0 -1895.0445036403835 -363.99032561986832 0 -363.99032561986832 308.30620018033932 0 0 0 0 -2024.0156182085193 -421.59987827552629 0 -421.59987827552629 297.46565462185356 0 0 0 0 -1875.3160203040707 -208.453228286664 0 -208.453228286664 362.27162789129085 0 0 0 0 -2029.9231198567541 -263.26009184324982 0 -263.26009184324982 359.83113999151328 0 0 0 0 -341.6750056103192 -569.97889468052222 0 -569.97889468052222 -566.92456452501801 0 0 0 0 -1.7157335050753917 -2.0982019625192834 0 -2.0982019625192834 -6.385382052035526 0 0 0 0 -1670.3638121368203 -539.99253340125927 0 -539.99253340125927 70.190850643530212 0 0 0 0 -1.5592601807724122 -0.10833148785005609 0 -0.10833148785005609 1.1509858122971925 0 0 0 0 -201.1252307950308 -13.642763140364423 0 -13.642763140364423 120.8321570766368 0 0 0 0 -733.82947136845178 -529.3310841800477 0 -529.3310841800477 -156.07561240572568 0 0 0 0 -31.283047887234716 -129.19601874812042 0 -129.19601874812042 -427.46499856646903 0 0 0 0 -351.6561849478021 -405.09290273403508 0 -405.09290273403508 -135.1840962535407 0 0 0 0 -761.55122380514149 -375.85378226285457 0 -375.85378226285457 108.91059470529308 0 0 0 0 -745.30530366460152 -255.5522998876263 0 -255.5522998876263 15.31218000106287 0 0 0 0 -1090.1158999038416 -190.80053178869434 0 -190.80053178869434 34.150809146127813 0 0 0 0 -2.0308978877900081 -2.4599220102249788 0 -2.4599220102249788 -15.320976011616601 0 0 0 0 -756.23596863717648 -701.75854042777723 0 -701.75854042777723 -211.30754081518398 0 0 0 0 -163.19608293687998 -379.23848000722091 0 -379.23848000722091 -155.97363279582396 0 0 0 0 -1253.0189146959747 -265.16889450156305 0 -265.16889450156305 186.70389706355581 0 0 0 0 -585.92923490703652 -267.39486308713083 0 -267.39486308713083 168.96817434433524 0 0 0 0 -673.85355466022884 389.37706729568595 0 389.37706729568595 -298.03977982083711 0 0 0 0 -956.53699511670675 -703.62314172858464 0 -703.62314172858464 -384.45012156373946 0 0 0 0 -2121.8550561891698 6.9242561508662988 0 6.9242561508662988 9.9369565118069545 0 0 0 0 -2129.370660178738 -131.01476670888539 0 -131.01476670888539 238.28533367306352 0 0 0 0 -2499.6921370820642 -264.8859872324864 0 -264.8859872324864 320.27621122682422 0 0 0 0 -1746.6349345753956 -248.11608586591669 0 -248.11608586591669 132.41317750365079 0 0 0 0 -40.84816593589494 -17.799692210287958 0 -17.799692210287958 13.015188430965281 0 0 0 0 -29.982166828709524 -29.927388654145034 0 -29.927388654145034 -10.763792493255096 0 0 0 0 -0.18631452598981113 -8.1903245789405688 0 -8.1903245789405688 5.2233565311740158 0 0 0 0 -18.566086758935853 -48.683380857472002 0 -48.683380857472002 -26.264350403856952 0 0 0 0 -3.6456559823217312 -3.7447124607326963 0 -3.7447124607326963 -0.66331129191941507 0 0 0 0 11.42575565207153 -41.9671630923458 0 -41.9671630923458 -43.199808402456256 0 0 0 0 10.869473543888489 13.939560565179363 0 13.939560565179363 11.576528438602509 0 0 0 0 21.8865320825862 -13.425169630020719 0 -13.425169630020719 -47.772994065449893 0 0 0 0 -70.79406756260687 -90.47042695139362 0 -90.47042695139362 -105.34479735752029 0 0 0 0 2.149724046030645 -3.47445038757823 0 -3.47445038757823 5.8726363503259016 0 0 0 0 -70.797040496354384 4.5057641790078833 0 4.5057641790078833 73.38784154575842 0 0 0 0 71.245995371920799 3.5282270119182613 0 3.5282270119182613 11.688514776136799 0 0 0 0 -0.36619764754063056 0.13126295874077343 0 0.13126295874077343 1.3611720016817337 0 0 0 0 -31.699827555028605 -49.174336460739141 0 -49.174336460739141 -32.261537067878862 0 0 0 0 -68.292234986642598 -76.220721960106289 0 -76.220721960106289 -82.38841634993878 0 0 0 0 15.81256646537804 -41.11766149568939 0 -41.11766149568939 -122.59436929296226 0 0 0 0 -58.474523849035904 -55.362644990307672 0 -55.362644990307672 -44.299862493614455 0 0 0 0 -10.088321747611189 -80.093019099143021 0 -80.093019099143021 -176.23155243602378 0 0 0 0 5.7844281223708549 -124.95846870721692 0 -124.95846870721692 -239.11733669148634 0 0 0 0 -18.880214383891143 -170.21163306877179 0 -170.21163306877179 -520.03473154562789 0 0 0 0 -28.692368241052463 -93.291565262267341 0 -93.291565262267341 -103.90071426201212 0 0 0 0 -5.2478115456087835 18.597073316595242 0 18.597073316595242 -156.76220320952416 0 0 0 0 -34.777145233925694 -200.88494869603755 0 -200.88494869603755 -980.50515992024657 0 0 0 0 -6.0966251184944653 -4.1448526755763719 0 -4.1448526755763719 -3.5755278358724034 0 0 0 0 -975.60413781569241 272.36943305238833 0 272.36943305238833 0.18175978242015844 0 0 0 0 -109.1975274890392 87.875108561643174 0 87.875108561643174 -85.72989654687035 0 0 0 0 -90.372841748812789 -79.107609488055459 0 -79.107609488055459 31.959904334501516 0 0 0 0 12.602579261533947 -12.648616132149243 0 -12.648616132149243 -26.740670528213741 0 0 0 0 -14.436985909280338 -16.124029282866104 0 -16.124029282866104 -139.94859766333366 0 0 0 0 -5.5335045484698711 -3.1059703169381514 0 -3.1059703169381514 -1.0041301219469361 0 0 0 0 -48.183679932815721 -84.332509288768051 0 -84.332509288768051 -92.156131826136971 0 0 0 0 -14.363881390401602 -12.897734995506852 0 -12.897734995506852 -8.2852804766414661 0 0 0 0 -31.631030779775756 -15.909889719665443 0 -15.909889719665443 -4.7792553299605061 0 0 0 0 -22.385247166950649 -21.376041183313646 0 -21.376041183313646 -8.2947184048407507 0 0 0 0 0.82015516730271543 -6.9350241972866336 0 -6.9350241972866336 -5.8003410853869148 0 0 0 0 -5.8351635183848458 -6.7860385674625903 0 -6.7860385674625903 -0.045589095102037902 0 0 0 0 -18.392771311435354 -17.254142568902807 0 -17.254142568902807 -7.8860562454208321 0 0 0 0 -23.546878157452738 -19.574345901246943 0 -19.574345901246943 -8.6468305025937298 0 0 0 0 -19.470232369782025 -15.394110871933663 0 -15.394110871933663 -8.1441615514577279 0 0 0 0 -7.0319984955591082 -14.57834875963411 0 -14.57834875963411 -7.9648765890636071 0 0 0 0 -8.1435899603346513 -11.876345216435297 0 -11.876345216435297 2.2659361039585733 0 0 0 0 -91.600893916329369 -113.4660171326866 0 -113.4660171326866 0.80959349541444681 0 0 0 0 -36.630847113425261 34.796176309335578 0 34.796176309335578 -68.930657862158796 0 0 0 0 -629.30296452169932 -166.27803881792727 0 -166.27803881792727 -17.073466098986501 0 0 0 0 -140.79673211315821 -61.776157016457091 0 -61.776157016457091 -13.331650746062337 0 0 0 0 0.9571852874506277 0.18352286511424176 0 0.18352286511424176 -0.53975706517425581 0 0 0 0 -22.98511168515688 16.714226524175501 0 16.714226524175501 -11.735460008471478 0 0 0 0 -9.2143618892941959 -4.9801609156386064 0 -4.9801609156386064 0.29998212910322763 0 0 0 0 -11.475971049854024 -6.2888877270126731 0 -6.2888877270126731 2.4851060225544703 0 0 0 0 -9.3453430941140141 -1.8177578310892528 0 -1.8177578310892528 1.1033897372253705 0 0 0 0 -18.458745400166663 -4.4703620699767157 0 -4.4703620699767157 4.0061333349575534 0 0 0 0 -14.640006294253666 -7.5397545570601139 0 -7.5397545570601139 -0.75073444565941561 0 0 0 0 -16.313934603316014 -1.8467491382777563 0 -1.8467491382777563 13.6407745358527 0 0 0 0 -10.12683754750681 3.853568673171254 0 3.853568673171254 13.901566925207854 0 0 0 0 -5.9692047261670496 -2.264978448309634 0 -2.264978448309634 -0.4167621090669984 0 0 0 0 -31.250975659131925 -20.99111602804545 0 -20.99111602804545 -1.5539127995153561 0 0 0 0 -20.402630178974505 -18.373994665746579 0 -18.373994665746579 4.0599991062346135 0 0 0 0 -17.346330045711227 -9.1301775220035868 0 -9.1301775220035868 6.115650130231284 0 0 0 0 -20.243091849748453 -9.7175187434032182 0 -9.7175187434032182 3.611913441118574 0 0 0 0 -21.454309727651093 -15.433637159224041 0 -15.433637159224041 -2.0000529940051339 0 0 0 0 -27.586902305956755 -19.406362961194191 0 -19.406362961194191 5.1526678136430633 0 0 0 0 -8.4189212647397653 -21.233772633394437 0 -21.233772633394437 5.1683481667714659 0 0 0 0 -17.193700994232302 -17.763610624197685 0 -17.763610624197685 -0.8239341071150883 0 0 0 0 -11.475834211611073 -24.786619803614371 0 -24.786619803614371 1.1579052050967675 0 0 0 0 -24.283580527893889 -24.907725462277046 0 -24.907725462277046 -4.9008248741662293 0 0 0 0 2.5700970287416567 -22.89865996935805 0 -22.89865996935805 -8.390221344198153 0 0 0 0 21.06813520367723 -2.4403751031077263 0 -2.4403751031077263 -19.303353402176072 0 0 0 0 -3.732530053028043 -16.6645797462246 0 -16.6645797462246 -8.7268569996627861 0 0 0 0 -12.020470228916949 -17.168266496007973 0 -17.168266496007973 -3.1648753840043327 0 0 0 0 11.268317271625619 -52.850012838765338 0 -52.850012838765338 -65.434225772063655 0 0 0 0 -1.4983092547627166 -32.257323284256017 0 -32.257323284256017 -21.603520589720574 0 0 0 0 -131.39420662208613 -39.095001060208006 0 -39.095001060208006 49.227740402951952 0 0 0 0 -267.47318477636873 -0.19684929746600233 0 -0.19684929746600233 -13.579448858600529 0 0 0 0 -36.365055485582971 -14.091643622597205 0 -14.091643622597205 0.019665833067193716 0 0 0 0 44.464050212362054 -83.955414255785399 0 -83.955414255785399 -71.82473342834146 0 0 0 0 8.6570487310495068 -5.9550748790443109 0 -5.9550748790443109 -0.95893005240029305 0 0 0 0 4.6626733826530415 -29.605785626636496 0 -29.605785626636496 -2.4192272772383361 0 0 0 0 39.972999837350471 -12.044605102497428 0 -12.044605102497428 36.850831106061378 0 0 0 0 -128.89262164819957 -57.74501111452264 0 -57.74501111452264 174.40378159535794 0 0 0 0 -52.402518717159182 -31.39185465192611 0 -31.39185465192611 26.705824243485495 0 0 0 0 -43.579317562300062 -17.852332978091795 0 -17.852332978091795 -2.0175806429264345 0 0 0 0 -89.714891102412366 -40.055820757725087 0 -40.055820757725087 35.919199265254974 0 0 0 0 -153.19814403083728 -114.66004489067745 0 -114.66004489067745 104.75366917566384 0 0 0 0 -84.962526132017956 -96.504870407439739 0 -96.504870407439739 107.89951295946139 0 0 0 0 -35.386023299302906 -60.810616790742642 0 -60.810616790742642 97.104703452680951 0 0 0 0 34.359781350998674 48.27238576676973 0 48.27238576676973 272.00227438568982 0 0 0 0 -8.519596737664358 -5.0708135455513137 0 -5.0708135455513137 -1.7905535353443867 0 0 0 0 -151.00454422186885 -9.7236116886188029 0 -9.7236116886188029 61.459909667292322 0 0 0 0 31.268433694232954 20.873288210663304 0 20.873288210663304 66.527985150654786 0 0 0 0 -30.503161223707139 -123.7588641933653 0 -123.7588641933653 92.144745391642573 0 0 0 0 -215.36446178422557 -35.590666887622319 0 -35.590666887622319 -50.06272787454327 0 0 0 0 -42.391847337992658 -88.818978039027115 0 -88.818978039027115 -37.802059064881178 0 0 0 0 -59.390523102254519 -79.271593464406578 0 -79.271593464406578 -268.86113545384887 0 0 0 0 -78.099957795486262 -135.36446496567351 0 -135.36446496567351 -175.24440684610511 0 0 0 0 -55.956337105202692 -103.19027361233702 0 -103.19027361233702 -65.806082993294694 0 0 0 0 -149.70467857038602 -130.54654251050715 0 -130.54654251050715 -66.670169778481068 0 0 0 0 -22.461787513428135 -10.586964343696081 0 -10.586964343696081 -3.8415140197762412 0 0 0 0 -28.017722002805385 -13.876561059739288 0 -13.876561059739288 4.1117885745097738 0 0 0 0 -10.980669745875268 1.3542821539870928 0 1.3542821539870928 8.2494640821525724 0 0 0 0 -25.821574489382328 36.878086414240443 0 36.878086414240443 30.977921863889605 0 0 0 0 -10.950935120798331 -0.083305153576773705 0 -0.083305153576773705 4.9889551196254418 0 0 0 0 -30.186155033046816 -10.318452580615713 0 -10.318452580615713 1.4923863784380842 0 0 0 0 -18.754314733242481 -3.2755163119982491 0 -3.2755163119982491 13.450627135968821 0 0 0 0 -53.523670265625697 -11.199573000568307 0 -11.199573000568307 81.289349741515252 0 0 0 0 -91.215223585146305 7.8469934546828881 0 7.8469934546828881 145.94530369573476 0 0 0 0 -156.63636652997229 -52.306156518874104 0 -52.306156518874104 -42.749453832597965 0 0 0 0 -67.862911203570548 49.051280797841628 0 49.051280797841628 -30.067867945308535 0 0 0 0 -59.631378026930179 49.966758023577313 0 49.966758023577313 -7.5977573022828437 0 0 0 0 -3.1812648943027995 -0.40603015714777868 0 -0.40603015714777868 3.1502131147203212 0 0 0 0 -7.5779762846213998 -1.1547110901792621 0 -1.1547110901792621 6.0227363229105322 0 0 0 0 6.1612685608779429 19.535100001811315 0 19.535100001811315 9.980667327802621 0 0 0 0 -42.186240374943736 -21.3415442581138 0 -21.3415442581138 21.237869735135973 0 0 0 0 -66.301051099332426 -105.31753418715078 0 -105.31753418715078 -46.404735168881416 0 0 0 0 -3.651348471561505 -23.545073308418068 0 -23.545073308418068 3.9265331925630562 0 0 0 0 -33.853234782192885 -120.07553568500953 0 -120.07553568500953 -209.24749129411157 0 0 0 0 0.042609302403974425 -3.1312133467966383 0 -3.1312133467966383 -1.4369305828452821 0 0 0 0 -122.32648781895477 -188.83863854423896 0 -188.83863854423896 -93.114904025383112 0 0 0 0 -76.903945319481863 -184.08774147155646 0 -184.08774147155646 -81.128691245231948 0 0 0 0 -88.367982699885033 -164.83225758869185 0 -164.83225758869185 -84.514186775098551 0 0 0 0 -127.64076053025019 -211.5555525876679 0 -211.5555525876679 -64.480404351817015 0 0 0 0 -101.94055988130276 -152.06856818675669 0 -152.06856818675669 4.7204597886288866 0 0 0 0 0.45895111657661403 -3.1053387654581925 0 -3.1053387654581925 -3.602136821947223 0 0 0 0 -63.72748960691024 -253.52883552772846 0 -253.52883552772846 -412.72828619647498 0 0 0 0 -380.1801471006911 -175.67970294681754 0 -175.67970294681754 -177.57687583432647 0 0 0 0 -150.30215945746932 -124.00604678081629 0 -124.00604678081629 -180.0043231342861 0 0 0 0 -84.516424877703685 -115.63718402476229 0 -115.63718402476229 -241.14215490322704 0 0 0 0 -94.127886323443818 -56.401564253236756 0 -56.401564253236756 -542.51177130796987 0 0 0 0 -173.65689059469878 -218.72178045879355 0 -218.72178045879355 -64.203471743176351 0 0 0 0 -185.93079757641726 -125.10876886012072 0 -125.10876886012072 116.62476315124695 0 0 0 0 -114.47124218069803 10.073527774967488 0 10.073527774967488 -5.0300389128924508 0 0 0 0 -214.99911525666903 -309.05921885266912 0 -309.05921885266912 -132.83556838313098 0 0 0 0 -16.455048827596329 -22.595437081005684 0 -22.595437081005684 170.80545597747641 0 0 0 0 20.363107125136594 -66.958776087613842 0 -66.958776087613842 90.965413895393112 0 0 0 0 -0.706973324991921 -3.3667434932352478 0 -3.3667434932352478 0.56721255654226033 0 0 0 0 12.46225103836332 -20.977769201907904 0 -20.977769201907904 -462.63744484540985 0 0 0 0 15.449917311511854 7.1059338104487892 0 7.1059338104487892 -218.47267092959464 0 0 0 0 4.4511718405265128 -169.59453539499918 0 -169.59453539499918 -251.53969159237977 0 0 0 0 -23.527845450160385 -155.48967554196634 0 -155.48967554196634 -246.36190215350689 0 0 0 0 -20.489288439961456 -35.033264437019284 0 -35.033264437019284 -23.854745423530403 0 0 0 0 27.469194581302872 -121.76144614348505 0 -121.76144614348505 -160.781573454095 0 0 0 0 2.7277734871095163 -110.64089984299653 0 -110.64089984299653 -165.7215979008472 0 0 0 0 -1.8261019611575477 -5.5223688481377753 0 -5.5223688481377753 1.6611030337617654 0 0 0 0 -1.2855437172046891 -3.183350283727993 0 -3.183350283727993 -2.9418087496904226 0 0 0 0 14.922620897646993 -8.4234911970004305 0 -8.4234911970004305 0.62207792441176935 0 0 0 0 -84.526244361713907 -24.698243986803391 0 -24.698243986803391 13.756907083990882 0 0 0 0 15.690824663831108 -2.0182220286874752 0 -2.0182220286874752 -33.065830158661811 0 0 0 0 -279.46108535194617 -120.51889301980918 0 -120.51889301980918 20.709894287057523 0 0 0 0 47.543133025887073 -98.934677690223452 0 -98.934677690223452 20.697260482064394 0 0 0 0 -642.16920548259441 -438.02651084227637 0 -438.02651084227637 89.295846882214391 0 0 0 0 90.654147876572097 -13.386346964422955 0 -13.386346964422955 -139.70717667369672 0 0 0 0 79.748426108701096 -180.64806056837006 0 -180.64806056837006 -125.55114909349413 0 0 0 0 -743.92314979399089 8.3923328651308111 0 8.3923328651308111 99.974450791323761 0 0 0 0 -177.3849540822921 264.84251462267139 0 264.84251462267139 8.7190889804650169 0 0 0 0 -478.72211070190315 165.32317994337973 0 165.32317994337973 628.5356069562331 0 0 0 0 -488.33625871717959 -254.28703193196043 0 -254.28703193196043 -188.64827889073808 0 0 0 0 -3.6071924719811506 -2.2347668820785387 0 -2.2347668820785387 1.7454937500975447 0 0 0 0 -135.36464247255208 -180.04873302600072 0 -180.04873302600072 -173.64568533293095 0 0 0 0 246.14832142735395 78.440114304377857 0 78.440114304377857 -35.678212301606436 0 0 0 0 -36.828567683303845 -45.629389773011553 0 -45.629389773011553 143.21952977450928 0 0 0 0 -4.7792704024906314 -3.4236440276909219 0 -3.4236440276909219 2.5540911543801395 0 0 0 0 35.176866847548808 -245.35548521331111 0 -245.35548521331111 -58.839477297916346 0 0 0 0 30.485926664521685 21.506986771348238 0 21.506986771348238 27.927434848133544 0 0 0 0 -71.794594297058211 -146.14438276619376 0 -146.14438276619376 -86.336945498791465 0 0 0 0 127.6277175781579 -181.50912848911776 0 -181.50912848911776 -339.28761832763121 0 0 0 0 -112.04809629574447 -105.73142622550131 0 -105.73142622550131 -333.47630294172723 0 0 0 0 -36.806685591938731 -124.72995908573466 0 -124.72995908573466 -266.80928286548078 0 0 0 0 78.194104725953366 -155.61273005942894 0 -155.61273005942894 -479.46187656931215 0 0 0 0 -29.969098236968421 22.586887108956944 0 22.586887108956944 -1226.3617525416848 0 0 0 0 -304.9596093483633 -451.96024839432539 0 -451.96024839432539 -259.53926745493118 0 0 0 0 -244.60742167825106 -31.070795895771482 0 -31.070795895771482 3.3326380731396057 0 0 0 0 -222.5203502300501 -100.13186166912146 0 -100.13186166912146 -52.122948645808833 0 0 0 0 -221.43246947002353 -239.16636995853315 0 -239.16636995853315 -329.62935849009955 0 0 0 0 -361.10722443884879 -77.384375536517837 0 -77.384375536517837 -463.84198550530709 0 0 0 0 -18.393247170253744 -134.15821841918932 0 -134.15821841918932 -513.06547062937534 0 0 0 0 -252.32306033593341 -56.84650907042851 0 -56.84650907042851 -303.24846209189673 0 0 0 0 -76.810865417428431 -120.89537566556555 0 -120.89537566556555 -852.76799545663926 0 0 0 0 -225.25643803539424 205.04024752189252 0 205.04024752189252 -694.59663939194706 0 0 0 0 -298.49392345832894 572.52341711176268 0 572.52341711176268 405.50119432639895 0 0 0 0 271.82084597750259 -969.4814255445491 0 -969.4814255445491 -286.70483716090621 0 0 0 0 11.93209151738256 592.86921678281487 0 592.86921678281487 23.554094536282719 0 0 0 0 -325.17029417103549 294.92914729313247 0 294.92914729313247 202.14937247241505 0 0 0 0 -148.81131199889205 212.84890326827099 0 212.84890326827099 -295.36727729116183 0 0 0 0 13.96479662695856 -79.05388622422015 0 -79.05388622422015 -608.49024279727564 0 0 0 0 -298.88900233355525 -325.02099784111624 0 -325.02099784111624 504.2743118962253 0 0 0 0 -5.9016413125553058 -1.5419103975991071 0 -1.5419103975991071 -0.18054190975022166 0 0 0 0 -31.644185867109265 -12.700946217622057 0 -12.700946217622057 -3.2213104631694884 0 0 0 0 211.23406063597577 -92.743088104512026 0 -92.743088104512026 -609.60815604861682 0 0 0 0 -281.5421000705428 -238.11165391842474 0 -238.11165391842474 677.317541071812 0 0 0 0 -3.7033065600553527 35.670430903846864 0 35.670430903846864 -472.89689796948983 0 0 0 0 -333.24213962759677 539.22174066757043 0 539.22174066757043 225.52208687884968 0 0 0 0 -31.615251903771423 -106.84438108770883 0 -106.84438108770883 -126.77079163574763 0 0 0 0 232.84712641838178 -223.40123066380158 0 -223.40123066380158 -227.51971043793992 0 0 0 0 -40.319601133546229 -16.767837740941498 0 -16.767837740941498 -4.2066117637800824 0 0 0 0 -75.152111711537145 -8.4613987844732037 0 -8.4613987844732037 -245.8100874945776 0 0 0 0 -45.6170599557081 -57.623018622245581 0 -57.623018622245581 -164.03011943488127 0 0 0 0 -143.38218459051495 4.7001747510958012 0 4.7001747510958012 142.87959497383054 0 0 0 0 -61.487255170111894 -74.22829151568294 0 -74.22829151568294 -6.7138004611356337 0 0 0 0 -26.20883322264126 -165.79269813084102 0 -165.79269813084102 -146.79403439686439 0 0 0 0 17.45597529324732 20.928755347369588 0 20.928755347369588 16.984646827437246 0 0 0 0 10.926261649085518 -86.902565267360103 0 -86.902565267360103 -122.13119708631712 0 0 0 0 -3.8372655353159644 -155.66360592245383 0 -155.66360592245383 -158.61653990200693 0 0 0 0 -30.974139082843976 -211.19350962353747 0 -211.19350962353747 -234.63276608339584 0 0 0 0 -3.6597633937053615 -180.63207645885905 0 -180.63207645885905 -195.26286182907461 0 0 0 0 49.313313404421933 -144.53621272396549 0 -144.53621272396549 -278.82215997841013 0 0 0 0 2.1139754516989342 -105.73863054749381 0 -105.73863054749381 -313.77889634488656 0 0 0 0 -7.9025032818099135 -131.20914283376806 0 -131.20914283376806 -182.76660563783526 0 0 0 0 -3.2745149857155411 -154.88456924892159 0 -154.88456924892159 -221.5755514806242 0 0 0 0 -608.72476120699866 124.87193600257069 0 124.87193600257069 52.021028678691437 0 0 0 0 -312.7612719207882 -3.572517788892128 0 -3.572517788892128 32.075436598709985 0 0 0 0 -852.11684574286483 304.7797569610284 0 304.7797569610284 67.811345120337137 0 0 0 0 -263.6005924966712 97.109032827383089 0 97.109032827383089 12.273820662092476 0 0 0 0 -82.063766000971555 -34.477091917695873 0 -34.477091917695873 26.963291458420827 0 0 0 0 -78.559737614734331 12.019717823457086 0 12.019717823457086 -57.141669054600243 0 0 0 0 -252.00566476457061 105.28420938524141 0 105.28420938524141 -44.412471518787243 0 0 0 0 -285.02456657525545 59.353372384768136 0 59.353372384768136 6.7669115778498963 0 0 0 0 -0.016590983130299719 33.931184540130289 0 33.931184540130289 -53.465027085187558 0 0 0 0 242.76922082350029 70.101658625227515 0 70.101658625227515 -16.270835077782522 0 0 0 0 0.022964736645029404 -0.25985811268672521 0 -0.25985811268672521 5.3737921674191576 0 0 0 0 123.94868748938461 17.453964830424638 0 17.453964830424638 59.767519254937724 0 0 0 0 0.49721761869168191 -1.3147567397877857 0 -1.3147567397877857 11.586957072555377 0 0 0 0 -24.614050465967011 -37.374160031737574 0 -37.374160031737574 -13.302231503439089 0 0 0 0 103.23346066418526 83.718530419163756 0 83.718530419163756 -5.5884904702475069 0 0 0 0 78.858195165183133 48.254301919419049 0 48.254301919419049 65.009629705380121 0 0 0 0 -82.592110356670673 168.68576164514047 0 168.68576164514047 -18.743598803981513 0 0 0 0 66.349492029970861 89.950726658281383 0 89.950726658281383 -26.164238894605262 0 0 0 0 -767.69041593432348 -214.58438288170629 0 -214.58438288170629 21.313079141535127 0 0 0 0 -4.1519989349891162 3.9589360008340115 0 3.9589360008340115 -3.0638695359859112 0 0 0 0 -921.71574119199067 -46.250987802171949 0 -46.250987802171949 211.25973656982387 0 0 0 0 65.341917908004689 46.011150328871281 0 46.011150328871281 40.471562369338699 0 0 0 0 65.224690587849182 54.745796853648017 0 54.745796853648017 68.531765141840879 0 0 0 0 -966.16137192507449 -376.44585818702626 0 -376.44585818702626 779.11975665576392 0 0 0 0 -779.31738605746796 -259.35255528416019 0 -259.35255528416019 370.00979494396415 0 0 0 0 315.63979861220287 -614.87348181136258 0 -614.87348181136258 -1911.8009437212086 0 0 0 0 -293.94378197347942 -635.30302250326349 0 -635.30302250326349 -1058.6548481424961 0 0 0 0 -324.07653663663223 -1141.1970557397963 0 -1141.1970557397963 273.27987648494172 0 0 0 0 -108.58346453718332 -1117.5667434307334 0 -1117.5667434307334 -667.10708769874691 0 0 0 0 -579.6919696088662 368.93482396793661 0 368.93482396793661 512.76888427179847 0 0 0 0 -12.992844481551096 -3.7977534836099256 0 -3.7977534836099256 -1.6981810623072255 0 0 0 0 -544.41994309062648 129.27697185604097 0 129.27697185604097 501.74380786624647 0 0 0 0 -506.76205053027479 140.91830463813403 0 140.91830463813403 295.0663715946207 0 0 0 0 -914.48365616108276 240.52575552315329 0 240.52575552315329 475.10208328886893 0 0 0 0 -922.77301685819214 -238.446962991204 0 -238.446962991204 592.95668635548645 0 0 0 0 259.35777408139438 184.91599558719122 0 184.91599558719122 -77.068848439157591 0 0 0 0 0.12404137457992093 0.022516796553237128 0 0.022516796553237128 1.3476130114796838 0 0 0 0 -434.23252541325928 -344.38656721443294 0 -344.38656721443294 588.85851218995765 0 0 0 0 211.14898197216826 19.158997827931898 0 19.158997827931898 61.794706669445986 0 0 0 0 -3.1096399922923759 5.4563253588751977 0 5.4563253588751977 -5.2208843098280848 0 0 0 0 -412.15132086431709 580.89555843613743 0 580.89555843613743 -1224.8119993901282 0 0 0 0 170.03933551023511 118.4594905408303 0 118.4594905408303 -15.921402472943555 0 0 0 0 -90.292718433174741 -56.646885550959041 0 -56.646885550959041 -20.741990465584422 0 0 0 0 -200.35682500024996 22.09973858101921 0 22.09973858101921 45.544179722228137 0 0 0 0 -91.753740318825294 42.054834375028008 0 42.054834375028008 -24.598262246819104 0 0 0 0 -160.60283352999068 -10.324464642988687 0 -10.324464642988687 15.311801089571418 0 0 0 0 -179.14241242152275 17.051931582130919 0 17.051931582130919 -24.374759260951578 0 0 0 0 -385.02137639773173 -223.41654932425274 0 -223.41654932425274 -115.21672457418936 0 0 0 0 -514.42176139038929 14.546273929764538 0 14.546273929764538 51.117333529878579 0 0 0 0 -234.984136015074 -76.414226695166747 0 -76.414226695166747 -59.97584558158087 0 0 0 0 -473.97465759759689 1.7572329016416006 0 1.7572329016416006 154.02877355004557 0 0 0 0 -29.35060046987164 -9.0139954254090551 0 -9.0139954254090551 2.7925403774183328 0 0 0 0 -395.97984658263323 232.6722504624598 0 232.6722504624598 -46.139999929044848 0 0 0 0 -410.73114371188603 342.89689407556216 0 342.89689407556216 -266.69319153503102 0 0 0 0 -156.59383449690358 35.996546280411394 0 35.996546280411394 129.42071296053382 0 0 0 0 -86.045259251617608 -4.8163015161280782 0 -4.8163015161280782 -41.938761209649783 0 0 0 0 -47.861045209425356 5.3366508296167012 0 5.3366508296167012 134.55628498519491 0 0 0 0 -6.5154474473998292 -3.0254916257353806 0 -3.0254916257353806 3.3811357589779414 0 0 0 0 37.069941874884535 50.502306986805252 0 50.502306986805252 139.51797354567998 0 0 0 0 23.817345487179409 85.304854870961435 0 85.304854870961435 65.891055624112596 0 0 0 0 -71.193615311578469 124.96707127676427 0 124.96707127676427 59.457590279503165 0 0 0 0 -8.4944706316548739 -6.2287821643565522 0 -6.2287821643565522 2.5268277871364511 0 0 0 0 375.02466318465486 451.81871890467914 0 451.81871890467914 888.02298511713161 0 0 0 0 -297.77872824207589 -233.20612437951149 0 -233.20612437951149 987.04043534050697 0 0 0 0 -114.33387330844926 -32.518996433600478 0 -32.518996433600478 59.530570557923966 0 0 0 0 -30.652830007008653 -8.8550152099101584 0 -8.8550152099101584 1.8744780683687856 0 0 0 0 -73.658415340933061 13.110785873498799 0 13.110785873498799 -13.305466867299401 0 0 0 0 84.893215631416751 -64.102509136411982 0 -64.102509136411982 24.116763191199311 0 0 0 0 10.58208054455099 -290.80883834321833 0 -290.80883834321833 267.57096657773235 0 0 0 0 -284.98985727704348 -16.651739608103554 0 -16.651739608103554 74.404146655215243 0 0 0 0 -669.15670329828208 -1.7373900774630329 0 -1.7373900774630329 385.08568547617142 0 0 0 0 -438.6279158709749 -63.27982820090034 0 -63.27982820090034 398.92742222218766 0 0 0 0 -483.34039434153237 42.148443228921394 0 42.148443228921394 358.6979046038166 0 0 0 0 -460.62833413473982 20.394466055664026 0 20.394466055664026 303.87989880987459 0 0 0 0 -674.78410480821367 136.02930194679169 0 136.02930194679169 246.05181258163594 0 0 0 0 -243.57010492565132 149.58715307448711 0 149.58715307448711 -70.925760935739618 0 0 0 0 -12.750342274537822 -3.734998629975995 0 -3.734998629975995 -0.92777660946169771 0 0 0 0 -124.68550154672994 -873.07192408086667 0 -873.07192408086667 -204.62063498355201 0 0 0 0 -715.4138626851136 421.79204153288174 0 421.79204153288174 -222.04377588680222 0 0 0 0 -692.23144296392866 -235.06583882413361 0 -235.06583882413361 -491.68500233377313 0 0 0 0 108.57121417372309 -520.60455317849642 0 -520.60455317849642 -909.78978566110641 0 0 0 0 -794.94922654313177 221.85688750227609 0 221.85688750227609 -2403.9415489115936 0 0 0 0 -716.37806228591398 -346.32386329914334 0 -346.32386329914334 993.92514423024841 0 0 0 0 -654.39262425036668 112.05753673791992 0 112.05753673791992 374.68344923928908 0 0 0 0 -599.06295371026363 421.51705378513037 0 421.51705378513037 915.69983021946427 0 0 0 0 -784.19635255168578 -50.298611638905186 0 -50.298611638905186 396.01496447811223 0 0 0 0 -103.33293791861433 608.33158654831004 0 608.33158654831004 -221.24825087933414 0 0 0 0 -566.97803514094812 -189.53633141222554 0 -189.53633141222554 -574.68159638050929 0 0 0 0 -1364.6044616117124 476.81933620564905 0 476.81933620564905 25.207911287995557 0 0 0 0 -2989.2137346539457 79.950565456103504 0 79.950565456103504 -597.6727850858382 0 0 0 0 -1263.5720941263589 -1004.6690683425286 0 -1004.6690683425286 -771.72660303484213 0 0 0 0 -547.22157684359627 753.61767616405632 0 753.61767616405632 -1360.9400380493682 0 0 0 0 -732.43941911890852 1099.5156487524232 0 1099.5156487524232 -1690.1189789704895 0 0 0 0 -11.279450060975247 -5.7675192345964543 0 -5.7675192345964543 -3.1518653535950918 0 0 0 0 -723.77330385222194 358.52228996385338 0 358.52228996385338 -319.86543053601963 0 0 0 0 -866.94207698753871 847.66541038518835 0 847.66541038518835 -1344.5612270580568 0 0 0 0 -391.39875027092057 751.83959922927625 0 751.83959922927625 -274.02117297031236 0 0 0 0 -74.010666804631597 -3.5167095715457428 0 -3.5167095715457428 -0.23034800007240275 0 0 0 0 -446.60378016734103 897.98898183525671 0 897.98898183525671 -643.87063920771652 0 0 0 0 -179.22043211645178 53.007750743841825 0 53.007750743841825 -226.87846038347925 0 0 0 0 -147.27531638283835 -118.40410740974767 0 -118.40410740974767 203.56572793029773 0 0 0 0 -3.868043376116475 349.9026144522004 0 349.9026144522004 -474.31570516924148 0 0 0 0 -137.33318144716759 658.79488840504564 0 658.79488840504564 -1169.8620335245178 0 0 0 0 -11.507694564555912 -0.84030972046853947 0 -0.84030972046853947 -1.7970229186031759 0 0 0 0 135.61066116113216 -253.39434931671531 0 -253.39434931671531 -1113.6433231591125 0 0 0 0 -134.23259590859379 -172.45280072008973 0 -172.45280072008973 87.846623274957892 0 0 0 0 -75.633669331687997 317.09273575555017 0 317.09273575555017 -438.18067021290153 0 0 0 0 -280.16313407212419 576.96155544929707 0 576.96155544929707 38.691110927735281 0 0 0 0 -453.58932617616665 443.20588035138189 0 443.20588035138189 302.69040305342014 0 0 0 0 -285.73937309759822 610.35562399140838 0 610.35562399140838 -160.39996618079385 0 0 0 0 -253.83361213642638 960.75916284058576 0 960.75916284058576 244.2989067538515 0 0 0 0 -653.56541101123639 548.58632819890909 0 548.58632819890909 919.33951735301343 0 0 0 0 -672.55312081632201 408.31723254287709 0 408.31723254287709 297.36464349061316 0 0 0 0 130.2810039663359 -127.49846681647568 0 -127.49846681647568 -150.71237100601638 0 0 0 0 139.4178774041784 -205.67113732610869 0 -205.67113732610869 9.5333158795097006 0 0 0 0 12.451750066558047 -15.602957486312873 0 -15.602957486312873 11.192071984209498 0 0 0 0 43.138404631964477 -129.60557263497026 0 -129.60557263497026 0.038793718701526814 0 0 0 0 51.68854658251621 -151.38191183210233 0 -151.38191183210233 24.309572098951207 0 0 0 0 -17.916748417415874 -69.186624041622366 0 -69.186624041622366 -35.595159314479872 0 0 0 0 82.502723873125433 -140.1659079376366 0 -140.1659079376366 21.09915818770245 0 0 0 0 44.595218200100135 -151.39323912289001 0 -151.39323912289001 56.771756952089902 0 0 0 0 44.706270429739561 -67.46568067167243 0 -67.46568067167243 -2.8731699794263932 0 0 0 0 37.657382654077992 -59.035707364064223 0 -59.035707364064223 188.88571440787769 0 0 0 0 58.211901233664321 -46.924850266637009 0 -46.924850266637009 28.060257183404076 0 0 0 0 -20.035028784516737 -5.735753284821997 0 -5.735753284821997 -1.3523512355034439 0 0 0 0 23.749285243815393 -169.44915540527643 0 -169.44915540527643 294.9777510715258 0 0 0 0 76.211300814415154 -178.23790487388356 0 -178.23790487388356 112.33431301802386 0 0 0 0 93.638862936878695 -124.01980832209325 0 -124.01980832209325 70.986722004748628 0 0 0 0 133.9672098910969 -204.30578589728353 0 -204.30578589728353 142.05036620133728 0 0 0 0 102.8657669573322 -59.793346009644125 0 -59.793346009644125 360.72748798329599 0 0 0 0 -198.74198172405795 -336.54163510270382 0 -336.54163510270382 115.77053099605018 0 0 0 0 -173.02016158080914 -126.7458936592011 0 -126.7458936592011 68.134696590310568 0 0 0 0 -471.85241511774802 -80.449919193208416 0 -80.449919193208416 322.88054057803902 0 0 0 0 -188.73838459187755 -339.05684530733538 0 -339.05684530733538 375.21942623393102 0 0 0 0 -341.18253819822348 -81.111058106710743 0 -81.111058106710743 256.03385403891684 0 0 0 0 -379.68668125565091 -113.82384791345328 0 -113.82384791345328 374.24048184884776 0 0 0 0 -1093.3919195196813 6.8321169828216171 0 6.8321169828216171 202.76816932287375 0 0 0 0 -571.03548794409835 -152.06233246250326 0 -152.06233246250326 249.63132425924152 0 0 0 0 -598.07286850590026 -641.10148727426247 0 -641.10148727426247 -159.09184404873008 0 0 0 0 138.47889490263424 -243.1491993624669 0 -243.1491993624669 0.36701048354950672 0 0 0 0 492.14556820512826 -436.17559889111749 0 -436.17559889111749 -617.64920091511613 0 0 0 0 -878.15418442042119 -447.219549121515 0 -447.219549121515 -214.46399019457021 0 0 0 0 -613.62576452968324 195.45848965770722 0 195.45848965770722 150.62228290307621 0 0 0 0 177.18420676250935 -220.44700712920212 0 -220.44700712920212 113.63168266444563 0 0 0 0 5.8216228114635307 -4.4650984665883353 0 -4.4650984665883353 4.4753670551498725 0 0 0 0 545.24048536461703 190.31475504787605 0 190.31475504787605 -127.47689732301114 0 0 0 0 -50.395856248176642 -118.00286786556626 0 -118.00286786556626 71.961965294765832 0 0 0 0 32.491262949661177 28.247488303826685 0 28.247488303826685 -71.276828676579726 0 0 0 0 18.675945654521456 -40.27550578011278 0 -40.27550578011278 23.462847933144076 0 0 0 0 266.00950076080426 -169.78282585992656 0 -169.78282585992656 89.506609434404254 0 0 0 0 207.79494170874023 -26.499475563430451 0 -26.499475563430451 -71.507705634992135 0 0 0 0 0.08486896924426901 -1.291651119677951 0 -1.291651119677951 2.8360978164651076 0 0 0 0 239.75137898650519 -69.955815633889983 0 -69.955815633889983 -34.718038875910224 0 0 0 0 64.024428183037799 -394.77427691658306 0 -394.77427691658306 107.93711420735781 0 0 0 0 3.6023163339841631 -12.916187315934167 0 -12.916187315934167 1.6926418255177396 0 0 0 0 -24.2843207912656 14.40033470680396 0 14.40033470680396 108.03959164744401 0 0 0 0 326.2249255866127 -225.53452138671878 0 -225.53452138671878 59.966477399334053 0 0 0 0 244.41442286625079 -193.79663669878505 0 -193.79663669878505 76.73899867043383 0 0 0 0 -295.58254835172556 171.19442235626911 0 171.19442235626911 35.031205046705281 0 0 0 0 355.52366680170508 310.23440729019057 0 310.23440729019057 -90.601716810404696 0 0 0 0 -253.92921570200269 24.140753538135641 0 24.140753538135641 -145.32255437046902 0 0 0 0 -50.912424729830491 227.45365487111155 0 227.45365487111155 8.2836899445487688 0 0 0 0 -174.03182351084251 200.20014864456414 0 200.20014864456414 -37.56346269475776 0 0 0 0 -166.47915456265946 162.2809024381869 0 162.2809024381869 -18.234280778299762 0 0 0 0 -59.828024212931723 61.669801960084612 0 61.669801960084612 -21.13544517763853 0 0 0 0 -186.09010629152817 90.449166284630707 0 90.449166284630707 -7.6568316529737785 0 0 0 0 -97.061329425926488 85.406189142076812 0 85.406189142076812 3.4596334716469528 0 0 0 0 -62.257994168584446 129.22727687655777 0 129.22727687655777 -168.96071106486841 0 0 0 0 -1080.6574965103355 -294.3754106035218 0 -294.3754106035218 -208.06211719901276 0 0 0 0 -200.24123551540833 -17.567906395786736 0 -17.567906395786736 -126.5429746652639 0 0 0 0 -411.24878922700145 -336.84738614740968 0 -336.84738614740968 -178.20432365492877 0 0 0 0 -181.10867922441321 -162.67013766474179 0 -162.67013766474179 -54.997931317737766 0 0 0 0 -8.065080435301752 -227.53360165439966 0 -227.53360165439966 -150.02445338908456 0 0 0 0 -52.268195245574134 59.411982694426911 0 59.411982694426911 -62.513486905870309 0 0 0 0 -254.77157598664621 -22.623817819294715 0 -22.623817819294715 -95.744498001910642 0 0 0 0 -86.210771584130271 -81.610304846258259 0 -81.610304846258259 66.580344543145202 0 0 0 0 -38.035946556934505 -100.09732897796948 0 -100.09732897796948 9.1492928800726077 0 0 0 0 -3.4252293648219765 -13.626402580268609 0 -13.626402580268609 -1.6736283107739389 0 0 0 0 35.979307189092651 -19.412407944746519 0 -19.412407944746519 -100.06874685846924 0 0 0 0 -822.94899285153269 -542.61842955312113 0 -542.61842955312113 -340.81257115802509 0 0 0 0 -168.46562365170394 90.324821745512509 0 90.324821745512509 -245.87235047308604 0 0 0 0 -96.906825124554416 -31.912119051799891 0 -31.912119051799891 -3.9980560142466857 0 0 0 0 -97.578075660821924 -39.667229305286128 0 -39.667229305286128 134.79055209994112 0 0 0 0 -224.72985277993939 -215.80761626429921 0 -215.80761626429921 -249.71357196965255 0 0 0 0 -1039.2975245471878 -896.50138750477663 0 -896.50138750477663 -735.56670016254975 0 0 0 0 -1538.2496026741433 -378.35393262176581 0 -378.35393262176581 -36.050712097044197 0 0 0 0 -2320.7125824917284 -734.86435887762718 0 -734.86435887762718 -197.89707821069078 0 0 0 0 -1068.5400978505741 -399.10663957849169 0 -399.10663957849169 -50.466927090774334 0 0 0 0 -920.09349915283269 -277.77976212500693 0 -277.77976212500693 -20.168596394654472 0 0 0 0 -1225.4970362428921 -497.56687164365849 0 -497.56687164365849 -3.9324932950612492 0 0 0 0 -1296.3051606390118 -235.91723658272258 0 -235.91723658272258 345.26559289496754 0 0 0 0 -870.37775571115344 71.079483961567519 0 71.079483961567519 239.78303860622904 0 0 0 0 -35.724045726058648 -100.57121993103988 0 -100.57121993103988 -800.76135415301906 0 0 0 0 -310.58645955741258 43.573326963233512 0 43.573326963233512 -19.436854252933699 0 0 0 0 -100.30480388601154 44.07061459647889 0 44.07061459647889 -19.562195292161469 0 0 0 0 2.536720683504381 3.2113036203909848 0 3.2113036203909848 2.4730160596871515 0 0 0 0 19.954606713751218 -97.249330125844608 0 -97.249330125844608 -36.23929386576674 0 0 0 0 7.5289903978449679 9.2884459937340509 0 9.2884459937340509 9.9397491695171638 0 0 0 0 -651.60158359336288 -223.06272241631314 0 -223.06272241631314 -77.210058673418644 0 0 0 0 -237.2349766115002 120.67067298087913 0 120.67067298087913 -53.10382430630824 0 0 0 0 -258.71299020865041 -195.59576684544044 0 -195.59576684544044 -50.186609575879572 0 0 0 0 -636.28275748549618 -232.19723849111409 0 -232.19723849111409 -374.00774301460228 0 0 0 0 -1012.3730752455881 -59.721879841199552 0 -59.721879841199552 -91.853353363797396 0 0 0 0 -0.6136265978310993 -0.6411481970721411 0 -0.6411481970721411 0.87958562604022461 0 0 0 0 3.3817893278672346 -8.9680461805640377 0 -8.9680461805640377 -0.93011843368908131 0 0 0 0 495.85194088583739 -91.811269349723602 0 -91.811269349723602 10.633824538235785 0 0 0 0 -1508.9489144622207 -511.07479453794406 0 -511.07479453794406 -6.1003716939869719 0 0 0 0 -301.6124584484055 -368.67633165168081 0 -368.67633165168081 158.8772192804754 0 0 0 0 -225.4952285937743 -187.92385565860423 0 -187.92385565860423 312.30476237797575 0 0 0 0 -1865.5649023128894 -1078.5252275628513 0 -1078.5252275628513 -234.80599042751965 0 0 0 0 -76.211058421298731 -323.39470202781695 0 -323.39470202781695 -219.91930932769901 0 0 0 0 -633.54169089631682 -377.0023323516798 0 -377.0023323516798 -81.262800776648874 0 0 0 0 -5.0353286389004097 98.704979679811004 0 98.704979679811004 -163.64825662802014 0 0 0 0 -72.652534324620191 -27.40208039986485 0 -27.40208039986485 19.048195609416293 0 0 0 0 -103.68433131658458 -172.41027601250426 0 -172.41027601250426 -65.367157325531252 0 0 0 0 -319.3280804044025 186.91559652852129 0 186.91559652852129 476.66244341730453 0 0 0 0 -80.659829852442272 -111.69102928403663 0 -111.69102928403663 51.366683684600503 0 0 0 0 -309.34660142576035 76.544404711276002 0 76.544404711276002 -72.741035510586912 0 0 0 0 39.017628775221965 131.35533639621462 0 131.35533639621462 -73.327052157585399 0 0 0 0 4.1828016319486778 89.414446253823826 0 89.414446253823826 134.20349702096337 0 0 0 0 -60.365230819617977 -27.626071548256022 0 -27.626071548256022 17.857359154474285 0 0 0 0 178.22397841514885 -181.45006915008696 0 -181.45006915008696 -636.93654736012195 0 0 0 0 15.056506565560994 -232.59683348726065 0 -232.59683348726065 -498.48301477027644 0 0 0 0 241.30629357542784 -256.99036021817017 0 -256.99036021817017 -511.11282318923782 0 0 0 0 103.30459074977261 -321.33269010492677 0 -321.33269010492677 -261.08904942675508 0 0 0 0 134.29713690678182 -425.3911896467871 0 -425.3911896467871 -246.84001081167196 0 0 0 0 59.250089944795036 -288.37376018949089 0 -288.37376018949089 -14.505962564775473 0 0 0 0 -43.780624569326392 -328.16349885771342 0 -328.16349885771342 311.35361141140311 0 0 0 0 -26.388742820240623 -337.17077788884512 0 -337.17077788884512 15.23942282318967 0 0 0 0 -13.734033663611626 -191.92552761443221 0 -191.92552761443221 -15.030566906092645 0 0 0 0 -21.98668636747243 -221.29627104198153 0 -221.29627104198153 239.86262782035737 0 0 0 0 64.030142692375193 -279.78256087081832 0 -279.78256087081832 -91.072529666239461 0 0 0 0 319.33359849439876 -90.792630872411792 0 -90.792630872411792 -223.69006103846641 0 0 0 0 84.477341159743446 -77.521135492494977 0 -77.521135492494977 97.672388914623298 0 0 0 0 247.86744549742605 -227.81507042724681 0 -227.81507042724681 -432.55127322750013 0 0 0 0 244.93617081794218 -163.97317494019228 0 -163.97317494019228 -278.52729863563025 0 0 0 0 212.33861007331507 -498.7848420604688 0 -498.7848420604688 -1127.3876608799906 0 0 0 0 -904.99306033733592 -676.13212927346126 0 -676.13212927346126 -287.34286421828801 0 0 0 0 -655.2047769444689 -198.71863430379085 0 -198.71863430379085 -86.665245839413728 0 0 0 0 -1103.6808570079938 -509.61677814450991 0 -509.61677814450991 -55.650837287631475 0 0 0 0 -274.29506417660014 -127.62508228063098 0 -127.62508228063098 -89.320347840650356 0 0 0 0 0.18264118940901497 2.6534767836178261 0 2.6534767836178261 -10.242794830868156 0 0 0 0 -225.90688154566305 -286.0325775575775 0 -286.0325775575775 -148.78782802094923 0 0 0 0 -61.297380421217895 -148.17025654824994 0 -148.17025654824994 -163.94399090260231 0 0 0 0 -154.14840588315565 -352.72031194982412 0 -352.72031194982412 -385.67270290848359 0 0 0 0 -337.10013286298636 -232.96401309523185 0 -232.96401309523185 -89.775879831998282 0 0 0 0 92.761260460800258 98.700379960472986 0 98.700379960472986 -305.15978925809367 0 0 0 0 -119.83746068555411 40.756079072529815 0 40.756079072529815 120.60599095732937 0 0 0 0 -70.958723222609223 -28.612349916337635 0 -28.612349916337635 18.842532441371532 0 0 0 0 -490.98572789557352 -765.98934904528539 0 -765.98934904528539 -1121.8768916261815 0 0 0 0 -90.769567844355151 125.18179990963813 0 125.18179990963813 -349.28357034347414 0 0 0 0 -9.1254178651448985 -2.6991240708930007 0 -2.6991240708930007 -0.64182327729166899 0 0 0 0 -29.600419378351944 0.62470677956605414 0 0.62470677956605414 -118.05233225592815 0 0 0 0 -266.79741046708978 130.41306664082464 0 130.41306664082464 -80.533204503270326 0 0 0 0 192.49879634132958 -217.98429292304399 0 -217.98429292304399 -685.43175989659437 0 0 0 0 -90.513468710118104 -193.87457332685401 0 -193.87457332685401 -356.95635445551818 0 0 0 0 -99.185723607692012 -278.02990112453506 0 -278.02990112453506 -946.91464996868206 0 0 0 0 -176.82399967856963 256.61504452207708 0 256.61504452207708 -285.38106328139111 0 0 0 0 -720.35551205840329 -918.50564506728927 0 -918.50564506728927 -539.37061493528688 0 0 0 0 -1324.8187111882089 -232.3538124207237 0 -232.3538124207237 -568.11639323725717 0 0 0 0 -7.0317179983642859 -0.49508466170250065 0 -0.49508466170250065 0.24368447823828404 0 0 0 0 -58.173214984763945 49.678766459068981 0 49.678766459068981 -9.677219260674164 0 0 0 0 -15.484794267495179 0.29857438656220181 0 0.29857438656220181 1.2696399851551132 0 0 0 0 -55.003365920589204 17.235473061706784 0 17.235473061706784 -75.389861815459227 0 0 0 0 -25.156059136787917 3.8045810249130909 0 3.8045810249130909 -52.082843609782259 0 0 0 0 -0.52359675104954206 13.760436025065806 0 13.760436025065806 25.76135771894354 0 0 0 0 -143.39064381584376 188.3693563377667 0 188.3693563377667 -346.93191220807228 0 0 0 0 -1267.4784820351304 -54.49444105988448 0 -54.49444105988448 725.88157876529328 0 0 0 0 -820.89999834693435 -431.22113190797654 0 -431.22113190797654 -1067.2991158703335 0 0 0 0 -7.7491026196496176 -7.7658343687665035 0 -7.7658343687665035 -14.061085293011395 0 0 0 0 -284.5112007945304 -1070.8153714724313 0 -1070.8153714724313 -829.10664751236197 0 0 0 0 -163.56039774389237 324.08899983916501 0 324.08899983916501 -1110.3428424811818 0 0 0 0 -941.6499231734781 -651.83108719194797 0 -651.83108719194797 -1013.589402784562 0 0 0 0 43.409986050130101 -119.44425947629998 0 -119.44425947629998 -1643.8386015118947 0 0 0 0 -451.79322682526799 -1035.0723234472439 0 -1035.0723234472439 -1405.0355955730436 0 0 0 0 -1955.5486728215476 -802.21080651821057 0 -802.21080651821057 295.23214035956244 0 0 0 0 29.438589651852453 -114.23300714857191 0 -114.23300714857191 -666.24162184987676 0 0 0 0 -209.8714313110786 -436.79001929030846 0 -436.79001929030846 -281.03905273699911 0 0 0 0 175.77954590236368 -464.77353660557128 0 -464.77353660557128 -762.29420546149072 0 0 0 0 107.81483017534856 -284.50945133352002 0 -284.50945133352002 -371.78779079866854 0 0 0 0 -3.2290262796886964 -567.86726842319513 0 -567.86726842319513 45.754662029063184 0 0 0 0 139.38656904024538 -387.67495451486195 0 -387.67495451486195 -382.6792995512169 0 0 0 0 44.564710463599113 -380.64148775565536 0 -380.64148775565536 -274.79203262669455 0 0 0 0 -686.73230702975252 -499.94573064859287 0 -499.94573064859287 514.3741484920447 0 0 0 0 212.91564195087267 156.61653631695299 0 156.61653631695299 682.88933527119661 0 0 0 0 -25.154464269718119 -154.47972638352076 0 -154.47972638352076 814.6527090980635 0 0 0 0 65.93147741181383 -276.22390410836306 0 -276.22390410836306 191.63179531310925 0 0 0 0 46.224808209914045 -400.50310033062124 0 -400.50310033062124 363.75806015151829 0 0 0 0 139.85728431258394 -338.99536466467907 0 -338.99536466467907 238.77342711013625 0 0 0 0 -993.48725909585028 -413.09341876424924 0 -413.09341876424924 1537.3317314496908 0 0 0 0 -506.80077198783056 477.02913641691975 0 477.02913641691975 1465.9592566631532 0 0 0 0 -596.4809478999623 -6.6008592447142291 0 -6.6008592447142291 422.70991466490977 0 0 0 0 -21.545785231029186 461.57106118601996 0 461.57106118601996 789.34887167773741 0 0 0 0 498.25267247775719 184.8280973421322 0 184.8280973421322 -269.12488591751253 0 0 0 0 -604.81317038335374 731.53270169591929 0 731.53270169591929 -539.82384980839061 0 0 0 0 -18.028541953084186 -3.2657292439240564 0 -3.2657292439240564 -131.65713875407118 0 0 0 0 -14.464152969822862 120.9276024772953 0 120.9276024772953 -194.35437473770935 0 0 0 0 -122.9838812393441 138.02806082584834 0 138.02806082584834 294.45393664610401 0 0 0 0 -81.736871548457202 222.33346362804605 0 222.33346362804605 -82.362575781175565 0 0 0 0 -71.584366575395507 126.2689233321662 0 126.2689233321662 14.370541576629421 0 0 0 0 -107.08249430887463 104.43332697124424 0 104.43332697124424 7.9377188614429315 0 0 0 0 -95.107772133811523 93.531839839016584 0 93.531839839016584 -15.628045495329388 0 0 0 0 -104.58906570034333 110.54142182965938 0 110.54142182965938 1.7042547106316306 0 0 0 0 8.1336054274052003 -51.713107633714799 0 -51.713107633714799 58.311902168747565 0 0 0 0 2.4671003968013858 1.1234128464534514 0 1.1234128464534514 0.23288690849508242 0 0 0 0 -71.103651240917316 101.08655216020315 0 101.08655216020315 5.3583069875126057 0 0 0 0 -103.35549580489919 105.41879234756811 0 105.41879234756811 22.503619315167271 0 0 0 0 -28.322575241889808 122.41448616384355 0 122.41448616384355 0.67722666089412087 0 0 0 0 -21.910591987968889 -2.413343929861131 0 -2.413343929861131 0.14615793686129064 0 0 0 0 -42.871483798073314 -84.791785617724145 0 -84.791785617724145 45.290613506580769 0 0 0 0 22.942214565440736 80.728663460512848 0 80.728663460512848 -42.49827199212632 0 0 0 0 1.5486395399725552 -28.942432891201918 0 -28.942432891201918 -89.389248768957486 0 0 0 0 -35.531640404554309 -22.513125574703736 0 -22.513125574703736 79.277959197904693 0 0 0 0 -29.735563334867393 -1.2400679677843358 0 -1.2400679677843358 0.3181546374728389 0 0 0 0 64.992263109853411 -69.383981759911251 0 -69.383981759911251 -309.74723108255978 0 0 0 0 9.3038216290224227 -155.69090104239251 0 -155.69090104239251 -432.00251341111613 0 0 0 0 -90.695290571171427 -35.425967410544459 0 -35.425967410544459 20.64465178091011 0 0 0 0 -26.349989072783501 -75.53561767920371 0 -75.53561767920371 -111.21824098782869 0 0 0 0 -30.023997619393413 -89.577225995156141 0 -89.577225995156141 -164.46846873150832 0 0 0 0 -47.012453448861379 10.774573724877712 0 10.774573724877712 16.54412417975368 0 0 0 0 -37.476960134142047 -1.2622963378269327 0 -1.2622963378269327 0.11726069723334465 0 0 0 0 -42.835567360716595 2.2379458216673811 0 2.2379458216673811 23.867063348441661 0 0 0 0 -55.673392410202723 14.607400772387336 0 14.607400772387336 48.980116260883733 0 0 0 0 -6.5344450655165929 -18.562579500374795 0 -18.562579500374795 35.494057415214002 0 0 0 0 -50.089678734068457 -13.084362171867269 0 -13.084362171867269 23.04260134393553 0 0 0 0 -34.665880528115807 2.9321733779640287 0 2.9321733779640287 24.208998396539414 0 0 0 0 7.7600742362151323 -103.96341703773896 0 -103.96341703773896 19.622855403269114 0 0 0 0 -163.40275862747512 -91.467172489291443 0 -91.467172489291443 55.13283525115753 0 0 0 0 -42.799196878686757 -2.1239494442190789 0 -2.1239494442190789 23.678738101360977 0 0 0 0 -39.480522988558732 1.8567650432728442 0 1.8567650432728442 24.484829746976231 0 0 0 0 -27.30970791299314 -3.4046926651532661 0 -3.4046926651532661 26.459658479914253 0 0 0 0 -42.808275723612496 -1.8043494024173015 0 -1.8043494024173015 32.066082889505878 0 0 0 0 -43.136877962743711 3.9183287643385256 0 3.9183287643385256 28.596917582720494 0 0 0 0 -2498.1851244529985 38.89597937763417 0 38.89597937763417 -91.00886691627359 0 0 0 0 -1833.8730993132956 -479.43909558472581 0 -479.43909558472581 226.63810613275916 0 0 0 0 -3.5787813025269286 -9.7859744919571607 0 -9.7859744919571607 -28.841492812224292 0 0 0 0 -1443.1336709586112 31.014889237709596 0 31.014889237709596 -279.35772897099554 0 0 0 0 -940.82370373927847 -329.72591877302847 0 -329.72591877302847 -210.18380728605408 0 0 0 0 -1.026956953466259 -3.3000583465288322 0 -3.3000583465288322 -2.9158984091466715 0 0 0 0 -1423.1434526574681 -810.525190576402 0 -810.525190576402 113.35078820146919 0 0 0 0 -821.28963617099657 -126.47262855613435 0 -126.47262855613435 -27.521125593826241 0 0 0 0 -1980.6672885964554 -408.8217919157089 0 -408.8217919157089 210.24518307406981 0 0 0 0 -2209.8944775143618 -793.32710138460914 0 -793.32710138460914 154.82989508098288 0 0 0 0 -2496.0079397911841 -545.36058894857354 0 -545.36058894857354 351.51473943964788 0 0 0 0 -66.535738259592335 39.969986671297704 0 39.969986671297704 -36.329964190766987 0 0 0 0 -14.327889067383326 6.1346306242497475 0 6.1346306242497475 8.4148809793203299 0 0 0 0 -633.84874068756153 -752.68896776155111 0 -752.68896776155111 -909.96432550143345 0 0 0 0 -7.8754108598144601 13.482606997168837 0 13.482606997168837 5.1012544504109911 0 0 0 0 -269.09467102801591 505.37967908247435 0 505.37967908247435 -763.77007783390195 0 0 0 0 -1100.8193576514641 1052.146617479126 0 1052.146617479126 -947.71625379672798 0 0 0 0 -17.985572301132549 2.9660245726058214 0 2.9660245726058214 0.6141588936254736 0 0 0 0 -2495.0119642904237 1061.6673768236078 0 1061.6673768236078 2.5914393160133375 0 0 0 0 -41.570212038987847 3.9101454575359185 0 3.9101454575359185 22.659827768914965 0 0 0 0 -38.679656453497955 3.130050260634107 0 3.130050260634107 20.925960948389502 0 0 0 0 -44.209989892186606 2.3621443196113301 0 2.3621443196113301 2.5029593184031373 0 0 0 0 -36.818854362891074 1.7083249701715459 0 1.7083249701715459 21.929218250451413 0 0 0 0 -43.312446135119899 24.589095855433186 0 24.589095855433186 7.19968999880507 0 0 0 0 -86.158111393411673 20.98456243091988 0 20.98456243091988 42.041190105335701 0 0 0 0 -39.701297487079501 -1.6027754080836552 0 -1.6027754080836552 2.5278875796179534 0 0 0 0 -143.60567565386805 -53.629817284729675 0 -53.629817284729675 -15.990035752077944 0 0 0 0 -108.0653782744057 49.44956423628355 0 49.44956423628355 19.400796881255815 0 0 0 0 18.865429037747163 36.809910402870628 0 36.809910402870628 -35.384145934502612 0 0 0 0 -1822.0418036954025 638.82464832397534 0 638.82464832397534 178.33183152036489 0 0 0 0 -1815.3801213488068 295.15690362852786 0 295.15690362852786 397.82686242384233 0 0 0 0 0.12144488972298717 10.520504610313246 0 10.520504610313246 -8.1565701228103897 0 0 0 0 -1650.6458522481598 366.94398126117903 0 366.94398126117903 71.079565996794173 0 0 0 0 -2500.8153618710267 422.97949045117895 0 422.97949045117895 343.04611039340068 0 0 0 0 -2119.3827188709765 289.99513987145968 0 289.99513987145968 255.04649171858716 0 0 0 0 -2127.7678064236916 119.57225575668525 0 119.57225575668525 30.727976087374131 0 0 0 0 -2102.8889349116248 68.673181063899236 0 68.673181063899236 109.83575393659265 0 0 0 0 -2499.3077288180639 65.382009195168166 0 65.382009195168166 166.76009671488771 0 0 0 0 -424.30768133148922 -166.75282358565966 0 -166.75282358565966 7.9198347400110833 0 0 0 0 -310.0834498507229 165.28635683840685 0 165.28635683840685 40.527901523634682 0 0 0 0 -1.909202430548794 4.2265516340841742 0 4.2265516340841742 -15.195018412521025 0 0 0 0 124.08712002642125 -31.807935738969533 0 -31.807935738969533 -183.96483421061066 0 0 0 0 -421.43715241041355 -269.53359227075794 0 -269.53359227075794 -38.808598166028332 0 0 0 0 -377.01552492974588 -458.7959046869646 0 -458.7959046869646 -286.31128727715031 0 0 0 0 -322.8019030838343 -283.46100192883853 0 -283.46100192883853 -72.928312827200898 0 0 0 0 -311.07949478721275 -215.93452172991488 0 -215.93452172991488 -41.313282677471882 0 0 0 0 -129.90368511429733 -240.5152786715887 0 -240.5152786715887 -114.96601905751322 0 0 0 0 -194.00871701891992 -220.80912264790004 0 -220.80912264790004 -48.997454277969268 0 0 0 0 -174.15570572651814 -278.90178526916395 0 -278.90178526916395 -77.899726144718556 0 0 0 0 -175.98580227880302 -283.53114196491833 0 -283.53114196491833 -133.51659557717676 0 0 0 0 -176.32245353670828 -280.37587213512654 0 -280.37587213512654 -149.05607420324486 0 0 0 0 -37.367525373632816 -221.24356635202093 0 -221.24356635202093 -293.65067381452786 0 0 0 0 -133.16238845732914 -237.14743221920298 0 -237.14743221920298 -82.118388243540949 0 0 0 0 -61.221789141371119 -157.54517529040459 0 -157.54517529040459 -173.05289597906932 0 0 0 0 -65.946152489501401 -136.79015824891962 0 -136.79015824891962 -113.63295241092692 0 0 0 0 -132.53426743425189 -119.82305984423942 0 -119.82305984423942 -63.746725379516192 0 0 0 0 -129.6855197480636 -164.43562663087096 0 -164.43562663087096 154.25175988447336 0 0 0 0 -88.970052016262343 -110.03728124524787 0 -110.03728124524787 -98.902338306430124 0 0 0 0 -123.80195208407349 -253.99447598815959 0 -253.99447598815959 123.9866106898869 0 0 0 0 -43.918735951598137 -252.50816429755957 0 -252.50816429755957 -65.533841903219127 0 0 0 0 -129.167015360812 -304.00138135137047 0 -304.00138135137047 -21.581032777349037 0 0 0 0 -126.603328799677 -228.75960151426204 0 -228.75960151426204 -71.3973881341376 0 0 0 0 -73.253488028391075 -248.05840614634201 0 -248.05840614634201 -117.23395544039727 0 0 0 0 -141.08977375176255 -272.23930046859402 0 -272.23930046859402 -106.19461421769961 0 0 0 0 -105.52179861803506 -323.95367397803597 0 -323.95367397803597 -143.86594821237429 0 0 0 0 -126.43333347975567 -290.82411094442284 0 -290.82411094442284 -43.23490155607908 0 0 0 0 -28.520278651081753 -261.12938082508282 0 -261.12938082508282 -302.85258006278798 0 0 0 0 -25.455459031565624 -260.66794051551375 0 -260.66794051551375 -450.90107490188586 0 0 0 0 -9.876869221439847 -208.82889497143282 0 -208.82889497143282 -193.81126508077728 0 0 0 0 -76.144644854231956 -288.15607553987445 0 -288.15607553987445 -212.47614419701966 0 0 0 0 -80.306247647367854 -163.34708559081702 0 -163.34708559081702 -144.28944359526906 0 0 0 0 -145.87375196950597 -191.08394896880418 0 -191.08394896880418 -77.876255291185714 0 0 0 0 -65.130222873862294 -124.54637947232726 0 -124.54637947232726 -52.752472630643183 0 0 0 0 -202.86206632175163 -67.753884223287088 0 -67.753884223287088 51.980725874648343 0 0 0 0 -180.94505195363558 -209.04260694042034 0 -209.04260694042034 -64.081734620629959 0 0 0 0 0.49119002457143779 0.45221447098920997 0 0.45221447098920997 -0.3194332237447437 0 0 0 0 -49.59637853626009 15.813884235244132 0 15.813884235244132 136.81680870921809 0 0 0 0 -6.2747144969944202 1.6623521693568364 0 1.6623521693568364 102.51850325732994 0 0 0 0 -7.9922109694234678 8.7836014272481862 0 8.7836014272481862 113.4389876079963 0 0 0 0 -43.713997931945642 43.830490081773007 0 43.830490081773007 89.057893172605418 0 0 0 0 0.87774780595194812 0.58192190806256505 0 0.58192190806256505 -0.6722216204817304 0 0 0 0 -13.594914562097983 42.441604320431452 0 42.441604320431452 151.16493370491162 0 0 0 0 3.6030067123938352 -103.49824989050433 0 -103.49824989050433 -16.490142058263132 0 0 0 0 29.362420542539439 37.164379110792709 0 37.164379110792709 96.281117417206929 0 0 0 0 -6.31657699920288 52.786461669662003 0 52.786461669662003 77.820779106510258 0 0 0 0 -1.4291288915592304 5.2397828728157947 0 5.2397828728157947 64.064082582178571 0 0 0 0 -108.9858995885952 50.087034629109667 0 50.087034629109667 106.22032026138845 0 0 0 0 -39.520811304244489 49.689501593198827 0 49.689501593198827 17.984934516225962 0 0 0 0 -111.29960596463206 -4.8277826415215941 0 -4.8277826415215941 139.16191898293937 0 0 0 0 -56.564580159800244 -14.827482196737719 0 -14.827482196737719 54.23976027111712 0 0 0 0 -86.823295079793752 -72.494946092737791 0 -72.494946092737791 30.156641326524664 0 0 0 0 23.979395406588083 40.761034604093766 0 40.761034604093766 124.81917366155631 0 0 0 0 9.9695689068903448 29.65743379375499 0 29.65743379375499 142.23861294289054 0 0 0 0 31.716760111848998 60.307481510693492 0 60.307481510693492 136.48507652472199 0 0 0 0 5.4016837371664224 45.275201415008382 0 45.275201415008382 160.68592302304751 0 0 0 0 1.8436093320365217 68.697943089184662 0 68.697943089184662 135.08962948389126 0 0 0 0 33.909635153060663 141.49832053100727 0 141.49832053100727 56.941551102628807 0 0 0 0 -5.2928315309459428 0.038279477498443626 0 0.038279477498443626 2.1079203981639001 0 0 0 0 -9.7070443082538986 85.590255483420833 0 85.590255483420833 188.86723099441133 0 0 0 0 -31.374629250341968 32.198149477728748 0 32.198149477728748 172.51854023705073 0 0 0 0 0.51863051702380858 0.6168515543171722 0 0.6168515543171722 -0.52685314736701105 0 0 0 0 6.8874481120007118 6.6756081734984596 0 6.6756081734984596 -0.77015827746362753 0 0 0 0 143.82177821170626 -28.838492509094976 0 -28.838492509094976 27.256978276587915 0 0 0 0 -11.468512786777865 57.347410001557819 0 57.347410001557819 120.79402513102559 0 0 0 0 2.2032073914451757 42.255725118240662 0 42.255725118240662 80.174074793784712 0 0 0 0 -15.84354543758127 31.759005286344745 0 31.759005286344745 114.95240370890519 0 0 0 0 -8.9417043120010931 42.031423934600753 0 42.031423934600753 55.825718825614786 0 0 0 0 -14.689513322167908 39.180107881334017 0 39.180107881334017 -0.99037374242530563 0 0 0 0 -33.103746206423239 13.279361598044488 0 13.279361598044488 9.8549802908219135 0 0 0 0 -21.937411596947641 6.8879319181719438 0 6.8879319181719438 8.6776391606745165 0 0 0 0 -31.511704190329851 -2.5224219852289025 0 -2.5224219852289025 12.09358754208688 0 0 0 0 -19.610087855261764 9.4661112230314721 0 9.4661112230314721 -1.3633852944222333 0 0 0 0 -35.475611516783019 -1.6062214666344907 0 -1.6062214666344907 1.2418134576807605 0 0 0 0 -27.464132455276332 -2.6752631275136034 0 -2.6752631275136034 0.51841982045912971 0 0 0 0 14.827776625363185 20.460994181353726 0 20.460994181353726 60.659800240799939 0 0 0 0 -31.729428520504083 0.75548122093177383 0 0.75548122093177383 -0.14663514915758569 0 0 0 0 -59.757084330340149 5.135113875566276 0 5.135113875566276 -3.5383344860902071 0 0 0 0 -24.297174752266322 -3.7960277919179539 0 -3.7960277919179539 0.45359678517717406 0 0 0 0 -28.375295908624199 8.1568375271736357 0 8.1568375271736357 -2.2768259468855447 0 0 0 0 -12.853831931308378 42.27567107853838 0 42.27567107853838 231.43056310054999 0 0 0 0 -34.162486380640985 -25.592845469504937 0 -25.592845469504937 -1.0823769094859017 0 0 0 0 -50.383650233920662 12.29412117509537 0 12.29412117509537 144.69702927615572 0 0 0 0 -48.921544349812393 7.7866677337715373 0 7.7866677337715373 144.28789161343957 0 0 0 0 -5.3598378956360762 -2.499726447610211 0 -2.499726447610211 2.0920396964592118 0 0 0 0 -18.741648715142219 49.547974295836866 0 49.547974295836866 228.91522201161433 0 0 0 0 -40.386411592513468 5.1289500873203906 0 5.1289500873203906 139.83774311142679 0 0 0 0 34.448381865503052 -78.704317092980546 0 -78.704317092980546 61.96541131010872 0 0 0 0 39.349335342545828 26.249550619627371 0 26.249550619627371 -122.63041810830236 0 0 0 0 54.407657313811796 -18.47706880430087 0 -18.47706880430087 -10.877695190724808 0 0 0 0 142.00029938757234 49.217871718510651 0 49.217871718510651 -278.18663201047207 0 0 0 0 161.18084474739453 -107.59499369441073 0 -107.59499369441073 -63.405813783332178 0 0 0 0 -471.83293917179662 -423.06046938615009 0 -423.06046938615009 -267.26919465216679 0 0 0 0 -211.85260977858957 284.87645037987727 0 284.87645037987727 -128.5805819854296 0 0 0 0 -74.635754155880022 105.31926240404709 0 105.31926240404709 58.409270424097258 0 0 0 0 -23.382655436868038 8.525116564135617 0 8.525116564135617 -2.3184804227442521 0 0 0 0 -214.10396001379979 164.69862743039039 0 164.69862743039039 -205.16040994584432 0 0 0 0 -1391.0906380264507 -192.25760399183127 0 -192.25760399183127 6.0108267229292949 0 0 0 0 -1573.9368593521683 228.7110818625647 0 228.7110818625647 36.253447791487019 0 0 0 0 -2335.8025556239113 -321.83684577304166 0 -321.83684577304166 363.73640127249746 0 0 0 0 -2.4513395448916975 2.4403016074330286 0 2.4403016074330286 -1.1880388363571424 0 0 0 0 -124.79035027703361 26.994506433798279 0 26.994506433798279 51.014547006331895 0 0 0 0 91.748973495378124 40.493106762543675 0 40.493106762543675 -158.61442904091723 0 0 0 0 -4.0765805243256459 7.0248398002698726 0 7.0248398002698726 -1.9699309318830132 0 0 0 0 -1653.4018854816745 194.83326614390899 0 194.83326614390899 -979.93019999609351 0 0 0 0 -31.725100932879855 38.57629082214109 0 38.57629082214109 24.522579986952223 0 0 0 0 -1676.696163584347 -667.23051948610828 0 -667.23051948610828 -39.411350013695483 0 0 0 0 -2027.5714198460732 -281.43909078138699 0 -281.43909078138699 214.33225221961493 0 0 0 0 -10.858651093024918 3.6588774019439647 0 3.6588774019439647 -1.2667090205311649 0 0 0 0 -715.84463779607358 705.18707480967373 0 705.18707480967373 125.18226114584877 0 0 0 0 -2385.209535587036 -48.579315288972793 0 -48.579315288972793 382.21750532363376 0 0 0 0 -1154.1296087091378 51.277726052081675 0 51.277726052081675 390.15059629697174 0 0 0 0 -81.126953580233589 9.593623377817039 0 9.593623377817039 12.25677958659935 0 0 0 0 -58.314111958970898 -119.38682349580267 0 -119.38682349580267 206.76783084138469 0 0 0 0 -54.904285005299471 77.431471108403741 0 77.431471108403741 363.72751234308953 0 0 0 0 17.897433438018197 195.83801577153326 0 195.83801577153326 19.310081935048856 0 0 0 0 6.4180983603214941 -113.76285413770303 0 -113.76285413770303 86.854054620329407 0 0 0 0 -258.69502152332825 -32.803335359810262 0 -32.803335359810262 48.124458529038407 0 0 0 0 -623.28628041264346 424.04685524322713 0 424.04685524322713 -46.175963513298257 0 0 0 0 -57.283337942380967 -44.91406900964671 0 -44.91406900964671 104.97415524730286 0 0 0 0 -31.566384371539243 -1.880462158932005 0 -1.880462158932005 -2.5174371743057691 0 0 0 0 -1.0553513054244661 1.7950974830558692 0 1.7950974830558692 -0.049153427465667851 0 0 0 0 60.021881001106522 72.042471287823673 0 72.042471287823673 -186.76230888432252 0 0 0 0 -242.19712421510667 190.05849824006259 0 190.05849824006259 -149.4428596003778 0 0 0 0 -40.466774058841111 -64.883592720044817 0 -64.883592720044817 45.835512637758256 0 0 0 0 -600.44590996994884 47.477175658389399 0 47.477175658389399 -94.805523774604353 0 0 0 0 -610.40314622760161 83.455050379758461 0 83.455050379758461 -27.753327687608817 0 0 0 0 -429.45157164028569 134.41662080323417 0 134.41662080323417 -80.953312822592977 0 0 0 0 -553.37682993537055 -26.897393976765755 0 -26.897393976765755 -133.68618727689807 0 0 0 0 -666.04207879123896 21.638458612898944 0 21.638458612898944 -75.920988066977145 0 0 0 0 -205.34442419403058 70.843089584016838 0 70.843089584016838 -163.06039576963985 0 0 0 0 -95.741327326544706 194.72437390459476 0 194.72437390459476 -129.08462097937638 0 0 0 0 -64.851676748211446 3.6555399706872151 0 3.6555399706872151 -0.37343199184306286 0 0 0 0 -1366.5943791134976 -188.76318152167022 0 -188.76318152167022 136.80679236438937 0 0 0 0 -4.231851971872806 9.5244753259424009 0 9.5244753259424009 1.1339305065455214 0 0 0 0 -1167.1424121871123 132.104076835108 0 132.104076835108 14.399941224290615 0 0 0 0 -1036.5405523117333 -56.992304910993965 0 -56.992304910993965 18.714395440176489 0 0 0 0 -890.60388119237723 1.727286004235566 0 1.727286004235566 -33.946689757762996 0 0 0 0 -726.38788458751151 -137.10039106384772 0 -137.10039106384772 -224.21462183433323 0 0 0 0 -1007.544803460893 -242.51954011436735 0 -242.51954011436735 -245.29611790670697 0 0 0 0 -957.59391188807103 -131.52127270871844 0 -131.52127270871844 -45.304792443888516 0 0 0 0 -923.13456499050335 -57.690669982561111 0 -57.690669982561111 -48.018263647160808 0 0 0 0 -1218.8155939804165 -137.26914426264835 0 -137.26914426264835 1.9242939653003077 0 0 0 0 -65.288879789408043 0.25536524165107721 0 0.25536524165107721 -4.5292437625084858 0 0 0 0 -9.6536558852424861 10.082450392520792 0 10.082450392520792 6.0587970350552336 0 0 0 0 -1102.3271018726127 198.61683332561719 0 198.61683332561719 -29.75802323436892 0 0 0 0 -5.4582326852800129 -2.8225721974926046 0 -2.8225721974926046 3.6014418249588185 0 0 0 0 -1034.8569017245709 -259.45196722900732 0 -259.45196722900732 19.872623222951461 0 0 0 0 0.87929408066083425 3.2409049953358249 0 3.2409049953358249 -0.92889598321708466 0 0 0 0 -1345.7368021735983 -536.12611957175022 0 -536.12611957175022 -164.01049931619957 0 0 0 0 -1222.6846649460276 17.217134980907531 0 17.217134980907531 -52.244954775464521 0 0 0 0 -513.12745292821455 -22.259639022199849 0 -22.259639022199849 -205.23908926656986 0 0 0 0 -870.93301372483984 -213.05730723462818 0 -213.05730723462818 6.2824902443314841 0 0 0 0 -871.80369440375944 -46.288645826506126 0 -46.288645826506126 -358.75526912985549 0 0 0 0 -871.73940832521521 -56.81673502698181 0 -56.81673502698181 -108.86727216010627 0 0 0 0 -870.30995226365849 -57.338761858969747 0 -57.338761858969747 90.726447402527242 0 0 0 0 -537.63368876407367 -265.26619897186026 0 -265.26619897186026 89.049094732274625 0 0 0 0 -917.0334586322997 -244.14205900604009 0 -244.14205900604009 -63.804815953973616 0 0 0 0 -34.362379793898072 99.52640904902529 0 99.52640904902529 -127.84142499100415 0 0 0 0 -217.57268707768526 160.68447066946999 0 160.68447066946999 -115.18759149697809 0 0 0 0 -536.83386400042718 74.913706106062023 0 74.913706106062023 -69.140538137072326 0 0 0 0 -351.0809793188273 -32.407361097806529 0 -32.407361097806529 -171.42623311041621 0 0 0 0 -249.15315095151163 169.66546675582993 0 169.66546675582993 61.51540923756545 0 0 0 0 -141.91862859516368 -17.172543773906909 0 -17.172543773906909 -97.478828599599751 0 0 0 0 -171.64341698343003 202.67803322652216 0 202.67803322652216 33.624563390763797 0 0 0 0 136.01236293003058 155.24670274608457 0 155.24670274608457 26.135311740272414 0 0 0 0 132.12718321915781 157.48916231965836 0 157.48916231965836 -60.800237856403868 0 0 0 0 41.084055270312092 278.57696230681995 0 278.57696230681995 -123.86554366723021 0 0 0 0 -45.773762016855017 192.52294720340311 0 192.52294720340311 26.555636837251427 0 0 0 0 -9.1287790131718793 243.9085459052607 0 243.9085459052607 -74.021925196661314 0 0 0 0 34.372048029064899 232.44684846758852 0 232.44684846758852 -100.79815738642955 0 0 0 0 11.752001400549489 130.01933515557886 0 130.01933515557886 -115.44265189320902 0 0 0 0 -6.6935316497583699 145.8843547799766 0 145.8843547799766 -56.722268614099335 0 0 0 0 6.79196081410646 101.40415746173917 0 101.40415746173917 49.185228953973507 0 0 0 0 -1.8448949671571384 1.9241137245668789 0 1.9241137245668789 0.19407768683948856 0 0 0 0 -16.898582446361615 55.953053785699922 0 55.953053785699922 121.81493269145426 0 0 0 0 30.804820876986923 -1.2493191447991876 0 -1.2493191447991876 -7.3382386210751633 0 0 0 0 -61.836242892507471 52.276767569217675 0 52.276767569217675 135.5717703196257 0 0 0 0 -0.79235878981266694 1.4261547389294542 0 1.4261547389294542 0.17852792695413691 0 0 0 0 -49.630134745841133 24.346103358333785 0 24.346103358333785 188.26887522450005 0 0 0 0 2.2076799333335657 81.261298295522295 0 81.261298295522295 25.696228417104777 0 0 0 0 59.168101581173687 127.57192887386161 0 127.57192887386161 116.39990627145923 0 0 0 0 -177.40634572954878 23.952753466056663 0 23.952753466056663 102.1024364786615 0 0 0 0 -217.34341072109419 299.94596720444235 0 299.94596720444235 -8.2316646451299675 0 0 0 0 161.47887432332391 77.049726507806781 0 77.049726507806781 -85.741877703257842 0 0 0 0 244.49251161051689 304.13387992262949 0 304.13387992262949 131.3911085385883 0 0 0 0 176.49764664129725 252.34756785496032 0 252.34756785496032 183.67784018355354 0 0 0 0 -51.188298800893705 45.571608841880149 0 45.571608841880149 -38.443197168403962 0 0 0 0 49.638833895167409 130.95557534000136 0 130.95557534000136 129.54629308904194 0 0 0 0 62.520083359027922 213.64269088106153 0 213.64269088106153 -34.532867561354578 0 0 0 0 -319.97646360349972 -363.91016202046285 0 -363.91016202046285 -182.90278365744038 0 0 0 0 -706.57900887167898 -218.07801235571856 0 -218.07801235571856 -129.16157456743167 0 0 0 0 -649.45082825645295 -494.84620721182546 0 -494.84620721182546 -335.50871900991842 0 0 0 0 -550.33267159142088 -496.64983679600846 0 -496.64983679600846 -213.54572572431243 0 0 0 0 69.622729541086301 240.24256946059995 0 240.24256946059995 -184.63416748369963 0 0 0 0 -43.802303099690867 38.375441009547686 0 38.375441009547686 -31.61398522456275 0 0 0 0 -651.26611644459626 258.50675156397983 0 258.50675156397983 126.28674824245468 0 0 0 0 -31.668854191071404 26.001855221921229 0 26.001855221921229 -19.659940990798063 0 0 0 0 179.29346951178616 311.07325340026995 0 311.07325340026995 148.88602340383051 0 0 0 0 176.4337955327735 233.44510060136426 0 233.44510060136426 183.69605749116613 0 0 0 0 36.027024490762415 167.931750352092 0 167.931750352092 186.60691881553163 0 0 0 0 41.666126965075819 165.63484526581954 0 165.63484526581954 179.52142322761898 0 0 0 0 -32.041385168620764 -161.27208286185214 0 -161.27208286185214 -162.91425255212812 0 0 0 0 -33.391632605502139 -26.392842401485055 0 -26.392842401485055 -18.66836355413443 0 0 0 0 -67.347861526221095 -99.23751876580468 0 -99.23751876580468 -95.862426407206385 0 0 0 0 -116.5151495341961 -78.188249595708967 0 -78.188249595708967 22.453170332996081 0 0 0 0 -39.455118869938815 -24.035732198573896 0 -24.035732198573896 -62.685062339978913 0 0 0 0 -55.43639348696464 -30.063219254689479 0 -30.063219254689479 23.315931454558651 0 0 0 0 -103.4846054085865 -20.39817354631893 0 -20.39817354631893 69.131716674814527 0 0 0 0 -1516.322503825595 -1308.3388600155645 0 -1308.3388600155645 -1083.025772218044 0 0 0 0 -11.192283544804255 -0.14561091723327735 0 -0.14561091723327735 5.137902581522388 0 0 0 0 -18.568444623318868 -1.3339215140240057 0 -1.3339215140240057 39.275159972075755 0 0 0 0 -73.048778809592477 -36.241278333724154 0 -36.241278333724154 -0.68996216448704217 0 0 0 0 -1172.2432501977746 278.2250767526175 0 278.2250767526175 -35.946441875200435 0 0 0 0 -1697.9018796444907 -763.31939360212164 0 -763.31939360212164 -31.543530539438507 0 0 0 0 -1118.5178890497045 -969.4241238198374 0 -969.4241238198374 -790.70195404683909 0 0 0 0 -1985.627946819357 -610.28547684349223 0 -610.28547684349223 -138.53999244344232 0 0 0 0 -981.35781603305077 -10.064488400249502 0 -10.064488400249502 -690.40185331098269 0 0 0 0 -592.13869818263493 -346.55550715259977 0 -346.55550715259977 -370.59830182446422 0 0 0 0 -1181.932128010405 -593.7465755679732 0 -593.7465755679732 -65.813731985775973 0 0 0 0 -1111.2896668926096 -576.47089472187236 0 -576.47089472187236 -800.14697326595888 0 0 0 0 -1265.9032274413903 -930.31563966932163 0 -930.31563966932163 -515.94325452524754 0 0 0 0 -10.345052609520188 -0.9998112795515155 0 -0.9998112795515155 -8.1329704918849259 0 0 0 0 -883.75646160683573 -126.71168944362717 0 -126.71168944362717 -185.84059556046486 0 0 0 0 -66.012484778331782 -855.84772745288319 0 -855.84772745288319 -355.92171157607117 0 0 0 0 70.039816344889005 -215.76241911743409 0 -215.76241911743409 -617.92001374747088 0 0 0 0 -9.2233996904487867 -163.09574275729483 0 -163.09574275729483 75.806699805460084 0 0 0 0 86.046327224432389 -511.44893955828036 0 -511.44893955828036 0.9646042201891305 0 0 0 0 320.06722486200124 -399.67693907443982 0 -399.67693907443982 1.9008526533234544 0 0 0 0 10.554829743030496 -91.608322116399222 0 -91.608322116399222 41.511299167832931 0 0 0 0 1647.93834112677 -351.65550045617829 0 -351.65550045617829 -516.70129829217967 0 0 0 0 -385.65039420015091 -612.0894792502786 0 -612.0894792502786 -80.303609584537696 0 0 0 0 -239.96275486767627 -395.10364562497875 0 -395.10364562497875 10.681334513445108 0 0 0 0 -242.89107633017557 -434.04893170605283 0 -434.04893170605283 192.13409682754286 0 0 0 0 -1161.0809258469999 -695.33923847503581 0 -695.33923847503581 304.85146523114486 0 0 0 0 -823.10896773559944 -382.47624945802886 0 -382.47624945802886 592.24681550670425 0 0 0 0 -1355.705280331993 938.54383698640663 0 938.54383698640663 1162.2465129331651 0 0 0 0 -542.18367253256292 -666.33304270975577 0 -666.33304270975577 -231.18599341427608 0 0 0 0 -1295.4218459905351 -16.581970138822896 0 -16.581970138822896 -187.69164612262921 0 0 0 0 -13.589822023722903 8.6836021981915366 0 8.6836021981915366 -5.2547342660969996 0 0 0 0 -1435.4568554540238 -522.37690016468105 0 -522.37690016468105 -68.868005774531554 0 0 0 0 613.85332228180778 -170.54116178955388 0 -170.54116178955388 21.161055712131883 0 0 0 0 1046.0194633515907 836.08930367306607 0 836.08930367306607 411.2205028643815 0 0 0 0 0.75961586091208488 -0.15331010232093689 0 -0.15331010232093689 11.39535562996814 0 0 0 0 -81.726871656559524 -127.01027412474218 0 -127.01027412474218 193.44211183414745 0 0 0 0 178.93820177683028 239.36283008511725 0 239.36283008511725 303.45299896801771 0 0 0 0 -11.338014490277736 -3.254017583811077 0 -3.254017583811077 32.94086004631118 0 0 0 0 -95.655921512441637 24.280612959362884 0 24.280612959362884 28.167732939811685 0 0 0 0 -26.406384419185386 2.7119958931460291 0 2.7119958931460291 13.026657680080005 0 0 0 0 -31.788849422362546 -8.4787615628929416 0 -8.4787615628929416 36.675882993405139 0 0 0 0 -36.991609445164826 -11.441136022872266 0 -11.441136022872266 6.7936660348480942 0 0 0 0 -45.911222722614184 -14.544557577389469 0 -14.544557577389469 42.068511863648553 0 0 0 0 -83.412838445428861 83.324367725870616 0 83.324367725870616 320.50337687754927 0 0 0 0 -96.450518541110796 37.259434607542062 0 37.259434607542062 408.49949016003347 0 0 0 0 -361.76613333844034 32.591683762037121 0 32.591683762037121 448.10542426605298 0 0 0 0 -275.28422484902694 -75.077343194918285 0 -75.077343194918285 581.09970647103285 0 0 0 0 -290.51730772025985 362.00666604205844 0 362.00666604205844 306.93577020967155 0 0 0 0 -170.12600139638926 -372.56023506480574 0 -372.56023506480574 215.03998822342965 0 0 0 0 -333.31544146721171 -178.81165486577629 0 -178.81165486577629 407.57063101195581 0 0 0 0 -24.996690879589906 -8.8684849831029631 0 -8.8684849831029631 0.64298586241921596 0 0 0 0 -90.186366426099994 -128.75034709005058 0 -128.75034709005058 376.90303102700022 0 0 0 0 -52.814748008273455 -8.3641223117067511 0 -8.3641223117067511 41.495637491889283 0 0 0 0 -125.70004592476289 -137.83442900801037 0 -137.83442900801037 391.7486701648595 0 0 0 0 175.42874615185428 -197.76724375731919 0 -197.76724375731919 191.43453723762832 0 0 0 0 -1.5405174471257297 0.68069299103090941 0 0.68069299103090941 -0.29033586542274392 0 0 0 0 -12.878297887394371 16.237035617308752 0 16.237035617308752 15.88435138980228 0 0 0 0 -119.19001048076416 62.137322365285343 0 62.137322365285343 106.9658553989575 0 0 0 0 -120.67768843298109 44.660737570457059 0 44.660737570457059 12.944608500862159 0 0 0 0 -351.32487992424285 238.53183081065981 0 238.53183081065981 -142.10421990065879 0 0 0 0 -338.03354230033437 -179.20559538281304 0 -179.20559538281304 -96.58849991568286 0 0 0 0 -1.3298496173460777 0.0533785922634884 0 0.0533785922634884 0.7706703012741003 0 0 0 0 -446.28306442743269 -145.89722312824051 0 -145.89722312824051 123.77773236278881 0 0 0 0 -12.060903988840437 -225.9021649363051 0 -225.9021649363051 87.527174303054494 0 0 0 0 -69.844133375714591 -301.46989363448552 0 -301.46989363448552 181.04946679150271 0 0 0 0 -80.409264665293449 -310.87917362179678 0 -310.87917362179678 237.62753010501888 0 0 0 0 -46.709610083878943 -385.07022455310607 0 -385.07022455310607 199.97056105668389 0 0 0 0 -21.783208627512522 -310.15694232255652 0 -310.15694232255652 175.92386248203366 0 0 0 0 -165.68665838982997 10.586018372775015 0 10.586018372775015 193.90749820861481 0 0 0 0 -225.90547429390062 -14.645073585724276 0 -14.645073585724276 224.29393993971348 0 0 0 0 -134.40683093681764 -56.625690968851814 0 -56.625690968851814 102.62772445160499 0 0 0 0 -110.274702946037 39.938487125642496 0 39.938487125642496 143.43994240256944 0 0 0 0 -35.534582978008984 145.49926162341256 0 145.49926162341256 258.88437702563965 0 0 0 0 -71.86431209355942 190.67073972519484 0 190.67073972519484 213.90165624720515 0 0 0 0 80.628258962831751 374.39234021187701 0 374.39234021187701 421.30497797585258 0 0 0 0 143.64275571674807 368.58322561487728 0 368.58322561487728 165.90115013201259 0 0 0 0 371.65090544244504 631.41292142720215 0 631.41292142720215 442.18627762202937 0 0 0 0 -137.56313282478914 93.833474619257686 0 93.833474619257686 303.89859014052945 0 0 0 0 -166.73281236913317 238.75772316649727 0 238.75772316649727 888.68520771549288 0 0 0 0 -203.31786813129656 152.27863670343004 0 152.27863670343004 485.75492987736141 0 0 0 0 -103.88664617669565 122.92048243169234 0 122.92048243169234 285.40320780794355 0 0 0 0 -271.76363466489784 5.4359054565320548 0 5.4359054565320548 266.47785820655633 0 0 0 0 -237.80651853166637 37.472212479526206 0 37.472212479526206 232.88008991259039 0 0 0 0 -178.69467564508795 146.4278869687904 0 146.4278869687904 243.39392002961813 0 0 0 0 -367.68165118450997 155.81628768285509 0 155.81628768285509 125.21134201501081 0 0 0 0 -158.01789670501603 145.72093207744138 0 145.72093207744138 -70.26261620457899 0 0 0 0 -409.56750706888897 -113.07518438828868 0 -113.07518438828868 68.421428462715994 0 0 0 0 -36.066971110500162 71.683226076992469 0 71.683226076992469 65.401023151414392 0 0 0 0 -12.948083353268885 16.669706966946706 0 16.669706966946706 43.964443914456751 0 0 0 0 2.0727866812922002 73.6677317892063 0 73.6677317892063 -26.403361680455419 0 0 0 0 -5.1586639150956586 -0.32529639938093169 0 -0.32529639938093169 -0.36416283035596919 0 0 0 0 -31.924190143632586 48.711811841787267 0 48.711811841787267 -95.852152743946135 0 0 0 0 -26.666876342069074 -1.8036600634576931 0 -1.8036600634576931 1.140527399917056 0 0 0 0 -25.194120223335631 15.561205391491967 0 15.561205391491967 -13.634748316768878 0 0 0 0 -103.92598820987041 -87.20638779536057 0 -87.20638779536057 -32.240996569137678 0 0 0 0 -297.48943856995811 376.28626290547322 0 376.28626290547322 -177.89981352597624 0 0 0 0 -431.46548799078664 246.12462403980135 0 246.12462403980135 57.154301482197297 0 0 0 0 2.398850742848623 -0.51443716222076574 0 -0.51443716222076574 0.12080960186773382 0 0 0 0 -159.40851276922513 -127.04617712584741 0 -127.04617712584741 36.788273618717994 0 0 0 0 -846.0169580021975 -297.59787312925891 0 -297.59787312925891 80.889228505816391 0 0 0 0 -377.78946528966117 60.731463321499177 0 60.731463321499177 -186.5140874440558 0 0 0 0 -369.66056788981621 -66.50010779552332 0 -66.50010779552332 65.441475752319093 0 0 0 0 -178.91091097540266 -121.21238421484077 0 -121.21238421484077 35.971715420742385 0 0 0 0 -381.34382870968693 -45.93843836827682 0 -45.93843836827682 171.06023319754968 0 0 0 0 -188.33780518683307 -12.534512702269694 0 -12.534512702269694 169.81429265371935 0 0 0 0 -134.8530371475772 -57.374942793218679 0 -57.374942793218679 103.41063503909299 0 0 0 0 -166.82177071206752 -93.313680607640094 0 -93.313680607640094 85.777961955065621 0 0 0 0 -20.42653802696077 16.734043662311706 0 16.734043662311706 124.00910241072415 0 0 0 0 -1.8927932340484404 -61.532946921952771 0 -61.532946921952771 12.503343763960856 0 0 0 0 223.59554783997373 191.67176991027463 0 191.67176991027463 -688.69401802228276 0 0 0 0 -71.737134604325348 17.769190253522815 0 17.769190253522815 9.8720864461833742 0 0 0 0 -10.420972840967337 16.408098588046389 0 16.408098588046389 -4.3112767903377396 0 0 0 0 157.26908269309388 617.52481371490103 0 617.52481371490103 111.71911697067935 0 0 0 0 -103.15098173802471 -35.715541538887919 0 -35.715541538887919 -46.719184828476955 0 0 0 0 210.93636334776556 169.92333930213414 0 169.92333930213414 -38.00945824842654 0 0 0 0 157.91011357628668 34.406098235320087 0 34.406098235320087 133.36028669916141 0 0 0 0 -103.91423038413814 -22.642317959717275 0 -22.642317959717275 -33.71673471250142 0 0 0 0 -84.516258931897028 -21.163077786836766 0 -21.163077786836766 -55.539810426270378 0 0 0 0 -96.850676040023245 -4.0264607884655561 0 -4.0264607884655561 -49.357562159313602 0 0 0 0 -110.83042862189177 -3.506901683662818 0 -3.506901683662818 -35.87296597900604 0 0 0 0 -93.774531254581234 -13.313150182892059 0 -13.313150182892059 -40.269871920765581 0 0 0 0 -105.29786723270809 -15.791250879442941 0 -15.791250879442941 -9.6667229852500896 0 0 0 0 -93.26345018720167 -17.185219055755397 0 -17.185219055755397 -18.734298234479866 0 0 0 0 -76.084464965109873 -6.5811822518239751 0 -6.5811822518239751 -30.191862845981632 0 0 0 0 133.74716698515113 5.4223947815419251 0 5.4223947815419251 -328.12204153356652 0 0 0 0 -69.460537509762901 24.989783901249517 0 24.989783901249517 7.8400103895378992 0 0 0 0 -115.72514570369822 -20.267350756377255 0 -20.267350756377255 0.8252584640040368 0 0 0 0 92.105251274606417 440.12546872877033 0 440.12546872877033 64.710102470480649 0 0 0 0 -118.10332531953918 -15.112022779911968 0 -15.112022779911968 -9.3164921378256622 0 0 0 0 -361.95766661030211 -163.63263607350541 0 -163.63263607350541 503.36157330994979 0 0 0 0 -994.53126240275515 -451.49617601082252 0 -451.49617601082252 369.52988065785757 0 0 0 0 -579.80477884228821 -540.7808883876869 0 -540.7808883876869 378.67546997066256 0 0 0 0 504.7358553996819 458.87675914298325 0 458.87675914298325 -381.93062704171098 0 0 0 0 168.96669119974104 -269.9100319460531 0 -269.9100319460531 153.52094171685167 0 0 0 0 -255.83691148784419 701.09755324244725 0 701.09755324244725 -437.03947482206968 0 0 0 0 -1065.8482744580251 94.319008461015073 0 94.319008461015073 53.789109565639592 0 0 0 0 -9.185625121331249 -2.789461390831101 0 -2.789461390831101 -0.81925851408499151 0 0 0 0 -293.82620222839978 -470.88775035359777 0 -470.88775035359777 -429.96425319112143 0 0 0 0 -154.30003216694786 26.720949511494382 0 26.720949511494382 34.816200127761476 0 0 0 0 -131.11888444693068 -192.66402976614881 0 -192.66402976614881 45.771041685723503 0 0 0 0 -140.80044242040094 -9.5862486599758086 0 -9.5862486599758086 107.42183876774766 0 0 0 0 -13.605509569304104 36.174885711565139 0 36.174885711565139 -7.7351332408316011 0 0 0 0 -123.12873577963819 75.603257081290224 0 75.603257081290224 -46.21049371972822 0 0 0 0 -86.624378269957106 -46.183936429124287 0 -46.183936429124287 -107.81706139264497 0 0 0 0 -119.54642480660914 -256.25040262115078 0 -256.25040262115078 -564.76358053647198 0 0 0 0 -80.362949106402084 -111.16854437649124 0 -111.16854437649124 -93.595946813699811 0 0 0 0 -30.099200797403682 -98.182845049036132 0 -98.182845049036132 -183.75804696794239 0 0 0 0 -9.59218642286951 1.207559459988234 0 1.207559459988234 0.080641122762895812 0 0 0 0 -533.7397089597489 -123.10129405582848 0 -123.10129405582848 479.75037661102522 0 0 0 0 -374.17384829996809 -93.852704927391642 0 -93.852704927391642 5.6352167290897341 0 0 0 0 -345.72583273483906 187.59163064912809 0 187.59163064912809 -310.18702369049811 0 0 0 0 320.6657007228132 405.56317591401086 0 405.56317591401086 -415.92212797933752 0 0 0 0 -76.854246609599926 18.024320790745115 0 18.024320790745115 9.3506711503817588 0 0 0 0 -459.53651581695885 -30.704655632934731 0 -30.704655632934731 419.07507610571179 0 0 0 0 -88.397772496078687 46.74153522303277 0 46.74153522303277 5.7791613098834205 0 0 0 0 -796.39773252791201 -373.41343509718388 0 -373.41343509718388 198.52491291004594 0 0 0 0 -75.509129512425261 3.8973624262578141 0 3.8973624262578141 -2.1519884262488631 0 0 0 0 -180.96061305785224 149.287732848014 0 149.287732848014 344.99761596077497 0 0 0 0 -83.362968722460209 -111.80905540970514 0 -111.80905540970514 85.82707006565164 0 0 0 0 -176.95748532536163 -245.12854053517347 0 -245.12854053517347 -69.313629239386671 0 0 0 0 -21.210887351393467 -69.66724091280912 0 -69.66724091280912 83.469769662091764 0 0 0 0 -34.156010586896628 -152.35445296318755 0 -152.35445296318755 205.46413408425997 0 0 0 0 -17.098959063363516 2.052554467411646 0 2.052554467411646 -0.50452333245775272 0 0 0 0 -25.075302233090042 -95.410646941934829 0 -95.410646941934829 551.74619273077315 0 0 0 0 34.710227743977157 -375.84326072143267 0 -375.84326072143267 301.71258250004075 0 0 0 0 102.7550541726232 -292.3280836092672 0 -292.3280836092672 80.476829496808932 0 0 0 0 -20.892964744139483 -12.169908110078209 0 -12.169908110078209 6.8023710487377933 0 0 0 0 -161.35618219249955 43.581375941740816 0 43.581375941740816 -16.04901031503141 0 0 0 0 -120.42150386024878 35.169600320176642 0 35.169600320176642 11.647581839090094 0 0 0 0 -140.3510203366568 20.880634115446355 0 20.880634115446355 0.51481825667087833 0 0 0 0 -107.07876755059806 13.949271683482948 0 13.949271683482948 -4.5144068063498253 0 0 0 0 -119.76175941371912 -39.007236238701807 0 -39.007236238701807 19.410320802113347 0 0 0 0 -228.12762049632511 -56.124589628449712 0 -56.124589628449712 21.495599025941601 0 0 0 0 -88.215750334120457 -90.059242453348247 0 -90.059242453348247 -40.422995998619172 0 0 0 0 -42.320675787075743 -15.920198899989828 0 -15.920198899989828 -0.77731946547004327 0 0 0 0 -38.605023972222625 -25.627258889529003 0 -25.627258889529003 -14.596527575873552 0 0 0 0 -78.756923802418896 -54.194689296581146 0 -54.194689296581146 -9.4635331628070389 0 0 0 0 -117.23192144423047 -36.078061657661465 0 -36.078061657661465 10.241253658781716 0 0 0 0 -96.996632546673027 -36.87510104856085 0 -36.87510104856085 7.9824816173986619 0 0 0 0 -87.507596911247674 -19.500562610841371 0 -19.500562610841371 -0.16044118270656327 0 0 0 0 -66.80149118035115 -13.171368675285976 0 -13.171368675285976 -18.31132943225748 0 0 0 0 -93.832100942603574 -23.636276267617632 0 -23.636276267617632 -1.6110785748805938 0 0 0 0 -101.18084967138202 -14.748806138693908 0 -14.748806138693908 -9.4279420154168747 0 0 0 0 -106.69355857387109 -27.749980001555514 0 -27.749980001555514 2.5979063613704056 0 0 0 0 -123.28314698559916 -16.142404787200121 0 -16.142404787200121 0.046931811503554854 0 0 0 0 -150.05804158820774 -25.581037410023839 0 -25.581037410023839 16.830385463184939 0 0 0 0 -116.37992405250043 -26.788976886362434 0 -26.788976886362434 15.56145863571237 0 0 0 0 -115.74843759258147 -26.541430278280586 0 -26.541430278280586 4.8424593605832342 0 0 0 0 -635.76061555545675 374.56566685650614 0 374.56566685650614 317.4515957183612 0 0 0 0 -747.75863157827189 262.48473746539935 0 262.48473746539935 302.0368388289794 0 0 0 0 -609.18486284817482 95.575935295439194 0 95.575935295439194 334.18912098772262 0 0 0 0 -494.45505481390137 104.85622107833933 0 104.85622107833933 271.6147363566397 0 0 0 0 -468.60658016624075 50.086035597752016 0 50.086035597752016 321.03698553466711 0 0 0 0 -360.49162910193445 47.28558924941558 0 47.28558924941558 209.28321556359879 0 0 0 0 -324.90474307918339 -14.762093319108317 0 -14.762093319108317 184.26200685410095 0 0 0 0 -493.07949811394064 190.96981871049502 0 190.96981871049502 274.1673585350236 0 0 0 0 -491.19963791917326 293.3825656688141 0 293.3825656688141 118.43372205129162 0 0 0 0 -174.41179505339824 149.07613431323261 0 149.07613431323261 100.79368481102392 0 0 0 0 -151.07130693257568 84.176198709390519 0 84.176198709390519 148.10810901829154 0 0 0 0 -97.095903122237161 -6.2939564947356992 0 -6.2939564947356992 8.4218687583307492 0 0 0 0 -279.56644745826634 344.44114461460413 0 344.44114461460413 -230.81207858468315 0 0 0 0 32.047363222241984 141.54072517062559 0 141.54072517062559 -160.73943268985113 0 0 0 0 -154.85334880917981 -13.396879412399358 0 -13.396879412399358 -23.356113799774903 0 0 0 0 -402.32578114372154 27.66254490272695 0 27.66254490272695 31.513436574527077 0 0 0 0 -123.58071484182238 139.86733785512615 0 139.86733785512615 97.815451688378744 0 0 0 0 -335.90682854150509 -24.854054509944035 0 -24.854054509944035 34.463330919556029 0 0 0 0 -338.76761069703207 26.29791461572313 0 26.29791461572313 58.515388739499031 0 0 0 0 -346.64294504381542 -10.692966882380915 0 -10.692966882380915 94.880499328621227 0 0 0 0 -348.5522943374981 38.445592675003354 0 38.445592675003354 141.20817982350491 0 0 0 0 -52.924486370573526 -11.338116877357134 0 -11.338116877357134 15.306061648952955 0 0 0 0 -246.88489109795046 75.89754207130045 0 75.89754207130045 29.866426058655634 0 0 0 0 -22.859528070433953 -11.700063183314001 0 -11.700063183314001 20.328897975383143 0 0 0 0 145.93084556631584 -28.151647416089418 0 -28.151647416089418 5.7719867497089581 0 0 0 0 5.8898912057931625 -7.0355483425674876 0 -7.0355483425674876 5.4483259533426445 0 0 0 0 -35.746611769716466 -7.0260323071095971 0 -7.0260323071095971 5.980337076497098 0 0 0 0 -42.609553849439976 -9.4218232603557226 0 -9.4218232603557226 29.81617825636215 0 0 0 0 -21.261295186274033 -8.8429399892818346 0 -8.8429399892818346 5.810665251948083 0 0 0 0 81.401910976013141 -358.38716324946859 0 -358.38716324946859 261.13329176750926 0 0 0 0 -2.2047198093496263 -30.30948674791216 0 -30.30948674791216 -47.792558207892398 0 0 0 0 -10.433307115573534 -9.1352447181202514 0 -9.1352447181202514 9.2056472817011965 0 0 0 0 -314.91726330503843 -49.27946705294562 0 -49.27946705294562 272.86524829882183 0 0 0 0 -353.63371580064177 15.116338689829718 0 15.116338689829718 299.00532329956877 0 0 0 0 -80.566022801940562 -17.363042463409329 0 -17.363042463409329 263.26802416480496 0 0 0 0 -79.355772752242046 -29.25428601745989 0 -29.25428601745989 380.09558700578418 0 0 0 0 -152.12561184807419 -151.77336424113673 0 -151.77336424113673 317.98054155867203 0 0 0 0 62.589627097026096 -85.370515912763267 0 -85.370515912763267 225.74080483254693 0 0 0 0 -468.37566764029725 -55.567297704844009 0 -55.567297704844009 344.33928523782743 0 0 0 0 -10.983611737148749 -12.876626170675195 0 -12.876626170675195 4.4580705566413599 0 0 0 0 -17.762283098268792 -10.972779040166508 0 -10.972779040166508 3.5282974945854875 0 0 0 0 -39.385374308862538 -18.81901378971304 0 -18.81901378971304 11.010394266097194 0 0 0 0 -39.555925840581267 -19.91003414517229 0 -19.91003414517229 20.393112830985274 0 0 0 0 -26.625213002466722 -13.549682956316426 0 -13.549682956316426 11.328554786093786 0 0 0 0 -18.253074767868537 -11.270505226800696 0 -11.270505226800696 10.641369666111924 0 0 0 0 -29.506843698380962 -9.4968091990236214 0 -9.4968091990236214 14.894032451141287 0 0 0 0 0.83582244819266194 -3.0851288711107396 0 -3.0851288711107396 1.9811175218901087 0 0 0 0 -62.26351203872764 -16.071159488678404 0 -16.071159488678404 44.020308938477342 0 0 0 0 -21.507916764894617 5.7391582996096986 0 5.7391582996096986 37.782546756778174 0 0 0 0 -10.083171430058428 -9.6743714347794594 0 -9.6743714347794594 8.81122409057798 0 0 0 0 -33.041506115256198 -17.397138231621284 0 -17.397138231621284 21.298200483139226 0 0 0 0 -29.206716673402248 -10.128909784170911 0 -10.128909784170911 17.727641948278588 0 0 0 0 -24.031573077550277 -8.0892519003850953 0 -8.0892519003850953 10.463351399089557 0 0 0 0 -26.588490972612966 -6.033360974393263 0 -6.033360974393263 11.90146084198128 0 0 0 0 -23.189202568766632 -4.739619995143812 0 -4.739619995143812 20.843781873244325 0 0 0 0 35.668281433585435 -28.382401540467583 0 -28.382401540467583 -34.519066076188778 0 0 0 0 29.066288096046264 -43.152476622076847 0 -43.152476622076847 -65.436590649021127 0 0 0 0 -13.501858571273438 -13.746378555899454 0 -13.746378555899454 10.278910949910383 0 0 0 0 -3.9883715618216229 -36.150367464915348 0 -36.150367464915348 13.47627131424241 0 0 0 0 -19.989289946512145 -55.713423452990924 0 -55.713423452990924 -7.7028575857202668 0 0 0 0 -53.22592210825951 -112.6737671589263 0 -112.6737671589263 48.054480836933749 0 0 0 0 -65.509725895476322 -142.89096220442354 0 -142.89096220442354 30.097597736812304 0 0 0 0 -82.991769708718493 -46.490696630463844 0 -46.490696630463844 50.764162963283525 0 0 0 0 -74.997077895595709 -36.337825416960527 0 -36.337825416960527 -7.5850223141273521 0 0 0 0 -236.6417605903589 -61.342131213637913 0 -61.342131213637913 311.78607872567227 0 0 0 0 61.913841927431349 -116.27875044311713 0 -116.27875044311713 9.4024793373371267 0 0 0 0 -111.28846343063924 -298.9464535581069 0 -298.9464535581069 622.139065477244 0 0 0 0 -338.92341914209828 32.048683866114516 0 32.048683866114516 600.39899000835908 0 0 0 0 -226.76383672502561 -24.255577914944752 0 -24.255577914944752 445.12559619549563 0 0 0 0 224.35389252131426 -405.1099833672547 0 -405.1099833672547 365.56554728283481 0 0 0 0 -278.87113233323544 123.03234926699429 0 123.03234926699429 71.064634004554136 0 0 0 0 762.49911402225553 -709.27022085766657 0 -709.27022085766657 637.56837764607917 0 0 0 0 -6.2601626408755067 0.52176650678530478 0 0.52176650678530478 4.0348550494889528 0 0 0 0 1373.8842482008076 -557.44485649333683 0 -557.44485649333683 384.283827723174 0 0 0 0 -2.8941235083771488 0.31604357013645057 0 0.31604357013645057 0.66301881227908765 0 0 0 0 719.94749581904398 -717.90286353241072 0 -717.90286353241072 671.09374881809163 0 0 0 0 498.76262945310918 12.095887057727282 0 12.095887057727282 212.52702822564606 0 0 0 0 254.21721576426353 33.878372262074208 0 33.878372262074208 226.98740603164742 0 0 0 0 278.04551613975491 -160.52582145677343 0 -160.52582145677343 100.19095755260594 0 0 0 0 -91.857573666762619 41.309813464733452 0 41.309813464733452 208.1893542440921 0 0 0 0 351.70504896259445 -427.68859805060731 0 -427.68859805060731 98.897030381806417 0 0 0 0 263.78345395433098 -205.89147063638666 0 -205.89147063638666 61.083043462274873 0 0 0 0 286.02699026405753 -437.92922884620248 0 -437.92922884620248 371.38354712738089 0 0 0 0 238.20809000790177 -251.33495023870591 0 -251.33495023870591 627.79691962742254 0 0 0 0 593.36457442609026 -619.64395045093329 0 -619.64395045093329 134.77763707877159 0 0 0 0 -14.764869594751545 -13.066038940012021 0 -13.066038940012021 3.0628701403187613 0 0 0 0 -116.34046088067771 -77.713046210645643 0 -77.713046210645643 54.583089683042942 0 0 0 0 -27.865759405312794 4.7678160025608527 0 4.7678160025608527 10.547411020152733 0 0 0 0 -30.257410930280003 -16.766841547203725 0 -16.766841547203725 4.0985941747502466 0 0 0 0 -209.73436612446676 -225.71318105396591 0 -225.71318105396591 394.076111619796 0 0 0 0 495.68968210443563 -232.45309198805123 0 -232.45309198805123 84.312034611273589 0 0 0 0 -207.3708871347917 -219.78571840603917 0 -219.78571840603917 226.32209130022773 0 0 0 0 -624.45149560925711 -99.323016221153921 0 -99.323016221153921 330.16752230409452 0 0 0 0 -225.74725764836603 -342.70291423718453 0 -342.70291423718453 -92.49295542052414 0 0 0 0 -942.48909032134543 -134.14644812085504 0 -134.14644812085504 271.234991188815 0 0 0 0 -223.36895968128374 -300.00143391321512 0 -300.00143391321512 201.19584930963242 0 0 0 0 -207.57091093171766 -281.05777842950874 0 -281.05777842950874 -16.647388133416825 0 0 0 0 -116.75020199741994 -135.19833233011286 0 -135.19833233011286 217.60247643757202 0 0 0 0 -487.93850471047699 155.91186183188302 0 155.91186183188302 -104.95635997769887 0 0 0 0 -48.919672044890831 98.271443150106279 0 98.271443150106279 -295.21932964442203 0 0 0 0 -607.69035226408232 447.21366566820825 0 447.21366566820825 -781.82128404823561 0 0 0 0 -890.45849748183173 -401.22432096534226 0 -401.22432096534226 -575.0612820979768 0 0 0 0 -484.36077490924072 47.295107626284675 0 47.295107626284675 -94.720860463807185 0 0 0 0 -1970.8221621412904 82.435772287291513 0 82.435772287291513 127.31078413056275 0 0 0 0 -502.2489995762844 -468.76688848934623 0 -468.76688848934623 -41.326612717534772 0 0 0 0 -11.812654487031487 -1.5528283407104801 0 -1.5528283407104801 0.18671764422125658 0 0 0 0 -1236.5356437324226 1070.4439292150073 0 1070.4439292150073 -769.73375024264669 0 0 0 0 -774.67003898795519 134.62233228607846 0 134.62233228607846 20.897302163581315 0 0 0 0 -948.83768367172888 7.540522988047087 0 7.540522988047087 269.38669644947117 0 0 0 0 -608.61364923778535 144.40676511480848 0 144.40676511480848 292.34328902625202 0 0 0 0 -995.1855366052514 430.3310149400404 0 430.3310149400404 309.36986135285497 0 0 0 0 -695.15640425037418 -28.737634412716034 0 -28.737634412716034 121.1155107204163 0 0 0 0 -563.57166560639052 -56.534971616139956 0 -56.534971616139956 70.742164962644438 0 0 0 0 -1767.7261513991089 376.95937818002994 0 376.95937818002994 -26.411779453761028 0 0 0 0 -788.43698946282893 -13.789530571648811 0 -13.789530571648811 75.183749545566172 0 0 0 0 -651.06944494109302 36.002025584820785 0 36.002025584820785 41.991411445953418 0 0 0 0 -770.85054146179482 271.18533549753147 0 271.18533549753147 -249.77130921678054 0 0 0 0 -103.47470829288068 298.56751060448073 0 298.56751060448073 -317.9082408498648 0 0 0 0 -697.98657161144001 1.8181606057785302 0 1.8181606057785302 59.245771181004329 0 0 0 0 -431.95569696940584 -0.33426583281220701 0 -0.33426583281220701 -89.057888490116738 0 0 0 0 -101.56006607935706 109.66305775438173 0 109.66305775438173 -326.69123522099926 0 0 0 0 -251.05722579302346 44.937230795686105 0 44.937230795686105 -30.976841178935501 0 0 0 0 -0.52870135746207936 0.24731231885427718 0 0.24731231885427718 -3.4911840434753234 0 0 0 0 -224.43507949555715 254.27996865892783 0 254.27996865892783 63.667077787181995 0 0 0 0 100.18008118837861 -276.58150184781186 0 -276.58150184781186 -107.09162467672923 0 0 0 0 189.5523380688137 -22.983822591095304 0 -22.983822591095304 -485.08315323632701 0 0 0 0 39.382413286566589 5.8890331905197968 0 5.8890331905197968 -264.63015583706601 0 0 0 0 -17.654022435883235 -30.171250374420197 0 -30.171250374420197 -144.66414575364797 0 0 0 0 101.29599051417335 -234.45375327955941 0 -234.45375327955941 -112.03772325246791 0 0 0 0 160.95927524784202 -348.305787127352 0 -348.305787127352 -151.44352069934303 0 0 0 0 -15.56532153909211 -108.56617778228235 0 -108.56617778228235 -209.98089221717146 0 0 0 0 1.2544070336667072 0.32012463654992018 0 0.32012463654992018 -5.2433627150714317 0 0 0 0 -24.373243250258383 -49.208453753834647 0 -49.208453753834647 -13.287760420965242 0 0 0 0 -82.347707823602832 69.620693701864184 0 69.620693701864184 49.731162927673324 0 0 0 0 15.128263250573582 41.097269717624272 0 41.097269717624272 -20.092278019241235 0 0 0 0 -7.2591443935208018 1.5181612763628216 0 1.5181612763628216 -11.06518304066166 0 0 0 0 -39.449468447401159 25.595947444483954 0 25.595947444483954 -0.99736148870954366 0 0 0 0 -35.665222798108516 12.943900475061014 0 12.943900475061014 -19.357283200251402 0 0 0 0 -96.973941114094941 -8.9207940419196348 0 -8.9207940419196348 -14.267590586225651 0 0 0 0 -104.33675424356079 1.9121509644710386 0 1.9121509644710386 12.638110783541833 0 0 0 0 -0.034402943957635657 0.042006532545741493 0 0.042006532545741493 -10.179861446608697 0 0 0 0 -596.4997585412566 -58.220850214871007 0 -58.220850214871007 84.861701361197447 0 0 0 0 -778.86726637742322 -109.73259394181787 0 -109.73259394181787 95.728896632524084 0 0 0 0 -470.98470591591104 -89.605494004887987 0 -89.605494004887987 -2.4812657414822752 0 0 0 0 -628.74247305298923 7.587576542975512 0 7.587576542975512 28.983872559019915 0 0 0 0 -598.34656203396298 -183.44524897987776 0 -183.44524897987776 11.136865703525473 0 0 0 0 -767.90040777485046 -10.230481047133708 0 -10.230481047133708 126.67393182660658 0 0 0 0 -776.91097204162179 48.207632677427227 0 48.207632677427227 -478.56000549903001 0 0 0 0 -1072.4657120719494 -167.2730332111928 0 -167.2730332111928 52.102937693425247 0 0 0 0 -652.72522432449159 -44.390855390357501 0 -44.390855390357501 106.23480440355252 0 0 0 0 -11.415414222241886 -0.9053598574661359 0 -0.9053598574661359 0.11944942391216495 0 0 0 0 -8.7630434352722659 28.549450598115683 0 28.549450598115683 -55.05883540511325 0 0 0 0 -462.77551961448989 37.196371684530703 0 37.196371684530703 390.2262354905456 0 0 0 0 -5.8597949143513688 -9.9526396264869845 0 -9.9526396264869845 -14.397363938868637 0 0 0 0 -15.237464043518642 3.2084870292842558 0 3.2084870292842558 1.415841134908089 0 0 0 0 -0.64275787364294956 95.2706778322584 0 95.2706778322584 199.7739160117427 0 0 0 0 -10.782855614710684 22.67118873220792 0 22.67118873220792 20.073806360004436 0 0 0 0 -34.174745804584006 1.5702969522564487 0 1.5702969522564487 4.6114938996383232 0 0 0 0 145.99153592892253 63.581568463126018 0 63.581568463126018 -13.444930020351876 0 0 0 0 14.267892276855491 -27.116465597210151 0 -27.116465597210151 -27.253449441422163 0 0 0 0 -4.4790910281399192 42.764573319839116 0 42.764573319839116 59.09263244531985 0 0 0 0 -38.393420324176986 -38.183534502875773 0 -38.183534502875773 -3.2889397887342966 0 0 0 0 -24.789395368372425 -42.955697376371745 0 -42.955697376371745 -24.010796656511047 0 0 0 0 53.622024816351768 -108.70311087872579 0 -108.70311087872579 -51.753232095407384 0 0 0 0 -223.70320503558469 -179.81790575892933 0 -179.81790575892933 -21.405360742326593 0 0 0 0 0.8398856008839104 -2.2231100790593814 0 -2.2231100790593814 -3.9606030527279907 0 0 0 0 -456.31725961153279 125.86695819169944 0 125.86695819169944 -18.874263114799305 0 0 0 0 128.31002871043711 -123.42145427523772 0 -123.42145427523772 41.355398811578198 0 0 0 0 156.06577081806245 -134.01685726537852 0 -134.01685726537852 -13.291741172107963 0 0 0 0 132.71388086152001 -149.47844157569352 0 -149.47844157569352 -12.710531379632585 0 0 0 0 -17.764827448634605 -207.41526055042084 0 -207.41526055042084 2.038607775233146 0 0 0 0 15.237033288896782 -162.3140355231892 0 -162.3140355231892 40.788642461455765 0 0 0 0 -47.430364446994645 -36.388743874932516 0 -36.388743874932516 -23.143330623382838 0 0 0 0 10.633066170456004 -197.14908022320765 0 -197.14908022320765 192.11119018616944 0 0 0 0 -120.37411200333736 -100.9772006631913 0 -100.9772006631913 21.683607581613728 0 0 0 0 -25.407043708073616 -169.07967885186258 0 -169.07967885186258 69.606677013779063 0 0 0 0 113.34117934145979 -183.0771191157659 0 -183.0771191157659 -64.815752016308295 0 0 0 0 -36.31383722013743 228.564255937967 0 228.564255937967 -289.05365869377852 0 0 0 0 -35.158149557617435 239.93473239297987 0 239.93473239297987 -735.63688997371446 0 0 0 0 -4.2855651942674484 -1.2002816145243154 0 -1.2002816145243154 -0.18748411684008118 0 0 0 0 -322.51369703274031 330.55020264940168 0 330.55020264940168 86.893967463156827 0 0 0 0 -69.628951912707635 14.122170380376389 0 14.122170380376389 8.2294691730619434 0 0 0 0 -82.020776409055543 98.030388813680133 0 98.030388813680133 -182.61439111358902 0 0 0 0 -51.45652943191817 58.543188843312237 0 58.543188843312237 -8.3137001636380887 0 0 0 0 -7.1928446539368451 14.917074328741364 0 14.917074328741364 5.1833802599525143 0 0 0 0 -3.0252380763549809 -73.259733360063038 0 -73.259733360063038 105.6074835494195 0 0 0 0 -189.48197994646398 27.774617933475497 0 27.774617933475497 225.54022246444072 0 0 0 0 22.242921897199267 111.65698659601662 0 111.65698659601662 64.606273332079581 0 0 0 0 -74.111519982961909 3.7067772552345559 0 3.7067772552345559 46.318272142330272 0 0 0 0 -37.976905482746304 10.14352246199196 0 10.14352246199196 0.27407339925228147 0 0 0 0 32.168197703365877 23.648974626546305 0 23.648974626546305 60.918575445764532 0 0 0 0 -46.95344123272298 20.753339575487928 0 20.753339575487928 38.597898113331496 0 0 0 0 -35.597414556476892 8.4589172462729394 0 8.4589172462729394 1.7897023197890438 0 0 0 0 45.759388869741088 218.75633481193429 0 218.75633481193429 186.02918140990749 0 0 0 0 -40.496516539160439 60.287085944735722 0 60.287085944735722 41.11788353987572 0 0 0 0 -83.279771430010442 288.39556121373766 0 288.39556121373766 380.34839612107839 0 0 0 0 193.88128798983598 34.478091291677345 0 34.478091291677345 -203.13855446992341 0 0 0 0 -191.20420401162482 -174.90599692215733 0 -174.90599692215733 -45.823884598353629 0 0 0 0 -590.91595818000496 -567.48826083085214 0 -567.48826083085214 -269.36629475351532 0 0 0 0 -163.10497282809592 -224.95732178656363 0 -224.95732178656363 -37.648708685545444 0 0 0 0 -177.07839170274747 12.667611604595322 0 12.667611604595322 -12.316246688239971 0 0 0 0 -840.89683329203035 139.85568044261061 0 139.85568044261061 11.565979947762173 0 0 0 0 -10.885360066044115 -5.0859052121646808 0 -5.0859052121646808 -1.6407944795193072 0 0 0 0 41.615568689732754 281.70250457491761 0 281.70250457491761 -610.88738291356526 0 0 0 0 -860.45352395623831 -773.56510510170222 0 -773.56510510170222 -12.288605506417753 0 0 0 0 -56.256219528044312 32.845159710170492 0 32.845159710170492 6.3290773263967139 0 0 0 0 -28.810558970212995 -7.4123312835046642 0 -7.4123312835046642 -1.2021437128279873 0 0 0 0 -37.176509504550268 -623.05662865412705 0 -623.05662865412705 -306.6478732676004 0 0 0 0 38.127055567606476 -616.26438236964077 0 -616.26438236964077 -858.0401586183325 0 0 0 0 -326.01573130060819 -10.585599756172144 0 -10.585599756172144 958.43250071334683 0 0 0 0 319.69747741256288 -579.85234568566807 0 -579.85234568566807 -972.93090418431916 0 0 0 0 -199.94911296745158 94.10712161957963 0 94.10712161957963 13.837423748247634 0 0 0 0 -12.379417723289116 -4.238101679999092 0 -4.238101679999092 -0.88577988189748558 0 0 0 0 11.076377508587029 71.123456549562434 0 71.123456549562434 84.016179030074909 0 0 0 0 11.251460120457523 -84.080853591887148 0 -84.080853591887148 -109.34927199427602 0 0 0 0 -2.3239976514507106 0.30456450130802448 0 0.30456450130802448 0.4922752779521602 0 0 0 0 -645.04958491505022 -229.25027921175683 0 -229.25027921175683 3.559612097656327 0 0 0 0 -1009.904399986699 -396.00601681840783 0 -396.00601681840783 -45.97314548799568 0 0 0 0 -7.0179019219690986 -4.8083430966416794 0 -4.8083430966416794 2.5123818979010912 0 0 0 0 -66.421089135579678 -52.759191679947435 0 -52.759191679947435 64.394049903632748 0 0 0 0 -804.80825082234514 -449.59953679462774 0 -449.59953679462774 405.51445294434075 0 0 0 0 -34.554191461953856 -3.5082088064228478 0 -3.5082088064228478 1.8395968651559436 0 0 0 0 -7.8114442939659057 41.226311939049765 0 41.226311939049765 109.84919442690943 0 0 0 0 32.143691756406042 33.341140820856367 0 33.341140820856367 60.199494319040241 0 0 0 0 1.449149185571514 43.068204140872012 0 43.068204140872012 67.170607633293457 0 0 0 0 -4.7931342872016103 22.578993177857456 0 22.578993177857456 77.783294289001788 0 0 0 0 -1.1857224800769472 15.42533934426433 0 15.42533934426433 3.6391583935310337 0 0 0 0 -50.932508411147865 1.1200695463106172 0 1.1200695463106172 15.204079383355747 0 0 0 0 -18.714543246667745 21.146458668124978 0 21.146458668124978 67.450863902557955 0 0 0 0 -20.704384174852748 2.2947843147439926 0 2.2947843147439926 -8.7118443243589354 0 0 0 0 -40.029712950890826 -0.91530838780772683 0 -0.91530838780772683 -20.790264622875839 0 0 0 0 -65.730043623927486 -2.6959910989298805 0 -2.6959910989298805 -6.7787964641870531 0 0 0 0 -66.890222580794102 1.0198928198231982 0 1.0198928198231982 -13.606933472317905 0 0 0 0 -25.734410824429347 46.070360155678372 0 46.070360155678372 2.4912721849568698 0 0 0 0 -42.86872165368186 25.215164397613535 0 25.215164397613535 -11.513573027948041 0 0 0 0 -21.567652268753591 15.667008596753476 0 15.667008596753476 -7.6470502316055899 0 0 0 0 -32.931157793691 30.813117382620021 0 30.813117382620021 10.61904046132895 0 0 0 0 -15.173706490169479 45.185755068508172 0 45.185755068508172 26.601049871684154 0 0 0 0 -8.3697158368740929 16.91887613835388 0 16.91887613835388 18.400093670676142 0 0 0 0 1.4768118628899174 37.852880955749697 0 37.852880955749697 26.981627047258371 0 0 0 0 -8.691236042395758 36.522847639441352 0 36.522847639441352 61.866500530248913 0 0 0 0 13.826699112030838 39.43480808641516 0 39.43480808641516 27.685970660158091 0 0 0 0 -6.0051705778605537 44.276395649527331 0 44.276395649527331 75.537882111592012 0 0 0 0 29.626977747892852 47.824056695098534 0 47.824056695098534 17.220992096943974 0 0 0 0 -7.3994928452598288 117.15151063341023 0 117.15151063341023 -71.593005217003338 0 0 0 0 -2.2256932306628059 -0.39005146995710049 0 -0.39005146995710049 0.78577966731753079 0 0 0 0 -129.46758062269328 139.18031486518657 0 139.18031486518657 51.898320062551193 0 0 0 0 -71.022569143660803 77.596655133288095 0 77.596655133288095 109.95515995303685 0 0 0 0 -16.405943974095862 80.387753536292621 0 80.387753536292621 -1.3620445496694629 0 0 0 0 1.2728198584936763 38.27142153329396 0 38.27142153329396 4.2212299363100101 0 0 0 0 -66.175476866269491 81.618381056675162 0 81.618381056675162 16.466317587545745 0 0 0 0 -41.653414295224138 50.641227508439897 0 50.641227508439897 41.611052197506979 0 0 0 0 -40.047930262746377 32.568495096269999 0 32.568495096269999 -7.9553811349564967 0 0 0 0 -47.060648111651972 18.636642604920326 0 18.636642604920326 -4.1576237852696067 0 0 0 0 -38.660302901545947 31.260521215629979 0 31.260521215629979 -19.404300012863132 0 0 0 0 -43.216106032130028 15.831194552460033 0 15.831194552460033 -23.557148114011397 0 0 0 0 -0.61290191138572858 -1.870938785597577 0 -1.870938785597577 -2.8854184305985218 0 0 0 0 -46.505273175794628 8.7404674903189061 0 8.7404674903189061 70.379588761929881 0 0 0 0 3.673114252475898 -74.58294406567461 0 -74.58294406567461 -84.897688369417665 0 0 0 0 -35.338026480394888 -7.6833220059587246 0 -7.6833220059587246 -1.2051644588141102 0 0 0 0 -40.951545601637463 35.040865917005704 0 35.040865917005704 71.709126867720443 0 0 0 0 -7.7648690175017165 2.0644989551122634 0 2.0644989551122634 1.5325146049510217 0 0 0 0 -52.311715273652226 22.655687970397139 0 22.655687970397139 -23.163887290228104 0 0 0 0 -46.422282161538533 12.987396464043741 0 12.987396464043741 -35.421015094507311 0 0 0 0 -68.774678675912583 2.8963147363012922 0 2.8963147363012922 -34.281515440074145 0 0 0 0 -52.15683482125678 13.293454501951601 0 13.293454501951601 -33.576323728272428 0 0 0 0 -48.655494399630697 19.866544340665314 0 19.866544340665314 -26.1064920170611 0 0 0 0 -46.299653255824524 9.0964097459836921 0 9.0964097459836921 -41.323959102500794 0 0 0 0 -44.607027425340021 18.077511570876961 0 18.077511570876961 3.5163085808377668 0 0 0 0 -69.232115077405979 7.5948671957685292 0 7.5948671957685292 -59.607160343820851 0 0 0 0 -42.519095249837356 10.025885390043511 0 10.025885390043511 1.3080884785886475 0 0 0 0 -122.73431732426161 -2.9398972923362408 0 -2.9398972923362408 -30.521943676700175 0 0 0 0 -69.196269195319474 -3.8454224628762859 0 -3.8454224628762859 -28.491974303045936 0 0 0 0 -73.925849840845331 1.0303046790613735 0 1.0303046790613735 -33.437874277352194 0 0 0 0 -76.439692707655922 -10.72027069853084 0 -10.72027069853084 -16.997399917989924 0 0 0 0 -66.9952712395243 7.9998652882695751 0 7.9998652882695751 -21.05768781727329 0 0 0 0 -40.593204910173881 12.226133003538962 0 12.226133003538962 -24.666529619468292 0 0 0 0 -41.150858389350105 32.43597997017514 0 32.43597997017514 -7.5377991527584527 0 0 0 0 -59.99678582116394 21.294379361075926 0 21.294379361075926 -28.089595025126982 0 0 0 0 -1288.1833720631521 -714.69331621845151 0 -714.69331621845151 40.455867400630268 0 0 0 0 -152.70437022433543 78.002703556390088 0 78.002703556390088 6.874043662561121 0 0 0 0 -573.43267192023427 -591.12850977666426 0 -591.12850977666426 36.11474701831515 0 0 0 0 -1319.1775070333701 24.369961152473479 0 24.369961152473479 37.435095758799662 0 0 0 0 -135.08703262694326 -120.84438715052238 0 -120.84438715052238 22.183591670678652 0 0 0 0 -426.93406750872259 398.0675598020581 0 398.0675598020581 575.41482308598825 0 0 0 0 -411.14538462165086 336.09511697117705 0 336.09511697117705 -704.66766470242374 0 0 0 0 -994.59257911983559 -470.66357578475845 0 -470.66357578475845 -674.7181123659434 0 0 0 0 -607.74595581327503 -686.61663449759476 0 -686.61663449759476 -601.85749032812214 0 0 0 0 -14.116927170795691 -2.8261030725403451 0 -2.8261030725403451 -0.81381856921310014 0 0 0 0 -856.11561012550942 166.7288643473878 0 166.7288643473878 66.492081882096954 0 0 0 0 -108.47954133168423 109.72950652104555 0 109.72950652104555 -5.2645414934722794 0 0 0 0 -50.326319399635395 -104.75962250077612 0 -104.75962250077612 -86.032508615043298 0 0 0 0 -1047.8861680214031 -424.97376004810576 0 -424.97376004810576 -126.38034089654923 0 0 0 0 -859.89790773725372 -654.7219056394315 0 -654.7219056394315 101.23795319761825 0 0 0 0 -1474.18451252357 -830.80666633169494 0 -830.80666633169494 58.655289834391851 0 0 0 0 -9.8216139879001307 0.43802660242859703 0 0.43802660242859703 0.73480205262370513 0 0 0 0 -624.24075939305021 318.91716852861975 0 318.91716852861975 359.32442078050258 0 0 0 0 -167.19786012209897 212.9705336501861 0 212.9705336501861 44.490807125711399 0 0 0 0 -1235.4713973406706 100.23051643988492 0 100.23051643988492 167.86149415915861 0 0 0 0 -1.3969376031146368 -1.444271472239695 0 -1.444271472239695 -1.9945116475261333 0 0 0 0 -1319.8045684963054 -560.95748660612253 0 -560.95748660612253 -600.63494235380222 0 0 0 0 -85.261508771935041 -400.47527085552088 0 -400.47527085552088 -262.27138710957524 0 0 0 0 -930.78827246771471 -646.42102575574438 0 -646.42102575574438 -265.918525673418 0 0 0 0 -1654.73951580627 -286.75868183200078 0 -286.75868183200078 64.889233625797715 0 0 0 0 -688.09628020507989 15.244764547357136 0 15.244764547357136 -60.116218173506923 0 0 0 0 -680.17859080792641 12.31468174870497 0 12.31468174870497 -97.1104147621636 0 0 0 0 105.17604738999717 50.201511757125843 0 50.201511757125843 -138.2630137593037 0 0 0 0 -42.53078011868638 285.62096219621844 0 285.62096219621844 -64.437755251625731 0 0 0 0 -17.591451438009592 2.751379122401385 0 2.751379122401385 0.77994808697494422 0 0 0 0 -163.26365658150803 -48.802547014427205 0 -48.802547014427205 317.46154999257124 0 0 0 0 -291.15490234214667 285.25742141502553 0 285.25742141502553 -19.199164089908891 0 0 0 0 -447.06990153596155 -157.09923285754834 0 -157.09923285754834 15.342494930970133 0 0 0 0 -177.82251845895007 103.24274286951436 0 103.24274286951436 -136.60482882944484 0 0 0 0 -58.783615444155657 165.12900399083424 0 165.12900399083424 -184.28596047305984 0 0 0 0 -80.314004005355855 270.73887576131631 0 270.73887576131631 116.98617406748052 0 0 0 0 62.141704642118384 530.12163885564098 0 530.12163885564098 137.38881033490566 0 0 0 0 194.54588303105106 141.49971681400129 0 141.49971681400129 -226.78156509819883 0 0 0 0 -3.1752089954443168 3.4822936468631287 0 3.4822936468631287 1.0732810604076453 0 0 0 0 -1418.544027312571 -382.61734654538009 0 -382.61734654538009 132.23206609967065 0 0 0 0 675.47025805777048 602.07545308943349 0 602.07545308943349 -42.837673503591155 0 0 0 0 -1258.4705939355517 -365.49911896839512 0 -365.49911896839512 -23.677290223165073 0 0 0 0 -560.22487167231884 -296.65386503882837 0 -296.65386503882837 -86.835264118355667 0 0 0 0 -153.31787050109415 79.670857949979109 0 79.670857949979109 -202.14823065978203 0 0 0 0 -622.91171018418299 -190.01583461348207 0 -190.01583461348207 -177.26767178793375 0 0 0 0 1.9096244545780792 140.28797355362369 0 140.28797355362369 -262.95905630033405 0 0 0 0 -274.87297795647828 -215.17440409136378 0 -215.17440409136378 -574.26598715483203 0 0 0 0 -836.20623570726275 -537.0514715950826 0 -537.0514715950826 -295.06079206072036 0 0 0 0 -159.35387535892914 388.30803418177334 0 388.30803418177334 -20.42244372358914 0 0 0 0 -140.77637454369733 144.4725408445816 0 144.4725408445816 559.39655434734391 0 0 0 0 -35.640882291209792 -5.8258497542560299 0 -5.8258497542560299 0.87914063689455713 0 0 0 0 102.45501491880441 362.90249696170542 0 362.90249696170542 238.20103078146624 0 0 0 0 298.20833996274541 117.8783478255197 0 117.8783478255197 145.03626057751282 0 0 0 0 -864.00084898256546 295.4159360741196 0 295.4159360741196 -101.07776789072273 0 0 0 0 -12.890756560120611 5.3531287981528184 0 5.3531287981528184 3.3928407840224084 0 0 0 0 -1290.8091035926591 -277.96631466703479 0 -277.96631466703479 127.32208459474461 0 0 0 0 -1619.4607976150151 -327.14114327713855 0 -327.14114327713855 23.70080587375196 0 0 0 0 -1484.7750117541982 -611.07181860232095 0 -611.07181860232095 37.706681236390978 0 0 0 0 22.140194073263956 209.34349902887084 0 209.34349902887084 -261.14934241314404 0 0 0 0 -9.0095652142435654 -3.025756872251427 0 -3.025756872251427 -0.054359078263705563 0 0 0 0 -445.43166133681007 -655.89623268779451 0 -655.89623268779451 -442.46082695455766 0 0 0 0 -925.86991796124858 -3.4804294813411616 0 -3.4804294813411616 146.98303859716907 0 0 0 0 -213.46212908932466 -334.98893429860846 0 -334.98893429860846 -284.91909488936108 0 0 0 0 -1225.4560218167344 -662.54673040365321 0 -662.54673040365321 -37.17344129434241 0 0 0 0 -931.70293370046329 -173.3124345617714 0 -173.3124345617714 46.838094482908673 0 0 0 0 -1187.6420855765318 -558.75406979019317 0 -558.75406979019317 -380.29475129109233 0 0 0 0 -901.21736758428051 -43.712323427269439 0 -43.712323427269439 -333.98848000404439 0 0 0 0 -914.84257245510707 -80.055085637449793 0 -80.055085637449793 50.631196197009558 0 0 0 0 -6.3567412567238009 5.9912364069459088 0 5.9912364069459088 -4.7179033395349173 0 0 0 0 -647.24474430038754 -393.97768718821499 0 -393.97768718821499 -10.663995662716843 0 0 0 0 -1595.8748187799156 -598.25066774490006 0 -598.25066774490006 268.26010076604507 0 0 0 0 -2905.8186888555065 -362.04492183496041 0 -362.04492183496041 329.95255080831703 0 0 0 0 -10.529096596441491 -5.9686706990193343 0 -5.9686706990193343 -2.9224578424730581 0 0 0 0 31.97540142884236 178.71521929124538 0 178.71521929124538 108.39858481734154 0 0 0 0 -558.86432253591011 -826.16708445452332 0 -826.16708445452332 53.765153189493503 0 0 0 0 -313.61514954858194 -60.325496612285633 0 -60.325496612285633 -129.88636673289511 0 0 0 0 -2.1673945418875817 1.7285825948409297 0 1.7285825948409297 0.25003921754004921 0 0 0 0 -45.314054305725222 -98.273231684072016 0 -98.273231684072016 -213.5922060457533 0 0 0 0 -358.8430528046556 -8.6637074568216121 0 -8.6637074568216121 32.350535508345274 0 0 0 0 -497.35704305753461 -69.081058623159151 0 -69.081058623159151 -136.65050623272236 0 0 0 0 -444.43786040452142 -1041.5341350841263 0 -1041.5341350841263 -915.13389934111274 0 0 0 0 -259.07180982916907 -166.29073295190301 0 -166.29073295190301 -157.67403116371861 0 0 0 0 -324.08363553254458 -292.69781705465721 0 -292.69781705465721 -197.31502867546806 0 0 0 0 -20.965152780958306 27.728401700820541 0 27.728401700820541 -119.68411377253915 0 0 0 0 -403.98997387902818 -212.09912216837211 0 -212.09912216837211 77.0928324679262 0 0 0 0 -172.28577235541297 18.114564335524506 0 18.114564335524506 117.02302082549977 0 0 0 0 -4.9157355573006498 22.558411962401124 0 22.558411962401124 -119.02777621532414 0 0 0 0 -3.9777949894476237 0.5004572953594284 0 0.5004572953594284 0.79290407885718217 0 0 0 0 -197.90456907800944 0.30343548886139615 0 0.30343548886139615 117.25141455941048 0 0 0 0 -2.1639472887930964 3.1060951653587878 0 3.1060951653587878 -0.57872221277381186 0 0 0 0 -165.00172971027087 54.73344605507998 0 54.73344605507998 131.65616392244647 0 0 0 0 -258.57132954955887 54.09561997946912 0 54.09561997946912 172.62154852721233 0 0 0 0 -8.4016255016715924 -0.27743336410636488 0 -0.27743336410636488 4.4744040365393811 0 0 0 0 -133.72740617676391 -25.272323544838173 0 -25.272323544838173 75.44321204742198 0 0 0 0 147.19293043329526 -13.102181927797346 0 -13.102181927797346 -242.17912963545859 0 0 0 0 -20.770222291014761 62.971933146076708 0 62.971933146076708 -90.953289017209954 0 0 0 0 -112.71200812406278 -33.1868006723912 0 -33.1868006723912 -57.753956882138255 0 0 0 0 -16.903985427416046 14.63372599540844 0 14.63372599540844 -23.356028777067877 0 0 0 0 -4.6274361921761198 -20.39950093951019 0 -20.39950093951019 -68.218672254294688 0 0 0 0 -579.62621681434939 -134.58915021604844 0 -134.58915021604844 0.94633820510398436 0 0 0 0 -382.69230950582096 -303.05972920109389 0 -303.05972920109389 -25.196093946213296 0 0 0 0 -303.92259850497976 -140.79341726260736 0 -140.79341726260736 -35.531122138183036 0 0 0 0 -1.4295338113166753 1.0546507901516122 0 1.0546507901516122 -0.29784120317294338 0 0 0 0 -281.65509671898189 -180.71990645883454 0 -180.71990645883454 -88.151535348205471 0 0 0 0 -4.0212933705523568 -3.3395276449109019 0 -3.3395276449109019 2.7589930558998983 0 0 0 0 12.707789258955017 -22.210001705364448 0 -22.210001705364448 0.31214066015172648 0 0 0 0 -43.955896539300738 129.07652518110035 0 129.07652518110035 82.811838068340421 0 0 0 0 9.8746600340346049 -15.58424469669626 0 -15.58424469669626 -19.410761004209689 0 0 0 0 -7.3781240715209151 2.6465073566764943 0 2.6465073566764943 -1.908983806417865 0 0 0 0 -0.27996457152839582 3.0528411641342217 0 3.0528411641342217 -13.674606376152362 0 0 0 0 187.41846014164912 37.671566503086979 0 37.671566503086979 -72.613898879528278 0 0 0 0 -37.777680503478905 -11.321287950611151 0 -11.321287950611151 -235.98330922291643 0 0 0 0 -41.724633562719987 86.558820291166128 0 86.558820291166128 31.340014892764884 0 0 0 0 0.78767732876114938 2.6068393243283978 0 2.6068393243283978 -11.321348062483096 0 0 0 0 273.00576378061669 -79.368887713888398 0 -79.368887713888398 -127.88530571961201 0 0 0 0 -188.77440477958407 -105.46711541908189 0 -105.46711541908189 -87.192608908975672 0 0 0 0 -65.86629162560348 101.58744924300913 0 101.58744924300913 -26.600998487740071 0 0 0 0 -20.043238693357125 -80.191687185749288 0 -80.191687185749288 -49.696508817910853 0 0 0 0 25.794632953984546 68.472782236959574 0 68.472782236959574 -115.05889705847494 0 0 0 0 40.631998553310041 52.332243041556012 0 52.332243041556012 -97.67681711073692 0 0 0 0 15.822841100914957 75.798861287435102 0 75.798861287435102 -97.221759665424543 0 0 0 0 0.75367620838733274 109.15359873003308 0 109.15359873003308 -123.80890419706338 0 0 0 0 -21.540892574768804 166.87601602594077 0 166.87601602594077 -24.494461640730151 0 0 0 0 -2.1280270711251887 91.320211582045431 0 91.320211582045431 -37.099493076995714 0 0 0 0 54.793261343529593 236.95449654294498 0 236.95449654294498 -110.53650937624116 0 0 0 0 -59.771819850448082 48.375913833710911 0 48.375913833710911 147.50248180838753 0 0 0 0 -46.183786069036699 -10.274851861593602 0 -10.274851861593602 -2.3594558257376388 0 0 0 0 -326.35188488491258 106.71604460545041 0 106.71604460545041 -57.391748617052144 0 0 0 0 -67.876667181495577 -142.17994266075311 0 -142.17994266075311 57.694505768467934 0 0 0 0 114.23816480837195 -148.34229393733403 0 -148.34229393733403 -47.094055939658574 0 0 0 0 0.17511334428208247 1.5854581509609247 0 1.5854581509609247 -4.6002164269551713 0 0 0 0 -261.76605934113468 142.39370738039815 0 142.39370738039815 15.275024910265529 0 0 0 0 154.23829869377005 -153.2475918159289 0 -153.2475918159289 -124.64966355636261 0 0 0 0 -818.99500764700497 420.40345140382306 0 420.40345140382306 -66.859003167592164 0 0 0 0 124.90624385901765 2.5761047709949025 0 2.5761047709949025 -153.29662654632557 0 0 0 0 -597.04605559776246 77.778930761558513 0 77.778930761558513 50.010865428292163 0 0 0 0 -76.695460397531861 -201.44217253999886 0 -201.44217253999886 -45.115572751889886 0 0 0 0 -2.5799218289282955 3.5680796361192009 0 3.5680796361192009 -7.5127391193034825 0 0 0 0 -1164.9940529590094 -232.00753184872428 0 -232.00753184872428 126.23590857013733 0 0 0 0 57.865901871856295 167.4406954579631 0 167.4406954579631 -163.33699080418955 0 0 0 0 -459.22490616322011 -193.58788371454125 0 -193.58788371454125 -209.46283592442705 0 0 0 0 -1893.6271903672605 -140.98477775628635 0 -140.98477775628635 731.18352715003493 0 0 0 0 -1998.937818739214 924.63028769049197 0 924.63028769049197 -53.282751357187408 0 0 0 0 -321.2629971953138 -480.50682475758003 0 -480.50682475758003 81.394907010879251 0 0 0 0 -1055.6985680664693 35.139072227743782 0 35.139072227743782 94.02343258613837 0 0 0 0 -718.11148636627331 -86.053677201321079 0 -86.053677201321079 64.521255758603502 0 0 0 0 -772.02176150360901 -21.497433261743936 0 -21.497433261743936 29.200022394612915 0 0 0 0 -48.512788712727342 -88.88933539084519 0 -88.88933539084519 132.50422728876219 0 0 0 0 -24.778479303152707 -17.082102506558975 0 -17.082102506558975 -5.7939078905793195 0 0 0 0 -921.73750243357426 147.74610493289219 0 147.74610493289219 52.184472488024767 0 0 0 0 -44.436156662948392 -5.1737957002072363 0 -5.1737957002072363 28.974211265624454 0 0 0 0 24.208003777370322 -4.8789829167835705 0 -4.8789829167835705 33.467621609677281 0 0 0 0 -69.543605333184132 -25.040596159753932 0 -25.040596159753932 90.55365166181582 0 0 0 0 -140.8690405346872 31.827848129791846 0 31.827848129791846 97.086046086311399 0 0 0 0 -134.58393165006783 -30.944508632064753 0 -30.944508632064753 142.24621484687236 0 0 0 0 -56.355954926681079 -556.81916442451995 0 -556.81916442451995 -277.71359066132209 0 0 0 0 -103.38330373355052 -10.669945361008729 0 -10.669945361008729 55.69037436968938 0 0 0 0 -4.7393799725146053 -4.4300930464255455 0 -4.4300930464255455 -6.1210091523634134 0 0 0 0 -764.12397958688234 -265.33059911055352 0 -265.33059911055352 -36.816355126514281 0 0 0 0 -723.25564042689302 -423.53542970295439 0 -423.53542970295439 291.26018679910703 0 0 0 0 -131.58308856343319 -45.748161609947147 0 -45.748161609947147 -2.7632158150154282 0 0 0 0 -193.75544805884192 166.88590718966429 0 166.88590718966429 -132.68477220261047 0 0 0 0 -1527.8968808931922 -291.95969338171471 0 -291.95969338171471 297.82747846757047 0 0 0 0 -1101.3631480820732 372.58201791319698 0 372.58201791319698 -64.2478125787311 0 0 0 0 -482.9754260667346 -182.61283696975238 0 -182.61283696975238 -134.98063085097237 0 0 0 0 -8.1236929876269102 10.179052498205579 0 10.179052498205579 -13.896983701925066 0 0 0 0 -473.39918137990389 -263.88915404380714 0 -263.88915404380714 -124.40750858561296 0 0 0 0 -385.89302143316309 -76.687835388347594 0 -76.687835388347594 -120.92138864586013 0 0 0 0 -378.68196257712407 -40.245754274514184 0 -40.245754274514184 19.018277589715581 0 0 0 0 -432.31737151611378 -92.78670480396886 0 -92.78670480396886 -120.93021452559879 0 0 0 0 -602.02505971372011 -181.21244128889202 0 -181.21244128889202 -24.593625252151469 0 0 0 0 -486.09976869859747 -22.409764131253723 0 -22.409764131253723 -22.18139924602383 0 0 0 0 -578.71143316495363 357.64101654891965 0 357.64101654891965 -1038.4254862724556 0 0 0 0 -7.0411724832975295 10.044846813503362 0 10.044846813503362 -14.424418306872404 0 0 0 0 -1073.5947654055708 -722.56096362995231 0 -722.56096362995231 63.85331728202982 0 0 0 0 -788.27256463032973 -375.37650281750985 0 -375.37650281750985 -187.36171054290435 0 0 0 0 -1565.8141293732915 -28.177563722640116 0 -28.177563722640116 142.36566533731457 0 0 0 0 -0.661876084198596 0.57847846238091449 0 0.57847846238091449 -0.69210240708596849 0 0 0 0 -1597.4177170761304 -95.573549080460566 0 -95.573549080460566 -0.78625089840988949 0 0 0 0 347.48824815258195 223.12614270007998 0 223.12614270007998 -6.2313477822563073 0 0 0 0 -4.3342570229960984 12.76722918783836 0 12.76722918783836 -19.4756797320602 0 0 0 0 180.53846010180132 283.73388615984231 0 283.73388615984231 84.555267877854931 0 0 0 0 106.13981281389715 178.49451852409129 0 178.49451852409129 128.47362011832342 0 0 0 0 -1267.0960755317283 -290.55440264672779 0 -290.55440264672779 50.019647561470265 0 0 0 0 181.37285848582906 106.93468757626533 0 106.93468757626533 28.536599692059099 0 0 0 0 -1623.0668186206749 -526.81181673312267 0 -526.81181673312267 -31.090314574556942 0 0 0 0 -942.77140895873163 281.66383671896142 0 281.66383671896142 -91.5629149113106 0 0 0 0 -11.222143308063508 11.934521748390267 0 11.934521748390267 -5.2775166704693088 0 0 0 0 145.15828511345353 211.84587719718854 0 211.84587719718854 47.307846029147186 0 0 0 0 -373.28963916337307 20.477047395854527 0 20.477047395854527 347.23574885870767 0 0 0 0 14.699214175372617 -263.87770821654158 0 -263.87770821654158 -23.514131446997453 0 0 0 0 -2603.223084420446 -60.64672108051036 0 -60.64672108051036 370.15594423441507 0 0 0 0 550.39181577805175 594.65569892695953 0 594.65569892695953 -311.54875475051176 0 0 0 0 -4.4059247764742615 5.419558679413587 0 5.419558679413587 -2.0564203305235509 0 0 0 0 -591.46323067295361 632.93085823420529 0 632.93085823420529 67.103759924615588 0 0 0 0 -429.31986484408117 28.121881455082075 0 28.121881455082075 -358.08462802452777 0 0 0 0 -904.48304001212637 102.13639754577264 0 102.13639754577264 81.746514241460318 0 0 0 0 -1152.963094767736 -16.583767091504342 0 -16.583767091504342 -139.41977500844087 0 0 0 0 -1075.4911577810453 328.40957719236258 0 328.40957719236258 -88.923728585079516 0 0 0 0 -935.39351773482122 263.65143178176413 0 263.65143178176413 -143.1317084784514 0 0 0 0 -5.0557178685034376 2.7247087519433606 0 2.7247087519433606 -14.238112588131806 0 0 0 0 -243.08517836536339 -110.50441637345466 0 -110.50441637345466 -239.4043736662652 0 0 0 0 -742.55767391220252 -105.93280627140575 0 -105.93280627140575 -45.10096715257896 0 0 0 0 -790.55288948221278 40.135288270912497 0 40.135288270912497 -154.81703936437862 0 0 0 0 -1389.4548989791656 50.710421869756829 0 50.710421869756829 11.23358022150569 0 0 0 0 -524.45088041620875 -431.84313705314298 0 -431.84313705314298 -204.05232242320199 0 0 0 0 -987.40693013712189 -441.36401967254415 0 -441.36401967254415 16.594879409563873 0 0 0 0 -1.3355857033566281 69.796722397648864 0 69.796722397648864 32.932980162580861 0 0 0 0 -1007.0532582167398 155.74211489557581 0 155.74211489557581 -283.80329187859024 0 0 0 0 -8.7977722675928884 18.657433527131019 0 18.657433527131019 -33.011911298831841 0 0 0 0 -1805.0306036713009 718.8909030332793 0 718.8909030332793 45.557948303268404 0 0 0 0 4.5118918325652615 1.4521371854766709 0 1.4521371854766709 -10.756262797082345 0 0 0 0 -2317.053642716899 770.42029684639601 0 770.42029684639601 -79.027320949976456 0 0 0 0 -2204.2986415863052 -423.48317657618873 0 -423.48317657618873 200.11289851447509 0 0 0 0 -25.063359550185851 57.523859937541602 0 57.523859937541602 60.734971888594828 0 0 0 0 -15.103776739528257 59.218837725988351 0 59.218837725988351 17.344972148068337 0 0 0 0 9.9354172461717098 66.895011989272007 0 66.895011989272007 -16.308151161423666 0 0 0 0 -53.483922144263033 13.714988692411779 0 13.714988692411779 -2.1434189909907673 0 0 0 0 -8.7468367201508954 14.21301769701904 0 14.21301769701904 -47.793555719339565 0 0 0 0 -29.232373567208981 18.696328627329493 0 18.696328627329493 -16.666588478089817 0 0 0 0 -32.640787612239365 39.43079749540334 0 39.43079749540334 18.317217519674159 0 0 0 0 -73.625792726234067 42.005888306135148 0 42.005888306135148 2.9427845170948785 0 0 0 0 -12.488400712543807 55.076121133089373 0 55.076121133089373 1.2950464498107976 0 0 0 0 -34.442753734661267 19.377795437852846 0 19.377795437852846 -10.292834989755006 0 0 0 0 -138.19024341027762 -38.57344335990274 0 -38.57344335990274 79.168664310597705 0 0 0 0 -99.537354664535087 50.614968594672519 0 50.614968594672519 226.66029963590609 0 0 0 0 -54.998073564725019 191.87632386765972 0 191.87632386765972 283.9702811095849 0 0 0 0 0.17450039912364446 285.79592237051247 0 285.79592237051247 209.18888231816891 0 0 0 0 0.16499778845172841 232.66165905921116 0 232.66165905921116 81.191627493515625 0 0 0 0 -68.507667062072869 144.98987755935786 0 144.98987755935786 121.26692504363382 0 0 0 0 25.631828989637143 114.90390314833803 0 114.90390314833803 76.442100620774909 0 0 0 0 6.3548830652580364 69.093515061524613 0 69.093515061524613 26.387085614083844 0 0 0 0 40.682791767671006 218.24427560609956 0 218.24427560609956 74.070079972510939 0 0 0 0 17.987536073567753 197.65461797981879 0 197.65461797981879 132.47158073813421 0 0 0 0 -19.156868357189524 181.91968564671447 0 181.91968564671447 73.952931143426213 0 0 0 0 130.42772896912356 176.089335372395 0 176.089335372395 82.625891853287612 0 0 0 0 41.131695541160298 262.7669381888677 0 262.7669381888677 30.781674208054028 0 0 0 0 102.70915729241096 134.25696257995787 0 134.25696257995787 7.4027455917628231 0 0 0 0 -74.14474779725424 86.786760312584192 0 86.786760312584192 -51.49436073505467 0 0 0 0 -27.180323397966276 224.62129311711988 0 224.62129311711988 1.6106879670330727 0 0 0 0 -145.10163378600555 71.882943132033688 0 71.882943132033688 -74.502243906556942 0 0 0 0 -18.134864764870372 73.569453061519425 0 73.569453061519425 -91.888210108521889 0 0 0 0 -90.045749710858217 122.61949753727276 0 122.61949753727276 16.815815508599371 0 0 0 0 38.423203285266936 -8.9206580617174041 0 -8.9206580617174041 -174.42215599920769 0 0 0 0 -180.25080706594599 -48.154349886185628 0 -48.154349886185628 -153.57153259413508 0 0 0 0 -215.70467726376228 37.385484649320233 0 37.385484649320233 -333.06421656686871 0 0 0 0 -299.10292865625524 -118.21170483585774 0 -118.21170483585774 -232.10911088581224 0 0 0 0 -437.11305108756278 46.984822600024017 0 46.984822600024017 -109.38294789410884 0 0 0 0 -208.36544218919448 -79.199067511330483 0 -79.199067511330483 -62.20150277605353 0 0 0 0 -216.24600587430655 63.442645503096728 0 63.442645503096728 88.317092882924044 0 0 0 0 -371.56445914707001 4.9182437908907559 0 4.9182437908907559 169.87460143680983 0 0 0 0 -48.837415517911722 -92.886780487913711 0 -92.886780487913711 232.19673868766631 0 0 0 0 270.41462504885203 145.20328703821315 0 145.20328703821315 -4.6140600198314132 0 0 0 0 -31.164085455384338 250.59116150985346 0 250.59116150985346 319.30066674377633 0 0 0 0 430.96315577875066 220.25051903769577 0 220.25051903769577 78.321360839294357 0 0 0 0 0.41935824664403931 0.69458927146779814 0 0.69458927146779814 3.3882607021228743 0 0 0 0 17.841207178866171 84.791789504371081 0 84.791789504371081 44.79122072549535 0 0 0 0 -12.333324245183416 5.2196525014148492 0 5.2196525014148492 9.2977153505865573 0 0 0 0 76.86402082868085 84.242339194588126 0 84.242339194588126 34.365098065128223 0 0 0 0 -54.12775085247813 152.86967215898596 0 152.86967215898596 147.8304965176012 0 0 0 0 -162.85360868571115 5.1697489358459734 0 5.1697489358459734 83.276157795620747 0 0 0 0 -45.05896442649464 43.445190107812778 0 43.445190107812778 78.272987702804585 0 0 0 0 -259.53715988699332 -64.057442787332775 0 -64.057442787332775 46.202565958906234 0 0 0 0 -82.96467608170633 -138.79980981478636 0 -138.79980981478636 -51.350260244357287 0 0 0 0 -297.34665174351903 -151.97340779951787 0 -151.97340779951787 34.08531446170241 0 0 0 0 -190.84352821567882 -116.55652003125215 0 -116.55652003125215 31.412224032507879 0 0 0 0 -303.59213444049465 -261.61478553391771 0 -261.61478553391771 -212.60578565053493 0 0 0 0 -531.35269378264638 -235.19126561658868 0 -235.19126561658868 55.814229171990746 0 0 0 0 -325.7491694694736 -108.70842371428444 0 -108.70842371428444 -26.831916281051235 0 0 0 0 -601.33872675750899 -187.45338667166561 0 -187.45338667166561 -167.92470016336301 0 0 0 0 -581.79846945017198 -251.91459687254746 0 -251.91459687254746 -51.517167083118125 0 0 0 0 -917.73066234109137 -314.82025261169201 0 -314.82025261169201 -124.57453218734145 0 0 0 0 -3.0721711369270963 -1.9470474163734508 0 -1.9470474163734508 2.2400625604714577 0 0 0 0 -552.62674234165752 -523.27308746134986 0 -523.27308746134986 -391.85678478352247 0 0 0 0 -771.26182064694149 -648.18253363424265 0 -648.18253363424265 -372.68257233839552 0 0 0 0 -424.33217966384109 -106.39072448501702 0 -106.39072448501702 -117.55950023648984 0 0 0 0 -49.981629869166227 86.33411033579759 0 86.33411033579759 -41.168126583052981 0 0 0 0 -734.1794157567856 -245.54938033057988 0 -245.54938033057988 -218.7515061187205 0 0 0 0 -1344.1987142899088 -358.20833578426482 0 -358.20833578426482 -225.36572985208886 0 0 0 0 -539.22529765221771 -477.12074633711973 0 -477.12074633711973 -1167.2603603197749 0 0 0 0 -260.4333729101636 19.322068588313414 0 19.322068588313414 -415.99972664057259 0 0 0 0 -966.12333790997582 316.25748735579145 0 316.25748735579145 -507.52737211018939 0 0 0 0 -1617.4442786757027 -437.85195721493756 0 -437.85195721493756 151.04488983314241 0 0 0 0 -260.32917895772334 250.83552017828879 0 250.83552017828879 -95.154822370797774 0 0 0 0 11.62172355706025 114.04928779964968 0 114.04928779964968 -414.51980136870952 0 0 0 0 -20.058858236355434 57.39698077641588 0 57.39698077641588 16.303908464306005 0 0 0 0 -76.420749972297926 174.57494502551253 0 174.57494502551253 -214.03607140130862 0 0 0 0 -316.1564728950616 114.79888981024396 0 114.79888981024396 608.63667961013743 0 0 0 0 -31.587298204404448 -7.3239195975282394 0 -7.3239195975282394 -1.4756091055945522 0 0 0 0 -141.21951618949242 2.755239553544925 0 2.755239553544925 -73.158173981652908 0 0 0 0 -1176.2839279916152 -269.3989688929496 0 -269.3989688929496 -6.8874730480310973 0 0 0 0 -11.429481163572092 -3.9627728145631842 0 -3.9627728145631842 -1.5732794371369572 0 0 0 0 263.22093003805639 -218.46479114838394 0 -218.46479114838394 -11.652086832355053 0 0 0 0 -513.76435316493007 -827.39944894051951 0 -827.39944894051951 -223.77817254727051 0 0 0 0 -695.86371702644465 -772.81128494872655 0 -772.81128494872655 225.93512391464174 0 0 0 0 468.59194673744423 -276.67507713438863 0 -276.67507713438863 -206.42061438215751 0 0 0 0 167.25396941500367 -237.75338509570975 0 -237.75338509570975 -58.64103317732588 0 0 0 0 339.53911368342233 -407.64667425142125 0 -407.64667425142125 79.427779086487135 0 0 0 0 -1228.4983258893481 -1424.5853331946419 0 -1424.5853331946419 343.73163649321577 0 0 0 0 -951.43422869684582 -373.06171686799689 0 -373.06171686799689 -32.809182841636357 0 0 0 0 -644.62243163572202 375.08564393754841 0 375.08564393754841 -347.39426183137221 0 0 0 0 292.94027011356229 -71.694443477614186 0 -71.694443477614186 -274.088901448059 0 0 0 0 -474.93028988227252 -10.486625745270658 0 -10.486625745270658 -1485.2517285183058 0 0 0 0 192.21486246231507 521.8228623281002 0 521.8228623281002 -11.806686809075472 0 0 0 0 -12.713291330152359 15.208398925567259 0 15.208398925567259 -8.4004505069876316 0 0 0 0 -238.16829680436786 280.44812829559942 0 280.44812829559942 121.41850021345635 0 0 0 0 -259.90905857455436 105.21132146950038 0 105.21132146950038 -326.79030871898794 0 0 0 0 -257.19859056863061 157.58487776912989 0 157.58487776912989 445.34023213464206 0 0 0 0 13.19621390310931 -290.56043223328197 0 -290.56043223328197 465.08282845548456 0 0 0 0 -109.7550576545118 -21.113591197252447 0 -21.113591197252447 -247.63727439144895 0 0 0 0 -112.43840694129176 -9.7465897726706316 0 -9.7465897726706316 104.69324846021482 0 0 0 0 -12.007559752702946 -114.88817094375463 0 -114.88817094375463 -300.45684763042664 0 0 0 0 183.94536440751108 -319.66356318912403 0 -319.66356318912403 -107.84758087443242 0 0 0 0 -147.5559442617523 -213.55561429480804 0 -213.55561429480804 -167.33173890663875 0 0 0 0 -336.02311617088708 -3.4826733475656511 0 -3.4826733475656511 -400.22219092235719 0 0 0 0 -115.95592452835263 -277.12806058656497 0 -277.12806058656497 -459.58713789991634 0 0 0 0 -263.07391547877342 -192.39545971704683 0 -192.39545971704683 -472.11902644961629 0 0 0 0 -191.64282087534957 -317.42128230523213 0 -317.42128230523213 -486.36308222276057 0 0 0 0 -111.71387377081919 -219.88155474815403 0 -219.88155474815403 -421.82127694053452 0 0 0 0 -20.061717236749246 -272.68727048004439 0 -272.68727048004439 -463.41763272811113 0 0 0 0 39.960303549050877 -147.24068846994851 0 -147.24068846994851 -480.74705777551571 0 0 0 0 -59.316160631671664 -180.43571664989031 0 -180.43571664989031 -430.97346104189637 0 0 0 0 89.052426877766266 -302.08320501052731 0 -302.08320501052731 -339.8254065750516 0 0 0 0 399.83531136770034 -165.14518738107654 0 -165.14518738107654 -381.33642048453294 0 0 0 0 -9.1811479291622931 7.1253426447579784 0 7.1253426447579784 -5.8852132522161256 0 0 0 0 134.07789403638162 -120.01762321172282 0 -120.01762321172282 -379.76544141819613 0 0 0 0 328.30676480739203 53.117922968188395 0 53.117922968188395 -433.21551810902019 0 0 0 0 204.01584776090749 -134.80530005292758 0 -134.80530005292758 -468.44099854640262 0 0 0 0 223.22784305151436 131.46402801270415 0 131.46402801270415 -487.15488029344124 0 0 0 0 -26.427625921773142 170.9936452054244 0 170.9936452054244 -456.09156938192791 0 0 0 0 76.620357723091729 -158.05021291841422 0 -158.05021291841422 -512.33089933119481 0 0 0 0 88.466744276222016 -172.40234733170018 0 -172.40234733170018 -495.95393949771096 0 0 0 0 53.712745263437682 -166.70854189416696 0 -166.70854189416696 -453.19126383359981 0 0 0 0 -101.77698516777309 -67.426700109856029 0 -67.426700109856029 -528.15256175821014 0 0 0 0 -198.18982009646425 -47.452648795833738 0 -47.452648795833738 -420.89793146614102 0 0 0 0 -204.27717623846547 -1.5671796107435512 0 -1.5671796107435512 -371.07578377792379 0 0 0 0 -974.89912961155096 352.60322341905635 0 352.60322341905635 -441.97241630590361 0 0 0 0 -797.49641666493108 147.07443414261343 0 147.07443414261343 -334.81352589729613 0 0 0 0 -163.2228126780974 -102.76028530021995 0 -102.76028530021995 -353.06796596952154 0 0 0 0 -177.31732136792562 -126.97464431876597 0 -126.97464431876597 -303.14281441791263 0 0 0 0 -56.540319564526726 5.1739679133652317 0 5.1739679133652317 -264.5943914073232 0 0 0 0 -188.22509898008138 -228.17907029603066 0 -228.17907029603066 -415.53487430810901 0 0 0 0 -174.82857306809456 -160.42784912368006 0 -160.42784912368006 -327.73630029586275 0 0 0 0 -80.955349839105111 -137.36739709863843 0 -137.36739709863843 -344.7047056017509 0 0 0 0 -78.954107399877103 -110.65016007748 0 -110.65016007748 -460.75565291082421 0 0 0 0 -271.07307378780388 24.908869657252581 0 24.908869657252581 -150.95786449655725 0 0 0 0 -330.13574391654402 -132.88019254677965 0 -132.88019254677965 -242.78185481867558 0 0 0 0 -227.20844374067383 22.982306449509451 0 22.982306449509451 -210.37449790135361 0 0 0 0 -128.28641817282187 -23.688344899943559 0 -23.688344899943559 -202.80309453229893 0 0 0 0 -169.72407711832057 -22.457776073340028 0 -22.457776073340028 -167.6478808684742 0 0 0 0 -115.94028021711893 135.28181478577494 0 135.28181478577494 -106.5770077291254 0 0 0 0 1.5106812593330687 227.32388849081053 0 227.32388849081053 -77.018886740028393 0 0 0 0 274.51342988143733 139.31113371082438 0 139.31113371082438 -302.6170233855355 0 0 0 0 -18.672478432039497 103.47015824867867 0 103.47015824867867 -73.040324878895973 0 0 0 0 -111.35987618638319 224.66769753349399 0 224.66769753349399 -226.20898845165902 0 0 0 0 -51.55455661571068 126.0017645306724 0 126.0017645306724 -273.12868439666636 0 0 0 0 156.29552498229168 279.67213714762056 0 279.67213714762056 -390.14523041998473 0 0 0 0 -9.9966341148556239 266.18824379777857 0 266.18824379777857 -357.10674250117154 0 0 0 0 22.941146787707112 255.18214541265024 0 255.18214541265024 -323.62044035170129 0 0 0 0 17.276232691045152 313.960601980315 0 313.960601980315 -318.85164625786001 0 0 0 0 -286.19743324563024 178.09809101650717 0 178.09809101650717 -310.47151822772503 0 0 0 0 -308.85173594561638 419.07751491531053 0 419.07751491531053 -135.80615319624758 0 0 0 0 -1118.9636827059367 0.11643523522070609 0 0.11643523522070609 -176.20619361174795 0 0 0 0 -650.77960794813407 396.64332679206564 0 396.64332679206564 -122.90645203615622 0 0 0 0 -368.70766708347946 285.89518286414386 0 285.89518286414386 -302.1359939786505 0 0 0 0 -606.23603161293431 -68.484848351190521 0 -68.484848351190521 -212.32470573703176 0 0 0 0 -323.90242433956882 54.436811740648409 0 54.436811740648409 -300.78046929278116 0 0 0 0 -376.67409024431254 -232.28132990964514 0 -232.28132990964514 -347.75526416487128 0 0 0 0 -324.38437376041838 -178.97148041435958 0 -178.97148041435958 -385.83033740089741 0 0 0 0 -268.48947851014236 -241.13059192887044 0 -241.13059192887044 -824.57626668088051 0 0 0 0 -759.57421648963646 -524.79423727110498 0 -524.79423727110498 -892.22079565614331 0 0 0 0 -626.14156136289239 -271.39540574101193 0 -271.39540574101193 -411.69772346062109 0 0 0 0 -503.79442658704647 183.82597580114088 0 183.82597580114088 -1385.7524404550359 0 0 0 0 -478.98348321289814 36.698484256531628 0 36.698484256531628 -549.89975019801386 0 0 0 0 -339.802084920575 -33.230785109548378 0 -33.230785109548378 -514.81022710512843 0 0 0 0 -810.8174469411606 293.2200904813235 0 293.2200904813235 -254.04102605398657 0 0 0 0 -1203.8254495472793 94.104958917941985 0 94.104958917941985 -35.77760611829035 0 0 0 0 -1198.5897298443979 -371.42288324946708 0 -371.42288324946708 17.856000693705937 0 0 0 0 -382.23203662961896 264.75205626452225 0 264.75205626452225 -83.036187343364873 0 0 0 0 -3.0994084122257206 1.3684076591169756 0 1.3684076591169756 3.7701190589281524 0 0 0 0 -1340.1894054878721 -205.47057161881366 0 -205.47057161881366 133.98843373380805 0 0 0 0 -1682.9059713552633 377.00516878199505 0 377.00516878199505 207.6215815897649 0 0 0 0 -206.9410399645185 -409.69363849032879 0 -409.69363849032879 -289.19495496540185 0 0 0 0 -653.44820712959336 -68.996945945968946 0 -68.996945945968946 -110.52485956361124 0 0 0 0 -495.19839853257872 82.915221463685157 0 82.915221463685157 -33.136056998557251 0 0 0 0 -621.78165451754194 -497.53704042283096 0 -497.53704042283096 -304.38748467716687 0 0 0 0 -616.76362179646821 -27.37022329348838 0 -27.37022329348838 -73.983894452443565 0 0 0 0 -392.30480542698206 -298.05602787556882 0 -298.05602787556882 228.95368135120589 0 0 0 0 -184.54816747683799 -35.822649625850318 0 -35.822649625850318 -66.651867337708609 0 0 0 0 -735.72597397981735 -273.4805158258514 0 -273.4805158258514 209.6732245387102 0 0 0 0 -3.7820533741489157 2.8856672162969019 0 2.8856672162969019 9.5906260954470994 0 0 0 0 -446.07835948546563 12.338700432515907 0 12.338700432515907 -22.345742731911741 0 0 0 0 -322.21549612595118 -365.14436802390674 0 -365.14436802390674 -372.85308975774387 0 0 0 0 -0.43337938156319922 4.3071666676447968 0 4.3071666676447968 -1.5864037597366205 0 0 0 0 55.170352646673564 360.64696980832196 0 360.64696980832196 -142.71524334288733 0 0 0 0 -732.96759182866663 -566.47001430990713 0 -566.47001430990713 -204.05458036515483 0 0 0 0 -9.889868929183379 6.3259248832970982 0 6.3259248832970982 -3.7128854718580335 0 0 0 0 259.64806593977846 149.79607954803305 0 149.79607954803305 -95.917843298138905 0 0 0 0 -518.72560345882084 -336.6502689205663 0 -336.6502689205663 -625.09507825169158 0 0 0 0 -328.49276142786402 -588.09875729194027 0 -588.09875729194027 -315.93202981789909 0 0 0 0 93.014977182298026 357.11830937680134 0 357.11830937680134 -248.23123165629386 0 0 0 0 -276.42722960213359 73.020183497323387 0 73.020183497323387 630.25773662322263 0 0 0 0 81.594587229831177 135.34540038090597 0 135.34540038090597 57.257892530969912 0 0 0 0 212.0532191986149 -34.470462836376782 0 -34.470462836376782 94.761125652040391 0 0 0 0 -12.673985269721484 4.0523561688218077 0 4.0523561688218077 -1.689288893514753 0 0 0 0 -10.980304138200154 15.20855371276275 0 15.20855371276275 -15.311838383181311 0 0 0 0 -277.07354645131909 -167.63496979354682 0 -167.63496979354682 -65.611906332331273 0 0 0 0 -18.042506828690861 14.172841621328637 0 14.172841621328637 -9.0767929555628939 0 0 0 0 -11.502452239990816 11.415053475300738 0 11.415053475300738 -41.378599336851948 0 0 0 0 9.7228449481299322 260.56741129149077 0 260.56741129149077 166.54981412306051 0 0 0 0 -519.71955917487503 -128.83421237438279 0 -128.83421237438279 -51.503045841349149 0 0 0 0 -198.20573572086141 -342.56879049736199 0 -342.56879049736199 -297.0497731333262 0 0 0 0 -68.067396573027509 -174.6092565050252 0 -174.6092565050252 -569.4169434853502 0 0 0 0 -239.44980890104125 426.88745995228078 0 426.88745995228078 -207.36686584601921 0 0 0 0 137.77613464219348 368.9770779023346 0 368.9770779023346 -412.64324050719188 0 0 0 0 272.81195124380986 341.85695187689532 0 341.85695187689532 -408.95926963993952 0 0 0 0 666.91367734289088 94.53981743632994 0 94.53981743632994 -269.89090326418 0 0 0 0 -2.2997987283944639 4.5737075387878932 0 4.5737075387878932 -6.0215738840872124 0 0 0 0 -2074.8677430589387 -237.81443723840403 0 -237.81443723840403 258.31214272786747 0 0 0 0 -5.4969338524253075 2.4118965597731048 0 2.4118965597731048 -0.51498901831204336 0 0 0 0 -292.54516622590018 316.23100660473324 0 316.23100660473324 -322.72914475746438 0 0 0 0 -425.07360976913333 -384.06466979634274 0 -384.06466979634274 155.11783228915374 0 0 0 0 -967.66616677290585 435.77846940241261 0 435.77846940241261 -640.19922395749836 0 0 0 0 -885.71176419770927 786.78214569407612 0 786.78214569407612 -546.07439990277283 0 0 0 0 -205.96816549451614 -516.18193961975567 0 -516.18193961975567 202.83285516101455 0 0 0 0 -1501.2355686909832 -245.17491213865418 0 -245.17491213865418 441.91423308380104 0 0 0 0 117.3463287399336 197.75677148846151 0 197.75677148846151 -37.579992616230697 0 0 0 0 0.35083201869781533 2.3718506493193132 0 2.3718506493193132 1.4023621343868498 0 0 0 0 -319.51075750336167 -825.71817122887694 0 -825.71817122887694 111.28603580765946 0 0 0 0 138.78673202969367 26.421808527679843 0 26.421808527679843 -913.30941172076086 0 0 0 0 0.067137212061481932 -3.1750499728269119 0 -3.1750499728269119 4.6510406641179394 0 0 0 0 74.929847101499035 -313.77282714639273 0 -313.77282714639273 -13.287781582158459 0 0 0 0 -177.08115545444889 -212.92234983356548 0 -212.92234983356548 -49.251149600672989 0 0 0 0 -562.01517471991247 80.76012988543954 0 80.76012988543954 308.45711147792917 0 0 0 0 -30.956031038206262 -21.766857353560894 0 -21.766857353560894 11.26849110099392 0 0 0 0 -149.86407018751197 -77.983355342753839 0 -77.983355342753839 178.12009908076698 0 0 0 0 -444.76506680405146 22.113572614571922 0 22.113572614571922 469.23396779850736 0 0 0 0 -986.99324261579022 -116.16636304160011 0 -116.16636304160011 176.92335757809451 0 0 0 0 -147.56279577869282 -18.469335698727264 0 -18.469335698727264 -78.86156163194687 0 0 0 0 -74.315164878589258 -13.810711316855784 0 -13.810711316855784 -1.6312468610464901 0 0 0 0 -40.498260803607806 20.883787792584307 0 20.883787792584307 -25.734575501567949 0 0 0 0 -94.527669575865275 42.192661533407545 0 42.192661533407545 -4.6523860244506068 0 0 0 0 -246.17207165955915 -128.2986844117022 0 -128.2986844117022 -109.2358247545053 0 0 0 0 -240.61169662215252 -37.105485767648133 0 -37.105485767648133 -28.961821315446286 0 0 0 0 -104.54509292224532 -21.152973473439445 0 -21.152973473439445 9.6648381227315667 0 0 0 0 -321.56969971152284 -154.09846108233478 0 -154.09846108233478 175.06763376378331 0 0 0 0 -144.86750445757957 -63.237554830869442 0 -63.237554830869442 -73.519678497235873 0 0 0 0 -408.26142080958016 -159.76892644972031 0 -159.76892644972031 71.25777092410317 0 0 0 0 -29.66655495902824 -9.5336334782192864 0 -9.5336334782192864 7.5579936642106418 0 0 0 0 -105.01650290931016 -23.74566831256022 0 -23.74566831256022 11.929708078652034 0 0 0 0 -266.45981190323073 -65.008367410008759 0 -65.008367410008759 -27.838493882643888 0 0 0 0 -272.34093583019057 -83.574618291952902 0 -83.574618291952902 -190.12448021934233 0 0 0 0 -295.60120385319169 -116.62144362350955 0 -116.62144362350955 20.853150693827047 0 0 0 0 -32.904051110034985 -0.26612756603043408 0 -0.26612756603043408 -3.4395565448164405 0 0 0 0 -319.76335373090978 141.47768681334969 0 141.47768681334969 207.41858482515272 0 0 0 0 -103.55944551547572 -15.783451577325462 0 -15.783451577325462 3.7509878731925963 0 0 0 0 -356.24423095795646 -125.11829876871568 0 -125.11829876871568 -109.57951617982556 0 0 0 0 -0.8737900801015499 0.42576117907385935 0 0.42576117907385935 -0.4672857575656808 0 0 0 0 -567.62380859388213 0.6832891819488438 0 0.6832891819488438 85.967273880236462 0 0 0 0 -483.88164333894383 -76.427496988436189 0 -76.427496988436189 62.357133794301603 0 0 0 0 -438.86711126118462 -120.56559927016437 0 -120.56559927016437 91.568376785237888 0 0 0 0 -220.74034513275546 -40.166417241224352 0 -40.166417241224352 -68.372061697147288 0 0 0 0 -382.73294030982652 -79.631562910025252 0 -79.631562910025252 -17.373804896991601 0 0 0 0 -564.1396151812587 -263.02292620572092 0 -263.02292620572092 -24.138004862661319 0 0 0 0 -25.829654578054146 -4.0684153265298733 0 -4.0684153265298733 -5.7436804136420552 0 0 0 0 -256.24808521029627 67.857578680690381 0 67.857578680690381 21.939769378943424 0 0 0 0 -296.61244814330712 6.9035794818209979 0 6.9035794818209979 127.59611073124859 0 0 0 0 -320.44900248380873 49.486415294180119 0 49.486415294180119 51.562046594264757 0 0 0 0 -410.66895066949655 36.773874533861203 0 36.773874533861203 111.48098541426725 0 0 0 0 -265.28650976155041 -100.31138794961856 0 -100.31138794961856 60.864217077934882 0 0 0 0 13.04259946293314 -202.64719653610683 0 -202.64719653610683 97.632021647161196 0 0 0 0 -256.89156962471316 -70.984289809547249 0 -70.984289809547249 40.836451070742555 0 0 0 0 -161.68411052857118 0.93287608160409263 0 0.93287608160409263 -23.352520709245027 0 0 0 0 -374.50577037109178 -122.89043454400939 0 -122.89043454400939 -87.970748210591296 0 0 0 0 -374.34524728864199 -130.71876694281866 0 -130.71876694281866 -5.9790303415983779 0 0 0 0 -370.71758724137908 -5.632747402331006 0 -5.632747402331006 -10.592801240160906 0 0 0 0 -370.73842725696159 -2.3660423528813226 0 -2.3660423528813226 -124.63254582188304 0 0 0 0 -1620.8246280569874 -230.55335225001033 0 -230.55335225001033 191.69713070120343 0 0 0 0 -539.32817346934462 -10.186049582099372 0 -10.186049582099372 37.018645770373041 0 0 0 0 -1326.4799739004811 350.08763821340494 0 350.08763821340494 -53.896136012863963 0 0 0 0 -55.403507657938462 -156.22191835390606 0 -156.22191835390606 -165.40612435859458 0 0 0 0 -116.95380745327384 128.53965863075959 0 128.53965863075959 332.73608935077272 0 0 0 0 -560.55804388754768 -309.95139981626153 0 -309.95139981626153 107.9627291081012 0 0 0 0 -559.34695241134614 -303.17307691690166 0 -303.17307691690166 107.49138437002557 0 0 0 0 -3.0637866182124185 -1.1910773083942843 0 -1.1910773083942843 0.42395386032087323 0 0 0 0 103.99427932852996 -309.44100128715422 0 -309.44100128715422 -3.288302375089188 0 0 0 0 -630.06109909433872 399.83552410572202 0 399.83552410572202 -254.0416451541937 0 0 0 0 -0.038938141588005237 12.496982173876148 0 12.496982173876148 7.4733672245355365 0 0 0 0 -8.2157379526627778 0.054238336857949321 0 0.054238336857949321 1.3179552884370913 0 0 0 0 -316.64969171866687 -75.574859262839539 0 -75.574859262839539 326.81757284556272 0 0 0 0 -212.70177114042599 -199.85489949546198 0 -199.85489949546198 192.42594918713428 0 0 0 0 -183.95960095128976 -109.06232655379142 0 -109.06232655379142 -78.037216701020071 0 0 0 0 -372.75320506366552 -197.53028719406782 0 -197.53028719406782 93.888650664273882 0 0 0 0 -106.19595436635427 -142.51226866710988 0 -142.51226866710988 80.21435740521099 0 0 0 0 -423.96365780833003 -118.61058606575466 0 -118.61058606575466 -17.885575304487119 0 0 0 0 -458.85006218266062 -255.51610401563721 0 -255.51610401563721 89.056513199421374 0 0 0 0 -360.08680142577214 -171.49274811566397 0 -171.49274811566397 -34.967537220151087 0 0 0 0 -405.17280309264606 -36.632244313268927 0 -36.632244313268927 -95.721263915569807 0 0 0 0 -315.75033568937397 -84.530898899749218 0 -84.530898899749218 -0.11660838997704559 0 0 0 0 -560.20214600845429 -53.535458041673792 0 -53.535458041673792 486.00562410324528 0 0 0 0 -89.908866358273372 -23.490493136743581 0 -23.490493136743581 -390.2898692601122 0 0 0 0 -103.62580322164385 -16.166986977535341 0 -16.166986977535341 3.6456967821823483 0 0 0 0 -89.09434398196754 157.97451679032429 0 157.97451679032429 -39.07491661977474 0 0 0 0 -38.455796611517144 -19.099169353567959 0 -19.099169353567959 -21.615961045014956 0 0 0 0 -206.18385051177756 119.22648390601762 0 119.22648390601762 381.46266607322286 0 0 0 0 67.413347777430317 -36.801592012068767 0 -36.801592012068767 -303.3504315515649 0 0 0 0 -102.62765826388045 -12.940492904915033 0 -12.940492904915033 3.2666656334443522 0 0 0 0 -135.59918250449118 180.7718482847921 0 180.7718482847921 273.17808733102601 0 0 0 0 -8.73102721850438 1.9902831419123359 0 1.9902831419123359 0.25174641655915386 0 0 0 0 -57.650602074958442 1.5344226204604752 0 1.5344226204604752 20.342219159687538 0 0 0 0 3.1943087481922703 13.796224917141625 0 13.796224917141625 -11.748291752411831 0 0 0 0 -37.417179331692751 -19.008453067183673 0 -19.008453067183673 -10.384584092928222 0 0 0 0 -40.672974641986002 -0.47202665417894529 0 -0.47202665417894529 1.2751637302809655 0 0 0 0 -42.143304000859644 -10.459120580476752 0 -10.459120580476752 -14.776020171842248 0 0 0 0 0.41393239417811856 -2.4716504678468425 0 -2.4716504678468425 -14.486885014266235 0 0 0 0 -1.6469044777614386 -0.59515270929831843 0 -0.59515270929831843 0.24330349285222413 0 0 0 0 -1.0085394700224413 -0.31399222836208196 0 -0.31399222836208196 0.072744538801909078 0 0 0 0 -0.55655673076398671 -11.064174560866711 0 -11.064174560866711 0.0041805303964139885 0 0 0 0 -5.6088736686433549 -72.653248513449043 0 -72.653248513449043 28.978686929370188 0 0 0 0 -36.290497357775166 4.7549919452117031 0 4.7549919452117031 -4.2558374740950189 0 0 0 0 -25.269648304012662 -35.768097597103548 0 -35.768097597103548 44.355729084880394 0 0 0 0 49.044245481996768 9.755112438600877 0 9.755112438600877 -10.507728705795381 0 0 0 0 -179.76611476454127 43.810689040904705 0 43.810689040904705 30.341772829650722 0 0 0 0 -4.0139980447347625 29.021910836823679 0 29.021910836823679 -40.770205359611921 0 0 0 0 -50.308307228191552 -6.7189888064192704 0 -6.7189888064192704 -0.086796594313508071 0 0 0 0 -184.33130056051323 23.163581391340035 0 23.163581391340035 -20.396392773468133 0 0 0 0 -238.58819329327525 15.671886970788112 0 15.671886970788112 -43.6216428342683 0 0 0 0 -223.35659123212099 74.186841650418557 0 74.186841650418557 38.406428492784983 0 0 0 0 -1.3779382787338363 0.68101823817826812 0 0.68101823817826812 1.3398742021949428 0 0 0 0 1.7427353485545609 2.8756119012159687 0 2.8756119012159687 4.4388375997998111 0 0 0 0 -409.41626922795695 -65.057088640600426 0 -65.057088640600426 -24.110640863209539 0 0 0 0 -208.17807042744244 -25.82848133537891 0 -25.82848133537891 7.004950500427185 0 0 0 0 -89.141727743510273 331.04738383921028 0 331.04738383921028 -92.530146960660716 0 0 0 0 -0.46516646454000465 -0.5238042622934671 0 -0.5238042622934671 0.55466145384882415 0 0 0 0 -636.75054113550868 75.014122658086748 0 75.014122658086748 49.473059147095341 0 0 0 0 -493.02322458317212 -114.96866473615731 0 -114.96866473615731 48.394441232992222 0 0 0 0 -1.0287399178794878 -0.37636373963317737 0 -0.37636373963317737 -0.20261693089078214 0 0 0 0 -394.94972490364307 -12.275961343161924 0 -12.275961343161924 -16.261035710512601 0 0 0 0 -302.62098241935018 -108.27541955917695 0 -108.27541955917695 11.154857396854922 0 0 0 0 -280.60461956060317 -35.865962669051385 0 -35.865962669051385 -4.1238486581662528 0 0 0 0 -102.92296979058301 -47.386460793846481 0 -47.386460793846481 -35.883792234810869 0 0 0 0 -271.65865940763979 17.734435095304725 0 17.734435095304725 2.4474637315332757 0 0 0 0 -345.47502493127104 -42.988013199057356 0 -42.988013199057356 -6.6620779610558714 0 0 0 0 -346.64964694272931 -37.168231385232502 0 -37.168231385232502 -25.161220481462578 0 0 0 0 -405.53345670306589 -13.269393831308152 0 -13.269393831308152 26.062677835791767 0 0 0 0 -0.75816279691890287 -0.29757673615797842 0 -0.29757673615797842 0.71328621984923601 0 0 0 0 -366.85872260476754 -69.991301435714917 0 -69.991301435714917 -20.609712665214801 0 0 0 0 -290.54006154804665 -13.808403890797727 0 -13.808403890797727 0.12142465652562245 0 0 0 0 -0.60908419594628782 -0.13349195757261612 0 -0.13349195757261612 0.32460114520624628 0 0 0 0 -311.87530597672958 -51.046239507056256 0 -51.046239507056256 -19.319724590435413 0 0 0 0 -375.87198557766533 -80.80039636340571 0 -80.80039636340571 0.18539334853274811 0 0 0 0 -372.80728014992201 -45.572879491871319 0 -45.572879491871319 -2.4656681063865733 0 0 0 0 -374.18914660250448 -48.228340282639294 0 -48.228340282639294 4.0073820790230457 0 0 0 0 -450.7921172724964 -6.017787620021295 0 -6.017787620021295 19.24370603239862 0 0 0 0 -452.30857875265065 -3.3723307293290077 0 -3.3723307293290077 73.67195560392355 0 0 0 0 -441.92310017316777 -44.663363341289099 0 -44.663363341289099 14.682713130467853 0 0 0 0 -453.59745805943112 -86.455321400518343 0 -86.455321400518343 -0.50968707340426622 0 0 0 0 -568.79603093849437 -61.186804714304813 0 -61.186804714304813 52.443738569431304 0 0 0 0 -611.26010129051429 65.305316627757719 0 65.305316627757719 80.879549781966261 0 0 0 0 -484.89199329356779 13.588378127409612 0 13.588378127409612 70.42365467766507 0 0 0 0 -319.98459064436611 42.137498004722147 0 42.137498004722147 31.674816651565209 0 0 0 0 -209.08313207743049 185.18590493898856 0 185.18590493898856 85.922143420064458 0 0 0 0 -480.12528829185612 91.691085115599634 0 91.691085115599634 55.775832992098799 0 0 0 0 -797.66694989669486 348.94656546426012 0 348.94656546426012 -673.17872041679459 0 0 0 0 -529.25841406032851 -9.9145179589497161 0 -9.9145179589497161 57.976168336844353 0 0 0 0 -1180.5481370703856 289.67628720237872 0 289.67628720237872 -63.910516509755666 0 0 0 0 -652.62454163863731 -290.78532514998625 0 -290.78532514998625 63.138529935355535 0 0 0 0 -975.50719087978359 -404.14736786455137 0 -404.14736786455137 65.900102050305577 0 0 0 0 -946.11893143320412 -78.058330491594916 0 -78.058330491594916 334.95838973666469 0 0 0 0 -517.38001729082316 -146.34296599463789 0 -146.34296599463789 131.21298567774988 0 0 0 0 142.69445751970488 -192.38908520204654 0 -192.38908520204654 176.83158942808222 0 0 0 0 -542.39326198947674 -41.962288675464833 0 -41.962288675464833 44.99763443812833 0 0 0 0 -955.8841787201236 25.224422028145 0 25.224422028145 139.48108881654525 0 0 0 0 0.22374395229694244 0.91412069839853416 0 0.91412069839853416 1.6434591484689776 0 0 0 0 -62.67527016295935 46.123474181874371 0 46.123474181874371 27.402743044629915 0 0 0 0 -46.589296943388035 21.558100534588732 0 21.558100534588732 7.0886006458622433 0 0 0 0 -58.725889076231397 -62.912771579210585 0 -62.912771579210585 108.44401436822272 0 0 0 0 -33.640985400805221 57.331867006694665 0 57.331867006694665 -139.34508235056273 0 0 0 0 -63.461133715325559 244.22017404301187 0 244.22017404301187 -403.83994672801055 0 0 0 0 -65.911046467988399 160.4068411150989 0 160.4068411150989 -64.399488879224918 0 0 0 0 -571.33416851390211 -115.90839953479372 0 -115.90839953479372 86.151973062135767 0 0 0 0 -771.55101876222761 208.45007118613648 0 208.45007118613648 242.77215225167072 0 0 0 0 -199.5377797826186 47.251590434476839 0 47.251590434476839 -221.35715416855055 0 0 0 0 -343.82076897367733 503.68051251204815 0 503.68051251204815 -1578.8508510825413 0 0 0 0 -658.00426513956336 -1121.709639016035 0 -1121.709639016035 -995.1499107257132 0 0 0 0 91.635699753380322 44.759336563707166 0 44.759336563707166 -374.38155583043772 0 0 0 0 184.64230893769309 -185.31111687853445 0 -185.31111687853445 -145.7313647430492 0 0 0 0 -54.890021264191432 -11.114504151412817 0 -11.114504151412817 17.047531310746017 0 0 0 0 -12.716483038399019 -56.734580877835924 0 -56.734580877835924 15.029300580787094 0 0 0 0 -63.956131966668181 5.7355839837427993 0 5.7355839837427993 32.27885831944252 0 0 0 0 -65.231595833615245 -16.032430770012475 0 -16.032430770012475 8.0001962290907329 0 0 0 0 -944.22762746457011 -77.7095153549526 0 -77.7095153549526 16.395505316272192 0 0 0 0 -561.74391705392918 -368.70330855344491 0 -368.70330855344491 742.83709825605729 0 0 0 0 -55.541541336126102 -19.025133763006806 0 -19.025133763006806 15.538132607596708 0 0 0 0 -48.894038105601936 -17.011301589117132 0 -17.011301589117132 5.8437963337302516 0 0 0 0 -2567.1423311663239 1002.8819469565133 0 1002.8819469565133 1342.5675378317931 0 0 0 0 -875.20259407572212 78.194248381420948 0 78.194248381420948 -106.4294891680529 0 0 0 0 -447.16501320236421 619.45148303550923 0 619.45148303550923 -651.31983396934083 0 0 0 0 -105.00997709567962 -24.406249780950212 0 -24.406249780950212 6.8849932844565203 0 0 0 0 -34.591122591491143 0.87419591764567883 0 0.87419591764567883 9.5039991291052353 0 0 0 0 -784.58868943365087 -560.50102962416395 0 -560.50102962416395 -236.80580455147356 0 0 0 0 -1950.5413288199197 277.13482851361459 0 277.13482851361459 2.9053269065402674 0 0 0 0 -146.21438571069302 61.071203157782293 0 61.071203157782293 58.808521126911728 0 0 0 0 -259.69267292904988 -233.07864878112423 0 -233.07864878112423 -98.024807070806219 0 0 0 0 -702.62803943242068 283.4573521998185 0 283.4573521998185 -31.610684485844104 0 0 0 0 -539.95574877869512 524.97856696098097 0 524.97856696098097 186.21581089240044 0 0 0 0 -99.316125352039677 -40.376153761644133 0 -40.376153761644133 -3.6225812124786909 0 0 0 0 -97.442582636158477 -617.10892650384858 0 -617.10892650384858 -502.92605712286968 0 0 0 0 -60.294452931877458 -20.275691842398601 0 -20.275691842398601 57.055020631860941 0 0 0 0 -309.9004141989135 351.3750289562322 0 351.3750289562322 -533.74307075298202 0 0 0 0 -251.71118519937954 -391.81331024294559 0 -391.81331024294559 375.27273465739199 0 0 0 0 -88.853039731928334 -22.091202431232794 0 -22.091202431232794 12.832805506433173 0 0 0 0 -77.010340758205587 -24.555052123957132 0 -24.555052123957132 7.5993133776343287 0 0 0 0 -122.24276426752272 -31.884216378419531 0 -31.884216378419531 28.932561717090778 0 0 0 0 -23.955917409372777 -6.2315128994781759 0 -6.2315128994781759 0.78750667451958378 0 0 0 0 401.485427868236 -24.034920313031762 0 -24.034920313031762 -145.4288791658455 0 0 0 0 -472.32479605675326 -160.70095573756225 0 -160.70095573756225 -34.837636080250377 0 0 0 0 -108.46318155439803 24.566121713375651 0 24.566121713375651 89.292209920916321 0 0 0 0 -98.663418488440897 -11.217277192340624 0 -11.217277192340624 12.142540081878021 0 0 0 0 -73.293052434411948 36.039463061937568 0 36.039463061937568 8.5289275009804442 0 0 0 0 337.13293399872782 27.814421474913615 0 27.814421474913615 -226.7990034163613 0 0 0 0 -60.886806746591418 -12.306697743358113 0 -12.306697743358113 1.0179643708795574 0 0 0 0 -72.693817059261164 -44.857389270829003 0 -44.857389270829003 31.111126528245222 0 0 0 0 -40.037514566014579 -10.907688587404405 0 -10.907688587404405 -44.010649693330109 0 0 0 0 -170.05895832835813 -66.592495825731078 0 -66.592495825731078 192.65611491213724 0 0 0 0 -19.570750118452711 -4.4552135719374064 0 -4.4552135719374064 30.790948089860649 0 0 0 0 -72.6224068496158 23.946268498666768 0 23.946268498666768 31.567181455672653 0 0 0 0 -126.31656379401102 21.416861532096846 0 21.416861532096846 137.6224492935437 0 0 0 0 -100.01643514836178 123.97602761415123 0 123.97602761415123 52.325797825669724 0 0 0 0 -23.654173063856433 107.78110625618774 0 107.78110625618774 -132.99325871437213 0 0 0 0 -145.95122393668134 50.965456232242104 0 50.965456232242104 216.81533539868178 0 0 0 0 -59.95709620614798 -39.40287066619203 0 -39.40287066619203 -14.95761192232294 0 0 0 0 -96.64840069985803 53.162280250039657 0 53.162280250039657 55.204165214787281 0 0 0 0 -177.31872825390019 -181.77764570399762 0 -181.77764570399762 -8.7337275052768746 0 0 0 0 -101.77984271919738 -11.561026223839422 0 -11.561026223839422 2.1194848856304036 0 0 0 0 -189.17554673290579 189.93822404495614 0 189.93822404495614 25.970662459833989 0 0 0 0 10.814594117447541 298.52841744095861 0 298.52841744095861 84.820994062406697 0 0 0 0 -3.7144826933153183 1.257819985930702 0 1.257819985930702 -0.28144603306240462 0 0 0 0 -276.26764070300851 -130.55948089863125 0 -130.55948089863125 -42.618964097893688 0 0 0 0 -213.15522943992983 121.67047196981065 0 121.67047196981065 -220.00854376453782 0 0 0 0 -371.46702860916048 30.431142371897007 0 30.431142371897007 75.810000487469154 0 0 0 0 -239.73900525186036 -7.0189043714410122 0 -7.0189043714410122 43.943254493749997 0 0 0 0 -83.477918950404273 45.348831028794393 0 45.348831028794393 -1.4651622896558365 0 0 0 0 -131.7432512035848 -55.107783386527572 0 -55.107783386527572 40.166062234171306 0 0 0 0 1.687258943477481 2.6972570479043441 0 2.6972570479043441 16.14913310253122 0 0 0 0 -160.38017120185395 64.718524815505603 0 64.718524815505603 -5.0438907555603318 0 0 0 0 -52.434351278811846 105.50935702227949 0 105.50935702227949 18.186856709415224 0 0 0 0 -519.71027754821989 -133.75432014149874 0 -133.75432014149874 64.497404337577507 0 0 0 0 -415.6492648002677 -106.74132171741905 0 -106.74132171741905 141.80826033689641 0 0 0 0 -235.10916228083079 -10.87358858045242 0 -10.87358858045242 30.743105906532982 0 0 0 0 -0.75458060100463697 1.5427841342297768 0 1.5427841342297768 4.9365985988406678 0 0 0 0 275.82392397829972 100.19674519778842 0 100.19674519778842 -364.3018553051553 0 0 0 0 -423.90496810150609 -313.74972940776718 0 -313.74972940776718 -526.65207098895348 0 0 0 0 -202.25854757631532 5.9168162539776628 0 5.9168162539776628 35.605074118334201 0 0 0 0 -177.52277854311978 -17.866658086751038 0 -17.866658086751038 9.6596826813865277 0 0 0 0 -215.95767337497091 -14.692063792169911 0 -14.692063792169911 29.094466475071791 0 0 0 0 -220.17938460571895 -10.535179746329852 0 -10.535179746329852 6.4753519012771861 0 0 0 0 -224.08637226895371 -14.50628011797302 0 -14.50628011797302 31.672645316492723 0 0 0 0 -155.55877111188602 52.196329395180889 0 52.196329395180889 1.2555830539071451 0 0 0 0 -254.60662615735782 51.746598660446658 0 51.746598660446658 4.5588955435447875 0 0 0 0 -270.87701933900826 50.436035246868812 0 50.436035246868812 5.0431708926226966 0 0 0 0 -248.62026092144515 -27.903100352515729 0 -27.903100352515729 2.7777362039810285 0 0 0 0 -202.10537260805722 3.0417515817707104 0 3.0417515817707104 -10.184799194809685 0 0 0 0 -284.93992338385215 22.85117482635474 0 22.85117482635474 0.024613360334126769 0 0 0 0 -248.02400911619043 -14.938550807212582 0 -14.938550807212582 -28.01919542392459 0 0 0 0 -208.02082063369744 -61.029320239187328 0 -61.029320239187328 35.554749137269489 0 0 0 0 -286.47537793075026 -10.404106530633747 0 -10.404106530633747 -11.952256025020626 0 0 0 0 -424.28633830499979 -1.6447219521763243 0 -1.6447219521763243 200.41804286723277 0 0 0 0 -0.27293294820747249 0.44706763895065649 0 0.44706763895065649 0.36972224871242326 0 0 0 0 75.016618025932985 -194.25457119057512 0 -194.25457119057512 -195.3183785219619 0 0 0 0 -257.62483703760518 -16.339804952416827 0 -16.339804952416827 -9.5249761579900429 0 0 0 0 -450.90035974873172 -43.141760104740733 0 -43.141760104740733 0.01802621632264681 0 0 0 0 -511.56065163790754 -296.49949377877221 0 -296.49949377877221 0.50476724300548881 0 0 0 0 -987.88144220098911 -42.974646450180572 0 -42.974646450180572 0.44292752376180217 0 0 0 0 -374.58167568399222 -53.328052256283499 0 -53.328052256283499 -0.37478737975981624 0 0 0 0 -809.76850569075759 259.77489587628031 0 259.77489587628031 -22.363775157812483 0 0 0 0 -6.6341034683786688 -5.2507681265645232 0 -5.2507681265645232 -4.6519927005933708 0 0 0 0 -1497.7643409092561 408.79355125266608 0 408.79355125266608 -35.351457874965035 0 0 0 0 148.34079707730689 -326.46403532151686 0 -326.46403532151686 -260.66186142728986 0 0 0 0 179.17433505264034 127.558936897457 0 127.558936897457 -210.79271544731 0 0 0 0 -1422.1760958325613 -195.13316818126202 0 -195.13316818126202 14.967280382135479 0 0 0 0 -739.98762073553371 314.3616421587277 0 314.3616421587277 -214.09489312010146 0 0 0 0 -823.34270479533006 -557.70422499195524 0 -557.70422499195524 -114.47617148355755 0 0 0 0 -192.91325418473571 -412.31714999428789 0 -412.31714999428789 -281.94686304534196 0 0 0 0 -244.49926567673901 -26.322098522100269 0 -26.322098522100269 -80.100335504695295 0 0 0 0 -779.00538176824193 -280.75347626531806 0 -280.75347626531806 27.695945074353858 0 0 0 0 -423.26829678827926 -177.36720276024016 0 -177.36720276024016 41.826210215149331 0 0 0 0 -832.36127561420108 -168.72060920286395 0 -168.72060920286395 207.35667954655082 0 0 0 0 -1217.6461846144084 -263.07480293382332 0 -263.07480293382332 192.069143797386 0 0 0 0 74.072711371365585 -86.435914781382053 0 -86.435914781382053 63.140060819909195 0 0 0 0 -1.2510922285534747 3.5596115349844695 0 3.5596115349844695 5.4046622616529341 0 0 0 0 -12.26698817210854 -15.422324996560064 0 -15.422324996560064 94.387251357649802 0 0 0 0 -9.8589064645857434 -19.344176072279879 0 -19.344176072279879 57.31968642233187 0 0 0 0 -292.45784737647045 20.574445839206291 0 20.574445839206291 0.97774446870062093 0 0 0 0 -307.02251082837029 -124.12809129515767 0 -124.12809129515767 -63.355287608508206 0 0 0 0 -134.59119602469582 -53.93795666581363 0 -53.93795666581363 -57.235297024165902 0 0 0 0 -280.90708386036567 -21.214951600749714 0 -21.214951600749714 43.277685685550182 0 0 0 0 -392.39109494701552 -183.42386735503607 0 -183.42386735503607 -97.259461571005886 0 0 0 0 -211.24342077365145 -1.5673731008290588 0 -1.5673731008290588 -65.960963752390484 0 0 0 0 -204.29590365725744 -14.812352577711408 0 -14.812352577711408 -41.256476179991523 0 0 0 0 -115.30080787130282 38.160662283154579 0 38.160662283154579 -38.937463468434373 0 0 0 0 -10.381878755712876 8.9424163376618484 0 8.9424163376618484 3.624055276929826 0 0 0 0 -2.414736112295941 13.176637255935077 0 13.176637255935077 -14.229504642150005 0 0 0 0 26.649410046629782 -19.780466263381186 0 -19.780466263381186 -45.772433319138145 0 0 0 0 3.3641216364005118 4.9148241731607669 0 4.9148241731607669 -4.7652979821731032 0 0 0 0 -50.249823191115865 -31.767327777018238 0 -31.767327777018238 -5.8480887886951223 0 0 0 0 -27.847483797042514 -33.207679589905638 0 -33.207679589905638 113.87685832673924 0 0 0 0 -89.417413718307216 34.272000090802294 0 34.272000090802294 73.102103350522611 0 0 0 0 0.18156302942017533 0.10393873422427902 0 0.10393873422427902 -0.11808032634539656 0 0 0 0 -28.000092635244073 -4.6313642224961882 0 -4.6313642224961882 39.09873418552047 0 0 0 0 -3.0952994078384393 -1.1122344352783671 0 -1.1122344352783671 0.68178046681244053 0 0 0 0 -56.13978715686244 158.28569561461245 0 158.28569561461245 -67.003007911387158 0 0 0 0 2.8835218768632558 9.1343633918254454 0 9.1343633918254454 8.1270783692302899 0 0 0 0 -132.09513247787254 26.934490802015262 0 26.934490802015262 29.595500598480271 0 0 0 0 -167.65043412214436 77.44596142218461 0 77.44596142218461 -38.890260325604721 0 0 0 0 -174.95363914626068 41.023625707428209 0 41.023625707428209 -157.04551704225787 0 0 0 0 -252.31436506607861 128.68047009186762 0 128.68047009186762 124.28116059757849 0 0 0 0 -337.55043234236655 -3.9751143389348726 0 -3.9751143389348726 388.0028975803275 0 0 0 0 -247.71513697740738 69.644456671202377 0 69.644456671202377 -68.448685241485748 0 0 0 0 -94.760369597250246 -173.24131193311723 0 -173.24131193311723 241.73718642718904 0 0 0 0 -15.547378925621217 -12.639932735050635 0 -12.639932735050635 -13.303987246068548 0 0 0 0 32.043681431081495 -74.250431479294093 0 -74.250431479294093 98.205125041512588 0 0 0 0 245.74643134413205 -26.70601777902354 0 -26.70601777902354 -18.757124251935302 0 0 0 0 28.324884063287755 27.23398390425973 0 27.23398390425973 -43.750126557731505 0 0 0 0 -31.853085843594044 -4.3434639200536029 0 -4.3434639200536029 7.4789931152116802 0 0 0 0 -55.816539969513542 11.726881299811794 0 11.726881299811794 41.825281046943019 0 0 0 0 -26.475520052481443 -5.9190460706081467 0 -5.9190460706081467 -5.7881286658012687 0 0 0 0 -9.8571987443474427 6.3394502604533329 0 6.3394502604533329 5.8015706385369263 0 0 0 0 -22.628037281428988 -2.9200925858167133 0 -2.9200925858167133 0.015938326091644885 0 0 0 0 -13.488708204569519 1.8718015398339585 0 1.8718015398339585 2.7483831458133734 0 0 0 0 -13.434163858295506 2.4774141048602445 0 2.4774141048602445 10.459185016899369 0 0 0 0 -20.114978072524536 11.415312777054282 0 11.415312777054282 10.216907329836772 0 0 0 0 -25.484792403193381 0.47979362043578533 0 0.47979362043578533 3.5983315486437393 0 0 0 0 -8.7027448164437828 10.287671700195631 0 10.287671700195631 10.56687352569482 0 0 0 0 -23.39493705120185 17.679342733298824 0 17.679342733298824 -1.3535060540084487 0 0 0 0 -15.682733693247428 1.8235436190582428 0 1.8235436190582428 1.8209846681840438 0 0 0 0 -12.133004774957044 5.0227600065382809 0 5.0227600065382809 0.40419475383820397 0 0 0 0 -6.3589427001425065 2.8927583513557025 0 2.8927583513557025 0.023519927281105191 0 0 0 0 -15.404336188788875 2.0767158117909954 0 2.0767158117909954 0.52926787648019413 0 0 0 0 -23.942875729204388 18.573192261340409 0 18.573192261340409 0.41951309221190058 0 0 0 0 -20.548449172281835 8.5513041688041653 0 8.5513041688041653 3.6645009565705777 0 0 0 0 -16.503693358783494 14.518240568124504 0 14.518240568124504 -2.1579679544058834 0 0 0 0 -15.737321903638076 17.810214070397869 0 17.810214070397869 7.8955791512415736 0 0 0 0 1.7203823521049344 12.656162635389364 0 12.656162635389364 -0.29780626661917609 0 0 0 0 0.088571053929626942 105.34151832249091 0 105.34151832249091 -0.027196134135554245 0 0 0 0 -31.035317105481226 90.608752503373793 0 90.608752503373793 -3.8913642850579819 0 0 0 0 1.0496884867534391 67.311822330761103 0 67.311822330761103 -15.106888250765167 0 0 0 0 -4.3946926720673218 53.095221744998341 0 53.095221744998341 -47.828580613299522 0 0 0 0 -21.910918516165111 43.24116744576628 0 43.24116744576628 -17.590476656973863 0 0 0 0 -21.780634858689154 40.418464608006147 0 40.418464608006147 -42.363160795030687 0 0 0 0 -8.4468374472635332 14.05301554374827 0 14.05301554374827 -13.813179940198353 0 0 0 0 61.736143381072907 79.025467362544944 0 79.025467362544944 -47.079953121372995 0 0 0 0 -2.9816988469683565 2.0313799832658876 0 2.0313799832658876 -0.0060420217788021875 0 0 0 0 -0.28404793424493846 1.0078180518546347 0 1.0078180518546347 -1.1750052294657209 0 0 0 0 -5.272694783616771 4.2797291897726666 0 4.2797291897726666 -2.3645343637760594 0 0 0 0 -6.1258367349510081 7.1022653729480965 0 7.1022653729480965 -2.4965463809709263 0 0 0 0 -10.137898809392937 2.6388669511098808 0 2.6388669511098808 -0.004379982607792013 0 0 0 0 -2.8090531412162818 3.5331195520921028 0 3.5331195520921028 -0.54494556795293647 0 0 0 0 -4.1674229346920555 2.4622331662502432 0 2.4622331662502432 -1.1868333737973082 0 0 0 0 0.67946580256688094 3.005392096590656 0 3.005392096590656 -1.7031146586908292 0 0 0 0 3.2331432794189254 7.7049490428260583 0 7.7049490428260583 -2.6190369270606273 0 0 0 0 -45.591723102799733 17.791175985099784 0 17.791175985099784 -2.0029948490859582 0 0 0 0 -37.685848499611893 43.682602618274494 0 43.682602618274494 6.001136542663005 0 0 0 0 -49.34884474761202 26.021214655749901 0 26.021214655749901 163.44759500399738 0 0 0 0 -19.208332994370721 53.046357726542027 0 53.046357726542027 1.5840032070628354 0 0 0 0 -25.807779819777352 47.7037852453889 0 47.7037852453889 -0.2782581239593469 0 0 0 0 -26.93240362781944 50.967864477847513 0 50.967864477847513 18.62043925313958 0 0 0 0 8.9732721558221158 20.411703277997802 0 20.411703277997802 -10.234915619917057 0 0 0 0 27.932111100846669 0.088246816665559891 0 0.088246816665559891 -0.038575071444938658 0 0 0 0 7.4612671589583215 3.7023505511786681 0 3.7023505511786681 -7.0139033316616946 0 0 0 0 -43.719027654649778 5.415505527461189 0 5.415505527461189 4.3002195102800567 0 0 0 0 -44.825950433209073 40.787601374105932 0 40.787601374105932 43.328897849556455 0 0 0 0 -96.628744906905922 54.13101268196715 0 54.13101268196715 28.648919242352349 0 0 0 0 -81.565807938852231 3.9766112604274895 0 3.9766112604274895 24.14480752702184 0 0 0 0 -89.262672466255026 7.0502726329154939 0 7.0502726329154939 -42.095236180103711 0 0 0 0 -4.8080734515014854 3.4464065970803972 0 3.4464065970803972 -1.8820264292066202 0 0 0 0 -130.87425188845373 78.036638605623011 0 78.036638605623011 14.181931979539968 0 0 0 0 -122.75916464077818 35.442608901427548 0 35.442608901427548 6.2694509675839072 0 0 0 0 -25.504379619531392 14.980807565310442 0 14.980807565310442 -1.6689383480620563 0 0 0 0 -32.000680907609848 19.3726896966227 0 19.3726896966227 -7.7631117929387772 0 0 0 0 -26.37898420707279 9.8399436933209472 0 9.8399436933209472 35.484869461644848 0 0 0 0 -54.583625291357748 8.7285442740621875 0 8.7285442740621875 130.51499448485313 0 0 0 0 -13.943797002601059 16.057191651937899 0 16.057191651937899 -4.6466244636123974 0 0 0 0 -19.254649448208738 10.84258536675382 0 10.84258536675382 2.2853242712862296 0 0 0 0 -16.889657747393358 13.52384386569247 0 13.52384386569247 0.24225935593798908 0 0 0 0 -2.4464999473376707 11.846812357242896 0 11.846812357242896 1.1118053361512414 0 0 0 0 -30.948159387218766 12.421071301178017 0 12.421071301178017 130.6400817559861 0 0 0 0 -18.696536176546942 27.836616850700011 0 27.836616850700011 32.865686487499261 0 0 0 0 4.487273992417613 -35.314687161984693 0 -35.314687161984693 204.58834814941656 0 0 0 0 -3.0908926637719674 3.4348978378167487 0 3.4348978378167487 -1.8895401995553733 0 0 0 0 21.264524621234159 33.484928364784537 0 33.484928364784537 22.962139009941893 0 0 0 0 -6.4006474291454651 -20.248289771030841 0 -20.248289771030841 52.593924091979716 0 0 0 0 -24.920484159811167 66.11034668397042 0 66.11034668397042 -28.126119969493629 0 0 0 0 -33.647258557932219 40.254909666627555 0 40.254909666627555 -57.310404807966734 0 0 0 0 -60.276709813944763 44.350704092179512 0 44.350704092179512 55.062820514820487 0 0 0 0 -53.939636432158295 75.766183806191293 0 75.766183806191293 27.862803661032785 0 0 0 0 -30.466571993281832 18.943247646870987 0 18.943247646870987 25.050207100002808 0 0 0 0 -88.210816476814216 84.140067436224854 0 84.140067436224854 -14.105023993090072 0 0 0 0 -42.158683142897644 9.9418406953745944 0 9.9418406953745944 41.002634262489664 0 0 0 0 -23.065277089932351 38.892178871928991 0 38.892178871928991 68.27393361904069 0 0 0 0 -21.86433734606544 -45.093052263408026 0 -45.093052263408026 87.341595996342221 0 0 0 0 -84.801393586676568 -20.775890846454786 0 -20.775890846454786 65.260948855127026 0 0 0 0 -126.33280108336476 -13.317895095139647 0 -13.317895095139647 -8.0896338768907299 0 0 0 0 -49.046694868717168 39.229126865377111 0 39.229126865377111 -67.778267098957258 0 0 0 0 -98.632079745539158 138.48414040514552 0 138.48414040514552 -191.34351370889999 0 0 0 0 -1.7637555622086722 -3.6748292863665419 0 -3.6748292863665419 -2.9909310312200654 0 0 0 0 -17.140506579873147 -14.784820812863344 0 -14.784820812863344 -13.130486857613596 0 0 0 0 -65.373837560335232 160.62943095222681 0 160.62943095222681 -65.173564975603313 0 0 0 0 -10.164803570638469 -24.685363170570781 0 -24.685363170570781 -21.592076087653027 0 0 0 0 -29.859059054404497 -5.5409698820745916 0 -5.5409698820745916 -20.564668200627011 0 0 0 0 -85.284717366324912 92.538214680595956 0 92.538214680595956 -59.788258604887147 0 0 0 0 -4.6217284251635249 -2.5617886803570116 0 -2.5617886803570116 -3.860547209459849 0 0 0 0 -16.990275840107643 -2.6587428070354235 0 -2.6587428070354235 4.8351171523728453 0 0 0 0 -19.140373060916318 2.2608869100729407 0 2.2608869100729407 -6.396603363491522 0 0 0 0 -15.595345014446508 0.98567430722184146 0 0.98567430722184146 -1.7028643131347172 0 0 0 0 -7.0308704957205919 -5.8069389325482916 0 -5.8069389325482916 -19.332360498296566 0 0 0 0 -23.97612177636347 19.556712458466251 0 19.556712458466251 -37.143081116184931 0 0 0 0 -9.1679288616511201 2.706771336609477 0 2.706771336609477 -0.23485272295697057 0 0 0 0 -19.979991913890444 4.8541117132005809 0 4.8541117132005809 -21.490619085318031 0 0 0 0 -32.202411102807673 -1.7659194130112041 0 -1.7659194130112041 -17.617684140401664 0 0 0 0 -44.366766449409624 3.8638054949161074 0 3.8638054949161074 -20.897212781649614 0 0 0 0 -23.68879840378213 28.09508424126966 0 28.09508424126966 -17.311639519925677 0 0 0 0 -51.274561252965213 17.622784087297845 0 17.622784087297845 -16.630636893670953 0 0 0 0 -42.308439452448511 6.6853483167697618 0 6.6853483167697618 -17.131535694375771 0 0 0 0 -46.233160713912895 -4.4141266918352322 0 -4.4141266918352322 3.3796079148687643 0 0 0 0 -33.991981907543959 -32.250595955434619 0 -32.250595955434619 124.16097483655767 0 0 0 0 -480.79686269475496 290.52024773406083 0 290.52024773406083 190.56861359003551 0 0 0 0 -38.410798237775452 -4.8625198269592147 0 -4.8625198269592147 -27.925641104563923 0 0 0 0 -47.666836492660082 -0.21172827260778782 0 -0.21172827260778782 0.95379028950257494 0 0 0 0 -33.675886438737507 -148.23582776552848 0 -148.23582776552848 152.172475384888 0 0 0 0 -47.06681851588958 -10.425994883685469 0 -10.425994883685469 -5.8308527222522883 0 0 0 0 531.64157230078126 -109.87598952354938 0 -109.87598952354938 -330.58913307580679 0 0 0 0 -37.309555027022725 -15.70849280821983 0 -15.70849280821983 -20.381773430524078 0 0 0 0 -30.598059802980771 -24.051358362943006 0 -24.051358362943006 -19.660444399052064 0 0 0 0 -43.23065860578572 -5.5561862329082317 0 -5.5561862329082317 -20.461080279494809 0 0 0 0 -223.33099419579548 -172.01027177089537 0 -172.01027177089537 55.522357565250331 0 0 0 0 -207.65143782476798 159.77638735009953 0 159.77638735009953 99.191302052560786 0 0 0 0 124.28833159264468 395.04668896247085 0 395.04668896247085 -233.79160152868803 0 0 0 0 -9.5400730501416717 4.3272444603701388 0 4.3272444603701388 3.9983469285927775 0 0 0 0 -165.01971335300914 26.115746758075488 0 26.115746758075488 40.328013770468715 0 0 0 0 -63.509505299087323 447.65076315174861 0 447.65076315174861 -20.441531860155919 0 0 0 0 -13.858822629758606 -7.7928269998354125 0 -7.7928269998354125 -1.1792309678240938 0 0 0 0 0.8760966326690891 1.5788085364284683 0 1.5788085364284683 1.2829210631285175 0 0 0 0 -317.22321224564803 -27.898398845442671 0 -27.898398845442671 128.90122065852665 0 0 0 0 -157.28804781023064 395.8535094269007 0 395.8535094269007 308.86571611979548 0 0 0 0 8.9749158751656068 332.69991157465506 0 332.69991157465506 161.51581921771776 0 0 0 0 -727.59676312492229 535.47737335394436 0 535.47737335394436 -153.97369706368283 0 0 0 0 -324.60583015339944 151.11662926313249 0 151.11662926313249 133.67152029558383 0 0 0 0 137.92004623601679 -139.33100351024274 0 -139.33100351024274 45.071751777541635 0 0 0 0 -195.71279015600157 -17.981594514988842 0 -17.981594514988842 170.76570102352616 0 0 0 0 -138.97154067912197 79.771461449139792 0 79.771461449139792 -7.0673250380377794 0 0 0 0 -30.09242841466039 -34.506278469818881 0 -34.506278469818881 77.780285279172631 0 0 0 0 -17.938638581759278 13.125788494930887 0 13.125788494930887 10.554301933343156 0 0 0 0 -85.221774148754776 -110.65374455781557 0 -110.65374455781557 154.75085899247733 0 0 0 0 -112.56543167712516 18.995595176441384 0 18.995595176441384 112.05015085338823 0 0 0 0 -64.030850906558044 54.904601928321654 0 54.904601928321654 27.951551957190759 0 0 0 0 -79.792010537843453 -38.323675132082258 0 -38.323675132082258 31.627503311922283 0 0 0 0 -42.428508510260144 -2.1138490927118596 0 -2.1138490927118596 -83.742022693638546 0 0 0 0 -42.740507547423476 53.754379013194693 0 53.754379013194693 11.202863428797855 0 0 0 0 -56.333748980287055 24.760718572106555 0 24.760718572106555 47.141089653205768 0 0 0 0 -45.861863497623915 4.1670003936929145 0 4.1670003936929145 1.8249755233230336 0 0 0 0 -24.229431353040695 3.3143781184964212 0 3.3143781184964212 5.6264074287376751 0 0 0 0 -61.152216128391046 64.169666840865972 0 64.169666840865972 -6.4436153558581282 0 0 0 0 -99.080544632233796 181.32366220562278 0 181.32366220562278 -119.97893366858807 0 0 0 0 -12.098977825542306 0.82533472565663146 0 0.82533472565663146 4.6137176570437255 0 0 0 0 -40.318863478933054 -58.180586336140323 0 -58.180586336140323 58.996070552895276 0 0 0 0 -203.74221384078555 29.722230612844214 0 29.722230612844214 26.366510478991927 0 0 0 0 -22.999670108198188 35.507670638261061 0 35.507670638261061 -58.874753995238734 0 0 0 0 -23.361738790488744 70.529765689745773 0 70.529765689745773 -152.43172424322574 0 0 0 0 -2.9671225281756506 1.6835175927287938 0 1.6835175927287938 -0.33132044294214613 0 0 0 0 -17.820782937305921 0.65100956316064185 0 0.65100956316064185 -11.562587802957751 0 0 0 0 14.528024649640429 -26.820055086172943 0 -26.820055086172943 3.837747673765989 0 0 0 0 -11.868199840275338 -40.596730324094551 0 -40.596730324094551 -78.082962992143621 0 0 0 0 -89.410023117845412 125.47454558765958 0 125.47454558765958 121.89760854592407 0 0 0 0 -379.47561487964413 19.045190702999662 0 19.045190702999662 144.35053046196026 0 0 0 0 -28.054292567423175 13.29854530187297 0 13.29854530187297 -5.7130626621544609 0 0 0 0 49.304916666806093 -114.36990695665031 0 -114.36990695665031 -111.85131934815763 0 0 0 0 126.4663370448161 81.229279261241686 0 81.229279261241686 -4.2614506442509992 0 0 0 0 164.02464030969713 -2.9989800275222933 0 -2.9989800275222933 -230.4368724081578 0 0 0 0 46.967541276972156 -31.789057779064187 0 -31.789057779064187 18.686761983304677 0 0 0 0 -19.195383284947582 7.4186195793804401 0 7.4186195793804401 -2.3425638153903341 0 0 0 0 -24.164545235551486 -2.2886644363844653 0 -2.2886644363844653 -1.941140084971039 0 0 0 0 -35.277677161058818 5.054579806936772 0 5.054579806936772 21.815865960616861 0 0 0 0 -57.421162033630026 -25.787723475354625 0 -25.787723475354625 -0.52888873231950129 0 0 0 0 -3.8228443106077634 2.9419811794267474 0 2.9419811794267474 -0.83657726667289523 0 0 0 0 -27.353526327227883 3.0318956330116578 0 3.0318956330116578 0.3368070122772906 0 0 0 0 -50.335008912903504 0.96888688866401651 0 0.96888688866401651 14.464713138125035 0 0 0 0 -99.526204391244391 -54.450694469345407 0 -54.450694469345407 -23.384423802998818 0 0 0 0 -41.823703627662326 38.920053409616685 0 38.920053409616685 40.644881563561512 0 0 0 0 -89.123402050950972 16.885447585963952 0 16.885447585963952 35.750073532076115 0 0 0 0 -21.617806131456746 15.760607256140275 0 15.760607256140275 9.235370119817361 0 0 0 0 -28.41628080263763 76.943279363706552 0 76.943279363706552 -34.525050411105155 0 0 0 0 -1.2542892326243589 5.8770471484178763 0 5.8770471484178763 -4.6548608961761859 0 0 0 0 -64.457740234851371 109.08807665590804 0 109.08807665590804 16.981264809884124 0 0 0 0 -94.592612477194962 -46.525085114816129 0 -46.525085114816129 -35.358039350988292 0 0 0 0 -303.05849880969254 -110.94224224099025 0 -110.94224224099025 -6.2588127341741426 0 0 0 0 7.172692284671939 -4.5562551586583417 0 -4.5562551586583417 -0.060338934135008057 0 0 0 0 -1.2037944116937638 0.51315167139973994 0 0.51315167139973994 -0.17980476123116892 0 0 0 0 -164.68975424808013 95.778822059259781 0 95.778822059259781 -0.27118637505510645 0 0 0 0 -59.615482369757956 30.558867583588821 0 30.558867583588821 -14.508536049219899 0 0 0 0 -75.53707689550356 -149.82156777071134 0 -149.82156777071134 -50.282559107865524 0 0 0 0 52.620407599202736 13.703270720335137 0 13.703270720335137 -26.97572241369215 0 0 0 0 -2.7531132697934027 1.8759220311564349 0 1.8759220311564349 -0.84544919994892853 0 0 0 0 -32.821658217377262 -57.882838045220716 0 -57.882838045220716 -38.655489312410729 0 0 0 0 -117.85890222465241 -31.680407977724318 0 -31.680407977724318 -0.036549681429490895 0 0 0 0 -200.17812081820739 -110.03634154406964 0 -110.03634154406964 14.143020289807346 0 0 0 0 -361.24862106758519 -96.042736117625694 0 -96.042736117625694 23.428643338582635 0 0 0 0 -350.33691104576246 -51.202698479613318 0 -51.202698479613318 54.57601569700833 0 0 0 0 -689.94835474230058 -107.29840813861537 0 -107.29840813861537 58.152597069156599 0 0 0 0 -405.15969026868697 -34.806222985942028 0 -34.806222985942028 51.96273887222295 0 0 0 0 -324.99450071223691 -22.765120476599606 0 -22.765120476599606 0.08204349664109481 0 0 0 0 -438.35664053283654 88.163581557134208 0 88.163581557134208 32.125359537416294 0 0 0 0 -266.94329679571092 22.184486981175795 0 22.184486981175795 0.094550555954271892 0 0 0 0 -182.68041669676677 104.85972964149674 0 104.85972964149674 -20.072207484946336 0 0 0 0 -219.29460658529797 62.778387120596683 0 62.778387120596683 19.948608411835032 0 0 0 0 -223.72107070536003 99.3213188932382 0 99.3213188932382 -1.1892000941278855 0 0 0 0 -528.6396861326939 242.01833184137462 0 242.01833184137462 -42.034133049643039 0 0 0 0 -827.21554362330062 562.52125041282147 0 562.52125041282147 -345.61515130302143 0 0 0 0 -117.10089551617421 123.98220073630533 0 123.98220073630533 -124.58609227365599 0 0 0 0 -162.01462903472566 81.227365337914463 0 81.227365337914463 6.2514177525760601 0 0 0 0 -41.233537343669013 2.6352763085512398 0 2.6352763085512398 -62.207534991722625 0 0 0 0 -18.182433402907634 1.3768558162367763 0 1.3768558162367763 0.7604836125657688 0 0 0 0 37.477831252839678 169.73823987971733 0 169.73823987971733 425.58530024759892 0 0 0 0 -5.7005269315096569 1.284234438752577 0 1.284234438752577 1.4628076746374981 0 0 0 0 -195.2692180442682 167.39117686449731 0 167.39117686449731 464.39339183692391 0 0 0 0 236.59542803966906 -188.99186565766934 0 -188.99186565766934 101.5188627393145 0 0 0 0 -84.39388835610589 9.2144841746157908 0 9.2144841746157908 39.563339022690798 0 0 0 0 194.48106884310982 -295.57180089347798 0 -295.57180089347798 457.33885991852981 0 0 0 0 227.1007593543618 291.22851399288038 0 291.22851399288038 -133.01672048986165 0 0 0 0 573.34855218145822 73.296945025562536 0 73.296945025562536 -237.71031558299546 0 0 0 0 135.78462582855718 177.87371711828337 0 177.87371711828337 -212.48849414223992 0 0 0 0 -154.07758125459077 537.10284172536831 0 537.10284172536831 -230.4981644401521 0 0 0 0 -617.20660603763827 413.39512698095427 0 413.39512698095427 177.54535733694411 0 0 0 0 299.6513686281105 394.58789474555249 0 394.58789474555249 -291.00154398915311 0 0 0 0 -907.45231969786983 -607.02541855164259 0 -607.02541855164259 25.611796252454958 0 0 0 0 -7.4572100694322216 -0.61044319134962199 0 -0.61044319134962199 -0.011995944398116937 0 0 0 0 -525.55605153780198 -272.50072500499391 0 -272.50072500499391 -61.934514517173682 0 0 0 0 133.21214154911286 -56.378558253749645 0 -56.378558253749645 -80.107459150294972 0 0 0 0 -1453.6427515624964 -402.60416210813332 0 -402.60416210813332 260.06696792428238 0 0 0 0 -632.36947988482279 276.62130127899621 0 276.62130127899621 -657.38742960008005 0 0 0 0 309.22964420980134 114.99809898361292 0 114.99809898361292 -218.20327044683484 0 0 0 0 -412.9969768368901 -154.2704787973762 0 -154.2704787973762 187.08333552101027 0 0 0 0 -304.84259804990143 -149.23498588304506 0 -149.23498588304506 -22.790773724595581 0 0 0 0 -305.6107109860468 -132.27761353145542 0 -132.27761353145542 -36.495032533711047 0 0 0 0 -1307.6135387117247 -480.68899761885814 0 -480.68899761885814 -143.82231834643926 0 0 0 0 -15.457010875637934 1.6903703507871513 0 1.6903703507871513 0.0028908219878902245 0 0 0 0 -19.282693094908609 5.9379516420163627 0 5.9379516420163627 -2.4647643930129819 0 0 0 0 -19.460492444719421 1.019061773165425 0 1.019061773165425 0.2361319828765131 0 0 0 0 -23.718846933094028 10.570520604215229 0 10.570520604215229 -4.2518210203425069 0 0 0 0 -25.08536459194147 3.3652913194346485 0 3.3652913194346485 -0.019178545060987637 0 0 0 0 -39.874559574782324 11.630135429760042 0 11.630135429760042 0.77524987201266882 0 0 0 0 -85.307507633471687 11.807973482700957 0 11.807973482700957 -0.13744675840519494 0 0 0 0 0.33387823640049419 -0.027380903324029759 0 -0.027380903324029759 -0.041716530605900103 0 0 0 0 -27.608714476507885 8.6247483346886362 0 8.6247483346886362 4.5449589535102852 0 0 0 0 -3.3986045093408563 1.2668816682762554 0 1.2668816682762554 0.24363006799601977 0 0 0 0 -22.252953762217658 -6.8450859975357616 0 -6.8450859975357616 -0.61453206071996647 0 0 0 0 -180.66415093816977 130.05227275578503 0 130.05227275578503 109.97084970496587 0 0 0 0 -20.277700560894772 2.6378776279083422 0 2.6378776279083422 0.36303748953204001 0 0 0 0 -1.2300905875281387 0.63413948309516854 0 0.63413948309516854 0.14918607793509864 0 0 0 0 -248.7676927211578 -82.751572890543457 0 -82.751572890543457 -28.048836308389582 0 0 0 0 38.155047452964936 -7.9238168326398295 0 -7.9238168326398295 -21.889915843038239 0 0 0 0 -18.047234662990377 3.2794941169529475 0 3.2794941169529475 -0.939544415290548 0 0 0 0 -13.976231047716283 3.8000756384316721 0 3.8000756384316721 1.4694912352519256 0 0 0 0 -13.82614988665614 0.60099410748499671 0 0.60099410748499671 1.9908840792734792 0 0 0 0 -20.810978876201261 3.4161837980169274 0 3.4161837980169274 10.324584959496569 0 0 0 0 -19.340493657320621 19.196759342040991 0 19.196759342040991 22.691477425879405 0 0 0 0 -16.667781461525493 3.1848524946067309 0 3.1848524946067309 -0.16841412088168201 0 0 0 0 -13.08029128092312 10.459752420731604 0 10.459752420731604 6.853526156387602 0 0 0 0 -5.9656416542079 -0.83993704315003725 0 -0.83993704315003725 0.90209928297215436 0 0 0 0 -6.9203005698424818 1.7356302623190132 0 1.7356302623190132 1.6183887845479574 0 0 0 0 -5.7127492658037227 -7.3473297955663384 0 -7.3473297955663384 6.6238088502796018 0 0 0 0 -4.592186067155211 2.2606201224323907 0 2.2606201224323907 -0.46877439307377228 0 0 0 0 1.6384544831526 1.8836895855481544 0 1.8836895855481544 -7.364289629258792 0 0 0 0 0.051185011841880623 -2.5035660974768916 0 -2.5035660974768916 -4.4321350540099047 0 0 0 0 -11.544257644367462 4.3435962132490431 0 4.3435962132490431 8.2549563741034433 0 0 0 0 -2.4016929754143348 -0.01991234441254619 0 -0.01991234441254619 0.6771417084377731 0 0 0 0 -3.7680796175039575 0.83062271329603021 0 0.83062271329603021 -0.29562847565412076 0 0 0 0 -7.3010247437341604 -5.6975565863303927 0 -5.6975565863303927 -4.4541550802852612 0 0 0 0 -3.3027381642703801 -0.51097698319294693 0 -0.51097698319294693 -0.63184127203435936 0 0 0 0 -11.547010560425406 1.8528996217131635 0 1.8528996217131635 -3.7993609153895704 0 0 0 0 -1.3325046473168811 -1.1402889087018053 0 -1.1402889087018053 -0.83449216148064043 0 0 0 0 -1.6060597823224327 -0.15489533634844577 0 -0.15489533634844577 -0.54403866659790134 0 0 0 0 -2.6617633121554718 1.8701949496905463 0 1.8701949496905463 -0.49630997860546511 0 0 0 0 -6.400678892081487 0.16593714025975714 0 0.16593714025975714 5.4742166953692504 0 0 0 0 -4.6248883299413137 90.667049283375491 0 90.667049283375491 -12.163774902874138 0 0 0 0 -0.93496004332970983 0.58761115068115544 0 0.58761115068115544 -0.25379984336009542 0 0 0 0 -108.5582401095453 -46.896713668391385 0 -46.896713668391385 52.71656938217393 0 0 0 0 46.746444409931428 -12.953528328339075 0 -12.953528328339075 -78.643961904082062 0 0 0 0 -144.78098393869004 95.1256474976135 0 95.1256474976135 275.58182822694619 0 0 0 0 0.30553556081682132 0.082510938792355049 0 0.082510938792355049 -0.012421684029069624 0 0 0 0 -3.5549743679148378 24.394318461769217 0 24.394318461769217 -106.37184183569661 0 0 0 0 -4.8213013058921206 -82.997355346124436 0 -82.997355346124436 -220.31385805186756 0 0 0 0 -115.5332896761538 -130.32669461274963 0 -130.32669461274963 -60.551105539986111 0 0 0 0 -83.023299087175474 -213.82511415440334 0 -213.82511415440334 -224.40775233621389 0 0 0 0 -54.058595993061317 -138.56287454002018 0 -138.56287454002018 -155.93476052227788 0 0 0 0 -107.27185099424969 -197.27087459972518 0 -197.27087459972518 -231.12318866338285 0 0 0 0 -174.29850857463953 -100.03515134196238 0 -100.03515134196238 37.191232192277766 0 0 0 0 -104.13839678993099 -151.3737584028122 0 -151.3737584028122 65.2614886277604 0 0 0 0 -135.19573290134576 -98.003981946034628 0 -98.003981946034628 45.024622252192557 0 0 0 0 -125.84784291192773 -128.49956442794769 0 -128.49956442794769 38.919704366614496 0 0 0 0 -19.386383018441848 -95.23594244078663 0 -95.23594244078663 -263.4816241851147 0 0 0 0 -150.32103952467151 -210.1615054105402 0 -210.1615054105402 -107.44497895439599 0 0 0 0 -1.8086094866029612 -0.10744234911143735 0 -0.10744234911143735 0.24880170363964993 0 0 0 0 -34.447101201312762 -28.092082273836184 0 -28.092082273836184 -27.803511180279202 0 0 0 0 -13.845082508625637 -53.062185583429823 0 -53.062185583429823 -121.5264880833538 0 0 0 0 -103.53436738411256 -137.39963847766057 0 -137.39963847766057 -64.989254740755541 0 0 0 0 -67.449009415766341 -87.158042457370129 0 -87.158042457370129 1.6729576310531229 0 0 0 0 -121.84512111912773 -86.068742335621209 0 -86.068742335621209 9.2457898614861733 0 0 0 0 -72.767162876058137 -75.602955107069192 0 -75.602955107069192 -23.416072215821714 0 0 0 0 -24.359316883375868 -37.134846008701743 0 -37.134846008701743 1.1651938720451653 0 0 0 0 -12.43523325895876 -3.8802506123898297 0 -3.8802506123898297 4.301576151377958 0 0 0 0 -114.37115017793258 288.66388753663068 0 288.66388753663068 -385.22622698242731 0 0 0 0 -791.19352934721246 181.69917770309257 0 181.69917770309257 -213.04559887210962 0 0 0 0 -472.88539892053086 662.3195942049565 0 662.3195942049565 -689.18665601883822 0 0 0 0 -371.07608344446635 140.50479321450234 0 140.50479321450234 -219.13698232127058 0 0 0 0 -227.69672740058741 380.08044593569957 0 380.08044593569957 -413.1753111339608 0 0 0 0 -444.0427856479364 350.97701114688175 0 350.97701114688175 -350.65060150555246 0 0 0 0 -516.83788677243865 437.71639296828562 0 437.71639296828562 -242.22841497377453 0 0 0 0 -312.49006739768083 218.56322795935603 0 218.56322795935603 -179.86604302651222 0 0 0 0 -14.529293645580793 -0.63432672566410986 0 -0.63432672566410986 1.0275622336343937 0 0 0 0 -216.73666676526773 147.27951021111039 0 147.27951021111039 -218.53207038237201 0 0 0 0 -3.9911892730575005 -0.22023082679790207 0 -0.22023082679790207 0.79322747762548218 0 0 0 0 -5.3788512201199126 0.72991918149850221 0 0.72991918149850221 2.517218583811887 0 0 0 0 -25.010473662367076 -4.3269425177357448 0 -4.3269425177357448 3.2637124003792906 0 0 0 0 -90.164982874703128 407.94174238115056 0 407.94174238115056 -4.7645506885477289 0 0 0 0 -280.3722274353986 -612.58754297822702 0 -612.58754297822702 26.090689051965455 0 0 0 0 -839.75893871387234 736.60927380432167 0 736.60927380432167 -702.48930563409976 0 0 0 0 -5.2448462721293367 -3.3127454740580262 0 -3.3127454740580262 -0.084262591088882566 0 0 0 0 -1220.3081372066081 -378.71737623288072 0 -378.71737623288072 262.07132179573796 0 0 0 0 -1085.9690668813128 142.7303673112533 0 142.7303673112533 -338.95478904665833 0 0 0 0 -87.354249484298634 131.21253061012499 0 131.21253061012499 -287.37706454164072 0 0 0 0 -389.59657812897876 -322.70734400964386 0 -322.70734400964386 -756.90373319235732 0 0 0 0 -397.18689293725447 -155.85156226175539 0 -155.85156226175539 -374.70569277394543 0 0 0 0 -1180.1824455226306 -434.60921456188544 0 -434.60921456188544 -322.36416600684197 0 0 0 0 68.300098131105187 136.25161002366031 0 136.25161002366031 -198.90922098740748 0 0 0 0 -96.93544127549103 176.05386859959901 0 176.05386859959901 -169.63322048324608 0 0 0 0 -85.518081877322402 117.86443851752119 0 117.86443851752119 111.19556607264894 0 0 0 0 26.897776659054216 -111.53465175037991 0 -111.53465175037991 -485.85681021929554 0 0 0 0 289.25724430923583 100.15120961861226 0 100.15120961861226 -226.64990700890667 0 0 0 0 -55.261621804384049 28.115437821400519 0 28.115437821400519 -237.2331177485774 0 0 0 0 -72.284978975119884 -144.87206442485012 0 -144.87206442485012 -510.12172602171631 0 0 0 0 -108.9722288439516 -75.463576972930696 0 -75.463576972930696 -245.44866880322388 0 0 0 0 7.0909393197653117 -60.375873121388395 0 -60.375873121388395 -315.38326586540416 0 0 0 0 -283.5552344541793 -270.03233416914441 0 -270.03233416914441 -199.22425122010497 0 0 0 0 -70.585774749444681 -209.06414765263094 0 -209.06414765263094 -318.91259015060973 0 0 0 0 -347.30446327847312 -324.77478049772935 0 -324.77478049772935 -366.00826707011083 0 0 0 0 -136.71512575403904 -172.00806804027229 0 -172.00806804027229 -273.51155716702988 0 0 0 0 -247.14200800399703 -181.67143039179973 0 -181.67143039179973 -277.20363304514274 0 0 0 0 -1412.7868697462982 477.83989350384127 0 477.83989350384127 -332.61261355227271 0 0 0 0 -539.40572963769955 -92.592246051839538 0 -92.592246051839538 -296.12076285579451 0 0 0 0 -553.43969463884423 44.237798872257372 0 44.237798872257372 -105.40378338853725 0 0 0 0 -161.28707275201305 -83.607993501854367 0 -83.607993501854367 -65.120194323371379 0 0 0 0 -119.56120695480786 -129.95358516692067 0 -129.95358516692067 -85.841708861931465 0 0 0 0 -92.420214017940452 -5.0361420745066425 0 -5.0361420745066425 307.01786559999209 0 0 0 0 -131.13554535594449 -197.24269058622644 0 -197.24269058622644 -22.173653351921303 0 0 0 0 -40.202294205111684 -121.25023295206665 0 -121.25023295206665 302.03238020985975 0 0 0 0 -236.1883484584032 -26.330027054974892 0 -26.330027054974892 258.2133437177863 0 0 0 0 -102.57827818776423 -82.98457898008246 0 -82.98457898008246 242.10827211402011 0 0 0 0 -99.251159236271633 158.35059752053235 0 158.35059752053235 435.64445522623043 0 0 0 0 -346.11397781137202 120.6013106361379 0 120.6013106361379 123.00816789316605 0 0 0 0 -162.29825069561957 161.42474629129322 0 161.42474629129322 -235.61858567235322 0 0 0 0 -248.58879495332076 44.668301188596757 0 44.668301188596757 -288.36748330861246 0 0 0 0 -152.91363112656109 178.12509034161326 0 178.12509034161326 -889.06758752259793 0 0 0 0 -179.00581183355825 245.91097465706667 0 245.91097465706667 -565.01677392589136 0 0 0 0 -620.28143017130787 -108.69509739143291 0 -108.69509739143291 -187.95312441323745 0 0 0 0 -295.43672347082247 268.10363324174455 0 268.10363324174455 92.878297494220533 0 0 0 0 230.64304508379428 103.23619390350279 0 103.23619390350279 304.8249762544022 0 0 0 0 -179.3178315286932 432.28160517329195 0 432.28160517329195 310.12860467527298 0 0 0 0 -247.23688989484799 507.31872559638464 0 507.31872559638464 178.58856164383678 0 0 0 0 -259.95401577540179 288.45972039719169 0 288.45972039719169 244.94137379015979 0 0 0 0 -310.4175460167462 177.5203680304337 0 177.5203680304337 147.49864826574219 0 0 0 0 -125.63077216782403 -25.934220729594216 0 -25.934220729594216 -47.677853877258379 0 0 0 0 -97.832844589022372 5.9545668404334204 0 5.9545668404334204 -1.2797804034240865 0 0 0 0 -133.24594769156101 -15.588949527665307 0 -15.588949527665307 15.190627628814184 0 0 0 0 -101.54953631090939 1.4592418707633996 0 1.4592418707633996 -16.516606643708883 0 0 0 0 -93.484828784546153 -17.996841504852295 0 -17.996841504852295 0.94824007241095387 0 0 0 0 -30.057377810273465 -0.90170310540912624 0 -0.90170310540912624 -4.8605813777764979 0 0 0 0 -101.98602084000595 -136.46913169153925 0 -136.46913169153925 12.033458098039489 0 0 0 0 -36.701923523240623 0.96841956702406407 0 0.96841956702406407 -3.8941646923771427 0 0 0 0 -255.50956025933556 39.645477588677295 0 39.645477588677295 704.53281320373128 0 0 0 0 -76.89170861837195 -3.2149782849091793 0 -3.2149782849091793 0.86161501919306061 0 0 0 0 -15.294525569828693 97.770808958169482 0 97.770808958169482 -194.35040043171489 0 0 0 0 -215.74573206163041 -43.719162674778545 0 -43.719162674778545 575.31298257395861 0 0 0 0 -189.07830899105466 -137.63822368126705 0 -137.63822368126705 274.05298785699824 0 0 0 0 -92.713520845360478 -7.0470314160863232 0 -7.0470314160863232 2.8371397447401705 0 0 0 0 -85.573688442724233 -272.0810880383662 0 -272.0810880383662 -145.50954361670892 0 0 0 0 -45.799249905522629 -233.86587129408557 0 -233.86587129408557 -29.850827553102135 0 0 0 0 -254.5145477078986 -146.09766316751285 0 -146.09766316751285 -55.328763187381327 0 0 0 0 -691.29070775487344 -426.86148662188134 0 -426.86148662188134 -504.63695624009227 0 0 0 0 -180.76591986204585 -86.390613039860753 0 -86.390613039860753 -353.48304520619411 0 0 0 0 -11.456584998465402 3.6749066567581394 0 3.6749066567581394 0.29290169510877123 0 0 0 0 -32.26402561415307 8.5130361356777371 0 8.5130361356777371 5.702948342558841 0 0 0 0 -12.446895424458489 -1.0781200218922322 0 -1.0781200218922322 0.29039475649761926 0 0 0 0 -39.145106293301069 17.904775946304767 0 17.904775946304767 10.898846266569535 0 0 0 0 -109.32549906016629 70.78456630459479 0 70.78456630459479 -135.04833320180683 0 0 0 0 -251.66903932107198 133.02938679154548 0 133.02938679154548 -37.751895239675605 0 0 0 0 0.76069359033729711 3.6481058543423757 0 3.6481058543423757 4.8772530503787248 0 0 0 0 -185.64150905461429 290.96754742769747 0 290.96754742769747 -211.47884001260741 0 0 0 0 -2.7382606409784671 0.2322009770694784 0 0.2322009770694784 1.944261830127747 0 0 0 0 -157.87989398313675 97.247334884285522 0 97.247334884285522 24.733263302397972 0 0 0 0 -174.70363114072825 134.32728233954276 0 134.32728233954276 -39.812434092278011 0 0 0 0 -1.9472353564209328 7.1200476998314812 0 7.1200476998314812 8.859125731916965 0 0 0 0 -158.26524370862899 102.27612681086123 0 102.27612681086123 -15.757892832546986 0 0 0 0 -17.089451723761158 22.7143388801436 0 22.7143388801436 11.072957125607033 0 0 0 0 -4.9082634647987007 1.9334353518950707 0 1.9334353518950707 0.97693725866366332 0 0 0 0 -119.09059500939838 -2.3667620076299727 0 -2.3667620076299727 17.605445501869553 0 0 0 0 -116.76943392081739 0.25529451887416599 0 0.25529451887416599 20.134901193530709 0 0 0 0 -117.63211545737113 -7.1153840764409395 0 -7.1153840764409395 26.966540376128478 0 0 0 0 -108.53375267138108 -13.47273817832172 0 -13.47273817832172 14.10388354108602 0 0 0 0 -128.55281129496871 -11.563044468004819 0 -11.563044468004819 25.190292214265355 0 0 0 0 -71.959859169408446 -12.069366527505622 0 -12.069366527505622 5.2128780552275202 0 0 0 0 -93.585983788667363 3.3111389964682303 0 3.3111389964682303 18.223943436993977 0 0 0 0 -181.31172508364398 59.54386514126908 0 59.54386514126908 18.978600705184476 0 0 0 0 -256.28835853696182 117.6293001543836 0 117.6293001543836 129.11780682568377 0 0 0 0 -350.1074185808975 -33.084033857071915 0 -33.084033857071915 -23.675519673685212 0 0 0 0 -98.583425861579599 30.330529058135966 0 30.330529058135966 -18.840882396098323 0 0 0 0 -72.713728190079564 12.945569513600276 0 12.945569513600276 -20.648750105932777 0 0 0 0 -132.48557013687969 -17.245943443460192 0 -17.245943443460192 0.043924474376353828 0 0 0 0 -63.331017455158872 6.40838475590499 0 6.40838475590499 -27.802591940414914 0 0 0 0 -99.412719028058689 2.326880396853614 0 2.326880396853614 1.4309128264258058 0 0 0 0 -139.44716392521514 -69.278320471358938 0 -69.278320471358938 85.235674233442296 0 0 0 0 -101.88801414759571 -6.3099863690568299 0 -6.3099863690568299 2.1186335661098461 0 0 0 0 -125.48095490900232 -62.745128786818299 0 -62.745128786818299 60.416082958922743 0 0 0 0 -164.17442823445163 18.06418788333508 0 18.06418788333508 233.85962343213646 0 0 0 0 -133.05176158447739 -101.26873526721724 0 -101.26873526721724 8.0531193754864034 0 0 0 0 -72.120578542024305 7.5462924666209306 0 7.5462924666209306 -84.877194749390725 0 0 0 0 -50.876083912044123 -46.79608042899217 0 -46.79608042899217 -152.52156152690389 0 0 0 0 -42.322314922679652 84.024836270632193 0 84.024836270632193 9.1152576380476376 0 0 0 0 -81.877681666654098 -42.657700153280473 0 -42.657700153280473 18.046853892527906 0 0 0 0 -14.223552443960216 48.992330949854136 0 48.992330949854136 -133.40687135717488 0 0 0 0 -126.31733618379803 -83.772019078985181 0 -83.772019078985181 61.718382852001014 0 0 0 0 -170.86862305141403 -84.485701967309069 0 -84.485701967309069 298.66012423530401 0 0 0 0 -99.926195463482443 -5.1645527600589336 0 -5.1645527600589336 2.3300846302822773 0 0 0 0 -305.73342316151684 131.29298462946315 0 131.29298462946315 381.03026876487905 0 0 0 0 -25.678433629461779 109.35673542311211 0 109.35673542311211 -3.5324820705568527 0 0 0 0 -518.49772293906426 35.07747237959957 0 35.07747237959957 29.934402913541835 0 0 0 0 -218.46780034537369 109.62325123748309 0 109.62325123748309 -113.62294036786056 0 0 0 0 -189.08824424932391 42.991100440585853 0 42.991100440585853 -320.39575103938404 0 0 0 0 -329.29548760647594 -173.61596601342603 0 -173.61596601342603 -427.22649074422145 0 0 0 0 -542.33430228918587 214.04309062164072 0 214.04309062164072 -373.35428338413203 0 0 0 0 -589.68144944445521 79.212047663383601 0 79.212047663383601 -74.725464076719845 0 0 0 0 -149.7497633594794 -72.290881504983815 0 -72.290881504983815 -243.51628281348735 0 0 0 0 -212.20830611209749 -3.4616873212820565 0 -3.4616873212820565 -189.33616893416524 0 0 0 0 -223.21976324298885 -54.349049201293383 0 -54.349049201293383 -170.53464395966262 0 0 0 0 -232.8414711915575 104.08427930397568 0 104.08427930397568 -84.749214748031136 0 0 0 0 -196.01153548162256 83.062401571325836 0 83.062401571325836 -32.003960739532658 0 0 0 0 -332.89551804026996 44.405006244202127 0 44.405006244202127 -41.097121921224243 0 0 0 0 -214.12493436130899 57.475830454951961 0 57.475830454951961 26.458601232196315 0 0 0 0 -144.34681039684801 22.606104659915673 0 22.606104659915673 -95.489235060829287 0 0 0 0 -190.64280404162446 -6.4116562656996265 0 -6.4116562656996265 -66.565045818109866 0 0 0 0 -121.49046689656097 -34.248450526317129 0 -34.248450526317129 -174.90456409881108 0 0 0 0 -70.197070406269631 27.201260081619466 0 27.201260081619466 -102.61104201929959 0 0 0 0 -51.610197352223622 38.169466468929613 0 38.169466468929613 -101.99326135842691 0 0 0 0 -142.98211398234707 65.132749314404805 0 65.132749314404805 29.006960679041413 0 0 0 0 -56.05417820677394 17.696293427807177 0 17.696293427807177 -79.80338892095574 0 0 0 0 -68.516206294887525 52.043152566511935 0 52.043152566511935 8.7598972780126587 0 0 0 0 -22.078178863099311 54.139822515085825 0 54.139822515085825 -127.81964979169311 0 0 0 0 -46.368056917199283 1.2913996721262038 0 1.2913996721262038 -195.64266127524797 0 0 0 0 -14.651549757127214 11.164160227618453 0 11.164160227618453 -202.33666219087172 0 0 0 0 -43.288854657381307 -16.468350021758454 0 -16.468350021758454 -228.7165225115117 0 0 0 0 -53.862398724435479 2.0575937351205198 0 2.0575937351205198 -191.89136522577354 0 0 0 0 -54.720486982478178 13.325613062391938 0 13.325613062391938 -123.49439470883934 0 0 0 0 -47.540894721758377 27.568957837694654 0 27.568957837694654 -328.91544887178526 0 0 0 0 -14.621686780606979 4.3156677529919314 0 4.3156677529919314 -211.44715824751654 0 0 0 0 -10.342346681876734 -5.8433683191978645 0 -5.8433683191978645 -236.64905511060169 0 0 0 0 -23.004344711094745 -15.957250047430534 0 -15.957250047430534 -234.15733114666034 0 0 0 0 -22.942948336538393 -20.907243418096812 0 -20.907243418096812 -299.04978995481258 0 0 0 0 -134.97261975167203 -96.164411867909678 0 -96.164411867909678 -214.2328034838832 0 0 0 0 -111.35625385819003 -14.175548435528412 0 -14.175548435528412 -221.20688546455429 0 0 0 0 -154.61196027285769 -88.060349831235584 0 -88.060349831235584 -347.14877687007845 0 0 0 0 -78.518562274135093 22.710393358581666 0 22.710393358581666 -251.72855565453392 0 0 0 0 -171.0284427042352 12.709468841416403 0 12.709468841416403 -313.48088569601043 0 0 0 0 -79.726861295159324 5.5100437980308925 0 5.5100437980308925 -356.97046662184562 0 0 0 0 -188.92396314173675 26.812551492778425 0 26.812551492778425 -223.80945575198689 0 0 0 0 -24.782011589064496 17.470813317042712 0 17.470813317042712 -263.62757127065743 0 0 0 0 -27.197828889868106 33.663598267982934 0 33.663598267982934 -198.03534277640097 0 0 0 0 -11.492302505525004 5.9858009478437282 0 5.9858009478437282 -254.23507986557229 0 0 0 0 -18.759136999006842 24.126368168685971 0 24.126368168685971 -190.09265912685032 0 0 0 0 -6.2598343178397045 84.018219369640519 0 84.018219369640519 -105.46861616951173 0 0 0 0 -4.6067205176034349 19.36722897474456 0 19.36722897474456 -157.48568311973622 0 0 0 0 -104.12953776694485 -3.2207845637653918 0 -3.2207845637653918 -40.310913164039903 0 0 0 0 -144.29128139316163 63.118643270564917 0 63.118643270564917 -134.15524866068199 0 0 0 0 -92.414951780068805 52.617425046927565 0 52.617425046927565 -169.96021924167871 0 0 0 0 -92.170070497951826 4.575817854374475 0 4.575817854374475 -225.45831086230965 0 0 0 0 -170.53832154117845 -77.929286915412604 0 -77.929286915412604 -122.42657720032275 0 0 0 0 -235.28922873421106 -19.068988628932004 0 -19.068988628932004 -174.71816909687846 0 0 0 0 -186.20554377356166 17.578459266553182 0 17.578459266553182 -4.6456554570866047 0 0 0 0 -137.12437563445019 -92.014626031864651 0 -92.014626031864651 -117.81748194936199 0 0 0 0 -358.97310413850937 -182.85933454715911 0 -182.85933454715911 -134.33561251684569 0 0 0 0 -272.60194449490155 -160.51782882402807 0 -160.51782882402807 -281.44761825721434 0 0 0 0 -366.50933695298954 -472.44414646127171 0 -472.44414646127171 -534.84223251626281 0 0 0 0 -449.61688403994594 59.02798069562477 0 59.02798069562477 -335.28226033148917 0 0 0 0 -358.64879343016946 -63.954884705920335 0 -63.954884705920335 -186.86288087693708 0 0 0 0 -198.0299095865048 65.191352949795714 0 65.191352949795714 -370.69629387589123 0 0 0 0 -257.2601011050574 -63.048476608615545 0 -63.048476608615545 -336.13994171834679 0 0 0 0 -352.00746696790156 26.308256021519529 0 26.308256021519529 -369.69930375628849 0 0 0 0 -529.48602500965353 -255.44666665535428 0 -255.44666665535428 -623.84939185434246 0 0 0 0 -650.71139859882533 95.805696250424916 0 95.805696250424916 -216.82943458588716 0 0 0 0 -330.75419367929862 -154.77486435759158 0 -154.77486435759158 -406.76567583300749 0 0 0 0 -297.07089838064712 -41.682172453092477 0 -41.682172453092477 -163.41850035565517 0 0 0 0 -280.30460105271777 -49.385004397848576 0 -49.385004397848576 -223.33343582508877 0 0 0 0 -148.21810133902181 -26.45377403206453 0 -26.45377403206453 -221.80833440100992 0 0 0 0 -417.71288083407853 387.00028020810646 0 387.00028020810646 -55.755051769900774 0 0 0 0 -1130.9671732524876 -194.32318729812721 0 -194.32318729812721 -111.543737241504 0 0 0 0 -950.82435042057477 -59.150494775300473 0 -59.150494775300473 -66.972016098832796 0 0 0 0 -8.4648629486598992 2.8879629566632019 0 2.8879629566632019 -1.4619971820459159 0 0 0 0 11.761217602003114 3.2883145613255138 0 3.2883145613255138 -10.269093878076847 0 0 0 0 -14.391984695337413 3.0656760964549452 0 3.0656760964549452 -3.8425862157403361 0 0 0 0 -82.443275966727356 -30.070674557352788 0 -30.070674557352788 -50.429718104116546 0 0 0 0 -26.399564430246912 18.541552977518588 0 18.541552977518588 -15.366517076909842 0 0 0 0 113.86052733687757 -0.51372510716055331 0 -0.51372510716055331 -22.14323229888987 0 0 0 0 -5.8145143343645032 66.366665613357782 0 66.366665613357782 144.86198145569421 0 0 0 0 -130.75374901085161 11.201900883909275 0 11.201900883909275 264.54741603121602 0 0 0 0 -139.20583199487737 -69.898485543143124 0 -69.898485543143124 116.75719993394523 0 0 0 0 -11.747537269961086 -3.2734582430607873 0 -3.2734582430607873 8.7928263077692606 0 0 0 0 -40.958329368142586 188.5958097889893 0 188.5958097889893 380.45389060368825 0 0 0 0 -28.515302380750654 60.458123128482839 0 60.458123128482839 -18.542001147505289 0 0 0 0 29.189611412837621 99.665625199522538 0 99.665625199522538 22.971620144552162 0 0 0 0 -16.870306761622487 -56.697287275889039 0 -56.697287275889039 185.71573216197567 0 0 0 0 -72.737981037425925 -52.518217068787862 0 -52.518217068787862 128.08432900214211 0 0 0 0 -22.303287084305339 -2.5197076967879184 0 -2.5197076967879184 -115.24476864448246 0 0 0 0 -62.657803344327753 19.06840473402416 0 19.06840473402416 -2.0169593832124963 0 0 0 0 -79.172228274237568 29.346247535461771 0 29.346247535461771 -15.566868940803033 0 0 0 0 -121.3562222685805 -20.032686262508378 0 -20.032686262508378 69.842725078106014 0 0 0 0 -91.157716579036787 -3.6228123016362588 0 -3.6228123016362588 221.96045944885805 0 0 0 0 -83.295552004314686 60.027530865459511 0 60.027530865459511 99.456009314327275 0 0 0 0 -138.46002333818615 20.116043192893812 0 20.116043192893812 108.29431555737369 0 0 0 0 -151.37572993243521 8.6868819694550439 0 8.6868819694550439 64.043115363866605 0 0 0 0 -161.81944420203445 93.958243955546436 0 93.958243955546436 49.011468364726625 0 0 0 0 -81.67098505132995 17.322654631319676 0 17.322654631319676 0.69319758666813713 0 0 0 0 -173.05540044357986 48.727744986540642 0 48.727744986540642 205.83752959251683 0 0 0 0 21.648108752563985 105.9181372195244 0 105.9181372195244 -50.336289632550688 0 0 0 0 -196.33595584657087 96.887241916952007 0 96.887241916952007 97.59027894239216 0 0 0 0 -129.92787068127291 26.299366919593467 0 26.299366919593467 59.933863968340347 0 0 0 0 -0.63195089787332481 -2.1313934824975007 0 -2.1313934824975007 1.8564514237077105 0 0 0 0 -198.39020231638642 81.421612798605111 0 81.421612798605111 21.973933329707506 0 0 0 0 -9.3853901534748516 -1.8116611942024363 0 -1.8116611942024363 4.7984757358164281 0 0 0 0 29.286985388156609 20.090267706478471 0 20.090267706478471 -105.07551150390464 0 0 0 0 -215.47027028216871 51.377817303035954 0 51.377817303035954 26.776892247739852 0 0 0 0 24.004728451542178 54.484473524495115 0 54.484473524495115 15.432898449917502 0 0 0 0 -16.470438649059361 29.944388697446357 0 29.944388697446357 32.340320835769717 0 0 0 0 -2.1103342231272109 96.724682152561172 0 96.724682152561172 60.65594533973308 0 0 0 0 154.28324926024379 99.761003634342728 0 99.761003634342728 20.413530252086275 0 0 0 0 1.0364758070172684 121.12231934331794 0 121.12231934331794 104.90424639106095 0 0 0 0 -38.467868932173587 33.307345716229065 0 33.307345716229065 -17.104800382467829 0 0 0 0 -68.613949168026011 32.472960061634694 0 32.472960061634694 22.565129257776789 0 0 0 0 -75.496235237167639 44.374466363906777 0 44.374466363906777 58.220558653110857 0 0 0 0 -43.763863456046238 73.609721934143181 0 73.609721934143181 66.857399779732077 0 0 0 0 -38.412442072582053 47.99111076209465 0 47.99111076209465 68.4801274452158 0 0 0 0 -19.88321895712761 58.114628616896425 0 58.114628616896425 21.570733916338213 0 0 0 0 -33.79159551992052 55.880505951772648 0 55.880505951772648 51.572406968508176 0 0 0 0 27.315957868217083 81.473306718310596 0 81.473306718310596 55.747155347915168 0 0 0 0 15.154453486815328 49.237210766221324 0 49.237210766221324 80.350622371890495 0 0 0 0 11.676224345173978 11.603023009381559 0 11.603023009381559 -3.6521070212329505 0 0 0 0 -21.682250957084761 14.994395499988968 0 14.994395499988968 -54.076569673543418 0 0 0 0 -57.992041928988328 28.653001088447127 0 28.653001088447127 -6.9192379560990958 0 0 0 0 -61.181426995259244 15.876289996376045 0 15.876289996376045 6.2652430054886281 0 0 0 0 -60.692815492996374 4.4061163762867714 0 4.4061163762867714 5.9690561213669397 0 0 0 0 -88.79951765433816 22.43808026787201 0 22.43808026787201 40.876391753927379 0 0 0 0 -23.451491532729221 8.1025540067457005 0 8.1025540067457005 1.7829919085546404 0 0 0 0 -98.289063977329079 -20.231326472826595 0 -20.231326472826595 234.94535305499176 0 0 0 0 -100.31794445194836 8.0874458365097954 0 8.0874458365097954 3.8053850020455222 0 0 0 0 -138.68545367164188 86.9262415529397 0 86.9262415529397 114.25647058261347 0 0 0 0 -161.37750040497031 31.588878785261386 0 31.588878785261386 218.19365635848271 0 0 0 0 -117.8205904280112 2.1216019730120479 0 2.1216019730120479 11.380071890931504 0 0 0 0 -45.020003154666867 -3.8407096042995619 0 -3.8407096042995619 11.690292500164443 0 0 0 0 -125.55142069406429 9.1892027374331633 0 9.1892027374331633 13.474024643729763 0 0 0 0 -38.100378824716742 25.610099306585077 0 25.610099306585077 0.52976404958057355 0 0 0 0 -193.38013333408162 45.265748882561184 0 45.265748882561184 18.788317082919548 0 0 0 0 -148.88670692870437 92.841497726731404 0 92.841497726731404 19.369265069465769 0 0 0 0 -252.39887748861656 -8.5264421320498514 0 -8.5264421320498514 73.685520920253282 0 0 0 0 -169.44227096077475 44.271574147663841 0 44.271574147663841 53.970641504949526 0 0 0 0 -100.77083636647174 20.90832039606893 0 20.90832039606893 4.4350445463683812 0 0 0 0 -181.52208444826101 75.52351191473474 0 75.52351191473474 77.249135337245434 0 0 0 0 -18.691926929737974 101.01547475535051 0 101.01547475535051 117.31258806352525 0 0 0 0 -269.31909081624917 2.2433738590900703 0 2.2433738590900703 67.385068337342091 0 0 0 0 -20.502363991589412 -2.2066760717313088 0 -2.2066760717313088 21.394244714178178 0 0 0 0 -271.75754998885623 -41.212681809605328 0 -41.212681809605328 -4.711676723311939 0 0 0 0 -316.35247853997862 23.649811062607114 0 23.649811062607114 82.470576529275149 0 0 0 0 -569.28716950710441 -211.07609825551572 0 -211.07609825551572 11.278469636219597 0 0 0 0 -413.70724080666059 166.97023058019522 0 166.97023058019522 -11.401524094540946 0 0 0 0 405.23527698066482 269.58543530742395 0 269.58543530742395 -25.815952446529081 0 0 0 0 -360.67258317448886 -61.060262435444884 0 -61.060262435444884 26.407456798212024 0 0 0 0 2.7116560182626186 -2.8603528729067227 0 -2.8603528729067227 5.7195014759252434 0 0 0 0 89.714703848116642 319.57487812093882 0 319.57487812093882 173.06513008546108 0 0 0 0 169.72649795684765 52.937848188648786 0 52.937848188648786 11.806418532785756 0 0 0 0 -470.56513105557684 -113.19055552007154 0 -113.19055552007154 86.133314788477946 0 0 0 0 -248.36924030485898 110.88177021691718 0 110.88177021691718 183.8588124169919 0 0 0 0 -191.81667156578806 -50.001494441785098 0 -50.001494441785098 -148.29635522303738 0 0 0 0 -133.81890573553392 156.65985741989516 0 156.65985741989516 95.522606403145801 0 0 0 0 -165.51265971945452 86.975100687990107 0 86.975100687990107 214.52171551302945 0 0 0 0 -303.46443725653899 232.5024627693922 0 232.5024627693922 65.237119329907728 0 0 0 0 -366.6708187590296 -217.66424269692001 0 -217.66424269692001 104.35772286964857 0 0 0 0 -479.29693676891293 -55.058874025952264 0 -55.058874025952264 86.305901473198901 0 0 0 0 -202.70124663617844 107.64976384655483 0 107.64976384655483 166.03853173099878 0 0 0 0 23.810925199447865 0.91123789144103284 0 0.91123789144103284 -13.119493996212896 0 0 0 0 -3.4791543695978664 0.48327267412990516 0 0.48327267412990516 -0.4737812940136461 0 0 0 0 21.288515006298326 -41.292023152293666 0 -41.292023152293666 13.898358425654806 0 0 0 0 -18.20536386658523 -42.640545012951179 0 -42.640545012951179 101.02678702440357 0 0 0 0 -10.477641688798471 -0.92212902193349411 0 -0.92212902193349411 5.6563089078141129 0 0 0 0 -60.183143872642177 -55.222807860866396 0 -55.222807860866396 -6.5051228049655947 0 0 0 0 -62.980272858119861 -33.925352422322248 0 -33.925352422322248 19.831478962838446 0 0 0 0 -32.593805234031208 -7.1788580472063614 0 -7.1788580472063614 17.910061487124494 0 0 0 0 -121.44654355505645 -216.04096773671336 0 -216.04096773671336 -281.15229574092564 0 0 0 0 -58.351672358983024 -64.479036760065242 0 -64.479036760065242 38.142126740681306 0 0 0 0 -170.11687702316976 -93.625090569003078 0 -93.625090569003078 48.351891427937517 0 0 0 0 -115.63897625547725 -34.386145205788807 0 -34.386145205788807 112.76499831171577 0 0 0 0 -94.781703926630527 7.2469812205982347 0 7.2469812205982347 3.461397380884836 0 0 0 0 -101.54855277769093 0.71642187178076711 0 0.71642187178076711 44.932185632102801 0 0 0 0 -48.455211932679958 -19.377290675602126 0 -19.377290675602126 14.318521813738016 0 0 0 0 -17.364075339949977 3.1062642674232919 0 3.1062642674232919 0.1710469372688701 0 0 0 0 -125.34678536411593 18.871211716380913 0 18.871211716380913 10.622804800685394 0 0 0 0 -116.70624496062737 6.937965167312143 0 6.937965167312143 26.782598139279571 0 0 0 0 -14.555534528611354 1.3215126760695668 0 1.3215126760695668 1.7786272295921712 0 0 0 0 -76.785988529789392 7.4455691792030052 0 7.4455691792030052 4.5434510193922506 0 0 0 0 -26.434719252557667 18.103615335668835 0 18.103615335668835 2.9806798043845415 0 0 0 0 -90.139649681703304 23.489371145239943 0 23.489371145239943 -11.818943957574447 0 0 0 0 -103.2413464278834 4.4471651295335732 0 4.4471651295335732 15.662738274678759 0 0 0 0 -61.713659419034229 1.4954977738423167 0 1.4954977738423167 14.15358831688696 0 0 0 0 -55.186833584913735 0.99328909295332668 0 0.99328909295332668 1.982809265468721 0 0 0 0 -86.488241047989504 7.7784434203244928 0 7.7784434203244928 11.423287198432263 0 0 0 0 -13.790575788525878 -0.91854243933957491 0 -0.91854243933957491 3.7549737995142678 0 0 0 0 -33.745861283336126 24.03565029603169 0 24.03565029603169 6.3046557793192477 0 0 0 0 -48.885049602089566 17.604885453751535 0 17.604885453751535 16.620089431976794 0 0 0 0 -17.490714828396634 24.060884505533188 0 24.060884505533188 8.7229753198612574 0 0 0 0 -34.263064437152707 10.40310042837768 0 10.40310042837768 11.211073635559131 0 0 0 0 46.19121342082326 42.384146085659722 0 42.384146085659722 -13.253291147018899 0 0 0 0 -27.127983066086017 25.520936313785569 0 25.520936313785569 9.4971432858505409 0 0 0 0 -13.879965695178685 18.284162183896662 0 18.284162183896662 3.7346702268590342 0 0 0 0 -14.698818352855596 6.9112780435057175 0 6.9112780435057175 2.821961334646403 0 0 0 0 14.18933357026981 -1.4430235625143268 0 -1.4430235625143268 -3.2628706444793352 0 0 0 0 -19.596364039190583 9.5009207340033335 0 9.5009207340033335 7.0694690725738498 0 0 0 0 -20.553607542303087 13.127915758049868 0 13.127915758049868 3.6925303073733495 0 0 0 0 -53.420951562467963 10.329792419233172 0 10.329792419233172 15.922213708481223 0 0 0 0 -32.053339581300406 15.066812999469676 0 15.066812999469676 -0.61164743504014041 0 0 0 0 -8.5698086463426684 1.0553507457165647 0 1.0553507457165647 3.3198510072399046 0 0 0 0 -29.226707429417729 5.6939378884962935 0 5.6939378884962935 7.8107318769316407 0 0 0 0 -16.982088818039493 12.534164168558627 0 12.534164168558627 2.6869887916763409 0 0 0 0 -62.889736024219019 3.0592288665302476 0 3.0592288665302476 16.526771241688721 0 0 0 0 -62.512093460227334 3.3175362464726277 0 3.3175362464726277 15.938851757877956 0 0 0 0 -49.445134823827175 -0.29089689934698981 0 -0.29089689934698981 28.768143008660445 0 0 0 0 -52.494354894455306 0.18260326629246748 0 0.18260326629246748 9.9901976203073684 0 0 0 0 -76.798828619341577 17.886843545390661 0 17.886843545390661 63.81742110983555 0 0 0 0 -3.8733586864566645 8.1691662110839722 0 8.1691662110839722 22.550829456269533 0 0 0 0 -79.81738488231673 26.176506579309489 0 26.176506579309489 51.600069532517182 0 0 0 0 -60.363911434191778 9.5069174140489849 0 9.5069174140489849 27.542609164625219 0 0 0 0 -3.527945871771315 2.3450331781674785 0 2.3450331781674785 0.018379335259835372 0 0 0 0 -10.634370097830697 -28.712279562968206 0 -28.712279562968206 68.973615403754593 0 0 0 0 -60.656681170385582 24.390940792148285 0 24.390940792148285 59.209511034905972 0 0 0 0 -52.516448305119411 -13.932241635211085 0 -13.932241635211085 68.012587770735081 0 0 0 0 -58.297760938609599 8.3711492823907747 0 8.3711492823907747 121.76345620031589 0 0 0 0 -13.766451524600143 73.064390174537721 0 73.064390174537721 84.548673774234658 0 0 0 0 -34.646708162528284 -19.107292683579089 0 -19.107292683579089 107.05513412089658 0 0 0 0 44.981804688298325 35.886680906740366 0 35.886680906740366 17.445058175251688 0 0 0 0 -72.952894816539356 73.945414025352648 0 73.945414025352648 145.34242427268055 0 0 0 0 -85.374884014886447 43.937950141118108 0 43.937950141118108 73.641948315521404 0 0 0 0 -130.06155853519249 47.48002653583967 0 47.48002653583967 109.77265613857571 0 0 0 0 -129.28889260145206 61.36779557056002 0 61.36779557056002 47.513694257439511 0 0 0 0 -171.3729882827447 77.969346173396389 0 77.969346173396389 100.75617761693229 0 0 0 0 -113.5872591841171 92.589411451441947 0 92.589411451441947 99.862242867482564 0 0 0 0 -182.07343611481883 49.886122732301828 0 49.886122732301828 50.518830171546142 0 0 0 0 -136.7711927730852 57.975449411717818 0 57.975449411717818 21.915497007267732 0 0 0 0 -161.09982670994805 39.723814373001687 0 39.723814373001687 22.248700068072139 0 0 0 0 -163.58252694592557 -0.90073601057338237 0 -0.90073601057338237 31.626508892846687 0 0 0 0 -173.20569406215418 19.048665869308252 0 19.048665869308252 5.611355736373298 0 0 0 0 -146.89225518427338 33.597353591753745 0 33.597353591753745 4.2051857705955626 0 0 0 0 -5.2377832726551787 24.177400861309252 0 24.177400861309252 -35.599385421396619 0 0 0 0 -41.169732001620105 -5.0692059316106679 0 -5.0692059316106679 -0.28303828206890103 0 0 0 0 -0.11125700517875714 1.4685289034896307 0 1.4685289034896307 0.0076135645092438864 0 0 0 0 -150.95296350378521 50.755176785337426 0 50.755176785337426 83.734038837174012 0 0 0 0 -412.27497809976012 -104.21383849700146 0 -104.21383849700146 -593.46367458697807 0 0 0 0 -322.77738567005144 -394.50778852494341 0 -394.50778852494341 -232.31085238310845 0 0 0 0 -1049.3568426758175 172.20409923140278 0 172.20409923140278 -206.76203301823898 0 0 0 0 -330.03714628269881 130.91052683073212 0 130.91052683073212 173.38736038695606 0 0 0 0 -82.616933198778497 90.073285379903211 0 90.073285379903211 24.194713585738327 0 0 0 0 -225.33986638742272 -420.928166651411 0 -420.928166651411 134.07058133807067 0 0 0 0 1.0606272559150909 3.9038740867157493 0 3.9038740867157493 4.4249344152803189 0 0 0 0 762.81545452015371 98.736134388774644 0 98.736134388774644 -296.12804931914798 0 0 0 0 223.16691659538265 -76.285552043913412 0 -76.285552043913412 56.396362685476561 0 0 0 0 67.676354811577767 202.43502418312437 0 202.43502418312437 -70.895640311248428 0 0 0 0 242.63447128313783 539.0519636382478 0 539.0519636382478 -164.42688995482217 0 0 0 0 -93.601273134751864 15.950516862437325 0 15.950516862437325 -67.124879224977121 0 0 0 0 -660.42982401939935 -265.76864082313887 0 -265.76864082313887 -235.23444752417527 0 0 0 0 -456.19982842413629 133.30302427783954 0 133.30302427783954 36.245572917161553 0 0 0 0 -243.69369311520768 -17.049770158039337 0 -17.049770158039337 -48.176782911425107 0 0 0 0 -482.52324494921777 -179.62036042808495 0 -179.62036042808495 -234.09635770470049 0 0 0 0 -168.88133951095915 240.85110591320517 0 240.85110591320517 79.861684600678927 0 0 0 0 -245.67470057435457 -122.85224166111857 0 -122.85224166111857 -106.77753148094234 0 0 0 0 7.2068735228094738 191.83449304201258 0 191.83449304201258 -109.70365403315918 0 0 0 0 106.8688762274212 156.66380066033253 0 156.66380066033253 23.718705119008519 0 0 0 0 7.867450556640236 166.58901465494654 0 166.58901465494654 96.091776181872774 0 0 0 0 -26.343910029622634 105.37849081747686 0 105.37849081747686 19.619345207687729 0 0 0 0 -81.249575407502562 7.2593011454864609 0 7.2593011454864609 52.466124712133023 0 0 0 0 -24.010914759284788 125.12124910646799 0 125.12124910646799 166.49559871026213 0 0 0 0 -166.01487737558637 -41.771655126851329 0 -41.771655126851329 518.19032683909427 0 0 0 0 -7.0823292795175803 47.791363173950231 0 47.791363173950231 98.613391483531814 0 0 0 0 -44.9034988121266 87.669269022330809 0 87.669269022330809 -62.34856744262288 0 0 0 0 -126.41395126497446 -2.6237023243520525 0 -2.6237023243520525 41.753142764364384 0 0 0 0 -1.1464870350680432 5.0590412122978776 0 5.0590412122978776 1.6898713558181728 0 0 0 0 3.6179140945891959 -0.63156808316034585 0 -0.63156808316034585 9.4806436784565449 0 0 0 0 -179.20580657208757 -5.3757776050424582 0 -5.3757776050424582 -51.542003239750102 0 0 0 0 2.9479830353816125 7.5129370508147133 0 7.5129370508147133 16.204916532208976 0 0 0 0 -193.11394112389098 18.162082161946273 0 18.162082161946273 40.489035428731313 0 0 0 0 -203.28085052288179 52.039477606501919 0 52.039477606501919 18.808716889881907 0 0 0 0 -166.03129650413666 83.123976630477046 0 83.123976630477046 -11.946708257777573 0 0 0 0 -209.51466355929051 27.789524929469508 0 27.789524929469508 42.689729029350929 0 0 0 0 -136.54002624866825 25.383618362121524 0 25.383618362121524 18.233169953811739 0 0 0 0 -132.10585375175106 53.111881882065063 0 53.111881882065063 39.290663179219337 0 0 0 0 -63.52228031361301 12.341415815960318 0 12.341415815960318 11.546422800088521 0 0 0 0 -135.5710839801005 40.492800399872351 0 40.492800399872351 65.951450599774034 0 0 0 0 -29.380232870543129 20.769030274372938 0 20.769030274372938 10.828192614405973 0 0 0 0 25.718546778353812 68.678140993506531 0 68.678140993506531 -60.869285933718857 0 0 0 0 -28.539187799073261 1.447844555271331 0 1.447844555271331 0.68166725624905666 0 0 0 0 -44.577587912081981 11.850674327553861 0 11.850674327553861 21.140693074552473 0 0 0 0 -47.913858463787619 11.892834120683915 0 11.892834120683915 17.117966552904136 0 0 0 0 -33.523621958195797 21.918005051925572 0 21.918005051925572 10.31354526411214 0 0 0 0 -24.105869452983413 13.022877164048019 0 13.022877164048019 12.29858861256524 0 0 0 0 -51.405112370186544 8.1391334698855644 0 8.1391334698855644 8.2467111519181344 0 0 0 0 -99.595304525592837 57.906916142947011 0 57.906916142947011 40.103355442522115 0 0 0 0 -57.387443938206488 13.571836484058114 0 13.571836484058114 12.458350151124609 0 0 0 0 -116.90965524995818 17.912613582001086 0 17.912613582001086 135.28040924500965 0 0 0 0 -16.507309296413744 9.5208395435069839 0 9.5208395435069839 29.803845127412316 0 0 0 0 -169.76046800254153 30.4705307355689 0 30.4705307355689 46.145598745853931 0 0 0 0 -129.06963306967691 -32.227995475621128 0 -32.227995475621128 37.663983392223599 0 0 0 0 -175.90890522539758 21.471193915600452 0 21.471193915600452 40.996040541951515 0 0 0 0 -145.8275958079721 -1.8670055517604851 0 -1.8670055517604851 0.93698407325427979 0 0 0 0 -50.775432644792964 25.361328904284136 0 25.361328904284136 9.9938375944239901 0 0 0 0 -118.19538505382297 31.574384592036949 0 31.574384592036949 2.9197644643791136 0 0 0 0 -51.606099894368526 12.368505158056905 0 12.368505158056905 20.1421243362729 0 0 0 0 -145.232623017062 46.623306613520981 0 46.623306613520981 19.97288613321507 0 0 0 0 -18.572376857443381 3.2421797140238544 0 3.2421797140238544 11.375282850588416 0 0 0 0 -139.12394909428986 32.555768471829651 0 32.555768471829651 20.726317146476276 0 0 0 0 -150.4472108501277 13.138114163249156 0 13.138114163249156 10.772147837342345 0 0 0 0 -117.94784473545951 17.477318963734433 0 17.477318963734433 -5.803680838085711 0 0 0 0 -108.80714814494331 -24.226481747287323 0 -24.226481747287323 -11.650969093124331 0 0 0 0 -57.148147391631916 17.559353947631742 0 17.559353947631742 9.8185762618485857 0 0 0 0 -46.801111382956151 14.718723413672706 0 14.718723413672706 15.649728587119171 0 0 0 0 -101.60054835406481 -71.267765342768826 0 -71.267765342768826 -2.9724958474366758 0 0 0 0 -103.87231139471987 -27.111146574869053 0 -27.111146574869053 -58.536656786340245 0 0 0 0 -117.90175827532221 14.201317094739352 0 14.201317094739352 5.8714003122149734 0 0 0 0 -35.761408825841499 -2.880120085170347 0 -2.880120085170347 6.1759319327647972 0 0 0 0 -78.502723261993779 -0.21981898130899147 0 -0.21981898130899147 31.180990923259802 0 0 0 0 -38.614229465695814 6.6423200741918293 0 6.6423200741918293 6.1585325002507219 0 0 0 0 -26.381484182095846 -9.3187629663459575 0 -9.3187629663459575 25.911502702696453 0 0 0 0 -92.737604037990465 -4.3112700553505903 0 -4.3112700553505903 26.587263319761171 0 0 0 0 -71.012039549390337 13.134528219580101 0 13.134528219580101 37.310299327611574 0 0 0 0 -119.1079848696063 3.1886287174493191 0 3.1886287174493191 -14.742873245530063 0 0 0 0 -41.513373259687796 0.63488858713390073 0 0.63488858713390073 25.818565567584301 0 0 0 0 -33.318563794755676 -7.5031108095538173 0 -7.5031108095538173 8.108022918676042 0 0 0 0 -45.034213147009723 -10.972145800162252 0 -10.972145800162252 10.382549520356406 0 0 0 0 -39.479701215557753 -28.535539518491149 0 -28.535539518491149 -6.9248372238588622 0 0 0 0 -25.737537048888044 -2.8074984633594795 0 -2.8074984633594795 -17.638025325868512 0 0 0 0 -47.81358526009717 12.612831809827185 0 12.612831809827185 -14.15323460516629 0 0 0 0 -52.261834814256872 34.168149984809133 0 34.168149984809133 -18.836827682331204 0 0 0 0 -72.260617007389556 33.897893034858043 0 33.897893034858043 -14.609888695994414 0 0 0 0 -38.737086099077715 8.6259395572405992 0 8.6259395572405992 -12.968510225042792 0 0 0 0 -27.400980348736681 3.4167763746212501 0 3.4167763746212501 18.173843201301452 0 0 0 0 -72.915015595459408 18.975316343878035 0 18.975316343878035 16.082509274346279 0 0 0 0 -68.911303218192188 26.463557515155117 0 26.463557515155117 -8.245109898974988 0 0 0 0 -43.151811028845259 22.953033053846411 0 22.953033053846411 -14.695890956040785 0 0 0 0 -76.763851946612704 -1.3162144512261875 0 -1.3162144512261875 3.1939808188326424 0 0 0 0 -73.2457171343558 36.519483597627186 0 36.519483597627186 -9.1378871981432894 0 0 0 0 -37.478518737598463 22.183728231188155 0 22.183728231188155 3.6542328930249433 0 0 0 0 -47.214556656210334 -35.050081916524505 0 -35.050081916524505 8.4429511151902261 0 0 0 0 -5.5153317847896517 6.3248710811181148 0 6.3248710811181148 2.9256610962087706 0 0 0 0 -74.167256143871782 4.9641333791714715 0 4.9641333791714715 0.088590907264915586 0 0 0 0 -28.254836367852292 -12.74460495323487 0 -12.74460495323487 -5.5633879415482994 0 0 0 0 -25.658265817335632 -7.8400509918064927 0 -7.8400509918064927 25.219298328500372 0 0 0 0 -104.71339416451156 31.346951172054105 0 31.346951172054105 149.58248128855485 0 0 0 0 -43.975082085404296 -12.76790180467512 0 -12.76790180467512 0.77580020252630533 0 0 0 0 -34.668953275053354 67.344346741414483 0 67.344346741414483 129.27342165660593 0 0 0 0 -57.952528190119494 3.2170229309295237 0 3.2170229309295237 24.941745792039228 0 0 0 0 -16.901506134105148 20.302673892116218 0 20.302673892116218 25.048210760131326 0 0 0 0 -11.841689669014158 14.399780962659861 0 14.399780962659861 -21.150477989527644 0 0 0 0 -37.465216747195882 -26.605212785338153 0 -26.605212785338153 -4.4332348200478009 0 0 0 0 -337.13603923624032 246.31217097103945 0 246.31217097103945 -99.322652849835322 0 0 0 0 -46.701383849711064 3.4516197700820257 0 3.4516197700820257 26.313331275090185 0 0 0 0 -41.713889179940452 43.177755991165213 0 43.177755991165213 -65.066217624243109 0 0 0 0 -46.491905708966897 47.162952951948455 0 47.162952951948455 55.142066513890313 0 0 0 0 -73.920692180829064 -109.00193721140113 0 -109.00193721140113 6.6341724280155177 0 0 0 0 -74.87017622932035 -157.7305588869167 0 -157.7305588869167 99.467740918485106 0 0 0 0 -7.3156005720375106 32.397981953423368 0 32.397981953423368 -270.12167908929678 0 0 0 0 -1.955966768707853 -0.55984090719742596 0 -0.55984090719742596 1.6815391013164316 0 0 0 0 132.27962694534654 -118.61215226521745 0 -118.61215226521745 -167.23087534593651 0 0 0 0 -1.7497308765249215 1.7712945281176005 0 1.7712945281176005 -2.1434156805386344 0 0 0 0 -16.67383090731164 -2.4641861711952515 0 -2.4641861711952515 86.488782609743794 0 0 0 0 -353.41817407114286 -5.1986952828779067 0 -5.1986952828779067 44.019668914010254 0 0 0 0 -363.28637407268252 110.01265181505278 0 110.01265181505278 -34.270592625308382 0 0 0 0 42.651763205263705 -120.38909005574169 0 -120.38909005574169 -5.1095582025318436 0 0 0 0 -333.1944541896155 -76.582168967825965 0 -76.582168967825965 156.33218617653893 0 0 0 0 -275.57869330779795 96.592130873960969 0 96.592130873960969 -63.342687838377969 0 0 0 0 75.574280025182816 -57.077356500528822 0 -57.077356500528822 13.701604341727943 0 0 0 0 -59.519184050768672 19.781339363962616 0 19.781339363962616 15.507714302033492 0 0 0 0 -39.493881568399956 19.336108759832314 0 19.336108759832314 2.5715178208520229 0 0 0 0 -42.88662578606818 23.85875218955232 0 23.85875218955232 -17.611885156331482 0 0 0 0 -41.066097870345402 15.901687617881635 0 15.901687617881635 -4.8374519982462516 0 0 0 0 -4.4528121292063148 -1.599412051305336 0 -1.599412051305336 -3.1174393371822902 0 0 0 0 -229.13630315189948 110.32995742266712 0 110.32995742266712 -1.5017503552080598 0 0 0 0 -5.8921542081357501 -11.37530174528154 0 -11.37530174528154 5.218912850183969 0 0 0 0 -31.499599815062538 15.173749933772342 0 15.173749933772342 -9.392631830092796 0 0 0 0 -28.133856083451974 3.15652916052602 0 3.15652916052602 -10.744609571510409 0 0 0 0 -24.671146261011017 -2.1137135503449827 0 -2.1137135503449827 -2.9796726221338758 0 0 0 0 -32.411946417472791 11.392552384666487 0 11.392552384666487 -4.4253459663304966 0 0 0 0 -5.639692806347739 -11.524805628130707 0 -11.524805628130707 1.378140971754874 0 0 0 0 -28.734411684374209 20.929966822512142 0 20.929966822512142 1.4364827851477457 0 0 0 0 -13.445363082239055 15.855541936300142 0 15.855541936300142 -4.1744783417111648 0 0 0 0 -59.492346611921676 48.120983804040407 0 48.120983804040407 86.384806188160383 0 0 0 0 11.823652945560752 18.385586261469371 0 18.385586261469371 1.2894091665565384 0 0 0 0 -19.513550833199659 2.0979536964552139 0 2.0979536964552139 10.080085439889375 0 0 0 0 9.3139598733760067 -13.552787452649682 0 -13.552787452649682 1.4675844922544314 0 0 0 0 -341.73911964850413 -68.293319843696281 0 -68.293319843696281 207.89790985731599 0 0 0 0 -2.2258661581399792 49.223817513034305 0 49.223817513034305 -20.581720853690058 0 0 0 0 76.121562753178296 -51.249232241329082 0 -51.249232241329082 17.099975570994502 0 0 0 0 -53.023096529295799 9.1745786130453553 0 9.1745786130453553 6.5558492974796536 0 0 0 0 -29.694302125281183 11.334939273133699 0 11.334939273133699 13.303839200893922 0 0 0 0 -46.909555759601062 28.485642136561836 0 28.485642136561836 49.052356610473907 0 0 0 0 -57.560813821153715 6.1913218490876716 0 6.1913218490876716 28.174931035167845 0 0 0 0 -47.072941144186188 2.6228571367819313 0 2.6228571367819313 -0.34232411005632457 0 0 0 0 -57.790853153281205 32.215895186572197 0 32.215895186572197 -16.002068409708954 0 0 0 0 -21.740960106404515 -6.4084964317365589 0 -6.4084964317365589 12.504124012646804 0 0 0 0 -102.24235943854001 59.321824362268387 0 59.321824362268387 -0.71387984112709546 0 0 0 0 -84.301196290783992 14.957192307297362 0 14.957192307297362 -17.04509819986788 0 0 0 0 -42.241115372555498 -4.6163750995928368 0 -4.6163750995928368 8.2249598595730511 0 0 0 0 -48.417182085495 4.5781186120154818 0 4.5781186120154818 0.20664578199183328 0 0 0 0 -55.923959312069201 20.086694368259643 0 20.086694368259643 13.116272850666064 0 0 0 0 -178.92258498743831 48.023606391440936 0 48.023606391440936 -27.062322130332802 0 0 0 0 -100.58892958441294 1.1715968841510698 0 1.1715968841510698 3.5736295612919449 0 0 0 0 -140.66889425192858 6.5176822545236917 0 6.5176822545236917 -60.986784994732488 0 0 0 0 -153.7429516488919 -272.7526338102623 0 -272.7526338102623 -64.939150743708751 0 0 0 0 -168.65943583167063 1.5262261895335598 0 1.5262261895335598 -3.7238395392080861 0 0 0 0 -128.54541220006649 3.4534364183964499 0 3.4534364183964499 -4.5044494217974886 0 0 0 0 -140.71150698860379 18.144821294330228 0 18.144821294330228 36.562513408769973 0 0 0 0 -136.82614852140614 -8.8440213782706643 0 -8.8440213782706643 16.116590802801852 0 0 0 0 -125.56750880346954 2.1870665483978655 0 2.1870665483978655 24.817035314704071 0 0 0 0 -105.2862556883847 -0.17486136720879131 0 -0.17486136720879131 23.905713186875801 0 0 0 0 -119.52099536631067 -6.0638718830845164 0 -6.0638718830845164 26.750120758748153 0 0 0 0 -115.46578594933089 27.979072131665134 0 27.979072131665134 31.876831049229736 0 0 0 0 -114.40137249152031 25.959038908704514 0 25.959038908704514 26.746981092778697 0 0 0 0 1.0174774182072497 -0.41594361471413777 0 -0.41594361471413777 0.66993061052134095 0 0 0 0 -134.80449871445671 49.216392667057448 0 49.216392667057448 17.314646348058602 0 0 0 0 -44.216907946673018 -9.6125736176889518 0 -9.6125736176889518 19.847106244001679 0 0 0 0 -52.440099506580736 3.1930679813902998 0 3.1930679813902998 1.0561386604863401 0 0 0 0 -67.583933197252918 -0.6359356428397831 0 -0.6359356428397831 38.251436197057387 0 0 0 0 -1615.9456496423663 398.87330479373338 0 398.87330479373338 108.20430355153673 0 0 0 0 -2500.1052399170439 649.04168625405862 0 649.04168625405862 469.9940948217864 0 0 0 0 -1691.1901325237632 278.00737212096226 0 278.00737212096226 354.2297272316934 0 0 0 0 -1935.4185248846261 239.62741191627174 0 239.62741191627174 365.93207385808432 0 0 0 0 -1717.6517427474828 -68.706772925762891 0 -68.706772925762891 55.235563871750941 0 0 0 0 -1184.7828896217397 -465.20891987470122 0 -465.20891987470122 270.13513336347859 0 0 0 0 -1534.6275394479089 412.7254972782244 0 412.7254972782244 -9.2399008346401388 0 0 0 0 -1841.5513967287116 -532.9027428405002 0 -532.9027428405002 264.00208769744148 0 0 0 0 -12.743510353427752 -5.8553120641680536 0 -5.8553120641680536 -3.8923931626304746 0 0 0 0 -354.67059902379697 170.20285834155561 0 170.20285834155561 5.3196237595257116 0 0 0 0 -1687.6885840257091 -164.23869083625277 0 -164.23869083625277 367.31822636174684 0 0 0 0 -1126.7006691408678 -994.23475867228683 0 -994.23475867228683 -432.59999944907759 0 0 0 0 -1111.0990663479351 179.05783349510384 0 179.05783349510384 56.239334049652598 0 0 0 0 -182.44256199500524 -111.42935497254234 0 -111.42935497254234 -1404.6116210960968 0 0 0 0 -1.8073672034968418 2.4168537227597824 0 2.4168537227597824 -15.270860463074257 0 0 0 0 -751.19374595349655 129.87969878471222 0 129.87969878471222 293.08303383340029 0 0 0 0 -910.0970852317987 -78.984338998322414 0 -78.984338998322414 57.229587592964435 0 0 0 0 -278.28729936128366 -93.49670047811901 0 -93.49670047811901 10.531778633483896 0 0 0 0 -580.82331447670003 423.80951072067825 0 423.80951072067825 14.231638214390046 0 0 0 0 -191.78110104445659 -79.655330558969865 0 -79.655330558969865 -15.720686101088177 0 0 0 0 -847.24302520664787 243.38494598957732 0 243.38494598957732 158.95862166835764 0 0 0 0 -137.95705099779116 304.64238022531049 0 304.64238022531049 -309.49022013267802 0 0 0 0 -1.2053336943510544 2.5254538952653149 0 2.5254538952653149 -8.0932906891836112 0 0 0 0 424.01644930036855 -297.16601120105759 0 -297.16601120105759 325.85246899678509 0 0 0 0 -130.91511633439222 807.00061132731651 0 807.00061132731651 -258.80842768081453 0 0 0 0 -634.56697067622008 537.2821533351995 0 537.2821533351995 -98.418088307665471 0 0 0 0 -1521.6323136805513 751.84263682518986 0 751.84263682518986 2.1302050789689986 0 0 0 0 -467.31777043597685 110.43893006490774 0 110.43893006490774 118.41024829168748 0 0 0 0 -1533.6426950372625 737.2559339413923 0 737.2559339413923 271.21158666882536 0 0 0 0 -1625.856534116534 1487.8618317651403 0 1487.8618317651403 -712.05116505095896 0 0 0 0 -2495.9291238476508 1168.8516038268247 0 1168.8516038268247 84.047358146049717 0 0 0 0 -15.826426419571987 1.7580818598426871 0 1.7580818598426871 -2.1167878526592565 0 0 0 0 -2466.5666882240475 -994.86325544454633 0 -994.86325544454633 -707.9433944087981 0 0 0 0 -569.49107707646908 948.99518891307707 0 948.99518891307707 -1520.6194634833846 0 0 0 0 83.19366955467558 -95.135430412706228 0 -95.135430412706228 -34.078461863533789 0 0 0 0 -172.41906892499537 88.466848345853876 0 88.466848345853876 -202.14780140331669 0 0 0 0 -6.5497526103983716 -0.97299360824252545 0 -0.97299360824252545 0.39920767630677978 0 0 0 0 -888.37018873592751 3.07968460765664 0 3.07968460765664 67.957322873586591 0 0 0 0 -2492.8215752085143 -1018.4146305399404 0 -1018.4146305399404 -77.212225198251645 0 0 0 0 -625.41591520148359 -18.043259248942359 0 -18.043259248942359 -0.96287473791600697 0 0 0 0 -47.436075471066943 71.892934198931343 0 71.892934198931343 119.90632228921193 0 0 0 0 -264.6167312048492 -274.65359864674832 0 -274.65359864674832 -65.295271308673065 0 0 0 0 -142.60419693920994 -179.26906259659955 0 -179.26906259659955 -166.15923713191907 0 0 0 0 -9.6849251965703047 -0.14410063940286477 0 -0.14410063940286477 0.83424152120330086 0 0 0 0 -584.34809616496204 -249.7522534815991 0 -249.7522534815991 -10.837134519046298 0 0 0 0 -166.08027819562267 -133.77958727995335 0 -133.77958727995335 -245.35236759447145 0 0 0 0 -139.74450999453256 -231.88524461186222 0 -231.88524461186222 -172.9460349196124 0 0 0 0 -172.46081107250589 -244.79987760647032 0 -244.79987760647032 -212.70503477958377 0 0 0 0 -0.23464616339711597 -7.3262181030864966 0 -7.3262181030864966 2.6035148961597976 0 0 0 0 -89.151979998816387 -88.65144825429104 0 -88.65144825429104 134.36813040018387 0 0 0 0 -129.45736966767436 -180.86200033727607 0 -180.86200033727607 -350.93154724932469 0 0 0 0 -1278.8815147379792 656.23181814335067 0 656.23181814335067 665.62087660954171 0 0 0 0 -42.051346868630503 1.937546023249336 0 1.937546023249336 1.3248676037589424 0 0 0 0 -31.931999991527363 -1.4063031176532235 0 -1.4063031176532235 3.7285399463786613 0 0 0 0 -10.637233383583919 -0.93331929964743665 0 -0.93331929964743665 1.7268895158554085 0 0 0 0 -81.771728790037741 -64.703344934053405 0 -64.703344934053405 -67.989418992780088 0 0 0 0 -180.73930779522198 -221.928367759651 0 -221.928367759651 538.51180939034271 0 0 0 0 320.33781307686877 392.72662447273467 0 392.72662447273467 -94.07140539522787 0 0 0 0 185.31226364830218 -307.45427799328559 0 -307.45427799328559 111.36701792104898 0 0 0 0 20.667538660316495 20.748462373031657 0 20.748462373031657 12.338840798254687 0 0 0 0 12.346101191404159 -16.076068069208759 0 -16.076068069208759 88.59373598328466 0 0 0 0 70.519027486545383 -228.55060422923589 0 -228.55060422923589 -325.8043042669774 0 0 0 0 4.0884690730308648 -33.859326118350964 0 -33.859326118350964 -2.4636374929577869 0 0 0 0 -165.53878520983562 95.953046177944543 0 95.953046177944543 3.537617415409386 0 0 0 0 -156.38396484307304 -535.89326304019608 0 -535.89326304019608 -715.93488201048217 0 0 0 0 -3.949409049811635 -3.3997763285158262 0 -3.3997763285158262 -0.58641693963159713 0 0 0 0 -84.864050467003835 59.107862053229837 0 59.107862053229837 -81.96838313815752 0 0 0 0 -26.417016552674312 2.1803412905530379 0 2.1803412905530379 3.6822866610856453 0 0 0 0 -143.5033086353651 63.300246218568873 0 63.300246218568873 51.806708475332812 0 0 0 0 -122.24505807308014 77.76442935664889 0 77.76442935664889 98.39602820162591 0 0 0 0 -4.1248032266253745 -0.4172336167963806 0 -0.4172336167963806 0.37774314513779128 0 0 0 0 -261.92225118915667 -143.14852764326369 0 -143.14852764326369 0.3212100658140481 0 0 0 0 -172.05186038891406 -444.97055570286034 0 -444.97055570286034 -511.99769576474642 0 0 0 0 -69.336662506801076 63.637533382853306 0 63.637533382853306 -71.63767385292816 0 0 0 0 -514.85467837320175 -166.35959028333252 0 -166.35959028333252 -31.772945170171617 0 0 0 0 -3.1563877757434966 -74.959815573897117 0 -74.959815573897117 -91.160635476704471 0 0 0 0 -1093.4423194622213 -181.3791246504712 0 -181.3791246504712 0.44810246596282777 0 0 0 0 -667.61878119109315 52.360537428110518 0 52.360537428110518 76.206131193407487 0 0 0 0 -0.67456987612208152 0.63732332222313914 0 0.63732332222313914 0.42263296070084955 0 0 0 0 36.354237543142517 -65.487288214672489 0 -65.487288214672489 -111.10030930533453 0 0 0 0 100.61162511813745 -0.54503310062914068 0 -0.54503310062914068 -54.372653927659996 0 0 0 0 -4.7551015613317524 0.65638581313896793 0 0.65638581313896793 3.0437584628232481 0 0 0 0 -361.99694889812781 312.7239190662973 0 312.7239190662973 -278.67003851847107 0 0 0 0 -4.2752679185553006 0.24067644064879801 0 0.24067644064879801 -0.36297856670134698 0 0 0 0 -1531.041115276661 -169.21264404731858 0 -169.21264404731858 97.387756364786 0 0 0 0 -1149.0716321817599 -496.90118302814932 0 -496.90118302814932 -547.13595841797007 0 0 0 0 -1622.3970854142826 -142.98955703492197 0 -142.98955703492197 -368.68674137257142 0 0 0 0 -1090.226454661218 -121.43062936999888 0 -121.43062936999888 -282.31605768595898 0 0 0 0 -1082.0339724677906 -579.61603073437595 0 -579.61603073437595 -788.35635595321094 0 0 0 0 -1905.6630907954968 -843.10131975068725 0 -843.10131975068725 -373.00302713665246 0 0 0 0 -1814.3050567268947 -798.21226470173156 0 -798.21226470173156 -354.05666966903573 0 0 0 0 -21.074861402365769 -0.85186541981178721 0 -0.85186541981178721 4.6206950313409045 0 0 0 0 -37.47961086550913 148.24679609545686 0 148.24679609545686 57.472684247832717 0 0 0 0 -390.76851049862307 -671.65469125018456 0 -671.65469125018456 -529.69691547534137 0 0 0 0 -30.135646018694388 39.802473338031575 0 39.802473338031575 -205.5255599116548 0 0 0 0 -4.0777448800802887 -1.0908081212238869 0 -1.0908081212238869 -3.5189067840858677 0 0 0 0 -850.8458376476774 -523.34182158961835 0 -523.34182158961835 -488.59120048447096 0 0 0 0 -534.94759986316785 -442.89476668535917 0 -442.89476668535917 -474.9202958322727 0 0 0 0 -929.44047526888244 -271.29380414804126 0 -271.29380414804126 -315.64660021636877 0 0 0 0 -722.78643060575996 -216.45822863154513 0 -216.45822863154513 -373.09168288861122 0 0 0 0 -972.98775815162662 21.200706420575159 0 21.200706420575159 26.378467281539542 0 0 0 0 -948.98692005339763 8.9115266059487794 0 8.9115266059487794 -422.51154524328558 0 0 0 0 -574.08801052815397 -426.72606601454379 0 -426.72606601454379 -135.09733241474169 0 0 0 0 -501.6110906790127 -212.94102197043594 0 -212.94102197043594 -569.66585252593222 0 0 0 0 -2211.1532980340126 123.59242336258831 0 123.59242336258831 582.0354465369619 0 0 0 0 -120.04776569381647 -335.52666793383014 0 -335.52666793383014 69.504775318288921 0 0 0 0 5.5285654599451846 991.20385078027073 0 991.20385078027073 746.82493786109444 0 0 0 0 -834.10839868975745 -10.769049959165159 0 -10.769049959165159 -133.74493271629544 0 0 0 0 0.36640013059363241 -1.9259464068158536 0 -1.9259464068158536 4.555741196424572 0 0 0 0 -386.72895926786077 -258.22818860978919 0 -258.22818860978919 351.08149029370725 0 0 0 0 -320.91778740154041 -496.9908898697704 0 -496.9908898697704 -242.14558595619928 0 0 0 0 -519.13224403912318 -240.72614956679035 0 -240.72614956679035 50.958982203362893 0 0 0 0 -650.46626586953789 -183.99571042037928 0 -183.99571042037928 -422.75118336377182 0 0 0 0 -619.4931243991814 -409.13297348333549 0 -409.13297348333549 -233.58854614755001 0 0 0 0 -543.81098538488732 -674.93975404318212 0 -674.93975404318212 -346.04784670995855 0 0 0 0 -353.80661678475735 -521.86468218715481 0 -521.86468218715481 -223.70214305635454 0 0 0 0 -330.2431819037447 -590.04048377558547 0 -590.04048377558547 -206.6587175356575 0 0 0 0 -223.25989919280983 -411.52983317779837 0 -411.52983317779837 0.93110227833631143 0 0 0 0 -294.75767342389736 -585.72560112862379 0 -585.72560112862379 -273.9327188540675 0 0 0 0 -369.39429521455895 -498.5986544203015 0 -498.5986544203015 -148.16466665925037 0 0 0 0 -90.430547338110046 -408.83974533389301 0 -408.83974533389301 -168.5195928370058 0 0 0 0 -347.00779802448233 -558.09191675089687 0 -558.09191675089687 -196.52579083006322 0 0 0 0 -519.14871158778988 -579.57916728917553 0 -579.57916728917553 -143.34525388816382 0 0 0 0 -301.39324984911218 -553.57856023713771 0 -553.57856023713771 -161.21994418318764 0 0 0 0 -325.4731895820878 -492.38063999640235 0 -492.38063999640235 -160.95704740567263 0 0 0 0 -316.24026071165281 -500.48679290511882 0 -500.48679290511882 -154.78609919177597 0 0 0 0 -152.71931949495047 -359.36698557681393 0 -359.36698557681393 -77.956002355168266 0 0 0 0 -454.57547177128436 -483.31936876548184 0 -483.31936876548184 -56.885326932208955 0 0 0 0 -72.255519149388419 -164.18089982693573 0 -164.18089982693573 -210.9981890974459 0 0 0 0 -215.92721213564073 -150.40222498647017 0 -150.40222498647017 68.19156974332418 0 0 0 0 17.923001439601649 -424.6000462415077 0 -424.6000462415077 -1145.9353134744943 0 0 0 0 -162.74783898013993 -107.21109706277593 0 -107.21109706277593 -29.403928239325978 0 0 0 0 -83.871171203965787 -108.66925890170069 0 -108.66925890170069 60.595147556193751 0 0 0 0 -98.782378356649133 -153.00813770641059 0 -153.00813770641059 -56.575560485131973 0 0 0 0 -29.678993283938325 41.843364989053839 0 41.843364989053839 79.695102236049934 0 0 0 0 -78.780802206892986 -135.65258382979482 0 -135.65258382979482 -20.647875520841808 0 0 0 0 -31.799669418623495 -20.238800981310547 0 -20.238800981310547 -1.1558601079520159 0 0 0 0 -14.800813892159994 0.890478856892301 0 0.890478856892301 -2.0502800856693923 0 0 0 0 -115.20024271648435 50.953812522913381 0 50.953812522913381 130.85313695252714 0 0 0 0 -48.209455067830277 -81.84220036357533 0 -81.84220036357533 10.744117859183461 0 0 0 0 -0.77430887370553592 -21.745858031948707 0 -21.745858031948707 20.482113163234484 0 0 0 0 -30.937186448700231 11.528125544553347 0 11.528125544553347 9.8834068128153376 0 0 0 0 -39.437126264681865 48.042427672975009 0 48.042427672975009 -109.83402176225673 0 0 0 0 123.64650310167781 6.548389334160305 0 6.548389334160305 -139.19010425386841 0 0 0 0 -19.437936538100985 -270.90776698287789 0 -270.90776698287789 18.866893288899405 0 0 0 0 48.751055569024174 132.77442213153699 0 132.77442213153699 287.52317875990002 0 0 0 0 4.011191203141891 -7.8364483898302524 0 -7.8364483898302524 13.540683697345013 0 0 0 0 -635.85089346618042 -283.34373358431617 0 -283.34373358431617 -267.45577109515807 0 0 0 0 -1075.2635781444842 -70.707531666164982 0 -70.707531666164982 237.39864587853845 0 0 0 0 -764.18392226807919 317.81993655243087 0 317.81993655243087 152.09171558317149 0 0 0 0 -3.1374988424429944 2.909887774118026 0 2.909887774118026 -1.6462444684409938 0 0 0 0 -794.64361561063561 -390.28864073488774 0 -390.28864073488774 -98.212038572032554 0 0 0 0 -447.2617182508402 468.50741588855476 0 468.50741588855476 128.62172559578198 0 0 0 0 -350.96269331422809 -162.16662191295615 0 -162.16662191295615 -86.176853425738855 0 0 0 0 -685.07981121516787 5.2457535270071673 0 5.2457535270071673 178.7595616359315 0 0 0 0 -26.294757955212845 199.60471098023379 0 199.60471098023379 -22.842664519576374 0 0 0 0 -592.53329356013273 40.698489630208144 0 40.698489630208144 137.31678695327446 0 0 0 0 -551.42554602452583 -13.52607868626518 0 -13.52607868626518 122.62909023049679 0 0 0 0 -523.59289311227622 10.563948391799499 0 10.563948391799499 124.78310354458776 0 0 0 0 40.548363514026278 13.527600162700537 0 13.527600162700537 -3.502735555119358 0 0 0 0 -22.305696999474037 -11.124323789494952 0 -11.124323789494952 -0.90879493989334226 0 0 0 0 -16.674230495096708 -146.40569560777107 0 -146.40569560777107 62.184080518713785 0 0 0 0 -73.8536634559714 38.08917613242383 0 38.08917613242383 88.991257144765939 0 0 0 0 -116.24974984685105 50.372939427689971 0 50.372939427689971 61.052421714573029 0 0 0 0 -12.668875600567844 5.5912383263969332 0 5.5912383263969332 99.588364551288578 0 0 0 0 -283.62319130649121 70.572973228769911 0 70.572973228769911 182.27717986517769 0 0 0 0 -58.054290346224661 -214.93344799857726 0 -214.93344799857726 311.5298832076196 0 0 0 0 -240.80706902097154 28.699978217585112 0 28.699978217585112 312.29302253578453 0 0 0 0 283.17002330388641 -300.83068810917985 0 -300.83068810917985 40.431350531301632 0 0 0 0 -191.35617097184877 -46.500946631697047 0 -46.500946631697047 -677.30865759138942 0 0 0 0 1.9965431566233747 -9.5968524177606014 0 -9.5968524177606014 8.4406559294625367 0 0 0 0 -201.39503536884149 -26.977223116849018 0 -26.977223116849018 110.92882711693255 0 0 0 0 -776.82579719032219 144.2538590745105 0 144.2538590745105 166.84859921480779 0 0 0 0 -177.81764228679822 422.49030953668387 0 422.49030953668387 -666.81909921495298 0 0 0 0 -561.07170316659358 -112.81474143220024 0 -112.81474143220024 120.99777793738895 0 0 0 0 -5.2022344114249108 1.1402701357527318 0 1.1402701357527318 -0.34252738103847535 0 0 0 0 -763.19676915170567 534.48607623777127 0 534.48607623777127 -139.14496283063818 0 0 0 0 -50.927802909878665 16.4141025777717 0 16.4141025777717 -8.2292937454685102 0 0 0 0 3.794388458627509 156.59211261901851 0 156.59211261901851 -330.31356423834222 0 0 0 0 -373.39575877935567 287.59551966657045 0 287.59551966657045 11.295651055418375 0 0 0 0 -343.98036630414572 331.48122559500922 0 331.48122559500922 -90.222284654154009 0 0 0 0 -180.29394560813671 291.29383095380831 0 291.29383095380831 -92.681915812068837 0 0 0 0 -196.6189885759668 114.07528977039044 0 114.07528977039044 -84.581993586787007 0 0 0 0 77.389880508548231 113.74627569746644 0 113.74627569746644 -133.54557922194181 0 0 0 0 -86.460930799315975 -146.82551892291997 0 -146.82551892291997 192.7562069752521 0 0 0 0 470.41187491035816 -107.95682864479545 0 -107.95682864479545 93.340417283159695 0 0 0 0 -75.790759224357316 55.442506882490079 0 55.442506882490079 164.92988921024698 0 0 0 0 34.611766733811237 -267.80800975390048 0 -267.80800975390048 316.53589228612964 0 0 0 0 -19.618683612826175 -9.9407165246867635 0 -9.9407165246867635 -1.0307749991518564 0 0 0 0 -12.590757693193154 -180.15241799673549 0 -180.15241799673549 569.84401774064077 0 0 0 0 174.60867137440073 -504.00967628172566 0 -504.00967628172566 394.10204404324986 0 0 0 0 149.60832175586256 2.1485321232044043 0 2.1485321232044043 59.977531186587839 0 0 0 0 130.86359860396624 73.018560646376159 0 73.018560646376159 432.7557193505645 0 0 0 0 -819.65099143402767 581.3087684332861 0 581.3087684332861 -478.25931506368715 0 0 0 0 -540.88906207486616 140.29441909696823 0 140.29441909696823 4.6142855865462025 0 0 0 0 -649.02029279907583 1344.2468903335762 0 1344.2468903335762 218.00920030672751 0 0 0 0 -7.9199831588527445 -3.6956606584401612 0 -3.6956606584401612 -0.66082123584535157 0 0 0 0 159.72322114171402 -694.30820089998724 0 -694.30820089998724 419.34364810918942 0 0 0 0 -99.268313574124477 -1.8603900331427212 0 -1.8603900331427212 -95.555236895262624 0 0 0 0 -584.36991033995582 -404.90433488154304 0 -404.90433488154304 492.99324307822684 0 0 0 0 -297.29149265232263 -116.35645947224316 0 -116.35645947224316 -155.08699978527039 0 0 0 0 -584.34264008449099 44.225774668633463 0 44.225774668633463 -220.85688121637 0 0 0 0 -641.82019832739024 -306.9708658212453 0 -306.9708658212453 -280.96111947462344 0 0 0 0 -248.83780244896479 182.50871439042254 0 182.50871439042254 -158.52289564556463 0 0 0 0 -292.05920877041353 63.57939445625874 0 63.57939445625874 -285.49903124778837 0 0 0 0 -454.91919013077859 62.520445476533808 0 62.520445476533808 -209.51089194452391 0 0 0 0 -344.78038178225688 -12.97625203034298 0 -12.97625203034298 -371.00666743288224 0 0 0 0 -454.90033990770866 -123.96823454566589 0 -123.96823454566589 -424.68029805233419 0 0 0 0 -791.93475468401448 -72.668167233742793 0 -72.668167233742793 -297.71425272308448 0 0 0 0 -841.98816813260783 -350.50093413849362 0 -350.50093413849362 -590.87757322124924 0 0 0 0 -1021.4944537961492 -252.90934411486063 0 -252.90934411486063 -80.501735243631032 0 0 0 0 -604.7954097417969 -249.90336651251721 0 -249.90336651251721 -490.10670300346192 0 0 0 0 -602.75288837184416 -125.96399925523255 0 -125.96399925523255 -169.82677870688588 0 0 0 0 -411.02648225823941 -51.128750897408125 0 -51.128750897408125 -167.3502156623581 0 0 0 0 -763.50631195201277 -125.0610519519403 0 -125.0610519519403 -0.21841912136081093 0 0 0 0 -600.64587329263304 -209.86148891821506 0 -209.86148891821506 -106.96850941093099 0 0 0 0 -958.89993416889047 -283.86980801478967 0 -283.86980801478967 -86.726692877700373 0 0 0 0 -197.89425576655049 -101.99905206248894 0 -101.99905206248894 -63.053365951825093 0 0 0 0 -384.59004154500144 -41.140908442718683 0 -41.140908442718683 -0.065911194313242161 0 0 0 0 -278.28319061255024 50.586878731546363 0 50.586878731546363 -152.6504562748982 0 0 0 0 -358.67038397469878 -107.57712111166668 0 -107.57712111166668 -134.16212953244522 0 0 0 0 -244.47201784151548 12.37934935351328 0 12.37934935351328 -38.866494263792482 0 0 0 0 -56.639949828611861 -10.818975358363621 0 -10.818975358363621 -112.99815190625215 0 0 0 0 -208.09452079155744 15.97182026205779 0 15.97182026205779 -18.445126194676277 0 0 0 0 -223.74292388399772 -16.60465942917088 0 -16.60465942917088 -83.58584679391663 0 0 0 0 -213.55635380737658 28.770003269776566 0 28.770003269776566 -6.0372072560360266 0 0 0 0 -257.88183929710067 108.43134211484869 0 108.43134211484869 -83.221808255259972 0 0 0 0 -203.05623470176215 45.743154761396966 0 45.743154761396966 3.9590321168172977 0 0 0 0 -38.267932321861736 78.871559205135497 0 78.871559205135497 -36.595958948613031 0 0 0 0 -362.46341862022382 6.9943786257337663 0 6.9943786257337663 -135.90884304272333 0 0 0 0 -288.55527780881675 127.8384675417791 0 127.8384675417791 -214.99431406535149 0 0 0 0 -299.63055883618244 182.5394112299289 0 182.5394112299289 -108.92174118175444 0 0 0 0 -286.14579173897073 102.13377121531187 0 102.13377121531187 -48.42133382253337 0 0 0 0 -336.9048087579431 196.99438376318221 0 196.99438376318221 -63.065363886659497 0 0 0 0 -309.04152571789746 224.41806187250421 0 224.41806187250421 -36.120428138350235 0 0 0 0 -357.02487365645356 219.78176426310188 0 219.78176426310188 -0.078263195326371715 0 0 0 0 -306.98423827909573 213.49674733933955 0 213.49674733933955 -138.43457919667128 0 0 0 0 -184.71967805977329 45.525127939453 0 45.525127939453 -24.39966952615282 0 0 0 0 -172.41089211650251 68.436839733504769 0 68.436839733504769 -1.7918413833235718 0 0 0 0 -400.69057934371813 78.202733607764799 0 78.202733607764799 49.914744082198922 0 0 0 0 -373.17076716234442 204.41437179701336 0 204.41437179701336 -14.692663033036979 0 0 0 0 -212.24683857326454 -29.148587330198666 0 -29.148587330198666 3.6288697568879797 0 0 0 0 -86.13234973634826 83.491293468868207 0 83.491293468868207 11.671814641561014 0 0 0 0 -33.925616075706785 34.142365267945138 0 34.142365267945138 4.9676537067239224 0 0 0 0 69.886511584059917 39.23839235361325 0 39.23839235361325 52.122691601178076 0 0 0 0 126.09014627174474 -17.069400133332238 0 -17.069400133332238 -22.018914775369495 0 0 0 0 42.611391848593485 94.041495752778019 0 94.041495752778019 24.745162246218911 0 0 0 0 0.17626669213694868 1.3448540440083843 0 1.3448540440083843 0.10257404806093712 0 0 0 0 -59.638542645785492 -4.0911686540964638 0 -4.0911686540964638 -23.80556426685223 0 0 0 0 -52.586278425660566 21.501429836666716 0 21.501429836666716 67.322444937057583 0 0 0 0 -8.064027586588054 3.813424301652617 0 3.813424301652617 -0.25329693589372937 0 0 0 0 -8.4783947720542301 3.1776411113075795 0 3.1776411113075795 0.078354112413221474 0 0 0 0 -10.434101111946802 2.7313707389461244 0 2.7313707389461244 5.9992245238718072 0 0 0 0 -0.84823576273370449 1.1221375068561485 0 1.1221375068561485 1.9964669868027609 0 0 0 0 -7.4314031495205199 2.8500715044435365 0 2.8500715044435365 2.2421974612834799 0 0 0 0 130.96337844320078 23.716537334950878 0 23.716537334950878 -91.086583972567013 0 0 0 0 5.5321097583218943 -36.555979260383879 0 -36.555979260383879 -23.6701164170928 0 0 0 0 -55.65724423492793 5.6887866085097016 0 5.6887866085097016 94.429797953507958 0 0 0 0 -9.5554031058563851 1.2021266283986893 0 1.2021266283986893 1.0637188575421019 0 0 0 0 -10.201173811976332 2.1188941872322919 0 2.1188941872322919 -0.00042871985652104575 0 0 0 0 -11.180472955882578 1.9711407668493315 0 1.9711407668493315 0.70583670037540447 0 0 0 0 -64.625512114769663 13.263048390790644 0 13.263048390790644 0.035336171608532613 0 0 0 0 0.2280531900252214 0.19614531270907776 0 0.19614531270907776 0.29039691412249458 0 0 0 0 103.41021858163595 -41.532775937664773 0 -41.532775937664773 -94.95701315484493 0 0 0 0 -12.684172560606385 4.0043757215838438 0 4.0043757215838438 0.4296220201151173 0 0 0 0 -10.681994276761543 1.9288877455635418 0 1.9288877455635418 -0.0016162701614675582 0 0 0 0 -10.398242131363077 2.3539406604283535 0 2.3539406604283535 0.50604480414016262 0 0 0 0 -9.4796141024708049 2.6369113797846921 0 2.6369113797846921 0.58002273316119934 0 0 0 0 -11.73340292647481 3.5566821700990578 0 3.5566821700990578 6.001874877109719 0 0 0 0 -10.892912359115144 1.2930622512934988 0 1.2930622512934988 2.950948422564343 0 0 0 0 0.280179866385879 2.3138393713481378 0 2.3138393713481378 -0.93278230617534064 0 0 0 0 -12.549991936273273 2.8944834931414434 0 2.8944834931414434 -0.16723547821805967 0 0 0 0 -6.6340769509709219 1.956500233466441 0 1.956500233466441 0.2380871227795005 0 0 0 0 -15.911288209936174 3.8263846164868767 0 3.8263846164868767 14.165189453834898 0 0 0 0 -9.7009835570606811 7.8852517589961622 0 7.8852517589961622 7.5310924802138288 0 0 0 0 -7.8718094945070334 7.3068238319658576 0 7.3068238319658576 4.1468663214991466 0 0 0 0 -3.2930968310683966 6.9879049309108723 0 6.9879049309108723 -3.0516994989656041 0 0 0 0 -6.6953889677024563 -2.0857124595420373 0 -2.0857124595420373 -2.314573433995065 0 0 0 0 -9.5407320568992873 -6.1566023403715917 0 -6.1566023403715917 6.7649397990559237 0 0 0 0 -12.893990836564626 -0.11768412171693399 0 -0.11768412171693399 21.132388149105964 0 0 0 0 -14.40779606893193 -0.0060368182239471935 0 -0.0060368182239471935 0.37676994556659338 0 0 0 0 -8.635404151325929 1.6142096293353347 0 1.6142096293353347 2.192578188093421 0 0 0 0 -8.0596109799225815 -1.442918555056167 0 -1.442918555056167 9.5893172222677094 0 0 0 0 -5.2711404784885474 3.1775601837269747 0 3.1775601837269747 0.65664319008475758 0 0 0 0 -1.0409925746915576 1.7949454431675065 0 1.7949454431675065 0.12184962653322329 0 0 0 0 -10.427730687318359 6.2713544680701734 0 6.2713544680701734 0.148239000023064 0 0 0 0 -11.391903242925764 4.7087874374449257 0 4.7087874374449257 5.2981310086711346 0 0 0 0 -11.632990641286597 7.9776410477555828 0 7.9776410477555828 8.5180260683286519 0 0 0 0 -11.501303925586399 2.8987483537858623 0 2.8987483537858623 10.121341239730327 0 0 0 0 -3.7185299342516345 5.3975896631888105 0 5.3975896631888105 1.9868352073515849 0 0 0 0 -28.598254433367401 12.695101448148762 0 12.695101448148762 30.086667093866481 0 0 0 0 48.732827797226491 43.104221008818158 0 43.104221008818158 -10.851964745137593 0 0 0 0 -42.932701797471964 84.777454935599735 0 84.777454935599735 11.945663380821543 0 0 0 0 -87.361184911482269 134.34576460477592 0 134.34576460477592 -217.88920745741223 0 0 0 0 -14.213788110435189 4.1021762511572328 0 4.1021762511572328 0.93894832681810558 0 0 0 0 5.9444678350846516 35.115201782654935 0 35.115201782654935 55.947795355556536 0 0 0 0 -98.543758215128037 210.51539521057623 0 210.51539521057623 -112.87087424863512 0 0 0 0 -103.74683826806722 200.75890474190487 0 200.75890474190487 -124.69131734790972 0 0 0 0 -117.66421799507225 101.91871785860712 0 101.91871785860712 -86.168147995932031 0 0 0 0 -182.08461906396769 229.19560787968686 0 229.19560787968686 -94.419162188593873 0 0 0 0 -192.05666936799025 192.88991473074435 0 192.88991473074435 100.01617378308038 0 0 0 0 -246.35401776331128 312.61756901733702 0 312.61756901733702 -3.4985243680348503 0 0 0 0 -65.846100751077756 263.40988334440203 0 263.40988334440203 -84.50771045386341 0 0 0 0 -141.38205443068 362.10620091694182 0 362.10620091694182 -213.42492049287466 0 0 0 0 -82.768145694106352 202.76962252873636 0 202.76962252873636 -109.36731502709813 0 0 0 0 -15.706999704925693 8.6923776675703266 0 8.6923776675703266 26.604846264876414 0 0 0 0 -45.393252149340697 -31.456477370030143 0 -31.456477370030143 -22.820210137764661 0 0 0 0 -4.382025548717646 1.1397789925639756 0 1.1397789925639756 0.80981514343522853 0 0 0 0 68.791279271928943 60.443619566355892 0 60.443619566355892 14.15339766791476 0 0 0 0 -272.55001168954186 161.5912583276322 0 161.5912583276322 97.057975462123068 0 0 0 0 -241.87552681342095 300.44111586488873 0 300.44111586488873 -257.73659149533523 0 0 0 0 -103.39182003296446 88.963455269079304 0 88.963455269079304 59.31820105604379 0 0 0 0 -13.9199866966228 -0.76217691725605619 0 -0.76217691725605619 -26.90556121678901 0 0 0 0 -904.42536774717155 241.90451133440013 0 241.90451133440013 -364.04665457645024 0 0 0 0 -15.889893030645908 9.3244377307587456 0 9.3244377307587456 -13.903468603195279 0 0 0 0 -302.62964081987229 -81.318868321630774 0 -81.318868321630774 -110.88592632871951 0 0 0 0 -3.7017302577055062 0.59180627766166083 0 0.59180627766166083 0.33718769178550367 0 0 0 0 -0.52165430930827483 -0.021320583524357062 0 -0.021320583524357062 -1.587624284350567 0 0 0 0 -886.52645612520064 331.22076465917161 0 331.22076465917161 4.727317463260988 0 0 0 0 -204.48469624883728 354.19916705109904 0 354.19916705109904 -455.46967574519817 0 0 0 0 -0.19586477383887768 2.7147371680039569 0 2.7147371680039569 -1.7029919723368494 0 0 0 0 -758.09862436256662 -12.019868362327884 0 -12.019868362327884 129.71836096549896 0 0 0 0 199.1835350253823 90.132997922971185 0 90.132997922971185 -79.037688937468005 0 0 0 0 -97.902354063524399 224.72526342659205 0 224.72526342659205 -98.850889539961571 0 0 0 0 97.246727873556665 244.49765306262304 0 244.49765306262304 -188.7184881972895 0 0 0 0 -47.069256106275134 141.50056263073384 0 141.50056263073384 20.945548743346308 0 0 0 0 39.182488821214065 92.491300297825433 0 92.491300297825433 41.430237795047134 0 0 0 0 -28.281407217233209 -3.0675731795820411 0 -3.0675731795820411 84.843789694860561 0 0 0 0 -28.661853406432783 81.498202714873571 0 81.498202714873571 51.945729765703732 0 0 0 0 14.441116643254645 23.807510709577588 0 23.807510709577588 34.664038536350887 0 0 0 0 64.5869457695444 25.479643836111428 0 25.479643836111428 24.562719957860452 0 0 0 0 -35.044090299343225 7.5900266231550404 0 7.5900266231550404 45.850843428770133 0 0 0 0 -933.83148808419355 380.90845084353134 0 380.90845084353134 14.370686729612089 0 0 0 0 -349.16622461301449 196.04661349909446 0 196.04661349909446 33.144939719385761 0 0 0 0 4.021434911894886 4.3740969511075463 0 4.3740969511075463 -4.5817048306495494 0 0 0 0 -73.177495578289381 67.542128535429299 0 67.542128535429299 -134.83363536131162 0 0 0 0 -352.76298825695903 175.34358300989541 0 175.34358300989541 58.589041731162297 0 0 0 0 -13.277551042607229 13.605572147471094 0 13.605572147471094 -2.1803725064419268 0 0 0 0 -65.608480510025402 54.753058038596464 0 54.753058038596464 9.5946685688741127 0 0 0 0 -61.023848968878156 -18.613965139576067 0 -18.613965139576067 -2.7789252700918041 0 0 0 0 -1.0153422015475826 0.055695757255421086 0 0.055695757255421086 0.69181281812286777 0 0 0 0 -42.193298154914373 15.499678613906042 0 15.499678613906042 -6.7468552416553393 0 0 0 0 -20.945190125639783 -11.820641044056174 0 -11.820641044056174 -12.672428222094368 0 0 0 0 2.3164462534405175 -7.0947629109130048 0 -7.0947629109130048 -12.75127190762214 0 0 0 0 -40.443747672165046 13.20536166933789 0 13.20536166933789 6.2918765014210294 0 0 0 0 -12.769994709510456 3.9369671267869464 0 3.9369671267869464 -0.48808818393286924 0 0 0 0 -27.645007700717542 16.909034597548271 0 16.909034597548271 6.9403659424845046 0 0 0 0 -9.8569045842523337 2.6143696353552741 0 2.6143696353552741 -5.0274823986374031 0 0 0 0 -15.978020956448745 9.0187137647877762 0 9.0187137647877762 -6.0825395303926371 0 0 0 0 -251.28912171489355 255.16150855225624 0 255.16150855225624 -86.914192371067656 0 0 0 0 -5.4283186645446619 8.6339347770579913 0 8.6339347770579913 -3.7968567911904736 0 0 0 0 -259.63528632579983 275.32046502380706 0 275.32046502380706 -113.6634995244778 0 0 0 0 -326.61493701599829 281.73394288445525 0 281.73394288445525 -52.766122787856148 0 0 0 0 25.573657738006247 39.063568704932678 0 39.063568704932678 -1.400610626607369 0 0 0 0 -19.127520489259041 -105.59279506316386 0 -105.59279506316386 -50.563273229757669 0 0 0 0 -61.284315433586016 -7.4016636000633298 0 -7.4016636000633298 -24.47487773532157 0 0 0 0 -68.264093630554271 4.8453784820912915 0 4.8453784820912915 -5.90302753468427 0 0 0 0 -7.7600447073590857 2.6645969156030844 0 2.6645969156030844 -9.691246025707219 0 0 0 0 -58.089842916248017 -1.5223924508584332 0 -1.5223924508584332 -16.303387576000205 0 0 0 0 -296.3094758263469 -88.100613556798407 0 -88.100613556798407 -58.952180646025738 0 0 0 0 -66.958554957192973 -26.266329213357466 0 -26.266329213357466 -46.809226637928475 0 0 0 0 -342.60451724560698 159.72548443511658 0 159.72548443511658 63.063855254695625 0 0 0 0 -29.662995199876605 9.3073256743648756 0 9.3073256743648756 10.993030892419938 0 0 0 0 -419.84298006407334 199.4693032792853 0 199.4693032792853 95.903773506114874 0 0 0 0 -393.77063716578414 157.6714523652193 0 157.6714523652193 157.70720405072746 0 0 0 0 -24.396438100782689 5.4701901574765088 0 5.4701901574765088 -12.862624561475741 0 0 0 0 -0.19709348270646387 0.8028200756625381 0 0.8028200756625381 -4.4820337546603195 0 0 0 0 -635.75788200309034 87.232035595553953 0 87.232035595553953 208.35615367225716 0 0 0 0 -20.216039749269839 4.2764629788180173 0 4.2764629788180173 -13.404777071157241 0 0 0 0 -28.27920602526865 -3.2887282690973052 0 -3.2887282690973052 12.59975509545211 0 0 0 0 5.8085654477398236 1.4514036591252975 0 1.4514036591252975 1.9003725386768964 0 0 0 0 24.662121335786651 -10.316357656167611 0 -10.316357656167611 -21.282267619340246 0 0 0 0 34.493017850276374 -31.688048431109678 0 -31.688048431109678 -18.124030439836361 0 0 0 0 24.534459335940483 -36.548284509294206 0 -36.548284509294206 0.41119644988907567 0 0 0 0 -15.614477505313062 -5.1828926740605397 0 -5.1828926740605397 3.8577972333661985 0 0 0 0 -2.6448751398701518 1.2082966274623885 0 1.2082966274623885 -4.5814011147241285 0 0 0 0 166.92837578605395 -89.548701073693337 0 -89.548701073693337 -1031.0741838516751 0 0 0 0 -11.461190593981883 2.1004676207401189 0 2.1004676207401189 22.089302827254073 0 0 0 0 -9.4809565546255428 -3.7878725882156772 0 -3.7878725882156772 4.4062734247122499 0 0 0 0 -239.64599585504038 -68.336026494759153 0 -68.336026494759153 476.99157867474241 0 0 0 0 -24.636538720777025 -2.7975791393306331 0 -2.7975791393306331 35.899368429934384 0 0 0 0 -6.3210611333899749 3.5712171690003061 0 3.5712171690003061 13.486845034215531 0 0 0 0 -6.7406352296238765 -0.17219009884229308 0 -0.17219009884229308 16.694623697483621 0 0 0 0 -52.780649135034764 47.654397278958641 0 47.654397278958641 -35.833815252210115 0 0 0 0 0.19425255219255178 -0.79643392137194979 0 -0.79643392137194979 1.0773409029154406 0 0 0 0 -53.110861251421738 63.981678615765702 0 63.981678615765702 10.684874040739572 0 0 0 0 -25.120729656311511 -0.45306684256203944 0 -0.45306684256203944 3.8688899339473903 0 0 0 0 -88.035130752701662 53.899235159208843 0 53.899235159208843 -36.938729713999805 0 0 0 0 -135.23520966010983 53.209147969793548 0 53.209147969793548 -19.64792823875564 0 0 0 0 -110.60475301138649 65.446064997544454 0 65.446064997544454 -22.790501766313639 0 0 0 0 -130.86440722788643 94.317882898394657 0 94.317882898394657 -27.012224781208261 0 0 0 0 -59.031280770796002 98.826873061761034 0 98.826873061761034 -27.923000892438239 0 0 0 0 -264.7341675041389 58.014121324209498 0 58.014121324209498 28.373671609519761 0 0 0 0 -155.42990527940128 94.974060800274572 0 94.974060800274572 -20.899588861459506 0 0 0 0 -131.62251387873539 59.694799803656991 0 59.694799803656991 -11.338702839777397 0 0 0 0 -175.96091308939504 67.260544423273018 0 67.260544423273018 -10.936869337934219 0 0 0 0 -154.29500617372105 33.709435848414387 0 33.709435848414387 -13.555140319165957 0 0 0 0 -97.4226427206886 37.02789243416953 0 37.02789243416953 -24.623338613199394 0 0 0 0 -89.541323429977638 35.165234076296827 0 35.165234076296827 -25.04549284591684 0 0 0 0 -30.127661149182714 -4.0399862840074121 0 -4.0399862840074121 20.392584595274656 0 0 0 0 -15.34657801342837 21.088663835403395 0 21.088663835403395 -28.957441559912581 0 0 0 0 -110.76852205914474 -9.0067429049740895 0 -9.0067429049740895 23.69464274514587 0 0 0 0 -60.528475790873927 22.147007315409979 0 22.147007315409979 15.813117237723986 0 0 0 0 -33.558564743230818 44.790962032779021 0 44.790962032779021 -42.210899293234206 0 0 0 0 -53.172337743249955 27.844871131486002 0 27.844871131486002 -25.748836266588569 0 0 0 0 -94.856490550937451 43.726477674998051 0 43.726477674998051 -26.055218888514446 0 0 0 0 -87.419315565872239 48.80600757148494 0 48.80600757148494 -9.0881866568885528 0 0 0 0 -266.89093569346073 -131.64880112974231 0 -131.64880112974231 -36.578255307593281 0 0 0 0 -87.05548482071336 44.119090820104333 0 44.119090820104333 -11.936693698868087 0 0 0 0 -116.38185800565407 -24.765166197423241 0 -24.765166197423241 110.52389623075032 0 0 0 0 -234.45549755013053 81.729989317529089 0 81.729989317529089 322.89757157153235 0 0 0 0 -5.3182696609610787 -0.55112665647929404 0 -0.55112665647929404 3.8640921391529508 0 0 0 0 -203.1542439704499 -193.34477746058747 0 -193.34477746058747 -83.802615981906001 0 0 0 0 -287.61168701932183 237.92661248597005 0 237.92661248597005 -20.417546078009764 0 0 0 0 -14.739360114912415 -40.183531909261546 0 -40.183531909261546 -145.06063602846552 0 0 0 0 -414.95783103346912 -139.94747095595631 0 -139.94747095595631 230.25865252065068 0 0 0 0 -65.017110993975024 40.79296611730296 0 40.79296611730296 -10.886026359314872 0 0 0 0 36.172915212635417 460.67338057381539 0 460.67338057381539 -157.94166417673364 0 0 0 0 -245.55114801645323 -220.45205586175842 0 -220.45205586175842 -245.80306319509225 0 0 0 0 -263.54871925739644 -100.62971170076412 0 -100.62971170076412 -173.85086696907388 0 0 0 0 25.937090142302623 -50.270342371215065 0 -50.270342371215065 -1.1029567885911007 0 0 0 0 -253.70855248296903 -184.17585640873904 0 -184.17585640873904 5.8299532500532223 0 0 0 0 -235.71526490027463 -261.59028950913694 0 -261.59028950913694 32.634848651074208 0 0 0 0 -93.931675899142647 -68.282501181887255 0 -68.282501181887255 226.14101763196686 0 0 0 0 -491.47352310572023 -55.338262752866285 0 -55.338262752866285 0.52064168038668868 0 0 0 0 -349.98510165639891 -10.749134016963126 0 -10.749134016963126 -97.905387641028028 0 0 0 0 -27.791412878677139 3.7505823543655481 0 3.7505823543655481 -2.3529584470853244 0 0 0 0 -297.09394622962645 -159.5479079635536 0 -159.5479079635536 49.595612096519289 0 0 0 0 -592.96096686003875 -157.88370276281785 0 -157.88370276281785 93.034348424725977 0 0 0 0 -126.19567030638427 193.66215248632216 0 193.66215248632216 -793.31412461757463 0 0 0 0 -792.72031630354468 -53.52321338030697 0 -53.52321338030697 228.1262275912959 0 0 0 0 -759.14552351717066 543.5077740243778 0 543.5077740243778 643.32878262285203 0 0 0 0 -831.55161849534488 693.50024560777547 0 693.50024560777547 -694.21917367012065 0 0 0 0 -1234.0178241760223 32.287425381448429 0 32.287425381448429 492.42759880842641 0 0 0 0 -366.30865740096488 -238.61057613509274 0 -238.61057613509274 90.813828745172486 0 0 0 0 -5.5118441768347139 -1.6331926789737672 0 -1.6331926789737672 0.11837946036173591 0 0 0 0 -648.71979537875814 274.1928211916686 0 274.1928211916686 -84.804687896045834 0 0 0 0 -292.43827738754044 103.30592913284909 0 103.30592913284909 -3.241471608572283 0 0 0 0 76.717647257519275 -99.665408801948047 0 -99.665408801948047 -119.63892355153439 0 0 0 0 -13.687334063346313 13.203984589656052 0 13.203984589656052 -12.761330129528243 0 0 0 0 -45.059202580334386 -52.062080784402497 0 -52.062080784402497 -11.969119627843611 0 0 0 0 -474.4732616049223 -112.84120180124728 0 -112.84120180124728 -36.432983710438748 0 0 0 0 -30.418364962351916 182.08499555198068 0 182.08499555198068 -260.0540271253567 0 0 0 0 0.87207019519583184 -0.51233327994662403 0 -0.51233327994662403 -3.4533249340283767 0 0 0 0 -817.39772165516843 13.261744804696718 0 13.261744804696718 102.7126215276212 0 0 0 0 -374.84987754121903 -41.008910476146184 0 -41.008910476146184 42.874998370383764 0 0 0 0 -797.92396979092882 -349.84481507723694 0 -349.84481507723694 253.65166654896166 0 0 0 0 -5.9504339543352103 4.5289284776930678 0 4.5289284776930678 -4.1622355389864261 0 0 0 0 -755.40602216860134 -458.8994335725547 0 -458.8994335725547 62.36471292942224 0 0 0 0 -784.12302217353863 -299.23223226063146 0 -299.23223226063146 30.468465739544627 0 0 0 0 -69.752471234013683 59.712846023844236 0 59.712846023844236 -35.661024276727403 0 0 0 0 49.607149615418166 -51.06846304314422 0 -51.06846304314422 -5.8664978164861168 0 0 0 0 -52.161691354807317 -54.304901259095743 0 -54.304901259095743 5.4356893859367119 0 0 0 0 38.971558035751514 -52.404366150309215 0 -52.404366150309215 20.300228019143105 0 0 0 0 105.7981763386415 30.836875783948926 0 30.836875783948926 10.499954442369926 0 0 0 0 -28.066460016758356 2.4489166311304871 0 2.4489166311304871 17.160662624901988 0 0 0 0 39.271124427086761 -41.51934933298071 0 -41.51934933298071 -16.21696683042137 0 0 0 0 -88.565516465347173 103.4654119883462 0 103.4654119883462 -79.604622407773604 0 0 0 0 -58.993935499427607 -170.77393941471792 0 -170.77393941471792 -249.05676246502924 0 0 0 0 -3.7486416750464002 0.99303397486844958 0 0.99303397486844958 -2.3960196707437973 0 0 0 0 -96.919123651547125 28.720240089577601 0 28.720240089577601 33.638010564422302 0 0 0 0 -90.713752021590608 63.680261084673646 0 63.680261084673646 -52.301428989716896 0 0 0 0 -131.31602475920226 95.130910240279718 0 95.130910240279718 -7.9440075768070528 0 0 0 0 -0.41799136170522644 5.8986489324408993 0 5.8986489324408993 -12.481690313127384 0 0 0 0 58.081154007697478 -143.48008186331072 0 -143.48008186331072 -641.56540130560279 0 0 0 0 -256.20767970637735 616.4696598404613 0 616.4696598404613 132.17914330440544 0 0 0 0 -770.65561807476843 -450.75597605498979 0 -450.75597605498979 134.74752262363108 0 0 0 0 29.950116553358384 101.16228265063762 0 101.16228265063762 -110.8042787933623 0 0 0 0 -243.02555578162719 574.83823964629028 0 574.83823964629028 -541.93718799690942 0 0 0 0 -126.25582193017908 34.385850389416191 0 34.385850389416191 56.855380291598067 0 0 0 0 10.523043624136335 -10.819168660862033 0 -10.819168660862033 -144.46710528242647 0 0 0 0 -2.223365874965431 3.0301205005790237 0 3.0301205005790237 -4.4713857214166479 0 0 0 0 -36.706706320092053 -42.933531293870828 0 -42.933531293870828 55.612717583619428 0 0 0 0 -66.694214142040437 29.125838208119944 0 29.125838208119944 -4.7429383962569318 0 0 0 0 -79.110253483693668 14.46800902874736 0 14.46800902874736 -21.583161752698288 0 0 0 0 -138.7763980137679 36.679895067889944 0 36.679895067889944 19.098245155643795 0 0 0 0 -34.675483887804148 57.449999368648605 0 57.449999368648605 -20.149620872980222 0 0 0 0 -69.542492406481472 35.00687706206844 0 35.00687706206844 -4.9700692543546232 0 0 0 0 -109.46134632187022 243.78255375382378 0 243.78255375382378 -331.0244353602252 0 0 0 0 -31.928287750772142 69.429323755321548 0 69.429323755321548 25.506532165790759 0 0 0 0 -149.73649927938823 61.496124979711794 0 61.496124979711794 28.120491451185444 0 0 0 0 -76.519851362176524 33.444480917942109 0 33.444480917942109 -3.2584366153575131 0 0 0 0 -75.512620671710465 77.084738229954496 0 77.084738229954496 21.718018266449747 0 0 0 0 -188.60818451768137 4.8084735647088621 0 4.8084735647088621 1.1523097644719655 0 0 0 0 -71.953482451521268 16.609140140100536 0 16.609140140100536 -21.036615104538953 0 0 0 0 112.44355206156615 2.3564075417555159 0 2.3564075417555159 6.478349791155722 0 0 0 0 -1.9744001695216866 64.473852310384018 0 64.473852310384018 45.959399459947917 0 0 0 0 -62.538364636733604 118.67233392561832 0 118.67233392561832 -51.282590411838783 0 0 0 0 -53.210707549398649 84.919197360474641 0 84.919197360474641 22.691059975077906 0 0 0 0 8.8280207603856979 87.456766095578445 0 87.456766095578445 1.4892082144383494 0 0 0 0 -77.232996862658183 76.370324476972826 0 76.370324476972826 43.674352270341615 0 0 0 0 -50.156640029104892 101.2160457754693 0 101.2160457754693 26.997958262946554 0 0 0 0 -110.50714689961751 75.581033040156399 0 75.581033040156399 51.973384462868353 0 0 0 0 -78.660106861316308 59.531444400559167 0 59.531444400559167 56.248629809667818 0 0 0 0 -18.086761454427077 2.0080818410668826 0 2.0080818410668826 3.425315324847384 0 0 0 0 30.545122194162104 72.146793818350716 0 72.146793818350716 9.9020123046084336 0 0 0 0 -3.4186803996308299 49.39259339489081 0 49.39259339489081 19.858293217847176 0 0 0 0 -20.073476344533702 16.366811922791726 0 16.366811922791726 -6.088954275104296 0 0 0 0 -62.231481680111756 3.6595656023446566 0 3.6595656023446566 -1.1909682129072223 0 0 0 0 -42.020693390181464 19.280740745284497 0 19.280740745284497 1.3710843134588702 0 0 0 0 -37.957765208127967 48.789993041915977 0 48.789993041915977 22.191689583553625 0 0 0 0 -38.56173581416806 44.643204965451446 0 44.643204965451446 38.097639234594681 0 0 0 0 -113.45921945417649 50.693629289640512 0 50.693629289640512 65.831436475806186 0 0 0 0 -91.470100384052785 42.037413666386669 0 42.037413666386669 68.671699994024493 0 0 0 0 -93.595737229697988 16.915267614221193 0 16.915267614221193 39.200942248534091 0 0 0 0 -106.79416187245806 22.284863610621414 0 22.284863610621414 57.13137418312499 0 0 0 0 -81.603521455323062 28.130904931214388 0 28.130904931214388 37.296236306297033 0 0 0 0 -86.492916124952899 -6.9411625302420816 0 -6.9411625302420816 -10.706637704764489 0 0 0 0 -71.562965987766802 11.571048535983437 0 11.571048535983437 -4.8659465596637688 0 0 0 0 -52.239459028311103 10.906897587681669 0 10.906897587681669 1.4859888711212648 0 0 0 0 -52.282989028249318 1.6933897118321024 0 1.6933897118321024 0.51154978328505407 0 0 0 0 -58.611085951634578 7.0609210368877129 0 7.0609210368877129 5.0228057467635834 0 0 0 0 -100.77351243693556 29.177942756357425 0 29.177942756357425 42.732536092147257 0 0 0 0 -45.118518347881036 -0.56072408134389207 0 -0.56072408134389207 -2.62329320025583 0 0 0 0 -28.610323127162701 14.100252227551209 0 14.100252227551209 -1.9068892215605047 0 0 0 0 -57.025895576007315 11.031722594322673 0 11.031722594322673 11.304786384261149 0 0 0 0 -94.084528959239833 1.2856573095168642 0 1.2856573095168642 103.95927705391819 0 0 0 0 -51.479584965683557 1.417794066284646 0 1.417794066284646 3.0501241167493363 0 0 0 0 -46.38123159299721 2.2074078872917653 0 2.2074078872917653 12.924036949520541 0 0 0 0 -56.420121031649039 7.2492248691968086 0 7.2492248691968086 3.5249532084852957 0 0 0 0 -63.961366077652691 -2.0318818555799041 0 -2.0318818555799041 10.163966184612839 0 0 0 0 -127.8644134963979 2.995966797847359 0 2.995966797847359 7.8356582782339501 0 0 0 0 -69.064089551095321 3.8254019094369909 0 3.8254019094369909 8.6350243963800253 0 0 0 0 -24.239234041389864 13.950598592745905 0 13.950598592745905 34.724782732479071 0 0 0 0 -11.211219142119262 0.99745715062640272 0 0.99745715062640272 0.80927445491045447 0 0 0 0 -99.991859842339181 29.162461135574858 0 29.162461135574858 30.61877835442283 0 0 0 0 -93.762916048013722 23.2595174250539 0 23.2595174250539 76.559685206121912 0 0 0 0 -105.79544636745413 21.124031865621419 0 21.124031865621419 45.021303409087523 0 0 0 0 -107.49490636635164 22.40506525567821 0 22.40506525567821 82.393422077705509 0 0 0 0 -111.06708826751856 39.314980807805796 0 39.314980807805796 90.266780383610126 0 0 0 0 -49.387617983942619 -2.4345016430587521 0 -2.4345016430587521 86.073905663287178 0 0 0 0 -102.58216226298828 19.035757061301865 0 19.035757061301865 98.133469402644209 0 0 0 0 -122.39543340143609 -4.5018805840394478 0 -4.5018805840394478 105.27834513821654 0 0 0 0 -184.0435358742543 17.371758095362793 0 17.371758095362793 98.18009807634985 0 0 0 0 -127.49649055117334 53.70648999592504 0 53.70648999592504 79.711945918629226 0 0 0 0 -185.76196224222076 79.375791618914604 0 79.375791618914604 74.179170416127818 0 0 0 0 -114.50066552824865 57.726553522516497 0 57.726553522516497 80.390495986970336 0 0 0 0 -116.4717597868439 96.243927954520473 0 96.243927954520473 41.816812320285635 0 0 0 0 -187.02080726205895 95.689833867211746 0 95.689833867211746 41.966168443668096 0 0 0 0 -169.54889427693706 89.90625551329822 0 89.90625551329822 6.8669721529282697 0 0 0 0 -213.02215425983923 -52.815162808416545 0 -52.815162808416545 69.501792807699076 0 0 0 0 -111.71567312992556 -26.820028550631378 0 -26.820028550631378 60.420468602968299 0 0 0 0 -152.95119730904116 26.740512733163314 0 26.740512733163314 85.163684372766284 0 0 0 0 -276.73045087867649 65.559084884947879 0 65.559084884947879 73.968740290165044 0 0 0 0 -391.01807282501977 5.1688647865815369 0 5.1688647865815369 52.425691167687205 0 0 0 0 -268.65116582199698 29.981773292257742 0 29.981773292257742 -48.184522169104696 0 0 0 0 -767.28663569319178 107.3172565865776 0 107.3172565865776 -59.890008491328445 0 0 0 0 -10.083192890843748 -1.6475108319487095 0 -1.6475108319487095 -0.29694246172145622 0 0 0 0 -294.98893166046037 258.19450626626394 0 258.19450626626394 -400.27136880080815 0 0 0 0 -61.822279154483113 40.887054898609449 0 40.887054898609449 -198.1017745347927 0 0 0 0 -141.740302184764 173.65331114634245 0 173.65331114634245 -187.38836391224504 0 0 0 0 -348.88790205907208 113.18486200951378 0 113.18486200951378 4.0904754865201767 0 0 0 0 -93.571773184055928 83.334967775857422 0 83.334967775857422 -27.486164320355101 0 0 0 0 59.65292590988247 104.68668992070445 0 104.68668992070445 -69.362489776781558 0 0 0 0 -0.021669765774277039 84.005743818276528 0 84.005743818276528 -149.485045848406 0 0 0 0 14.432459002244286 43.301755273820561 0 43.301755273820561 -35.906508707537682 0 0 0 0 1.8029429672293653 0.46381476399704979 0 0.46381476399704979 1.0606807180394386 0 0 0 0 249.75397145176976 88.870856502229344 0 88.870856502229344 -80.491818442483009 0 0 0 0 80.940087354967545 97.164116209001577 0 97.164116209001577 -79.23403484782375 0 0 0 0 52.016465304302983 124.39097034795896 0 124.39097034795896 30.464034398619333 0 0 0 0 0.96567852117004804 73.088453993959547 0 73.088453993959547 296.1468278567495 0 0 0 0 -22.285724125198669 0.13832923141151454 0 0.13832923141151454 -0.1141042038217947 0 0 0 0 52.825198771664873 32.287172532519605 0 32.287172532519605 -179.84138909643906 0 0 0 0 82.794386607783963 -25.204313988107288 0 -25.204313988107288 -148.04899407605853 0 0 0 0 -7.5921537216345314 -68.195268472118983 0 -68.195268472118983 20.56044761138272 0 0 0 0 -61.961918029352091 50.862665937073416 0 50.862665937073416 -107.05340235054865 0 0 0 0 -152.43066879499384 -598.79309136617803 0 -598.79309136617803 -532.07548758442135 0 0 0 0 352.84091934996832 25.630977059954034 0 25.630977059954034 -98.830799669962602 0 0 0 0 272.04519270243327 304.93965533905532 0 304.93965533905532 142.22071568962718 0 0 0 0 1096.6510968735311 -58.701474190287115 0 -58.701474190287115 -654.65432118324293 0 0 0 0 138.30307668229216 38.420080925523905 0 38.420080925523905 -99.489054665118886 0 0 0 0 2.6744512786714836 0.77133060581621038 0 0.77133060581621038 -0.17671366968207991 0 0 0 0 -63.832207482992089 -102.32728319939633 0 -102.32728319939633 108.41850026144317 0 0 0 0 -19.802210440780954 -8.3881298534618765 0 -8.3881298534618765 1.2463328888482388 0 0 0 0 60.51000523622497 -94.949038043809196 0 -94.949038043809196 6.7624967609787063 0 0 0 0 -20.121645637900656 4.8564199538069772 0 4.8564199538069772 26.425386660866252 0 0 0 0 41.56002117209573 9.2523942312708982 0 9.2523942312708982 -87.559843122637972 0 0 0 0 -88.891181949387828 -43.70191653924519 0 -43.70191653924519 -23.767164733059531 0 0 0 0 -1002.6398163267222 -452.43840661307837 0 -452.43840661307837 178.11990425938484 0 0 0 0 -1154.8998878514321 182.68189915430668 0 182.68189915430668 129.18447995509098 0 0 0 0 -676.00013037033932 -69.022195173322928 0 -69.022195173322928 260.99004728383761 0 0 0 0 -91.737949248934001 -155.84854351673769 0 -155.84854351673769 4.3518894136293511 0 0 0 0 -749.05368959777115 79.602950674962244 0 79.602950674962244 145.98725912580616 0 0 0 0 -289.25907687507424 238.7629333206728 0 238.7629333206728 -120.94088633123511 0 0 0 0 -525.79872002728371 -569.51527723865934 0 -569.51527723865934 262.70811676781432 0 0 0 0 -807.0531076160587 421.50098098146179 0 421.50098098146179 -171.67163484699017 0 0 0 0 -10.677657243589522 -4.6887832235904128 0 -4.6887832235904128 -1.9260125699718329 0 0 0 0 -1453.1550306217687 -345.65666017727403 0 -345.65666017727403 208.6909655570916 0 0 0 0 -8.2463273414687137 46.040162983817936 0 46.040162983817936 104.29404346879755 0 0 0 0 -26.384296264368459 45.367297029153178 0 45.367297029153178 171.17587219425542 0 0 0 0 30.440193176742468 80.216207594759339 0 80.216207594759339 -136.11673286217183 0 0 0 0 264.3738742107671 211.17135255533844 0 211.17135255533844 -394.59070203499562 0 0 0 0 -12.520637914356485 249.50442537366143 0 249.50442537366143 263.27736562764449 0 0 0 0 -41.849807307844458 -64.860022383357943 0 -64.860022383357943 23.396996264433596 0 0 0 0 -30.64994220016888 -88.103504703092284 0 -88.103504703092284 -69.173851901851322 0 0 0 0 -88.35161651429371 -10.325917389495316 0 -10.325917389495316 353.17740051837757 0 0 0 0 -28.085908069480581 -8.9975079163406022 0 -8.9975079163406022 -2.6808778284844301 0 0 0 0 -3.4724794635985745 -2.3258959173199401 0 -2.3258959173199401 159.19842961160037 0 0 0 0 -40.852175303418477 -18.988101486595234 0 -18.988101486595234 7.8425185256258736 0 0 0 0 -33.595118405806716 -56.846022480456668 0 -56.846022480456668 -22.475895634748667 0 0 0 0 -33.003530790811055 3.1295914258906805 0 3.1295914258906805 8.6845849212714938 0 0 0 0 -1.2546501387507334 -14.817607284495182 0 -14.817607284495182 8.5843062691615462 0 0 0 0 -73.15371183539537 1.7605265960677343 0 1.7605265960677343 -32.360149646761784 0 0 0 0 -6.8880928950320595 13.471408317948573 0 13.471408317948573 138.90588723845394 0 0 0 0 -10.314498023138214 -6.1345081620569744 0 -6.1345081620569744 1.0350439148532633 0 0 0 0 -26.095671462695464 -2.2446934896876201 0 -2.2446934896876201 -145.95222429484051 0 0 0 0 -504.96039402049064 -182.2778206848746 0 -182.2778206848746 -1.4256130907873512 0 0 0 0 3.3124916422417101 -2.553397713161992 0 -2.553397713161992 2.9512795370234306 0 0 0 0 -372.97994263852888 -139.16367055259059 0 -139.16367055259059 -12.68842709230421 0 0 0 0 -238.60349515728012 169.99536900257306 0 169.99536900257306 498.85376774895826 0 0 0 0 -32.898736622544675 165.70468114273308 0 165.70468114273308 437.21613077786606 0 0 0 0 171.65555357358244 -57.292667500360039 0 -57.292667500360039 -37.96057103808694 0 0 0 0 -0.47529283926652965 0.097297156076280089 0 0.097297156076280089 0.67325117010493774 0 0 0 0 -1.8614966571185505 -51.595159166264352 0 -51.595159166264352 132.52394160126198 0 0 0 0 -196.34181179448206 -113.59229601431059 0 -113.59229601431059 405.6179039970491 0 0 0 0 -149.91535655513144 -2.9626719031805919 0 -2.9626719031805919 640.54735173321046 0 0 0 0 -0.81626971835794393 -64.501679388707203 0 -64.501679388707203 16.68262442185403 0 0 0 0 -3.8567618346423842 17.077825608103012 0 17.077825608103012 140.26126248812284 0 0 0 0 65.606448407823336 77.731868087927978 0 77.731868087927978 161.65240127835978 0 0 0 0 -43.666917734735762 -30.824197036975193 0 -30.824197036975193 247.73330618829732 0 0 0 0 18.616018686370808 -203.00663624083441 0 -203.00663624083441 -159.52168468172695 0 0 0 0 9.3287971568424837 -117.74578243594686 0 -117.74578243594686 48.669951065034184 0 0 0 0 -111.58631536005851 -215.54018618809297 0 -215.54018618809297 136.34903730274897 0 0 0 0 -68.425309872220168 -116.3577021116002 0 -116.3577021116002 10.807448149028914 0 0 0 0 -72.114280061607133 -169.54546697189789 0 -169.54546697189789 -136.80220446652879 0 0 0 0 59.674153389103594 -177.65538498788226 0 -177.65538498788226 -178.79095397431868 0 0 0 0 57.056942692577195 -199.9903259110132 0 -199.9903259110132 -218.58616610412761 0 0 0 0 -125.47795748850331 -217.222212887159 0 -217.222212887159 -77.202383905221836 0 0 0 0 -21.851273828004196 -104.33277992173018 0 -104.33277992173018 -134.82548228655762 0 0 0 0 34.857233944436302 -76.180511295764674 0 -76.180511295764674 -188.76895374302015 0 0 0 0 -653.80417639831649 -397.77294862030965 0 -397.77294862030965 -180.33463234085724 0 0 0 0 82.680199096997967 -334.7862651877146 0 -334.7862651877146 -705.76434014931885 0 0 0 0 -126.46547421923606 -228.87768733917022 0 -228.87768733917022 -135.40842488284028 0 0 0 0 240.85545647337858 -157.54886452812821 0 -157.54886452812821 -74.404998004315132 0 0 0 0 1.4716012808432666 0.34799386986816216 0 0.34799386986816216 -0.012901149420273761 0 0 0 0 -142.12590435528546 -90.528117600918335 0 -90.528117600918335 100.09134221404804 0 0 0 0 40.182701209196239 -100.52154285439951 0 -100.52154285439951 78.818631527378443 0 0 0 0 -41.676684352824395 -1.2674238311915325 0 -1.2674238311915325 1.299059350048132 0 0 0 0 -75.591109650244107 -48.108062256437449 0 -48.108062256437449 100.19518260591326 0 0 0 0 -50.751269851860343 15.708271499395948 0 15.708271499395948 28.50176606971354 0 0 0 0 -8.1450409106813737 1.9598575802954059 0 1.9598575802954059 2.3403636045937146 0 0 0 0 -32.44690681922782 -4.2906483168517155 0 -4.2906483168517155 -0.42072423581775631 0 0 0 0 -70.66289917564427 43.676991551738524 0 43.676991551738524 -61.732488571373324 0 0 0 0 -69.393214711479231 33.100254267525088 0 33.100254267525088 -36.615203615791415 0 0 0 0 -67.342620535069727 -1.9856547653041616 0 -1.9856547653041616 -2.5500424648840863 0 0 0 0 -41.446850424443255 -8.1084673602649673 0 -8.1084673602649673 -9.39966109057832 0 0 0 0 -11.329315631570516 -0.052958564920785989 0 -0.052958564920785989 -2.6431600727563751 0 0 0 0 -67.441474050399847 51.097850348771544 0 51.097850348771544 -45.593877325058145 0 0 0 0 -90.865117146724515 127.03604629449626 0 127.03604629449626 -195.67667083704396 0 0 0 0 -21.550383627985553 -2.6721316914562045 0 -2.6721316914562045 -0.54137016676907823 0 0 0 0 -113.91154080514752 -77.077131046341208 0 -77.077131046341208 18.367888242458321 0 0 0 0 -46.282327143897419 43.940322794801148 0 43.940322794801148 -35.844295506937328 0 0 0 0 -162.32503296170398 -131.14695362164363 0 -131.14695362164363 -122.22668692686534 0 0 0 0 -87.74070143078734 -242.19209584921816 0 -242.19209584921816 -391.47626129533558 0 0 0 0 -1466.8855109260548 -596.05276939023543 0 -596.05276939023543 -175.64042109768766 0 0 0 0 -854.13188279281167 -257.18928609358125 0 -257.18928609358125 -331.43161946063788 0 0 0 0 -371.24261052411021 -509.74144349515007 0 -509.74144349515007 -441.97507213506242 0 0 0 0 -7.6335960174168633 -1.492554762931352 0 -1.492554762931352 -1.0610955448712072 0 0 0 0 -126.11689115194895 37.682438176074015 0 37.682438176074015 -217.06895864146611 0 0 0 0 -158.552020095427 98.86832421153008 0 98.86832421153008 -39.098091779601418 0 0 0 0 -957.7031017269619 41.329074447880316 0 41.329074447880316 30.84442824651569 0 0 0 0 -157.35851453172654 416.34554403709888 0 416.34554403709888 -676.53942380204307 0 0 0 0 201.31266701426648 174.2974457891994 0 174.2974457891994 42.159711002470658 0 0 0 0 -304.86800712396507 -118.50826766141154 0 -118.50826766141154 719.24370082059795 0 0 0 0 -0.51116000586526411 -0.10304231004671749 0 -0.10304231004671749 0.57040866515146371 0 0 0 0 -159.26942039655114 126.54881240700297 0 126.54881240700297 -18.887086562386344 0 0 0 0 -1216.1094828832938 234.45973891292715 0 234.45973891292715 -463.23969791131321 0 0 0 0 -2490.7454942031836 1318.013985533845 0 1318.013985533845 -543.39900881441281 0 0 0 0 -0.071691462897348401 -3.0706942090409228 0 -3.0706942090409228 -3.06681152528353 0 0 0 0 -343.9386463118135 -722.80981941617051 0 -722.80981941617051 878.11342306220899 0 0 0 0 -26.520479697632652 -15.418271609565721 0 -15.418271609565721 -3.9917896666093347 0 0 0 0 7.5243342669874664 -4.8246056507376167 0 -4.8246056507376167 -4.2414449276135837 0 0 0 0 -1111.2297463231007 649.69771827444538 0 649.69771827444538 -595.08573133097684 0 0 0 0 96.293441354093375 -79.687296096967884 0 -79.687296096967884 -51.454691110891417 0 0 0 0 -134.76638837451173 131.48894450980629 0 131.48894450980629 168.40736705805955 0 0 0 0 -195.33880841595237 -725.35930427674361 0 -725.35930427674361 -1020.2388920532073 0 0 0 0 -845.60958145825862 -1939.2512595001247 0 -1939.2512595001247 -1695.7063892875658 0 0 0 0 690.69982642602008 -826.15675314106761 0 -826.15675314106761 -1746.2881511898411 0 0 0 0 -2479.529508401276 -45.840712631157331 0 -45.840712631157331 -22.487469578956652 0 0 0 0 -4.1966516321476632 -5.676200463658148 0 -5.676200463658148 -6.3843308710279629 0 0 0 0 -2495.420754056744 -1591.3315824462179 0 -1591.3315824462179 -598.55466374711466 0 0 0 0 -1101.0750816798318 -722.56500805417807 0 -722.56500805417807 -1090.3040102494253 0 0 0 0 -444.78556253919669 -602.04807264620649 0 -602.04807264620649 -1081.0968878991043 0 0 0 0 -1415.3395302754943 -756.03433779704778 0 -756.03433779704778 -237.51758082644363 0 0 0 0 -1500.3635642621775 -907.43121606272769 0 -907.43121606272769 -261.73165150689039 0 0 0 0 -1709.3375144349848 -573.42619401208663 0 -573.42619401208663 218.42122540054208 0 0 0 0 -2500.4108123515834 -666.78750495606846 0 -666.78750495606846 221.64566937733775 0 0 0 0 -3.0489913222957945 -0.68623869694911832 0 -0.68623869694911832 -0.65617927297603418 0 0 0 0 -635.59646808628167 -230.82278868703554 0 -230.82278868703554 -131.73901248618029 0 0 0 0 -633.46253110103135 -145.77590023558378 0 -145.77590023558378 -99.439651701014299 0 0 0 0 -170.59170684381388 -230.21278107666842 0 -230.21278107666842 -103.27820522181823 0 0 0 0 -832.49393154129211 44.469186644293245 0 44.469186644293245 129.43620423446583 0 0 0 0 -161.42260321497452 5.3233355670656692 0 5.3233355670656692 58.333760871417411 0 0 0 0 -206.25425757748599 -377.43070760835582 0 -377.43070760835582 344.85966786232825 0 0 0 0 -1218.7723585867207 -439.29535923530199 0 -439.29535923530199 -82.92701626837831 0 0 0 0 -2146.5167164015147 -207.40278677000296 0 -207.40278677000296 360.68250363813735 0 0 0 0 -1164.9714562860099 -32.064932875742684 0 -32.064932875742684 -165.05454571287822 0 0 0 0 -990.03298674666439 -577.51393223386913 0 -577.51393223386913 -118.8322400011004 0 0 0 0 -1043.5337036991114 -333.80282995100862 0 -333.80282995100862 532.78748154452785 0 0 0 0 -349.80088257876923 -488.75537718785625 0 -488.75537718785625 36.23608447590243 0 0 0 0 -532.53511414946843 -176.41395154674933 0 -176.41395154674933 96.839724153763655 0 0 0 0 -1033.0576061976317 -321.10362560664146 0 -321.10362560664146 114.50398294951447 0 0 0 0 -1383.1447151727043 -151.17868796676203 0 -151.17868796676203 174.25965375545388 0 0 0 0 -1407.8287263816674 -619.39888021297247 0 -619.39888021297247 183.05791728899203 0 0 0 0 -2.9763495519690117 -0.9213972556286194 0 -0.9213972556286194 -7.8738762631966708 0 0 0 0 -2499.0800653539518 -314.30465877259638 0 -314.30465877259638 209.59494121429543 0 0 0 0 -1941.3019173124812 -176.50681713022362 0 -176.50681713022362 243.63625170193725 0 0 0 0 -1757.0711021752377 -102.70993242937826 0 -102.70993242937826 79.251742686669218 0 0 0 0 -2499.7566231767705 -7.7423834808467413 0 -7.7423834808467413 360.16120034624271 0 0 0 0 -12.041936255137799 4.3014645947494152 0 4.3014645947494152 -0.99418242803857937 0 0 0 0 -924.99847715151191 1225.9242333315087 0 1225.9242333315087 -1654.165750759739 0 0 0 0 -53.303810996876564 610.5379726788733 0 610.5379726788733 -1227.3872060023334 0 0 0 0 105.56770701095729 -48.892452357671871 0 -48.892452357671871 -691.04645369135005 0 0 0 0 -2500.7306542383722 602.13284363300409 0 602.13284363300409 -1569.5875992327433 0 0 0 0 -2865.9207985214653 1292.7722106467281 0 1292.7722106467281 -427.59650404823577 0 0 0 0 -1721.2869691120723 -185.3886020395251 0 -185.3886020395251 172.80024197197804 0 0 0 0 -1624.3052820822522 707.14840915838852 0 707.14840915838852 -161.18690425877875 0 0 0 0 -1761.787029159017 676.40029566701151 0 676.40029566701151 -159.86016505422475 0 0 0 0 -601.69724672783377 637.21983697513531 0 637.21983697513531 -507.25233928562767 0 0 0 0 -1069.8042629865631 1231.19846457839 0 1231.19846457839 -899.40536577278749 0 0 0 0 -668.05662690996633 552.71444972473262 0 552.71444972473262 -400.22045433797098 0 0 0 0 -387.79917911772463 256.41335960512907 0 256.41335960512907 -194.67453975992089 0 0 0 0 -337.25459906284232 314.62622062828274 0 314.62622062828274 -181.82355587065817 0 0 0 0 -159.92824821733666 140.43668351987492 0 140.43668351987492 -77.28470489947432 0 0 0 0 -126.93328443319024 221.95590421023957 0 221.95590421023957 -206.11650164249193 0 0 0 0 -4.5718367993194988 136.70699571693297 0 136.70699571693297 -149.34310476333911 0 0 0 0 -25.768884286921093 10.767773125639451 0 10.767773125639451 5.5293412392974233 0 0 0 0 -71.932508805342877 -42.74816962162356 0 -42.74816962162356 52.035185988984722 0 0 0 0 -24.494658005957938 6.7767859930104155 0 6.7767859930104155 13.273015152560257 0 0 0 0 -6.6123264437687901 19.384181691364915 0 19.384181691364915 11.442270337522181 0 0 0 0 -37.420816217536554 0.14195577047947427 0 0.14195577047947427 12.757820762138717 0 0 0 0 5.2718959982339584 95.464410503458566 0 95.464410503458566 -342.42609229363688 0 0 0 0 -28.954110097661527 1.4922926323381585 0 1.4922926323381585 0.042657092195591516 0 0 0 0 -205.59031530606535 42.635045841961187 0 42.635045841961187 65.389659183199228 0 0 0 0 -23.194041921753474 -6.4929035750980795 0 -6.4929035750980795 -3.4400950352595325 0 0 0 0 248.51622454710014 -29.202245721649575 0 -29.202245721649575 -2.8459416400170543 0 0 0 0 -182.5472604319275 -52.173822332440523 0 -52.173822332440523 175.14368807104233 0 0 0 0 -61.255904528727115 83.506925288590537 0 83.506925288590537 11.382530928751427 0 0 0 0 8.388323865019629 -526.55235343000049 0 -526.55235343000049 225.89022411437918 0 0 0 0 -5.7277865519687126 11.942985280372064 0 11.942985280372064 18.529831187257564 0 0 0 0 165.5443063218645 -195.00655415665187 0 -195.00655415665187 -89.372227309985647 0 0 0 0 -3.8999040652306576 225.34647685643722 0 225.34647685643722 54.613502862284804 0 0 0 0 -457.49686633653619 43.529918638508207 0 43.529918638508207 284.52702965023923 0 0 0 0 -353.76818887090667 190.13456198368692 0 190.13456198368692 -412.88340425914976 0 0 0 0 -320.04755849836511 246.51339083156904 0 246.51339083156904 435.96269118863881 0 0 0 0 -261.25485836922599 171.19145299088291 0 171.19145299088291 -552.33335726424752 0 0 0 0 -527.61234969997031 556.63631920307557 0 556.63631920307557 -927.0342187001288 0 0 0 0 2.5807617713440294 1.7103455592218282 0 1.7103455592218282 4.5955901301354753 0 0 0 0 507.21845992036469 -381.40767324829415 0 -381.40767324829415 -21.557490938867886 0 0 0 0 -203.61124043462769 214.34660016216941 0 214.34660016216941 -59.098002723359372 0 0 0 0 -257.75179530608148 -436.65534117658547 0 -436.65534117658547 -266.79595969903016 0 0 0 0 316.35836381232002 173.10754871382107 0 173.10754871382107 -346.96240544512114 0 0 0 0 -2496.4853157353446 279.58749474443368 0 279.58749474443368 207.60815653123538 0 0 0 0 -2096.2634951568998 527.13831457912806 0 527.13831457912806 -223.59980650972099 0 0 0 0 -2901.3764651957426 930.16709833807136 0 930.16709833807136 -333.20901235349993 0 0 0 0 -9.3078839769521409 -4.1373330992747022 0 -4.1373330992747022 -2.3043664172372966 0 0 0 0 -2494.3692450997896 -406.68195699743183 0 -406.68195699743183 537.08519562646882 0 0 0 0 -764.811078251857 204.5356196352389 0 204.5356196352389 73.471109479885968 0 0 0 0 -8.1733795728950014 -2.8560443807387301 0 -2.8560443807387301 0.5616125065006321 0 0 0 0 -483.69264093167294 164.57083761794607 0 164.57083761794607 21.113892395317293 0 0 0 0 -834.86668375333102 2.8620110169019881 0 2.8620110169019881 178.50929662980874 0 0 0 0 -657.86700181986816 -53.075488022536128 0 -53.075488022536128 160.82281904923016 0 0 0 0 -2499.2936610383331 816.19091641376303 0 816.19091641376303 -120.74660122303895 0 0 0 0 -726.76752501238298 637.93570266317056 0 637.93570266317056 -327.28368736546184 0 0 0 0 -618.86833891587958 374.88832260732045 0 374.88832260732045 -311.91176085628911 0 0 0 0 -525.28326438490694 540.51705746790958 0 540.51705746790958 -589.17308333943265 0 0 0 0 -634.17384015423158 128.40889769226644 0 128.40889769226644 -459.29124960538076 0 0 0 0 -6.2662785368993923 -0.77814901654857493 0 -0.77814901654857493 -0.058368164607886602 0 0 0 0 -120.50498412739398 16.341382869808399 0 16.341382869808399 69.86150730960992 0 0 0 0 -113.1679507162462 11.125158271455405 0 11.125158271455405 51.444208455787248 0 0 0 0 14.938422590525079 84.985877826190574 0 84.985877826190574 -99.698437587747094 0 0 0 0 -31.960256494512407 -17.978645157837875 0 -17.978645157837875 -1.9997356637565398 0 0 0 0 -11.677846948965453 -176.49187526239916 0 -176.49187526239916 -27.166351294837483 0 0 0 0 -702.3344117448687 719.17729086681265 0 719.17729086681265 -529.87174444100708 0 0 0 0 -593.53823664214724 455.36752103645642 0 455.36752103645642 -509.30965723944428 0 0 0 0 -79.635712978080846 -37.58004222184195 0 -37.58004222184195 77.877431167592249 0 0 0 0 -735.37198967995937 584.81528363801579 0 584.81528363801579 -449.26194504565632 0 0 0 0 -36.313025205160898 -20.586928701235088 0 -20.586928701235088 -0.80261175906451498 0 0 0 0 -746.37332025324486 552.799924398916 0 552.799924398916 -370.50113387990814 0 0 0 0 -712.30607712653 508.92946304604243 0 508.92946304604243 -396.89368354334772 0 0 0 0 -4.2061795651865168 -1.2900479821251665 0 -1.2900479821251665 0.98273481054927858 0 0 0 0 14.529402088683128 -178.77595545865307 0 -178.77595545865307 195.42170060626427 0 0 0 0 -684.17139811279048 519.59471359245867 0 519.59471359245867 -404.68724626990246 0 0 0 0 -709.01632067828359 522.82298391696804 0 522.82298391696804 -385.00727884868638 0 0 0 0 -496.82474296088185 302.33866166450912 0 302.33866166450912 -241.89883365068101 0 0 0 0 -46.725335421240146 -20.653547119171812 0 -20.653547119171812 -0.5304864356986142 0 0 0 0 -695.3186655983227 386.91160703180213 0 386.91160703180213 -262.90626453493928 0 0 0 0 -1292.7676575562946 569.94529102399042 0 569.94529102399042 -164.14377518134336 0 0 0 0 -11.609152127904437 -2.9148471427285614 0 -2.9148471427285614 1.295289631602164 0 0 0 0 162.61197403745973 249.52317937386817 0 249.52317937386817 -84.490927537216749 0 0 0 0 -67.115866688314441 26.689732008818126 0 26.689732008818126 0.25009306975553469 0 0 0 0 162.11658657827866 225.44075130052545 0 225.44075130052545 36.216701292530928 0 0 0 0 -91.076837592685479 4.4220398238324492 0 4.4220398238324492 -2.5264589356509077 0 0 0 0 -83.847054243917228 23.181218089874164 0 23.181218089874164 23.15286200841922 0 0 0 0 -92.285275512804219 9.1601700117028031 0 9.1601700117028031 10.491595940195225 0 0 0 0 -104.02669485024671 7.7006445079344985 0 7.7006445079344985 41.772951204463197 0 0 0 0 -91.471285968771554 1.3792288165772106 0 1.3792288165772106 18.77681412461709 0 0 0 0 -81.215874577501381 19.551868895050688 0 19.551868895050688 -7.7643481464637887 0 0 0 0 -108.22043120286435 16.383949046507809 0 16.383949046507809 27.248828383201953 0 0 0 0 -90.629939222402754 56.37563198511782 0 56.37563198511782 -43.187301577022367 0 0 0 0 -75.362348591035698 31.813866034241755 0 31.813866034241755 -5.3970043989681926 0 0 0 0 -135.48720763564415 51.755382438346516 0 51.755382438346516 25.065331318392509 0 0 0 0 -150.99457433693169 32.044316535471125 0 32.044316535471125 24.421425151522271 0 0 0 0 -0.5070311451738192 -0.77535710853727835 0 -0.77535710853727835 -0.67356298251118663 0 0 0 0 -135.91583208715019 95.400480214324034 0 95.400480214324034 -31.953581918128293 0 0 0 0 -99.350499161781045 47.235996312023417 0 47.235996312023417 -36.210336502418691 0 0 0 0 -64.861295980830619 47.00121286913577 0 47.00121286913577 -58.946198930874971 0 0 0 0 -32.103886740107555 -4.2672741897971491 0 -4.2672741897971491 -14.968010255713125 0 0 0 0 -74.315365302767532 0.55628968001906287 0 0.55628968001906287 44.470547521286449 0 0 0 0 -64.384872976262685 24.12184112033054 0 24.12184112033054 4.3912773134677767 0 0 0 0 -157.44005271220522 176.49489410116337 0 176.49489410116337 -18.763176627416669 0 0 0 0 -11.837785630283179 70.470811621965879 0 70.470811621965879 -105.75510287585564 0 0 0 0 -102.14733094598705 59.072512916674441 0 59.072512916674441 105.73696748894712 0 0 0 0 -98.472003670962295 -218.2415504607786 0 -218.2415504607786 -239.92381231073452 0 0 0 0 -145.81903548330229 -89.604520908810869 0 -89.604520908810869 113.8426400985793 0 0 0 0 -379.11966325656613 313.3750686491249 0 313.3750686491249 296.58790176821435 0 0 0 0 -85.733661811080765 32.202088306112174 0 32.202088306112174 48.059816003899527 0 0 0 0 -67.126287798282874 27.353317458459724 0 27.353317458459724 1.1874223593658715 0 0 0 0 41.281324117204349 -153.47688162142759 0 -153.47688162142759 -294.8228482466327 0 0 0 0 -522.89153704929208 -115.30998585304941 0 -115.30998585304941 70.20385444654039 0 0 0 0 -103.06257304632891 75.183823079681957 0 75.183823079681957 -25.893945757245433 0 0 0 0 -3.8812865810230335 1.3737938824225999 0 1.3737938824225999 -0.56207080553180933 0 0 0 0 -82.967425772923889 -30.993137868825897 0 -30.993137868825897 -45.142131810486944 0 0 0 0 -504.33671969530792 81.030778162903303 0 81.030778162903303 -4.6670692576677197 0 0 0 0 -35.067873871457323 -74.013990068043825 0 -74.013990068043825 -103.80100629786602 0 0 0 0 -87.620884860144542 53.89098516849586 0 53.89098516849586 -0.90925091907934075 0 0 0 0 -10.270691369318939 0.67409919639436566 0 0.67409919639436566 -9.2609456695034424 0 0 0 0 -646.70736472539284 275.64612938373625 0 275.64612938373625 476.47572409669561 0 0 0 0 -1609.7026619865683 678.53417445056584 0 678.53417445056584 495.4668230768782 0 0 0 0 -93.12265501739239 728.36299236439686 0 728.36299236439686 -1010.8471516139243 0 0 0 0 -5.5564241653794966 -2.3488653245293261 0 -2.3488653245293261 0.29659886318004425 0 0 0 0 135.95151962428645 -440.53013102908375 0 -440.53013102908375 -174.00969209129221 0 0 0 0 -433.57463899198046 -117.08433742556099 0 -117.08433742556099 -41.197529740280061 0 0 0 0 -193.4590260391833 199.75939427935032 0 199.75939427935032 -94.557177399341526 0 0 0 0 -474.2702705437041 -113.3919182875245 0 -113.3919182875245 70.236235506022609 0 0 0 0 202.0546299651869 29.410373657333594 0 29.410373657333594 -166.18695525363501 0 0 0 0 -9.6662888514693606 11.490841226471861 0 11.490841226471861 5.3317606821061965 0 0 0 0 203.33885967460446 7.310516154577499 0 7.310516154577499 55.6335668339715 0 0 0 0 -1194.2792067312475 764.02243275305227 0 764.02243275305227 -544.9884878959997 0 0 0 0 -917.72802126604802 -1.5695761068250249 0 -1.5695761068250249 -453.18362224373641 0 0 0 0 -252.69011859846069 381.96672114046669 0 381.96672114046669 -702.91058898238816 0 0 0 0 -309.04706245889247 675.07615297899042 0 675.07615297899042 -1377.0504645996389 0 0 0 0 -453.35985458350478 367.4956157649608 0 367.4956157649608 -336.73561116533347 0 0 0 0 -492.21228865930607 656.2451236906445 0 656.2451236906445 -592.74961017234114 0 0 0 0 -749.75939092300905 348.52344060203905 0 348.52344060203905 -68.342494179265486 0 0 0 0 -361.41393933390646 -17.907944293272521 0 -17.907944293272521 228.21741294521257 0 0 0 0 -118.63320411822497 95.735338952448728 0 95.735338952448728 -24.872043719654812 0 0 0 0 -291.16974820294854 425.67130936513854 0 425.67130936513854 -394.89931106579206 0 0 0 0 -506.20627535265521 297.31170439512061 0 297.31170439512061 148.64442220926321 0 0 0 0 0.86856831059552064 2.0234883898480014 0 2.0234883898480014 1.4838730454351419 0 0 0 0 -613.38021813357409 873.72763293912749 0 873.72763293912749 -522.62751947793549 0 0 0 0 -500.25114058209147 440.23672348356331 0 440.23672348356331 -337.79589900733345 0 0 0 0 -76.57982872163484 70.989970283859293 0 70.989970283859293 -121.5924927047181 0 0 0 0 -101.74351192449831 499.37561244157496 0 499.37561244157496 -526.55525134338347 0 0 0 0 88.805437413251639 163.11766172544912 0 163.11766172544912 -83.874351242717694 0 0 0 0 -351.36165645613164 -261.49913976836444 0 -261.49913976836444 45.838532820683213 0 0 0 0 -52.165535179986477 7.0180863225722083 0 7.0180863225722083 6.776884397836195 0 0 0 0 -94.579887843525285 65.712810294513019 0 65.712810294513019 143.7447188796296 0 0 0 0 -291.55469800358696 218.39642796930366 0 218.39642796930366 446.15430182688578 0 0 0 0 5.1333022536646169 9.9183044556992037 0 9.9183044556992037 10.707150346563626 0 0 0 0 2.2960105312563428 -7.8374799301695344 0 -7.8374799301695344 -45.487166140504996 0 0 0 0 -3.3047193516203457 0.037794773125034542 0 0.037794773125034542 1.4254392711324382 0 0 0 0 -49.369224145495537 49.092846970524988 0 49.092846970524988 44.467746582494783 0 0 0 0 -21.512230850596097 29.069443097966541 0 29.069443097966541 -82.376797414527857 0 0 0 0 0.47054434348631702 -0.90950420098608475 0 -0.90950420098608475 -1.6627952435759124 0 0 0 0 -477.78716278652064 209.0138873407011 0 209.0138873407011 -121.49758531584575 0 0 0 0 -153.84767929927693 148.33877304760063 0 148.33877304760063 -110.97694911197959 0 0 0 0 -732.65325582010701 142.91099030068085 0 142.91099030068085 150.47275701167155 0 0 0 0 -693.77481894390985 29.459866457439603 0 29.459866457439603 42.143245123633278 0 0 0 0 -386.9633327908814 -83.273780840919471 0 -83.273780840919471 79.219550761954451 0 0 0 0 -699.71722349640731 186.43417886814723 0 186.43417886814723 203.74053427683793 0 0 0 0 -80.200209236001683 127.45887093526449 0 127.45887093526449 -66.569969821869563 0 0 0 0 -676.1782220555092 85.099565329780319 0 85.099565329780319 214.38075106007273 0 0 0 0 212.48620553998535 -219.59525259869645 0 -219.59525259869645 -1600.0764704647754 0 0 0 0 -799.33954571964932 830.59291236153831 0 830.59291236153831 -316.76748207838136 0 0 0 0 53.381237992578917 -518.74761357650243 0 -518.74761357650243 423.97079617202053 0 0 0 0 195.88334903232862 419.33039345829229 0 419.33039345829229 -528.13738074466755 0 0 0 0 -1277.3250235985815 215.65350621231619 0 215.65350621231619 212.68082776869096 0 0 0 0 -942.76241995371311 -146.34520648213766 0 -146.34520648213766 123.03912894192172 0 0 0 0 -19.315970745620881 2.1083020944638946 0 2.1083020944638946 -1.3974678388845807 0 0 0 0 -34.699438591424951 27.964298544991379 0 27.964298544991379 -28.064441135994912 0 0 0 0 -33.978567553763241 35.293345942424594 0 35.293345942424594 -25.4106339806292 0 0 0 0 -2.7641059950772693 12.272178776532144 0 12.272178776532144 -32.451820028399965 0 0 0 0 4.8445972004674331 43.400161048872178 0 43.400161048872178 -30.161279491241658 0 0 0 0 0.33987106298016911 9.0883456184027391 0 9.0883456184027391 -1.1378766229765009 0 0 0 0 6.9889610787522543 46.988060397025038 0 46.988060397025038 -28.040768401664536 0 0 0 0 -2.0022431264605984 43.816828781176355 0 43.816828781176355 -17.325918143294984 0 0 0 0 -15.66499313438544 67.279469791061445 0 67.279469791061445 -85.295867317810007 0 0 0 0 -3.3039209304242831 36.980801770393555 0 36.980801770393555 -28.30638764157402 0 0 0 0 -55.177389075526662 -8.014755436568521 0 -8.014755436568521 2.2948126778592268 0 0 0 0 1.763524128711655 2.2330019013319369 0 2.2330019013319369 3.6711950696576761 0 0 0 0 -63.188298226394636 53.921267264479752 0 53.921267264479752 -37.289371776701046 0 0 0 0 -62.897675879649341 57.049686362025 0 57.049686362025 -35.595510518968013 0 0 0 0 -104.28402989838014 58.353224569552822 0 58.353224569552822 -7.1793176308710827 0 0 0 0 -72.061174610136277 27.674759956321395 0 27.674759956321395 0.57725346366623853 0 0 0 0 -65.913182819875146 34.095068839209034 0 34.095068839209034 -15.845657216283143 0 0 0 0 -79.39172970657819 22.407899327115501 0 22.407899327115501 -1.9678213592665088 0 0 0 0 -89.051002638972022 27.600170884783893 0 27.600170884783893 6.073503221550709 0 0 0 0 -89.600197892916185 24.373991576777712 0 24.373991576777712 6.815721817787562 0 0 0 0 -78.063197795858287 34.240725197223583 0 34.240725197223583 9.8543969350762382 0 0 0 0 -79.316509412504274 23.178384611714591 0 23.178384611714591 4.8460012035666296 0 0 0 0 -84.690053820221692 18.685693378593442 0 18.685693378593442 0.48929765365210187 0 0 0 0 -90.837012278988823 19.620600686083549 0 19.620600686083549 3.8072302743948967 0 0 0 0 -87.095727005473691 26.307446067246701 0 26.307446067246701 1.733786598030747 0 0 0 0 -65.289998477683184 15.901933977799672 0 15.901933977799672 -2.7770966268026314 0 0 0 0 -85.58599677985876 10.445022743887876 0 10.445022743887876 -2.1677581859521524 0 0 0 0 -45.870547736955814 11.579560584645151 0 11.579560584645151 -11.850049371860223 0 0 0 0 -65.401131021802485 13.901736280631866 0 13.901736280631866 -8.2249158996437473 0 0 0 0 -27.428863086205638 16.150426337430417 0 16.150426337430417 -18.303575241304088 0 0 0 0 -42.613194350499725 22.540423464300147 0 22.540423464300147 -11.56328622541605 0 0 0 0 -42.0648787739932 15.007233041037438 0 15.007233041037438 -14.991047566940324 0 0 0 0 -16.885720647120252 35.275126730164629 0 35.275126730164629 0.98202685454953098 0 0 0 0 -13.888687266082343 22.869583989690454 0 22.869583989690454 -27.405091032539985 0 0 0 0 -5.2758750626460369 16.310890851687571 0 16.310890851687571 -23.132016118274528 0 0 0 0 -4.7218965568590052 15.274254715046425 0 15.274254715046425 -19.416521103192519 0 0 0 0 49.128855062701405 22.949682437913353 0 22.949682437913353 -73.573664171447746 0 0 0 0 21.654692645071009 -35.051549322329734 0 -35.051549322329734 -47.601260337356393 0 0 0 0 -83.044104056975769 34.333932760170178 0 34.333932760170178 -36.504196991161166 0 0 0 0 -43.227722341545814 5.5604965656889362 0 5.5604965656889362 -14.818655272548312 0 0 0 0 -38.511254813211053 13.880106403329592 0 13.880106403329592 -13.74287489951945 0 0 0 0 -35.712915776394084 -1.3872682327521488 0 -1.3872682327521488 -21.378811858347035 0 0 0 0 -13.919671649150002 13.619647733198819 0 13.619647733198819 -14.82611223863211 0 0 0 0 -19.643854033361322 4.1957234395304113 0 4.1957234395304113 -12.530616288610872 0 0 0 0 -42.776280981677701 14.742428906391524 0 14.742428906391524 12.525537076542605 0 0 0 0 -10.127766036478263 4.93818030675477 0 4.93818030675477 -6.4754575045945719 0 0 0 0 11.864868196615134 -15.960943174346085 0 -15.960943174346085 -5.647456188511228 0 0 0 0 -106.72594385362754 -130.57259389494831 0 -130.57259389494831 -107.09631281041212 0 0 0 0 -71.965231468282582 -31.313538578886096 0 -31.313538578886096 -15.892064488832716 0 0 0 0 -135.93123767367069 -21.671465263129676 0 -21.671465263129676 1.299492856204381 0 0 0 0 -50.556760987884743 13.574499823246617 0 13.574499823246617 -3.2914301743835717 0 0 0 0 -70.325570881311251 2.8301244461414967 0 2.8301244461414967 -4.1440122286871883 0 0 0 0 -7.708432761881479 -0.61488957020282697 0 -0.61488957020282697 -13.394590262444678 0 0 0 0 72.706945336247372 156.41697482156542 0 156.41697482156542 4.8788201447432584 0 0 0 0 -16.310517978849067 -5.0738106658565556 0 -5.0738106658565556 -10.278933130981983 0 0 0 0 -58.463297721429868 18.520282757243635 0 18.520282757243635 7.4008603670565458 0 0 0 0 -96.537385207185253 -3.453043205069747 0 -3.453043205069747 -2.1155454268011908 0 0 0 0 -119.44495097067602 -2.3771166569903386 0 -2.3771166569903386 -2.5678181266532647 0 0 0 0 -8.2796134864256601 36.67648068951712 0 36.67648068951712 8.3508078273376753 0 0 0 0 18.935821689163276 8.9281653360446853 0 8.9281653360446853 -18.356027400567086 0 0 0 0 -65.008012996462639 -66.037445780340363 0 -66.037445780340363 80.629149941099513 0 0 0 0 -19.408684495710322 0.9653513185547169 0 0.9653513185547169 0.66887862388727548 0 0 0 0 -52.077665029520148 8.2348196254906938 0 8.2348196254906938 -6.5704219415913485 0 0 0 0 -59.222408898819822 -15.57012392880678 0 -15.57012392880678 2.8628374554918992 0 0 0 0 -47.019418953307564 -0.72684566737425804 0 -0.72684566737425804 4.674402040554023 0 0 0 0 -82.204031735192984 -2.3905378380195543 0 -2.3905378380195543 7.4352951020919136 0 0 0 0 -64.24747424983434 18.672009324526016 0 18.672009324526016 4.0819825300909542 0 0 0 0 -62.157422970471089 -2.5727810811724794 0 -2.5727810811724794 -11.734897586627312 0 0 0 0 496.89584724104407 -203.56389143269416 0 -203.56389143269416 -637.393630195279 0 0 0 0 -124.93085272730968 87.487596621739613 0 87.487596621739613 -66.901333949261357 0 0 0 0 -4.7042752388610367 -2.8008374973502068 0 -2.8008374973502068 -0.063660969353005692 0 0 0 0 -0.073554645736294333 -11.4810186098548 0 -11.4810186098548 -10.491149297299671 0 0 0 0 -59.411967887335862 12.800833238681033 0 12.800833238681033 0.94411742209979099 0 0 0 0 -525.68965146967821 -63.734682381244056 0 -63.734682381244056 305.38009346807121 0 0 0 0 -44.35596837972821 -1.6450309515806367 0 -1.6450309515806367 5.3377838251708454 0 0 0 0 -30.439472362877211 -9.4043645447180033 0 -9.4043645447180033 4.4667187115270437 0 0 0 0 -53.171073029251602 48.19261197271544 0 48.19261197271544 -70.694138467992161 0 0 0 0 -6.2151102067600625 -0.40468693275235346 0 -0.40468693275235346 0.061399725520367099 0 0 0 0 -72.860791407958089 16.278857860757086 0 16.278857860757086 -74.411124075671978 0 0 0 0 -144.40029960411266 56.915925816984782 0 56.915925816984782 -26.484225689992286 0 0 0 0 -109.37193560304308 35.551315067882683 0 35.551315067882683 -21.834005723931114 0 0 0 0 -109.43349961223339 35.382907520215099 0 35.382907520215099 -19.550369686909107 0 0 0 0 -120.42339318933591 36.24195666968626 0 36.24195666968626 -16.820699694379982 0 0 0 0 -111.78590074143176 27.487437193673031 0 27.487437193673031 -8.2445389061085734 0 0 0 0 -102.03201447625543 31.870168348275911 0 31.870168348275911 -24.578418173111459 0 0 0 0 -3.9650494059951598 11.496646667426376 0 11.496646667426376 -24.401133640815715 0 0 0 0 -254.14792207942628 50.055714682595863 0 50.055714682595863 -26.903788899702704 0 0 0 0 -317.77208528684605 -117.47532120691085 0 -117.47532120691085 -56.1762227552681 0 0 0 0 -96.186750745277095 -63.601385018435394 0 -63.601385018435394 -44.031723262094147 0 0 0 0 -88.345185067856619 1.90201120661186 0 1.90201120661186 -9.3386054612019507 0 0 0 0 -219.22184396914145 -7.6160037582703808 0 -7.6160037582703808 4.0226011373288202 0 0 0 0 -140.42798805847451 14.142355418955049 0 14.142355418955049 0.071040201884898124 0 0 0 0 -105.28555619844337 -9.5262172625325547 0 -9.5262172625325547 3.1934428093318274 0 0 0 0 -74.647183962295458 -20.280514698419211 0 -20.280514698419211 -19.926795695635292 0 0 0 0 -95.445675870818377 8.5464021075588334 0 8.5464021075588334 -4.3472236713241728 0 0 0 0 -98.734027770666216 0.029573549201359128 0 0.029573549201359128 -2.0184784171142383 0 0 0 0 -71.73372886708853 7.1214636563011027 0 7.1214636563011027 -6.1471850052057562 0 0 0 0 -69.228498233095706 -0.25316456948849009 0 -0.25316456948849009 -11.395878173250821 0 0 0 0 -102.86315673996717 30.643360877029608 0 30.643360877029608 -3.6134144964726147 0 0 0 0 -107.31508194380513 22.051293649279614 0 22.051293649279614 -12.346119173063016 0 0 0 0 -103.87797645503451 19.411226988580893 0 19.411226988580893 -10.784589770146795 0 0 0 0 -109.7373514890287 20.301995383734265 0 20.301995383734265 -1.0556768666201606 0 0 0 0 -92.992036636962439 15.027282209233817 0 15.027282209233817 -0.13201751290762331 0 0 0 0 -99.348687024061974 29.070631400020829 0 29.070631400020829 1.1236436160006633 0 0 0 0 -96.925376794355543 26.172549421898111 0 26.172549421898111 -2.1737117185348325 0 0 0 0 -91.38486051501468 39.440386599013209 0 39.440386599013209 -6.2853557708804146 0 0 0 0 -96.903091768876948 35.318886809803416 0 35.318886809803416 -7.6774954765915027 0 0 0 0 -87.843731322241183 32.183622477345125 0 32.183622477345125 -8.4911925517226337 0 0 0 0 -127.95140805736537 46.809077028226056 0 46.809077028226056 -9.8214091633192311 0 0 0 0 -71.691937977176167 33.222208614773308 0 33.222208614773308 -6.7217715754870824 0 0 0 0 -103.48045984308582 46.34987336487228 0 46.34987336487228 27.13162925686629 0 0 0 0 -103.3450780612731 24.809786708170648 0 24.809786708170648 17.351705237463648 0 0 0 0 -72.222991080354404 31.283114125126303 0 31.283114125126303 18.377313115665174 0 0 0 0 -81.233626604438996 30.63136478891829 0 30.63136478891829 -35.405804830886154 0 0 0 0 -81.134604623447103 22.352153367182837 0 22.352153367182837 -14.451509292521678 0 0 0 0 -13.169672195570088 4.2654261095308232 0 4.2654261095308232 4.0830058602881643 0 0 0 0 -106.66299593144868 28.017936549675142 0 28.017936549675142 -9.9428792209146195 0 0 0 0 -19.445576055104905 -1.739225761889267 0 -1.739225761889267 2.7671677724493797 0 0 0 0 -102.95101777725404 -38.367774033491287 0 -38.367774033491287 21.332369578020007 0 0 0 0 -37.233672303653847 -6.2234163039555828 0 -6.2234163039555828 4.7466135577976223 0 0 0 0 -51.477648486334147 65.66127501886757 0 65.66127501886757 25.822255506014699 0 0 0 0 762.0480482799685 204.29858575477829 0 204.29858575477829 -44.599690099807049 0 0 0 0 -41.755934050757787 -3.4047004917511003 0 -3.4047004917511003 6.0286217261964339 0 0 0 0 -33.405401388229507 -10.997458330051071 0 -10.997458330051071 0.57825015723484796 0 0 0 0 -68.193049999009418 -32.251299484249159 0 -32.251299484249159 -0.23432825188592687 0 0 0 0 -38.261794208483479 0.46328769686306259 0 0.46328769686306259 0.24395705810457002 0 0 0 0 -38.967400510904554 -3.6871798230235981 0 -3.6871798230235981 3.4808116217336647 0 0 0 0 455.46472572232597 157.83553876366204 0 157.83553876366204 538.57068506124779 0 0 0 0 534.49907412160974 106.19571302078748 0 106.19571302078748 182.4650751802601 0 0 0 0 254.97793912352063 82.11186850440663 0 82.11186850440663 688.68803303055756 0 0 0 0 -73.834921825151056 5.1289928653706109 0 5.1289928653706109 1.035347828369225 0 0 0 0 -96.856352592894837 50.652387482977247 0 50.652387482977247 29.805277696625126 0 0 0 0 -81.555098055947383 47.525326095385481 0 47.525326095385481 26.201220272102546 0 0 0 0 -655.72784048508038 -569.73394885498965 0 -569.73394885498965 1040.8660197200447 0 0 0 0 -41.022390016527424 40.069429019997187 0 40.069429019997187 16.125592817215875 0 0 0 0 -1274.2834499173605 -1644.1374319692843 0 -1644.1374319692843 427.54514255056984 0 0 0 0 -338.86892366841494 -913.70417040402845 0 -913.70417040402845 -1132.6849726962482 0 0 0 0 -407.88016756589059 193.3510047032596 0 193.3510047032596 -879.55239219335044 0 0 0 0 19.114140884397784 -99.253973490287535 0 -99.253973490287535 716.28757657320079 0 0 0 0 -273.69285874829438 -569.62459162490848 0 -569.62459162490848 265.42079638580799 0 0 0 0 356.88693903875537 -20.352501340239542 0 -20.352501340239542 -389.32858729814052 0 0 0 0 357.33516134426463 -49.365059700401616 0 -49.365059700401616 55.857739985192893 0 0 0 0 814.52044786366605 73.18144150754415 0 73.18144150754415 -425.10437061222547 0 0 0 0 693.94001181855856 -232.76932078294249 0 -232.76932078294249 -379.93089761214196 0 0 0 0 -115.31174285835004 -88.66567632112401 0 -88.66567632112401 -164.84487358661681 0 0 0 0 -910.26998597944475 146.53665195146186 0 146.53665195146186 -250.715159135676 0 0 0 0 -112.59769650320095 -126.92436784601671 0 -126.92436784601671 -541.39623049169677 0 0 0 0 -716.87477436040353 -93.303024990790618 0 -93.303024990790618 44.614769497939051 0 0 0 0 -390.0567817222618 -84.279231549996439 0 -84.279231549996439 35.593423164133128 0 0 0 0 -1087.1378360318558 -451.66100696723515 0 -451.66100696723515 114.03546094929152 0 0 0 0 -166.86752446911305 -539.14088646666141 0 -539.14088646666141 84.075049164361189 0 0 0 0 -19.720073890753078 -0.52129259686186913 0 -0.52129259686186913 -6.3312181121164279 0 0 0 0 -218.11302399761917 16.872950525621036 0 16.872950525621036 340.67532082154355 0 0 0 0 -62.50292237233225 99.944498867129596 0 99.944498867129596 87.152487987107634 0 0 0 0 -357.77532262909153 -420.91623230479399 0 -420.91623230479399 299.7173398226023 0 0 0 0 -244.1059109556445 -80.874740550668321 0 -80.874740550668321 62.162080460803736 0 0 0 0 -59.851906239411619 -21.783824362975338 0 -21.783824362975338 -45.621926469874779 0 0 0 0 -83.750068117820774 -46.309358278014315 0 -46.309358278014315 -61.991165266705138 0 0 0 0 -204.45976345968666 -89.74249138192863 0 -89.74249138192863 -26.532385412217991 0 0 0 0 -118.77048211201327 -22.317438143319123 0 -22.317438143319123 23.03953957642716 0 0 0 0 -118.45488649467006 36.075524075528847 0 36.075524075528847 97.202106494729378 0 0 0 0 -260.48854203593692 -66.21988191715468 0 -66.21988191715468 99.932559995611882 0 0 0 0 -272.36840891748216 -13.011229481086843 0 -13.011229481086843 87.84395855513867 0 0 0 0 -114.52917465146129 8.9446996190873165 0 8.9446996190873165 44.256763012665033 0 0 0 0 -8.0587448010046501 -47.510518959723413 0 -47.510518959723413 74.05179036671143 0 0 0 0 -5.2249107310169691 -0.57522662743773623 0 -0.57522662743773623 1.8094925309246079 0 0 0 0 -8.4261839964991481 -7.7802462509134109 0 -7.7802462509134109 4.7664853743932252 0 0 0 0 -29.914092579070712 -139.47348021016523 0 -139.47348021016523 233.80079061031302 0 0 0 0 269.63970245437667 -51.347175364723171 0 -51.347175364723171 31.803890540057182 0 0 0 0 44.158848442792078 -10.331526469448363 0 -10.331526469448363 36.711950627894566 0 0 0 0 -105.46395089046564 -77.658852027587272 0 -77.658852027587272 29.545347984927503 0 0 0 0 73.76984952960629 -103.26162931411636 0 -103.26162931411636 24.04685966138095 0 0 0 0 -575.36793692683568 128.80879179908334 0 128.80879179908334 371.2153437650536 0 0 0 0 -294.11270372202853 2.9842429392074337 0 2.9842429392074337 160.05081179897024 0 0 0 0 -229.6139774684998 148.19429520719314 0 148.19429520719314 -79.049346033141774 0 0 0 0 -1365.3860356604337 242.68167237875787 0 242.68167237875787 270.62011346846248 0 0 0 0 -553.90623023275111 347.44234146644249 0 347.44234146644249 -44.260831823846388 0 0 0 0 -924.51518196075699 316.05804045317916 0 316.05804045317916 273.41795026157797 0 0 0 0 -17.354259316206665 8.0845857695932324 0 8.0845857695932324 -1.6972550111838327 0 0 0 0 -128.9004762203549 561.62986794925791 0 561.62986794925791 -364.79781121500048 0 0 0 0 -91.793730187712754 28.833478504841423 0 28.833478504841423 110.39917499531873 0 0 0 0 -0.26994407673009846 1036.208572762516 0 1036.208572762516 -161.68063173521386 0 0 0 0 -48.100837544553613 8.9378715360742493 0 8.9378715360742493 -0.86564556123392433 0 0 0 0 -45.428441434367357 -9.2268137169548936 0 -9.2268137169548936 37.451585990551393 0 0 0 0 817.79250957783756 -498.45624160140142 0 -498.45624160140142 -858.70654944088983 0 0 0 0 -12.384690776695606 53.647001320460134 0 53.647001320460134 15.170252341647029 0 0 0 0 7.8733115973770964 -74.497785813542521 0 -74.497785813542521 -109.48815977141294 0 0 0 0 -99.186179536581221 -52.136435472037419 0 -52.136435472037419 33.314005434252522 0 0 0 0 -283.70188586687073 -188.03303286240953 0 -188.03303286240953 -48.896005897085161 0 0 0 0 -66.788414687044678 13.865274396765926 0 13.865274396765926 -10.566866505636426 0 0 0 0 -89.690112335663798 27.39052365282123 0 27.39052365282123 17.270676202045024 0 0 0 0 -99.736827720484143 -35.058308409825258 0 -35.058308409825258 -4.9964001476162139 0 0 0 0 -120.4274382226622 38.923799053446828 0 38.923799053446828 -19.808737033116699 0 0 0 0 -108.51131686813562 6.5673322925977118 0 6.5673322925977118 19.919244662090932 0 0 0 0 -200.64615651507938 -30.316000383376831 0 -30.316000383376831 29.627886416740239 0 0 0 0 -255.35628799198071 30.115085937167237 0 30.115085937167237 85.698017504530981 0 0 0 0 -148.93650299180126 80.731545648975271 0 80.731545648975271 6.0418615215767204 0 0 0 0 -168.7136934812429 57.293253926029593 0 57.293253926029593 25.968145687470951 0 0 0 0 -155.99313661215274 38.169588403053922 0 38.169588403053922 5.0729188620246077 0 0 0 0 -139.53906092541604 76.81978214006989 0 76.81978214006989 -11.240749449636951 0 0 0 0 -59.227177529233131 17.751298030580415 0 17.751298030580415 11.28384543914899 0 0 0 0 -137.33504027777553 73.638921733195616 0 73.638921733195616 -17.52291224867005 0 0 0 0 -0.77378314996886743 0.46287191280271678 0 0.46287191280271678 2.9522264566126672 0 0 0 0 -128.11731056501776 49.137304658865787 0 49.137304658865787 -17.406329354829722 0 0 0 0 1.2922288846654162 0.40774864201205752 0 0.40774864201205752 3.659200754980894 0 0 0 0 -80.536588645963093 32.227175089476987 0 32.227175089476987 -5.2059551610777817 0 0 0 0 -83.671264630910173 22.515676958691074 0 22.515676958691074 5.6915776532359814 0 0 0 0 -82.578055571824279 17.628841346284844 0 17.628841346284844 12.648122320504172 0 0 0 0 -80.732851349892371 23.216671222556897 0 23.216671222556897 15.155688056897361 0 0 0 0 -60.327539982719827 22.079260079500955 0 22.079260079500955 -3.1939701683183443 0 0 0 0 -58.166302549711872 7.3285567899861235 0 7.3285567899861235 24.600333497179463 0 0 0 0 -95.965698633923921 14.96261890973733 0 14.96261890973733 67.31534550230117 0 0 0 0 -110.48790234009914 37.211905525944417 0 37.211905525944417 33.392722431646689 0 0 0 0 -213.57489115757744 116.61926196586796 0 116.61926196586796 51.814744275971464 0 0 0 0 -107.4001402100721 -23.09064062504126 0 -23.09064062504126 234.80117223218008 0 0 0 0 -15.091642312554995 -52.659436118419762 0 -52.659436118419762 110.39144979098182 0 0 0 0 7.2682613669785496 31.922501082489816 0 31.922501082489816 172.29709770068598 0 0 0 0 -44.801189520293292 121.16877949922571 0 121.16877949922571 -19.773372397864478 0 0 0 0 -0.30157698681888956 0.068482364638922988 0 0.068482364638922988 1.2787219091009803 0 0 0 0 -124.88169197010393 92.201661055719342 0 92.201661055719342 -29.265392343760368 0 0 0 0 -53.42325572421862 19.847039391308329 0 19.847039391308329 12.039456994397824 0 0 0 0 -27.291118966864246 169.23965565718717 0 169.23965565718717 -76.936013772615752 0 0 0 0 -7.2542606157007867 23.716364295674111 0 23.716364295674111 48.299805558677122 0 0 0 0 -147.12958755084674 198.46706932004759 0 198.46706932004759 -22.758465623910865 0 0 0 0 -117.8378539872534 8.3688828739311703 0 8.3688828739311703 -53.796142979218075 0 0 0 0 -146.69927056507618 157.82840848685089 0 157.82840848685089 -14.409611835981423 0 0 0 0 -155.60790577647504 27.764711829895532 0 27.764711829895532 40.419791088485255 0 0 0 0 -102.95400853318984 76.626454048779692 0 76.626454048779692 271.79108026564518 0 0 0 0 16.466665032428864 22.505035866583285 0 22.505035866583285 178.50116966513315 0 0 0 0 -4.4225410511259309 1.2163331718228108 0 1.2163331718228108 0.44980093247831487 0 0 0 0 -110.72950937141741 225.95329165428439 0 225.95329165428439 -112.33088113148958 0 0 0 0 -229.28472349909134 212.19156885054008 0 212.19156885054008 -19.313255948708502 0 0 0 0 -2.0166673374878172 1.0263927784816547 0 1.0263927784816547 0.18364667747055591 0 0 0 0 -48.029328213667668 115.80875497969726 0 115.80875497969726 -78.827809525526163 0 0 0 0 -220.54581438408914 85.461741346190109 0 85.461741346190109 55.829683063654556 0 0 0 0 -8.1453415058363134 53.001722052438481 0 53.001722052438481 -31.389246404339701 0 0 0 0 -148.67188096290556 183.95395169810195 0 183.95395169810195 -15.130630673312226 0 0 0 0 -148.2622756088922 177.07707287327571 0 177.07707287327571 -4.3692247852279706 0 0 0 0 -90.335419048837139 148.78161316056367 0 148.78161316056367 -29.224461366506716 0 0 0 0 -117.0100815920714 194.31875820917401 0 194.31875820917401 -105.82571998112599 0 0 0 0 -92.803715033162916 158.28091700301604 0 158.28091700301604 -111.14344026190111 0 0 0 0 -4.1345708136686881 108.78209928982199 0 108.78209928982199 -92.800662120997714 0 0 0 0 -97.217721373276618 128.71430422634882 0 128.71430422634882 -87.735132149011406 0 0 0 0 4.9152503188363426 62.920461051429811 0 62.920461051429811 -32.443191378422171 0 0 0 0 16.956363792060529 117.18721146897514 0 117.18721146897514 -109.79907623801546 0 0 0 0 -70.012889344811356 177.43945324172677 0 177.43945324172677 -144.25761865527102 0 0 0 0 26.780712043602762 90.666529036002999 0 90.666529036002999 -198.04687152219651 0 0 0 0 -74.371950164041664 102.06819715374962 0 102.06819715374962 -286.94289852361908 0 0 0 0 -140.84054272817775 234.28388079161141 0 234.28388079161141 -231.27402523561324 0 0 0 0 -110.43270479955885 144.62293409231728 0 144.62293409231728 -94.725936487513763 0 0 0 0 -272.34950844974276 141.41385435758787 0 141.41385435758787 -94.769922239488096 0 0 0 0 -173.77012922120502 63.110982349534652 0 63.110982349534652 -102.03388318641964 0 0 0 0 -227.67673819849313 128.05012496347649 0 128.05012496347649 -229.43689869857849 0 0 0 0 -353.91324824237859 15.572792276611608 0 15.572792276611608 -113.1229061734316 0 0 0 0 -315.73743490328275 -0.27608933268834335 0 -0.27608933268834335 -616.11277009965761 0 0 0 0 -564.10021772173616 115.87573054105997 0 115.87573054105997 -220.26074240613605 0 0 0 0 -248.98210811000126 325.87116894598967 0 325.87116894598967 -554.91234627857352 0 0 0 0 -3.104985204870137 3.0202922059292789 0 3.0202922059292789 -2.9352067738021077 0 0 0 0 33.638909971129578 -67.57015581822219 0 -67.57015581822219 -792.98675139443708 0 0 0 0 -386.37523379635553 407.54987966200878 0 407.54987966200878 -331.54069221295208 0 0 0 0 -413.42338516442447 149.19234757617971 0 149.19234757617971 108.35319315866218 0 0 0 0 -283.7104784389345 72.49778676245478 0 72.49778676245478 -22.223039316924542 0 0 0 0 -261.09622065552276 203.10388926022702 0 203.10388926022702 -148.60658718262175 0 0 0 0 -50.309645608251799 -41.484533339889595 0 -41.484533339889595 2.8830982336124862 0 0 0 0 75.10549387588803 67.997092585837436 0 67.997092585837436 -57.0142149537146 0 0 0 0 5.4801349440657816 -19.032142381492349 0 -19.032142381492349 -55.20563911492809 0 0 0 0 -41.382541578732599 19.035995021739268 0 19.035995021739268 -78.316133066046859 0 0 0 0 9.1773579001730639 -13.294231008433599 0 -13.294231008433599 -78.938917878141638 0 0 0 0 -3.8321034693737488 -31.49262239168138 0 -31.49262239168138 -97.306681006822316 0 0 0 0 -33.004055410943323 12.774386768205432 0 12.774386768205432 -140.51353489369535 0 0 0 0 -125.91384025468744 111.63280472364545 0 111.63280472364545 -166.09087760976854 0 0 0 0 -169.89106441613572 52.341065265994985 0 52.341065265994985 -94.83826965014282 0 0 0 0 -56.604762858485429 -2.5487872080711895 0 -2.5487872080711895 -90.297047170009591 0 0 0 0 30.687439072607617 56.873547537447621 0 56.873547537447621 -1.3221250604553916 0 0 0 0 43.338419952403001 19.871781562618025 0 19.871781562618025 -30.389661204175326 0 0 0 0 -2.9633340708141986 21.91905609271862 0 21.91905609271862 -17.143383477417501 0 0 0 0 10.058315186928326 38.425560101699716 0 38.425560101699716 -15.570274406246426 0 0 0 0 16.374677513477138 31.913451137002767 0 31.913451137002767 -77.801221605606088 0 0 0 0 -2.7885419144357115 39.767482278481111 0 39.767482278481111 -46.009968142185926 0 0 0 0 -16.895631548722406 8.4979582100040716 0 8.4979582100040716 -28.798725157644753 0 0 0 0 17.450878202442851 -14.330537344460708 0 -14.330537344460708 -74.793617515010283 0 0 0 0 11.32797472807539 -19.346095434932749 0 -19.346095434932749 -64.145033515257225 0 0 0 0 44.781901321884391 24.341756730584393 0 24.341756730584393 -60.626060178497767 0 0 0 0 -8.5674699637664808 7.5771282540423499 0 7.5771282540423499 -5.9213084560743177 0 0 0 0 19.750112174982974 8.107894138804113 0 8.107894138804113 17.393548052958977 0 0 0 0 34.481724774688004 109.37770696837282 0 109.37770696837282 71.936549849761377 0 0 0 0 -133.73750695166291 -23.196410704059417 0 -23.196410704059417 38.633387017278437 0 0 0 0 6.5589382664988989 57.482502616545844 0 57.482502616545844 28.241536832159454 0 0 0 0 -11.05205872062378 10.150431232121434 0 10.150431232121434 -8.4478255642464859 0 0 0 0 -1.0611476381714056 -7.0756835196178258 0 -7.0756835196178258 -216.25825896253218 0 0 0 0 15.763718561081987 118.06250073760413 0 118.06250073760413 -558.10244398438908 0 0 0 0 27.720108865572456 -57.538986799817735 0 -57.538986799817735 -348.66087510309535 0 0 0 0 -1.282876073740681 84.58892694704349 0 84.58892694704349 -220.86602070139946 0 0 0 0 -57.739097527457261 139.87577211643082 0 139.87577211643082 -221.86171303278979 0 0 0 0 135.66973734123394 -26.974045014196008 0 -26.974045014196008 -412.60677114748887 0 0 0 0 -0.45172202165562503 -0.40775234164328378 0 -0.40775234164328378 -0.83654268014273403 0 0 0 0 165.47708348653839 -159.65098293591868 0 -159.65098293591868 -108.5062686645349 0 0 0 0 -149.49903439293394 188.49627839099921 0 188.49627839099921 -547.7845069571955 0 0 0 0 -143.67813016214313 232.37674083900032 0 232.37674083900032 -254.45815517505449 0 0 0 0 -56.537226625410312 122.61619360267466 0 122.61619360267466 -126.59492414747788 0 0 0 0 42.778213435447697 125.17830188649801 0 125.17830188649801 -465.45797971320189 0 0 0 0 39.26176155709345 122.99798581004832 0 122.99798581004832 -257.14787903516861 0 0 0 0 55.441974335873965 65.165616550783739 0 65.165616550783739 -242.2376953497434 0 0 0 0 -3.6671142086147483 -30.28282701991651 0 -30.28282701991651 -163.42594319186082 0 0 0 0 38.570109808687448 80.565762206337467 0 80.565762206337467 -199.12830055767472 0 0 0 0 -101.75562850815504 137.82906152279236 0 137.82906152279236 -157.91357004662564 0 0 0 0 0.46576239842364942 -0.73790386306895783 0 -0.73790386306895783 -2.0960560396090493 0 0 0 0 -2.3423142355595701 -119.37316257097177 0 -119.37316257097177 -290.25427418180232 0 0 0 0 -25.188967440401029 -3.1001804494737826 0 -3.1001804494737826 -22.100547984273817 0 0 0 0 -18.125879264865944 4.8720600825990914 0 4.8720600825990914 45.137247539417558 0 0 0 0 16.985294651452932 26.262658876167961 0 26.262658876167961 -24.018564774734074 0 0 0 0 -14.792042164573104 -3.8417070397151747 0 -3.8417070397151747 2.2168971845167107 0 0 0 0 -1.3832745040299184 1.1706797506569906 0 1.1706797506569906 -3.1668931144996737 0 0 0 0 -12.73544438609315 22.517329594274088 0 22.517329594274088 -28.412371724521279 0 0 0 0 -28.149204868258494 -6.0209289098814907 0 -6.0209289098814907 -0.78268905283266577 0 0 0 0 -0.23707128937756039 2.9957932188484739 0 2.9957932188484739 -0.72845332593123402 0 0 0 0 -3.8317144337106583 54.376846530649118 0 54.376846530649118 -51.22496422951167 0 0 0 0 -13.821236055528743 22.15402746212709 0 22.15402746212709 -20.113786039752085 0 0 0 0 -23.149031646167714 19.64052506181838 0 19.64052506181838 -21.564088558273966 0 0 0 0 -12.906790638333632 17.466761868040862 0 17.466761868040862 -21.175643861700337 0 0 0 0 -10.103290834940708 18.184092198221151 0 18.184092198221151 -21.005413198848601 0 0 0 0 -11.057811749595203 21.881967942526444 0 21.881967942526444 -20.32556070755254 0 0 0 0 -3.0837373049671442 14.895508499840616 0 14.895508499840616 -17.088280049418245 0 0 0 0 8.9477814499965689 21.090458865546452 0 21.090458865546452 -16.325125186079276 0 0 0 0 14.953332901160593 27.723945568084218 0 27.723945568084218 -26.67580283879397 0 0 0 0 15.267207106298429 16.738517629264607 0 16.738517629264607 -41.127916840201124 0 0 0 0 -0.0061485049636758049 6.204428785804339 0 6.204428785804339 -33.274115642305787 0 0 0 0 8.4141011939022974 20.552687849798531 0 20.552687849798531 -12.95640683439251 0 0 0 0 21.32288902711889 34.960973355238821 0 34.960973355238821 0.010038408579930547 0 0 0 0 26.431266651990882 16.989508223157827 0 16.989508223157827 24.276893141507117 0 0 0 0 -2.2744236404460398 2.638840139058158 0 2.638840139058158 -0.89131627030242111 0 0 0 0 -3.2600914159070271 41.207520439149448 0 41.207520439149448 25.414776045328836 0 0 0 0 2.1887828719836762 18.347368672180437 0 18.347368672180437 24.222496120458345 0 0 0 0 3.6742762359135668 9.7469371342076556 0 9.7469371342076556 -25.597726652638812 0 0 0 0 -0.73851686300258734 6.3230578558154775 0 6.3230578558154775 0.88088833170559155 0 0 0 0 -8.818340657064816 11.672740685491815 0 11.672740685491815 -9.6256192708209731 0 0 0 0 7.6431620810903951 24.962509991540514 0 24.962509991540514 6.5238360164294136 0 0 0 0 -8.3278006108518454 10.413702257830487 0 10.413702257830487 -6.2198252024249854 0 0 0 0 -13.276448115237145 18.654532966015722 0 18.654532966015722 5.3882199362305983 0 0 0 0 -8.2272966187883867 12.333163281862653 0 12.333163281862653 -8.3212503892646055 0 0 0 0 -7.4877704496772672 7.473084171981232 0 7.473084171981232 -3.688064757314252 0 0 0 0 3.0306453090449139 1.564143689180586 0 1.564143689180586 -3.4058189029527224 0 0 0 0 -5.3640067583346536 24.635615832689496 0 24.635615832689496 -4.1936274012473405 0 0 0 0 172.75084246876941 -203.10432528857041 0 -203.10432528857041 5.2922399553540345 0 0 0 0 -0.62780974229557174 -1.375724955256898 0 -1.375724955256898 -0.717241784324818 0 0 0 0 -16.115131793985711 13.362711163037375 0 13.362711163037375 -23.431754965153232 0 0 0 0 -11.118269228578356 10.147754430407304 0 10.147754430407304 -21.369442224243812 0 0 0 0 -1.0185079175361764 0.33380130395463925 0 0.33380130395463925 0.83881405966254885 0 0 0 0 19.490059351959644 34.851079246421818 0 34.851079246421818 -48.673649328190322 0 0 0 0 -24.537482665555217 8.9984799625917731 0 8.9984799625917731 -17.299792749184917 0 0 0 0 48.805556287696163 72.869390371522968 0 72.869390371522968 -6.069209772409522 0 0 0 0 -55.34172162723371 108.22097605758358 0 108.22097605758358 -53.088495330812236 0 0 0 0 45.484457982342974 67.752874982977005 0 67.752874982977005 -195.12860579743597 0 0 0 0 -5.5630939410748397 -7.705652270580913 0 -7.705652270580913 -18.105950610868376 0 0 0 0 44.362444699352636 107.16064690590996 0 107.16064690590996 -213.19784972859679 0 0 0 0 25.871006816762019 100.47544616356925 0 100.47544616356925 -210.69550007774069 0 0 0 0 -73.715203206720616 162.32518854512287 0 162.32518854512287 -161.17522257758617 0 0 0 0 23.895817187326429 114.70722556014715 0 114.70722556014715 -292.98495640924398 0 0 0 0 2.2283388570185707 30.867836572015534 0 30.867836572015534 -246.99706803596098 0 0 0 0 -215.50081619303637 249.78168529442334 0 249.78168529442334 -276.45078345942625 0 0 0 0 94.791168258843754 -5.7381355169483825 0 -5.7381355169483825 -195.58257871819364 0 0 0 0 62.446568986274542 -53.86962477693271 0 -53.86962477693271 -88.444775546548229 0 0 0 0 4.8674489113886921 44.303369133973561 0 44.303369133973561 -178.89138373345074 0 0 0 0 19.122659435421156 57.554971425069255 0 57.554971425069255 -142.2172782468345 0 0 0 0 0.11165931705122389 -0.5422884253254372 0 -0.5422884253254372 -2.0676806936803707 0 0 0 0 35.241899240068051 75.344057344684273 0 75.344057344684273 -99.911753203658236 0 0 0 0 -67.638225828178292 64.162756058814466 0 64.162756058814466 -92.983165110198797 0 0 0 0 -11.673115211380718 88.291087486850017 0 88.291087486850017 -96.502262890987708 0 0 0 0 -88.137221315278339 164.71656960029398 0 164.71656960029398 -72.331310443002167 0 0 0 0 -0.052123005838094372 -0.22781528362625991 0 -0.22781528362625991 -0.95869248971643195 0 0 0 0 11.712438572268184 118.68166932487748 0 118.68166932487748 -55.640462493958921 0 0 0 0 -48.760921054033119 84.662917328686135 0 84.662917328686135 -71.434107748872975 0 0 0 0 -45.219425834568028 -5.5663289142282792 0 -5.5663289142282792 67.27545921600813 0 0 0 0 -0.055280223291877206 0.96917076253708601 0 0.96917076253708601 1.2841841015931266 0 0 0 0 -133.23015496226162 78.049398858148834 0 78.049398858148834 2.1158204152272284 0 0 0 0 -29.968704835396693 47.982629365630487 0 47.982629365630487 -102.63384831225312 0 0 0 0 -129.45017569884385 162.94423482810168 0 162.94423482810168 -86.943567967761879 0 0 0 0 -0.75247480433610292 -0.16913364163101896 0 -0.16913364163101896 0.48013379723717176 0 0 0 0 126.49021183039429 -58.427839651490089 0 -58.427839651490089 16.577901913871301 0 0 0 0 107.20366032249513 31.834730809518305 0 31.834730809518305 -46.699291636092312 0 0 0 0 81.469950079365844 18.635656412404217 0 18.635656412404217 0.93430484754321697 0 0 0 0 32.205670330491103 56.92495637214904 0 56.92495637214904 -18.940618003137388 0 0 0 0 -10.975895281208523 -23.447445774157814 0 -23.447445774157814 45.893022535082309 0 0 0 0 -1138.2875977614713 -217.33501378443003 0 -217.33501378443003 213.11665788955267 0 0 0 0 -491.12666983081363 318.50757641594521 0 318.50757641594521 95.409833489561322 0 0 0 0 -3.5067673867002576 8.9222926953185517 0 8.9222926953185517 -18.699265779525838 0 0 0 0 -724.48426550634213 226.37313745596089 0 226.37313745596089 83.320512875611712 0 0 0 0 -783.44627792287429 175.76188863398284 0 175.76188863398284 176.60597440802815 0 0 0 0 -423.59964641989177 47.72024230252299 0 47.72024230252299 37.32630741282037 0 0 0 0 1.8786881310515895 2.7315018120835965 0 2.7315018120835965 4.2920441151761768 0 0 0 0 -12.990808175436541 -97.065387414464112 0 -97.065387414464112 17.705329686481036 0 0 0 0 -121.79996648829365 145.4944006763686 0 145.4944006763686 -7.9981903918350667 0 0 0 0 -142.00114264198055 123.94599047195658 0 123.94599047195658 37.893467000607245 0 0 0 0 -201.7345627522518 224.82078109306761 0 224.82078109306761 -61.598819134531119 0 0 0 0 -116.9215274706894 134.58340457023334 0 134.58340457023334 -39.367698179620035 0 0 0 0 -269.17626491445844 330.67532252933438 0 330.67532252933438 8.2213817870701291 0 0 0 0 -144.8647895181939 140.06718311697156 0 140.06718311697156 40.2631285460252 0 0 0 0 -293.38576253440806 329.7494441641158 0 329.7494441641158 -41.228977139116182 0 0 0 0 -254.82782825302274 242.62330445133085 0 242.62330445133085 102.39343085185735 0 0 0 0 -302.63049849103481 266.63520995611441 0 266.63520995611441 295.00909183887666 0 0 0 0 -53.682295986693134 -57.08034432100564 0 -57.08034432100564 250.26268942604798 0 0 0 0 -153.35698854807379 284.57597735354102 0 284.57597735354102 -137.74431019023262 0 0 0 0 -416.02188192066478 82.958734776515797 0 82.958734776515797 -182.93812576662776 0 0 0 0 -258.71906359901732 196.37834226980732 0 196.37834226980732 94.701929364360012 0 0 0 0 -192.46344773132842 354.56028773032267 0 354.56028773032267 77.873119906254885 0 0 0 0 -299.79454486253599 309.19794675089997 0 309.19794675089997 -6.486951689545208 0 0 0 0 -371.97552671659105 293.84120095774654 0 293.84120095774654 -0.57393914402382507 0 0 0 0 -435.4877473298402 234.03670228695603 0 234.03670228695603 40.614710540199553 0 0 0 0 -360.34683118561225 318.31880786151186 0 318.31880786151186 37.37288606011419 0 0 0 0 -301.1137806217057 216.96769098012831 0 216.96769098012831 -60.638471314433446 0 0 0 0 -402.59619350893445 213.0495625007776 0 213.0495625007776 25.203857603832148 0 0 0 0 -442.21266725396708 70.593212985229457 0 70.593212985229457 -107.19347606977959 0 0 0 0 -495.65426885308989 81.994768274769513 0 81.994768274769513 -20.753460651478463 0 0 0 0 -484.50236571747155 103.11501711623646 0 103.11501711623646 -87.430758229669379 0 0 0 0 -539.88289259076191 -25.345169334257889 0 -25.345169334257889 -156.55184223618119 0 0 0 0 -491.61773619598307 -67.029752341871955 0 -67.029752341871955 -427.29463523349358 0 0 0 0 -150.98288794699647 -49.736450427096059 0 -49.736450427096059 -219.21278406944498 0 0 0 0 -982.71748474250126 281.89521772466566 0 281.89521772466566 -275.36352114895413 0 0 0 0 -1.9809313835770785 2.7481500579352058 0 2.7481500579352058 -5.5346532116976936 0 0 0 0 -1638.6803103137281 -19.059611706540494 0 -19.059611706540494 267.34425276856155 0 0 0 0 -693.23022281022349 -169.68095605467687 0 -169.68095605467687 -152.17381706510116 0 0 0 0 -720.89258231919212 -66.718397001844608 0 -66.718397001844608 -57.255191454042915 0 0 0 0 -638.39325335937065 -25.611120468467334 0 -25.611120468467334 -49.1671241996888 0 0 0 0 -620.45815923189366 -66.930446943998078 0 -66.930446943998078 -38.702872600666296 0 0 0 0 -620.92882405444652 -89.077546145281417 0 -89.077546145281417 -97.403375761359257 0 0 0 0 -567.13165084841785 -136.53452887869662 0 -136.53452887869662 -61.877479833018469 0 0 0 0 -727.39440113054525 -51.951932288430982 0 -51.951932288430982 -5.7090213020487681 0 0 0 0 -701.22693883661032 -159.39574762829997 0 -159.39574762829997 -13.681033202024992 0 0 0 0 -865.47260585618096 -151.02012098381329 0 -151.02012098381329 -3.9722589742227683 0 0 0 0 -774.8020725590959 -60.707865233826283 0 -60.707865233826283 -34.588930041671119 0 0 0 0 -1.203309264179186 0.20664675313424485 0 0.20664675313424485 0.30330159145392388 0 0 0 0 -311.15336436841244 -23.067245668902615 0 -23.067245668902615 -74.759793883148177 0 0 0 0 -138.03924880297689 -130.15646486108793 0 -130.15646486108793 -125.34907076895684 0 0 0 0 -689.81122736566795 -306.41470498828835 0 -306.41470498828835 -81.580303585893034 0 0 0 0 -185.48578319774242 -163.32923427911078 0 -163.32923427911078 -86.733878961405097 0 0 0 0 -2.0292087307987146 -0.96474235506345485 0 -0.96474235506345485 -0.22617822116717345 0 0 0 0 41.663941004911976 102.77228308543363 0 102.77228308543363 -101.0766998912905 0 0 0 0 -730.76044087894479 -213.8470285185274 0 -213.8470285185274 229.36782824385 0 0 0 0 -733.09718380610411 -237.1367397239847 0 -237.1367397239847 45.107684773923211 0 0 0 0 -832.21479842142071 -136.29557348930894 0 -136.29557348930894 -53.340520796681631 0 0 0 0 -615.56109832575748 -230.21716112299418 0 -230.21716112299418 -93.228136212335812 0 0 0 0 -1013.607706165395 -164.75282763019959 0 -164.75282763019959 185.5439471568443 0 0 0 0 -909.1494278671762 -261.89024651539057 0 -261.89024651539057 -58.471286021089327 0 0 0 0 189.10589311547756 -105.91464581002538 0 -105.91464581002538 -291.86843136261405 0 0 0 0 -429.86973883539304 87.395244009965609 0 87.395244009965609 189.84634626587922 0 0 0 0 -831.58387390789539 212.01937065675384 0 212.01937065675384 -58.115254123548311 0 0 0 0 -863.09065326518794 283.09249392261972 0 283.09249392261972 -91.625737004836992 0 0 0 0 -19.99375839892166 -5.7140692009601688 0 -5.7140692009601688 12.949821802675162 0 0 0 0 -1209.8389603705982 409.29396573419626 0 409.29396573419626 -158.50965456171366 0 0 0 0 -1440.579780942966 68.137744707869388 0 68.137744707869388 -30.247213890981584 0 0 0 0 -1286.1463830314769 -68.75475067377738 0 -68.75475067377738 69.507228668753669 0 0 0 0 -949.76695267632203 -48.115425273926803 0 -48.115425273926803 38.52623681530531 0 0 0 0 -943.09720262406427 201.44978173495412 0 201.44978173495412 -35.903841941285464 0 0 0 0 -1005.9537867403378 -49.361772383953166 0 -49.361772383953166 75.751065688321432 0 0 0 0 -800.82885409082701 -58.252855443029603 0 -58.252855443029603 35.110266850554581 0 0 0 0 -813.23860179610892 119.64718599991943 0 119.64718599991943 -10.940607338570771 0 0 0 0 -663.00285173073462 118.17638890686703 0 118.17638890686703 -11.248890386104989 0 0 0 0 -676.19045040080346 285.94856157913216 0 285.94856157913216 -94.949552703459631 0 0 0 0 -594.04438180637771 182.45010167599867 0 182.45010167599867 -115.15843397911885 0 0 0 0 -450.1381816030007 212.59309242800191 0 212.59309242800191 -109.87162333840911 0 0 0 0 -593.87688758618606 93.375697200916193 0 93.375697200916193 -18.586831723169325 0 0 0 0 -668.57092023961013 135.3834769222558 0 135.3834769222558 -41.381350442054099 0 0 0 0 -764.82726830217871 65.147545707811105 0 65.147545707811105 -0.14791142633248455 0 0 0 0 -659.02100159409633 55.614102603562898 0 55.614102603562898 20.856534045762146 0 0 0 0 -593.83864639406056 70.59962294036518 0 70.59962294036518 -8.7106868998227469 0 0 0 0 -587.75383726076018 135.75027106884014 0 135.75027106884014 7.0552935727496333 0 0 0 0 -758.72721270780312 -32.786021891986593 0 -32.786021891986593 -19.590509386751819 0 0 0 0 -653.74367379076466 -9.1589515414161724 0 -9.1589515414161724 -26.165121579844708 0 0 0 0 -742.70453241690302 -81.738183543913237 0 -81.738183543913237 -26.033036546699805 0 0 0 0 -722.06892257566142 -3.709124425637583 0 -3.709124425637583 0.80408880140657857 0 0 0 0 -654.32254284250484 -62.476107531816069 0 -62.476107531816069 -27.784694019705057 0 0 0 0 -644.68572374203723 16.585121319801942 0 16.585121319801942 4.650877018376832 0 0 0 0 -590.45752120209181 19.464836254688748 0 19.464836254688748 -49.135259588666713 0 0 0 0 -471.83792507341241 193.69329395325985 0 193.69329395325985 69.539639142351007 0 0 0 0 -515.4082502839774 94.595509916553738 0 94.595509916553738 22.459337442149035 0 0 0 0 -530.189958825129 105.26348847274278 0 105.26348847274278 -1.6563993088901157 0 0 0 0 -540.09151567295157 109.61486204584384 0 109.61486204584384 15.448082044042167 0 0 0 0 -449.09274118529356 166.3057143878043 0 166.3057143878043 101.1041451449646 0 0 0 0 -387.35250453318076 226.02131690860119 0 226.02131690860119 126.56164862508376 0 0 0 0 -359.93901193597958 173.70110428206033 0 173.70110428206033 209.09358970671792 0 0 0 0 -364.98061198243886 128.81354997012113 0 128.81354997012113 84.117166273634666 0 0 0 0 -338.83231951445123 180.15471989411571 0 180.15471989411571 150.09198232112726 0 0 0 0 -326.70051882190819 200.46893939503855 0 200.46893939503855 302.04157181069337 0 0 0 0 -150.33167265096199 51.512485348369864 0 51.512485348369864 243.01002743898766 0 0 0 0 -239.5679135565515 197.84397096108341 0 197.84397096108341 126.6081020585284 0 0 0 0 -112.38756649603238 49.447111148525096 0 49.447111148525096 158.39203259026817 0 0 0 0 -294.09580040135319 -130.5395089739454 0 -130.5395089739454 114.40566911684533 0 0 0 0 -21.52849347721051 -8.0436462897477945 0 -8.0436462897477945 4.9510782313822874 0 0 0 0 -45.514110890027951 30.945287805297767 0 30.945287805297767 163.51086251583945 0 0 0 0 -4.6590150821970351 1.0412464448435408 0 1.0412464448435408 0.91605320228950227 0 0 0 0 -298.9841628997674 88.71331869715732 0 88.71331869715732 52.638183153670752 0 0 0 0 -461.94052525650659 191.706946568337 0 191.706946568337 55.710870867182166 0 0 0 0 -306.58314666338993 142.10030566484011 0 142.10030566484011 -72.762478277065384 0 0 0 0 -521.47144708462656 142.19627644930165 0 142.19627644930165 -93.568324423969898 0 0 0 0 -572.37089992641995 259.66801401815519 0 259.66801401815519 -122.05410956638025 0 0 0 0 2.309852480662741 -1.7412891658468936 0 -1.7412891658468936 -0.065829912060797469 0 0 0 0 48.923288727499994 -131.12576711736182 0 -131.12576711736182 -63.926707257029136 0 0 0 0 4.4502084269197439 65.451071716598221 0 65.451071716598221 -101.29446695656189 0 0 0 0 -497.96406450789073 47.036921880790032 0 47.036921880790032 -1.7000276037570075 0 0 0 0 -15.130930479707601 -6.5922449353373516 0 -6.5922449353373516 5.5801761293016634 0 0 0 0 -326.70798093622307 29.113570522580972 0 29.113570522580972 79.829422627802458 0 0 0 0 31.814627850450051 -80.588910343599167 0 -80.588910343599167 -9.1166220358838075 0 0 0 0 -436.38179280044665 17.286401102036436 0 17.286401102036436 28.023900798090722 0 0 0 0 -12.503817197891294 129.5098990182598 0 129.5098990182598 60.924591120752268 0 0 0 0 106.08976007977344 -26.648222013157977 0 -26.648222013157977 -18.274459693347524 0 0 0 0 -38.481178587106541 -12.926289066353439 0 -12.926289066353439 17.804554078074499 0 0 0 0 -2522.443121809385 -783.2745345143004 0 -783.2745345143004 320.01265830311257 0 0 0 0 -236.09233264729824 -380.11167126931178 0 -380.11167126931178 -270.09735545704586 0 0 0 0 -1369.2448533982929 -216.68929621688807 0 -216.68929621688807 124.61423470504394 0 0 0 0 -317.09908647031875 79.059660883728242 0 79.059660883728242 -90.845306083656681 0 0 0 0 -1394.4705609254709 -167.19149901007944 0 -167.19149901007944 402.66227519680274 0 0 0 0 -2500.5437272774248 235.90073987997707 0 235.90073987997707 476.38731638991032 0 0 0 0 -284.20318829957176 -80.734434230909983 0 -80.734434230909983 -61.617438571767821 0 0 0 0 -8.7820866549175207 -306.39075116365888 0 -306.39075116365888 533.58197713907475 0 0 0 0 -1170.4507924544928 363.40320663077944 0 363.40320663077944 79.618344561231822 0 0 0 0 -22.066998987487722 -6.2311660790285872 0 -6.2311660790285872 3.0184977935710422 0 0 0 0 -2496.7501530492914 1333.5186172173069 0 1333.5186172173069 -451.6335465181462 0 0 0 0 -1161.2494010255423 416.35718405387365 0 416.35718405387365 84.827348753816722 0 0 0 0 -141.01344323907324 -936.09664566066635 0 -936.09664566066635 408.24158421474044 0 0 0 0 -10.482812595680141 -2.2655375761683736 0 -2.2655375761683736 0.8470119927287918 0 0 0 0 -2493.8359063141697 -512.13620487749802 0 -512.13620487749802 525.038470114814 0 0 0 0 -1132.198126431027 63.28462471425965 0 63.28462471425965 113.06792908625944 0 0 0 0 -438.95847700546801 36.060493356168593 0 36.060493356168593 66.98994319993551 0 0 0 0 -300.8220466750281 222.69532692282405 0 222.69532692282405 270.98965485364374 0 0 0 0 -382.84927423115732 28.149291682267346 0 28.149291682267346 605.82072571670574 0 0 0 0 -243.84041092518601 239.86373508823723 0 239.86373508823723 177.99313134257238 0 0 0 0 -365.95984726034294 237.81623545786442 0 237.81623545786442 208.14292776348941 0 0 0 0 -392.47137662391833 281.28037877279871 0 281.28037877279871 92.460872409919801 0 0 0 0 -319.32536370779053 268.92768589525463 0 268.92768589525463 151.13307452479461 0 0 0 0 -384.50724750854351 254.55688156534552 0 254.55688156534552 173.94204246631614 0 0 0 0 -378.86184010567376 350.57149420936008 0 350.57149420936008 97.954617911462663 0 0 0 0 -370.79598065001937 325.2763748234313 0 325.2763748234313 48.74239011491909 0 0 0 0 -401.33827474600548 373.03042523407066 0 373.03042523407066 33.642325728453699 0 0 0 0 -328.89161508211555 369.75580507332211 0 369.75580507332211 -34.008814790568181 0 0 0 0 -461.43671835791247 377.04772930903835 0 377.04772930903835 98.092089326211351 0 0 0 0 -374.24812736237618 318.49227355492718 0 318.49227355492718 -31.203849632749666 0 0 0 0 -650.57618239937528 332.65214194880087 0 332.65214194880087 -11.570951958964656 0 0 0 0 -402.60805260010238 343.33771532007171 0 343.33771532007171 -87.496650223085368 0 0 0 0 -333.01547047333224 319.37800547541275 0 319.37800547541275 -28.795783361772443 0 0 0 0 -300.95856232920596 335.8436362198363 0 335.8436362198363 -133.71838022428619 0 0 0 0 -398.11702833497657 361.87150628383165 0 361.87150628383165 -38.481022484877371 0 0 0 0 -232.56807340434534 236.72967025643399 0 236.72967025643399 -3.1036808539685126 0 0 0 0 -229.55976430575902 212.11452939764735 0 212.11452939764735 -97.186532847496096 0 0 0 0 -364.36124810909132 327.9044358619384 0 327.9044358619384 -142.68841974324619 0 0 0 0 -181.80034782325492 239.61030133920676 0 239.61030133920676 -134.4910186613389 0 0 0 0 -696.96978499346733 466.24658586285005 0 466.24658586285005 -103.98125480138134 0 0 0 0 -335.89075503086224 374.52066774468591 0 374.52066774468591 -316.64209188460825 0 0 0 0 -1009.9028543970744 510.26162423368351 0 510.26162423368351 -96.613611978065251 0 0 0 0 -1226.8109647623678 378.24341639600641 0 378.24341639600641 -74.247416430334056 0 0 0 0 -2500.6339024657736 538.30979746670482 0 538.30979746670482 342.09988316641818 0 0 0 0 -1130.7175624058491 36.382267919828138 0 36.382267919828138 324.58377576073457 0 0 0 0 -1794.7617202200472 173.16494932625713 0 173.16494932625713 311.17006573167902 0 0 0 0 -814.62677262590751 307.89606645222011 0 307.89606645222011 -30.071158728892215 0 0 0 0 -664.47294686871282 362.34859190690048 0 362.34859190690048 -14.900989239837031 0 0 0 0 -64.552303113511698 156.4553978649119 0 156.4553978649119 -119.79583375695529 0 0 0 0 -25.132078875904881 111.09078832439752 0 111.09078832439752 -77.215674914882811 0 0 0 0 -2.0441550443750307 0.58208415553329118 0 0.58208415553329118 -0.086337167092574552 0 0 0 0 -200.91153911349511 24.138967993919323 0 24.138967993919323 113.01025729090475 0 0 0 0 -310.0630415852994 5.8089588175270137 0 5.8089588175270137 -182.36106346308225 0 0 0 0 -54.350690284440134 76.165967924614051 0 76.165967924614051 28.324120195284422 0 0 0 0 -205.18115555200166 239.24679634088534 0 239.24679634088534 7.6942220627315692 0 0 0 0 -163.38487759489271 79.314208429936116 0 79.314208429936116 64.557742044516999 0 0 0 0 -141.47254891401917 115.08615829629889 0 115.08615829629889 -5.0001256585189253 0 0 0 0 -345.58355587649106 266.35433235525738 0 266.35433235525738 316.63120707156122 0 0 0 0 -149.45865512287719 76.571293591514177 0 76.571293591514177 21.414196732112941 0 0 0 0 0.56052900426220198 1.7390663589835995 0 1.7390663589835995 0.98873086188760873 0 0 0 0 79.172572324785278 61.615691140628996 0 61.615691140628996 67.89588665116753 0 0 0 0 85.793709523304187 45.796348266983784 0 45.796348266983784 -60.143072909571856 0 0 0 0 -144.33599609175781 51.406209119732694 0 51.406209119732694 -3.3211214731663858 0 0 0 0 -83.755746216771968 83.913005355645964 0 83.913005355645964 -13.132382353815956 0 0 0 0 -108.94825770398984 93.910274659778906 0 93.910274659778906 -12.316135591262992 0 0 0 0 -57.22850004031352 67.550232456577305 0 67.550232456577305 -34.031255928981409 0 0 0 0 -9.0356782654998824 19.360242975396773 0 19.360242975396773 26.692069589305902 0 0 0 0 -50.133272274604678 81.49622862675642 0 81.49622862675642 -28.087366823274351 0 0 0 0 11.488458532037612 69.307034060607862 0 69.307034060607862 -61.405242549208424 0 0 0 0 -59.152120932169964 78.074361237988114 0 78.074361237988114 -37.760786473174221 0 0 0 0 -75.831079001143905 8.3274752884609029 0 8.3274752884609029 -6.1986402446664215 0 0 0 0 21.32736623468918 20.392121460870385 0 20.392121460870385 16.574636693987259 0 0 0 0 -39.951253540515154 54.306351375594886 0 54.306351375594886 110.75236288519727 0 0 0 0 -4.3566855335114525 1.1929847668597704 0 1.1929847668597704 -0.091146136821921075 0 0 0 0 36.429718246384141 33.97905485801914 0 33.97905485801914 -39.570628273165312 0 0 0 0 8.998876198803714 3.4855643878807996 0 3.4855643878807996 -11.936458092408202 0 0 0 0 3.9671480632940757 40.033570215302234 0 40.033570215302234 41.091357493088253 0 0 0 0 19.86042518324291 2.2579461507339147 0 2.2579461507339147 -18.841484006568407 0 0 0 0 -0.52203592274395305 -40.984566270448568 0 -40.984566270448568 -88.678710696419557 0 0 0 0 -43.795520482327106 -72.025888223435459 0 -72.025888223435459 -29.916646194093573 0 0 0 0 0.066296413880730265 0.62649605614840898 0 0.62649605614840898 -0.63503863439758845 0 0 0 0 -263.01542020799002 118.13725563188098 0 118.13725563188098 -28.528441091717468 0 0 0 0 -98.152864229735428 15.016508158605916 0 15.016508158605916 -169.28425035519831 0 0 0 0 -36.430773846502802 -122.06094812367041 0 -122.06094812367041 -153.39199560881298 0 0 0 0 -224.50503396940326 -119.94282893819877 0 -119.94282893819877 -82.650514613321775 0 0 0 0 -218.41492962685993 -158.95720363334681 0 -158.95720363334681 -267.86170586458661 0 0 0 0 -739.56649885563843 -267.65085472993587 0 -267.65085472993587 -161.44559203975814 0 0 0 0 -348.22121709622331 -90.890349466665384 0 -90.890349466665384 -95.085587779659818 0 0 0 0 -379.41594223242919 -132.47214728667495 0 -132.47214728667495 -94.543275259521579 0 0 0 0 -494.66704983105546 126.15216300245856 0 126.15216300245856 -613.55371078219082 0 0 0 0 -190.74588198726315 36.762562477381152 0 36.762562477381152 -234.34877335155596 0 0 0 0 -110.30946101700147 103.80127471175228 0 103.80127471175228 -443.7607081498154 0 0 0 0 -660.71822896896765 298.71154967248049 0 298.71154967248049 -124.60784426997725 0 0 0 0 -108.18774523136585 152.98539103558073 0 152.98539103558073 -159.1640631799628 0 0 0 0 -8.2720983674766622 1.475660998979949 0 1.475660998979949 -0.11278724051983691 0 0 0 0 -96.101478068180199 487.02751039916416 0 487.02751039916416 -91.212174715587025 0 0 0 0 216.5953484979708 235.34134942287778 0 235.34134942287778 -392.70053716666303 0 0 0 0 -276.65057836907317 -331.62451340539383 0 -331.62451340539383 -62.948493199940003 0 0 0 0 -958.417263895735 -122.17334315532639 0 -122.17334315532639 95.097901720383561 0 0 0 0 -688.03353290253972 -436.85322850639227 0 -436.85322850639227 -47.170851367724026 0 0 0 0 -582.42840650246353 -182.17678230922991 0 -182.17678230922991 33.844171388086806 0 0 0 0 -141.63148894137248 15.10537825523113 0 15.10537825523113 14.744238357738141 0 0 0 0 -228.55622097497235 -33.882570028632017 0 -33.882570028632017 -190.52854227315288 0 0 0 0 -225.56449736132231 -62.156503262586511 0 -62.156503262586511 25.867176881287378 0 0 0 0 -170.5549406686896 5.0401984022860233 0 5.0401984022860233 49.477806787312261 0 0 0 0 -577.76193716803755 -151.86297642938325 0 -151.86297642938325 94.076764993730535 0 0 0 0 -600.01029396348304 -19.7274564830619 0 -19.7274564830619 40.364927031159368 0 0 0 0 -218.50293528643215 -68.149243352494295 0 -68.149243352494295 -17.823801221575422 0 0 0 0 -222.98570723822149 29.862749288136456 0 29.862749288136456 84.599701756845661 0 0 0 0 -102.70252466950024 -40.92612585139068 0 -40.92612585139068 -87.665572991943009 0 0 0 0 -110.08350934863211 67.540082646824885 0 67.540082646824885 -58.099156681367845 0 0 0 0 -38.52231319981729 -40.385159186720102 0 -40.385159186720102 51.283220410549802 0 0 0 0 -100.32423535245607 67.032753092573785 0 67.032753092573785 127.38378747100126 0 0 0 0 -112.14223109123679 8.2552340553448857 0 8.2552340553448857 -2.5873960907510991 0 0 0 0 -59.63808200534595 -3.6652420140529784 0 -3.6652420140529784 -14.962395502391246 0 0 0 0 -123.26178182095555 55.512733108126668 0 55.512733108126668 51.607473881921464 0 0 0 0 -153.76898099328548 -40.684887775290704 0 -40.684887775290704 -16.030965272978847 0 0 0 0 -0.8860418469674558 0.48807056638383894 0 0.48807056638383894 -0.5465461293274485 0 0 0 0 -252.050313586622 -24.535158241357635 0 -24.535158241357635 40.488150762008388 0 0 0 0 -102.01730643822066 5.2874394803569373 0 5.2874394803569373 -31.86548706496469 0 0 0 0 -93.780543396298071 -7.5318041137570599 0 -7.5318041137570599 -18.03916365545588 0 0 0 0 -50.29652686861391 25.298090016928882 0 25.298090016928882 -13.160460005427922 0 0 0 0 -486.17981959772533 -94.900922263817051 0 -94.900922263817051 -81.201591205876184 0 0 0 0 -543.35530681982254 -262.6830635182821 0 -262.6830635182821 38.112813835897484 0 0 0 0 -523.72136575133391 -219.98523176097643 0 -219.98523176097643 -46.265094802897124 0 0 0 0 -698.4487314734306 -201.56180691387385 0 -201.56180691387385 -2.1501745675263351 0 0 0 0 -852.0407264900241 61.706367416218825 0 61.706367416218825 -116.26816080814642 0 0 0 0 -310.60345589133885 -234.84112566486178 0 -234.84112566486178 -122.74323966540621 0 0 0 0 -0.78222960124738261 0.44651955962768941 0 0.44651955962768941 -1.945123125730817 0 0 0 0 -0.80215406925845301 1.317629617406336 0 1.317629617406336 -0.75620147101245738 0 0 0 0 154.46066836091404 -9.4089123824094543 0 -9.4089123824094543 -433.37779631661351 0 0 0 0 -893.19721209773115 -572.38720352238306 0 -572.38720352238306 -304.5131405752129 0 0 0 0 -705.8706982565609 -86.776464426505299 0 -86.776464426505299 159.08610276757145 0 0 0 0 -99.611907891463034 -24.707542839090991 0 -24.707542839090991 -42.977615369379237 0 0 0 0 -46.802594079647633 22.541376329151252 0 22.541376329151252 -24.314396691792172 0 0 0 0 -146.33550764365191 7.7083618883320923 0 7.7083618883320923 -14.187727428703852 0 0 0 0 -212.46335645553734 -76.348965414681459 0 -76.348965414681459 -47.789850602697697 0 0 0 0 -80.429750726938892 85.089731807742282 0 85.089731807742282 2.8706921925213464 0 0 0 0 -80.43231133773088 3.8059523495630856 0 3.8059523495630856 -98.145694812912666 0 0 0 0 -73.273689603962509 42.503250645832424 0 42.503250645832424 17.608905433712607 0 0 0 0 -60.673167050977099 29.822477223471424 0 29.822477223471424 24.372449056359983 0 0 0 0 -33.295955518106439 12.336774197894783 0 12.336774197894783 -55.774421995577427 0 0 0 0 -35.011456472211293 41.589074250451183 0 41.589074250451183 7.0105602715775603 0 0 0 0 36.684120352708533 35.27617878417675 0 35.27617878417675 7.5645514832608569 0 0 0 0 -39.272531705217403 27.26759449581516 0 27.26759449581516 4.2301654769723882 0 0 0 0 -28.81196188722538 50.809806222222505 0 50.809806222222505 2.015794200586889 0 0 0 0 64.315407851263558 -24.440158531006034 0 -24.440158531006034 -9.9292335196723798 0 0 0 0 2.5387485381879324 4.5070843871354249 0 4.5070843871354249 8.6585336974902489 0 0 0 0 0.9006163270335148 1.5446573808622954 0 1.5446573808622954 4.9225622611314463 0 0 0 0 -33.633872680979835 42.406369859633458 0 42.406369859633458 -9.7740313523949567 0 0 0 0 -0.21838541915258247 -10.266386457878525 0 -10.266386457878525 -9.8694119873161981 0 0 0 0 -29.864701157588911 30.805548325524512 0 30.805548325524512 -8.1597888782871451 0 0 0 0 -9.7254347842579136 38.092918414761641 0 38.092918414761641 -26.895176005876692 0 0 0 0 -43.013279814868838 20.15867364822298 0 20.15867364822298 -26.793692507222271 0 0 0 0 -28.39947286183633 31.695091999782878 0 31.695091999782878 -19.567544845987335 0 0 0 0 0.7060755406438799 2.4938555130625359 0 2.4938555130625359 5.1835612799128974 0 0 0 0 -41.318288825935952 -1.6834229041107562 0 -1.6834229041107562 16.374352907760453 0 0 0 0 6.6637944699514264 20.68641445866001 0 20.68641445866001 32.028618638301168 0 0 0 0 -39.305343177534269 -2.3362642150240163 0 -2.3362642150240163 -0.59004222510452564 0 0 0 0 -32.991186558113441 13.217205261284789 0 13.217205261284789 -24.671004338123453 0 0 0 0 -33.441262673674714 19.531492556502855 0 19.531492556502855 14.541196592032293 0 0 0 0 11.42651078575318 46.255681486966523 0 46.255681486966523 -31.784282873588381 0 0 0 0 -13.690254151278623 53.531958157479494 0 53.531958157479494 -21.481052622498282 0 0 0 0 -12.277167083021595 59.814120804428512 0 59.814120804428512 -6.8631422227475554 0 0 0 0 -14.417056454256823 32.2879717663197 0 32.2879717663197 -23.83715235843647 0 0 0 0 -18.264280757425752 70.851776011882606 0 70.851776011882606 -41.161011160317685 0 0 0 0 -42.500131640032578 74.986811985220129 0 74.986811985220129 -27.617254541393322 0 0 0 0 -44.253454800629697 76.354541333353382 0 76.354541333353382 -28.66817931528476 0 0 0 0 -69.698402454408551 38.8269313136866 0 38.8269313136866 -15.459078998625046 0 0 0 0 0.82812199504270745 1.4544701878155069 0 1.4544701878155069 0.78910091900050094 0 0 0 0 0.092705569791633025 -34.17210123225118 0 -34.17210123225118 -29.568059516510402 0 0 0 0 22.71892971558924 -4.9062088899165914 0 -4.9062088899165914 -22.212255473763321 0 0 0 0 11.531673663738729 68.174149931779027 0 68.174149931779027 -1.6156725691989777 0 0 0 0 -32.37041556452732 81.531920314335821 0 81.531920314335821 -48.867435003274295 0 0 0 0 -37.156155334313553 82.405487920674204 0 82.405487920674204 -31.42421198451143 0 0 0 0 -18.513978096711412 76.090532647723705 0 76.090532647723705 -53.745790951613344 0 0 0 0 -61.123250333911983 59.248209361904173 0 59.248209361904173 -43.489073302002339 0 0 0 0 -39.728848842990374 27.883323988537313 0 27.883323988537313 -16.782789383437603 0 0 0 0 -109.45565247384982 82.432347379994638 0 82.432347379994638 -120.46986539130558 0 0 0 0 -108.84507183981896 89.864609849152657 0 89.864609849152657 -45.189705199013588 0 0 0 0 -124.76531665212042 59.19252592262751 0 59.19252592262751 -64.966634323908693 0 0 0 0 -38.94862862436139 46.951708746928261 0 46.951708746928261 -97.150371322033152 0 0 0 0 31.172693720977463 31.910871853592198 0 31.910871853592198 -50.935663058327464 0 0 0 0 -31.545570894440971 -6.9949379781880907 0 -6.9949379781880907 27.621848496592065 0 0 0 0 -161.66429163931934 -13.087376658211497 0 -13.087376658211497 -5.2002888717781843 0 0 0 0 -28.27731919721424 8.0712421748218475 0 8.0712421748218475 -105.4553949930314 0 0 0 0 -333.66079052115697 -175.2967083557453 0 -175.2967083557453 -217.06868533552574 0 0 0 0 -171.25555873525809 17.848300940806894 0 17.848300940806894 10.889289291653768 0 0 0 0 -168.90317476258815 3.0623204605307137 0 3.0623204605307137 -95.148833914777697 0 0 0 0 -201.32467901470363 87.055980700415375 0 87.055980700415375 -295.12968227222223 0 0 0 0 -506.40630991619355 -211.68004194599075 0 -211.68004194599075 57.395174080131255 0 0 0 0 -554.83944847691782 290.35588657022009 0 290.35588657022009 9.481920688770515 0 0 0 0 -156.53224590660648 -15.765528418187841 0 -15.765528418187841 232.01828053899794 0 0 0 0 325.39569860100528 288.7341077060496 0 288.7341077060496 -248.64350346540596 0 0 0 0 -189.67561170137105 -94.620134631886344 0 -94.620134631886344 -24.769867648270974 0 0 0 0 -158.06920573929165 706.54406867547027 0 706.54406867547027 157.85177832478865 0 0 0 0 -489.21241595168976 140.28783426573887 0 140.28783426573887 31.317917361898253 0 0 0 0 -16.537755823525043 2.874293141058565 0 2.874293141058565 1.0740197745785096 0 0 0 0 -110.96357319289382 31.171932526681076 0 31.171932526681076 69.932346729489836 0 0 0 0 -25.712400198175601 57.926547455757827 0 57.926547455757827 45.736019093515154 0 0 0 0 -5.1378583769259816 2.4467203351994211 0 2.4467203351994211 -1.3671784617547229 0 0 0 0 47.563042966879038 182.87098727506589 0 182.87098727506589 -432.51901635726517 0 0 0 0 -340.0956143124472 -223.10585427937599 0 -223.10585427937599 -112.97304596752565 0 0 0 0 -29.371166938904935 149.32113845595609 0 149.32113845595609 -234.13561781201241 0 0 0 0 -181.9677628586569 -96.839892597661219 0 -96.839892597661219 -1.9733214952084381 0 0 0 0 -81.503137958319257 -22.547430712353844 0 -22.547430712353844 15.484665565566957 0 0 0 0 -68.07070077806452 -26.364261482041002 0 -26.364261482041002 -7.1096514090700111 0 0 0 0 -77.349772498603897 17.825872384473996 0 17.825872384473996 117.08732192668731 0 0 0 0 -183.14059649067326 -86.039712984198331 0 -86.039712984198331 60.262917907602059 0 0 0 0 -171.45765099460596 -109.90679703139631 0 -109.90679703139631 109.01121561121651 0 0 0 0 -292.4320628902783 -127.72586789099023 0 -127.72586789099023 72.565970459309028 0 0 0 0 -323.7602141140037 -64.531926727883047 0 -64.531926727883047 63.123447783249503 0 0 0 0 -264.85358014617373 -25.119090530610947 0 -25.119090530610947 22.044615455774419 0 0 0 0 -232.89315750266451 -46.264809803329399 0 -46.264809803329399 35.886513847550987 0 0 0 0 -148.731935278523 38.274212072981982 0 38.274212072981982 -8.0803109186759343 0 0 0 0 -284.28117573050122 55.367175213303426 0 55.367175213303426 -3.4164676500792552 0 0 0 0 -543.32886010518951 98.235020859044766 0 98.235020859044766 -26.740473286963606 0 0 0 0 -249.16300306921721 -22.772853988564748 0 -22.772853988564748 21.562060339134405 0 0 0 0 -14.552522460704154 4.2883863174133667 0 4.2883863174133667 -1.1393322078504282 0 0 0 0 -262.52738103123738 -242.07548004293358 0 -242.07548004293358 -211.52342709200514 0 0 0 0 -42.191235974434392 11.482492316862603 0 11.482492316862603 -1.8482279355105034 0 0 0 0 11.568240558632169 127.08972966764031 0 127.08972966764031 207.35517813476281 0 0 0 0 -1400.9692237939594 656.4015278714478 0 656.4015278714478 559.40196701825334 0 0 0 0 187.57334054321836 124.97112294693079 0 124.97112294693079 80.776922314229523 0 0 0 0 -41.700982347978425 53.974435657439244 0 53.974435657439244 149.40627364011698 0 0 0 0 -440.66833517100577 779.7556526098823 0 779.7556526098823 -396.72802270077455 0 0 0 0 469.40985210226086 -371.77628090685727 0 -371.77628090685727 -83.963277905350878 0 0 0 0 585.75470445059955 -67.938819591389802 0 -67.938819591389802 -1029.7330340795015 0 0 0 0 208.3868006238763 -20.73796497369608 0 -20.73796497369608 -59.755406921912254 0 0 0 0 187.66073381971023 69.657163602677201 0 69.657163602677201 -411.41540103149873 0 0 0 0 61.78643889222991 -206.74068380350491 0 -206.74068380350491 336.37630219470202 0 0 0 0 -15.803655767602322 39.12451473095166 0 39.12451473095166 45.2343812927611 0 0 0 0 -45.663067990370301 7.7949019265895529 0 7.7949019265895529 0.89135033062261426 0 0 0 0 -5.399214781961593 0.48212441629602143 0 0.48212441629602143 0.36118263188852251 0 0 0 0 -150.97330336348205 122.18791109786844 0 122.18791109786844 -130.59822825624724 0 0 0 0 12.897056235176024 -24.162910210911321 0 -24.162910210911321 -32.070504262895724 0 0 0 0 -35.936021192341173 -26.017742634887099 0 -26.017742634887099 53.36660887971766 0 0 0 0 -9.4999581813492888 -14.957305904736018 0 -14.957305904736018 9.389811955741278 0 0 0 0 -1.5100778252101335 -0.1326613509117891 0 -0.1326613509117891 1.4774209537410314 0 0 0 0 18.542036010770971 19.790887355890618 0 19.790887355890618 16.84555270857345 0 0 0 0 18.864730060525744 -31.418044516702906 0 -31.418044516702906 44.329230690238091 0 0 0 0 -85.918560358329159 85.218056450816903 0 85.218056450816903 73.922829202303319 0 0 0 0 -56.444277406862511 -11.666967109975076 0 -11.666967109975076 109.63225013685678 0 0 0 0 6.5312305828659785 -2.2996845894281055 0 -2.2996845894281055 0.30165220286130445 0 0 0 0 -92.990904170994781 276.41302441080256 0 276.41302441080256 306.26981956503278 0 0 0 0 -39.409238831293095 103.15297367535069 0 103.15297367535069 -47.003204881735201 0 0 0 0 2.8068976375612946 1.1933925491222119 0 1.1933925491222119 -0.49906328359319518 0 0 0 0 -128.4233990169655 116.83063447779409 0 116.83063447779409 52.771308141667078 0 0 0 0 -191.616668201832 123.42165791411048 0 123.42165791411048 55.076984346648715 0 0 0 0 -195.68574386558157 105.12011495714839 0 105.12011495714839 93.550372075853375 0 0 0 0 -182.15345358843115 77.752670967475296 0 77.752670967475296 60.836504370885677 0 0 0 0 -179.09210142895517 67.941774623129731 0 67.941774623129731 70.917090233291901 0 0 0 0 -421.13972243206808 -30.595624166397101 0 -30.595624166397101 215.10809760528707 0 0 0 0 -791.05103078811635 -233.94482533651495 0 -233.94482533651495 106.46104838193696 0 0 0 0 -228.81897028966978 85.593739350711985 0 85.593739350711985 190.81981137913488 0 0 0 0 -150.3925034899946 91.823999531461723 0 91.823999531461723 16.072764051793911 0 0 0 0 -169.37654072712576 113.96470319443029 0 113.96470319443029 -3.7541587656132833 0 0 0 0 -172.83593056618065 97.017505094690478 0 97.017505094690478 35.691117834415991 0 0 0 0 -172.40600416180132 90.897267776260222 0 90.897267776260222 37.94931568639322 0 0 0 0 -188.36520354310596 81.831710925711377 0 81.831710925711377 13.94170452929086 0 0 0 0 -147.1485033997983 97.359899590967188 0 97.359899590967188 19.646777751539503 0 0 0 0 -148.13601555842661 54.958602290346562 0 54.958602290346562 8.1062656341509864 0 0 0 0 -227.90385207994359 14.141388861221458 0 14.141388861221458 -10.747916876408908 0 0 0 0 -99.194297858493201 57.385054306817608 0 57.385054306817608 25.129427913366271 0 0 0 0 -166.80542813828879 55.636252151579527 0 55.636252151579527 25.338256670177543 0 0 0 0 -188.78955575522104 -18.74037663705144 0 -18.74037663705144 17.728624998460191 0 0 0 0 -11.354268832481239 -41.784822458818894 0 -41.784822458818894 16.97436151401098 0 0 0 0 -162.17616467994196 -23.771449365548079 0 -23.771449365548079 -13.740813872566832 0 0 0 0 -206.73143373261701 -4.4655249338195517 0 -4.4655249338195517 -15.626341958701232 0 0 0 0 -233.27109743435619 -41.392277607918686 0 -41.392277607918686 -42.708312426389057 0 0 0 0 -211.49131185944066 4.595535317816541 0 4.595535317816541 -10.653270987852011 0 0 0 0 -282.92837848912927 -31.139235715256518 0 -31.139235715256518 -25.590595682117055 0 0 0 0 -257.75062060391599 -46.269417068285406 0 -46.269417068285406 -42.362332784007322 0 0 0 0 -373.5142537753145 -34.40129942480894 0 -34.40129942480894 -24.957369397897764 0 0 0 0 -258.07170952280808 23.564204622751618 0 23.564204622751618 4.1466611830205693 0 0 0 0 -189.2983340807383 78.723150116544844 0 78.723150116544844 20.007524888982971 0 0 0 0 -295.24074835334386 36.939140613661493 0 36.939140613661493 4.9647654857622001 0 0 0 0 -214.24413806702637 154.57302722971178 0 154.57302722971178 34.273833304456275 0 0 0 0 -364.82947939257383 118.86932906368793 0 118.86932906368793 31.676517429158494 0 0 0 0 -59.737644346909747 -2.4196117502403922 0 -2.4196117502403922 178.63988192365832 0 0 0 0 -110.52475327730235 122.73280366936615 0 122.73280366936615 -5.9352902107386853 0 0 0 0 -136.08397262162089 -46.421978046647382 0 -46.421978046647382 44.886688323476392 0 0 0 0 -173.1499428718007 -129.30212126088668 0 -129.30212126088668 20.747639050281805 0 0 0 0 103.6889768900819 -90.934683687376491 0 -90.934683687376491 -71.168419428842299 0 0 0 0 -252.81104341939999 -132.45860484207287 0 -132.45860484207287 32.36066114292089 0 0 0 0 -53.514813053970556 -73.951516653190765 0 -73.951516653190765 45.218248003189046 0 0 0 0 -109.58429888142473 17.488676939018433 0 17.488676939018433 21.29512270099724 0 0 0 0 -118.91230043116698 -62.20326882560623 0 -62.20326882560623 28.661365215352362 0 0 0 0 -221.38891953382608 -42.161249030323006 0 -42.161249030323006 37.322801241035222 0 0 0 0 -240.96642786189341 -95.089386035474263 0 -95.089386035474263 73.896501825835685 0 0 0 0 -258.19910808242111 -89.932026399153273 0 -89.932026399153273 72.254489885961448 0 0 0 0 -245.43984354672966 -93.727757048872036 0 -93.727757048872036 61.200869667881307 0 0 0 0 -253.77659998370973 -106.09020752878155 0 -106.09020752878155 64.585695290385502 0 0 0 0 -167.69478237495559 -43.519645071575269 0 -43.519645071575269 2.3684193761109782 0 0 0 0 -220.75613165070399 -99.103150186726907 0 -99.103150186726907 54.860688055343871 0 0 0 0 -240.50677468812773 -22.918899446563501 0 -22.918899446563501 -3.4473468408596091 0 0 0 0 -223.63130863778679 -49.250636025069525 0 -49.250636025069525 -36.456304699608609 0 0 0 0 -285.94765023860464 -121.76520502365929 0 -121.76520502365929 42.366432850690671 0 0 0 0 -258.9936771114368 -75.241484495427926 0 -75.241484495427926 15.186679133960752 0 0 0 0 -286.3492402961374 -63.606135635019655 0 -63.606135635019655 35.94919278576026 0 0 0 0 -341.56543292975039 -22.522706619922701 0 -22.522706619922701 -16.689713653930994 0 0 0 0 -261.07504471771244 -84.9988820845997 0 -84.9988820845997 17.705257360065161 0 0 0 0 -337.19254995093979 -140.13995734307036 0 -140.13995734307036 -22.230250374928801 0 0 0 0 -473.79008826388645 -222.9947953397882 0 -222.9947953397882 -106.642900231147 0 0 0 0 -577.72958408533304 -135.85742439528394 0 -135.85742439528394 -11.510119388495696 0 0 0 0 -0.6810400896927522 0.12337827926271583 0 0.12337827926271583 -0.31792453735610415 0 0 0 0 -272.31856709780686 -66.608882383506625 0 -66.608882383506625 -76.32537224875523 0 0 0 0 -375.36688315408583 1.1354496286273843 0 1.1354496286273843 -99.725181343525037 0 0 0 0 -286.92922755850554 -84.836629187243034 0 -84.836629187243034 -100.43053153306818 0 0 0 0 -260.06918457090114 -29.836432643491207 0 -29.836432643491207 -45.749196454912635 0 0 0 0 -253.24497554087657 -75.885921299297479 0 -75.885921299297479 -81.151849182441765 0 0 0 0 -236.05911013726586 -43.260074619058969 0 -43.260074619058969 -34.745058183494621 0 0 0 0 -272.48359526332683 -57.277173670069487 0 -57.277173670069487 -16.096979464682363 0 0 0 0 -270.94698268464981 -59.203935915770217 0 -59.203935915770217 -40.365351571739211 0 0 0 0 -287.87452103609462 -76.291584486832107 0 -76.291584486832107 -31.695404213962775 0 0 0 0 -234.3245733356423 22.695100006513712 0 22.695100006513712 32.470068556322076 0 0 0 0 -350.14389928357195 -40.12339685897075 0 -40.12339685897075 11.25906489445515 0 0 0 0 -1.6750319320709082 2.1978150095726505 0 2.1978150095726505 -0.58697655234027479 0 0 0 0 -0.73934589653728144 -0.12912792167225451 0 -0.12912792167225451 -1.5948622436268778 0 0 0 0 -149.32201337127117 93.984784190713071 0 93.984784190713071 -61.555467592581408 0 0 0 0 -88.38432354699421 -14.589016984749946 0 -14.589016984749946 109.7053912327433 0 0 0 0 -0.83586345389977668 0.032290908216618952 0 0.032290908216618952 -0.34338742199893346 0 0 0 0 2.6218151915047656 6.8853358372707589 0 6.8853358372707589 3.6527104673100439 0 0 0 0 9.6509034259292434 5.5398844867047501 0 5.5398844867047501 -5.8869149828192349 0 0 0 0 -4.0064635225231005 0.71898678674735184 0 0.71898678674735184 -0.14966473601211017 0 0 0 0 6.6026344686154061 0.97220781689065916 0 0.97220781689065916 -4.1070142117987416 0 0 0 0 6.216571799798885 -0.69704290801200841 0 -0.69704290801200841 -11.246029116684895 0 0 0 0 3.7289599492881393 -2.9246245558550754 0 -2.9246245558550754 -2.1963953973518073 0 0 0 0 1.823568342379815 -7.5163666583930535 0 -7.5163666583930535 -7.7912760403323773 0 0 0 0 -1.8960171307173823 -4.1539721691599425 0 -4.1539721691599425 -2.448622488488013 0 0 0 0 -1.1202233373205126 -0.61463214974852542 0 -0.61463214974852542 -2.8511961700041493 0 0 0 0 -3.1580915419715438 -4.7326769569071985 0 -4.7326769569071985 4.8772262779889388 0 0 0 0 3.8152628673342406 -29.934543345093857 0 -29.934543345093857 -42.191663452929788 0 0 0 0 -190.6229909545516 6.6390061569770751 0 6.6390061569770751 26.61445871356932 0 0 0 0 -103.33409157854874 -26.58632770288483 0 -26.58632770288483 -2.6220870211809597 0 0 0 0 -0.1664105922183583 -0.66639552910336386 0 -0.66639552910336386 -2.5818927610958848 0 0 0 0 3.4828006929838011 -1.3980454894681316 0 -1.3980454894681316 -5.7160413931790117 0 0 0 0 -277.72385550074796 -60.631224888917927 0 -60.631224888917927 -7.985059890663706 0 0 0 0 -276.46059360350364 -12.555758296032764 0 -12.555758296032764 22.666974038778335 0 0 0 0 -284.88113222430388 1.5511093098089077 0 1.5511093098089077 -19.261368704825372 0 0 0 0 -283.10701395219195 -30.621980697996548 0 -30.621980697996548 -25.785066446748942 0 0 0 0 -212.04702511435721 -34.609604218819982 0 -34.609604218819982 -14.051577230948624 0 0 0 0 -252.49234427451324 25.250735436139621 0 25.250735436139621 -0.58611323368089074 0 0 0 0 -251.4201748940655 -0.24376330440259153 0 -0.24376330440259153 -111.17488061179984 0 0 0 0 -245.2500478484028 -54.573249835343631 0 -54.573249835343631 -129.37328752693662 0 0 0 0 -260.85577964240224 -62.346197036738545 0 -62.346197036738545 -77.120370990865467 0 0 0 0 -212.75884150592623 46.595911277622008 0 46.595911277622008 -31.686985869204136 0 0 0 0 -230.67129359804414 -90.245557205760633 0 -90.245557205760633 -65.206128147064419 0 0 0 0 30.563958622617434 31.408395132363353 0 31.408395132363353 -195.04852182837203 0 0 0 0 145.83745999947655 -56.071031469988725 0 -56.071031469988725 -152.16105876361667 0 0 0 0 -0.10108046664852584 0.33269579848854958 0 0.33269579848854958 -1.9756923574462064 0 0 0 0 -107.07535222497073 105.86279073648404 0 105.86279073648404 -82.486684237066584 0 0 0 0 -118.42189505270022 113.74158665702328 0 113.74158665702328 -14.909323270906498 0 0 0 0 -141.57865026787397 57.990352322412264 0 57.990352322412264 -121.06890469686141 0 0 0 0 -21.714661812618175 -11.575780084506732 0 -11.575780084506732 -118.04747040263965 0 0 0 0 58.533620255682422 88.454919013510334 0 88.454919013510334 -654.04319012640553 0 0 0 0 -3.9759202600175585 0.18687904388896381 0 0.18687904388896381 -0.098887648102095937 0 0 0 0 -1.3168739947874266 0.2450291018041586 0 0.2450291018041586 -0.24586381563426052 0 0 0 0 -68.402441746606144 0.84954011631134563 0 0.84954011631134563 -1.4065318092461894 0 0 0 0 -15.119428386762351 -48.353797835823343 0 -48.353797835823343 -42.08363180221113 0 0 0 0 -180.60512839715841 -53.169532986887077 0 -53.169532986887077 -25.131233265377205 0 0 0 0 -13.970188641463892 162.63432222141455 0 162.63432222141455 -246.04514822118381 0 0 0 0 -1.7418044208010812 0.6384324608273757 0 0.6384324608273757 -0.82285303576969904 0 0 0 0 -101.1037907529319 -44.006153696129104 0 -44.006153696129104 -36.29041825185277 0 0 0 0 -244.78431556760847 -89.218972486927214 0 -89.218972486927214 57.387713594281422 0 0 0 0 57.361533981632647 74.391196621479821 0 74.391196621479821 45.179652865705322 0 0 0 0 -139.25384156434626 181.58814124648279 0 181.58814124648279 -43.947342385976754 0 0 0 0 5.7036280917167801 -134.58303802555903 0 -134.58303802555903 63.275861039729079 0 0 0 0 -2.4221594445802008 0.51556354821921513 0 0.51556354821921513 0.19316183062219539 0 0 0 0 -255.63054347643083 -165.95373521509669 0 -165.95373521509669 207.81947737199084 0 0 0 0 -238.3520026612664 -102.61811433714229 0 -102.61811433714229 1.7112770800372346 0 0 0 0 -409.92891863899001 -60.63608481863767 0 -60.63608481863767 144.28190304469535 0 0 0 0 -393.83412150056643 17.058044935391649 0 17.058044935391649 -5.9686823631268453 0 0 0 0 -293.41330063802206 3.273946108062546 0 3.273946108062546 -84.237938433924569 0 0 0 0 -301.21053776076053 -20.671518584522801 0 -20.671518584522801 -23.735907995759362 0 0 0 0 -310.36471635970997 -31.377106626115278 0 -31.377106626115278 -60.362164853544073 0 0 0 0 -288.86361573705364 -39.831137904004322 0 -39.831137904004322 -59.873518435793358 0 0 0 0 -322.70473928845104 -26.397776195638016 0 -26.397776195638016 -70.909455306420853 0 0 0 0 -306.99326113359677 -50.340282339346686 0 -50.340282339346686 -60.534283603382164 0 0 0 0 -316.87505326273072 -31.484259144394173 0 -31.484259144394173 13.542711992209661 0 0 0 0 -316.83525113501548 -60.659273301436087 0 -60.659273301436087 -56.664717734516444 0 0 0 0 -235.18648688494727 -71.685041640209874 0 -71.685041640209874 -128.45446622590876 0 0 0 0 -314.47142850290805 -71.28000813170388 0 -71.28000813170388 -9.2005809856004817 0 0 0 0 -297.33385992709066 -18.969617757487413 0 -18.969617757487413 -123.14321636392314 0 0 0 0 -286.1286286050015 -22.524140181994085 0 -22.524140181994085 -153.24711856201498 0 0 0 0 -249.3687055058457 -25.023846906027757 0 -25.023846906027757 -310.69794991756726 0 0 0 0 -277.15177280536943 -47.810007074937857 0 -47.810007074937857 -36.288640634706098 0 0 0 0 -340.66561338353847 218.16104921556484 0 218.16104921556484 -109.1005669969627 0 0 0 0 -296.81819677943952 102.39307076641506 0 102.39307076641506 -254.74326004348814 0 0 0 0 -352.12959942068505 75.851574555129787 0 75.851574555129787 -169.7990406525621 0 0 0 0 -292.77692651973422 95.210559319450738 0 95.210559319450738 -242.08611307515207 0 0 0 0 -375.55559689414895 237.35152215405401 0 237.35152215405401 -223.67935900224566 0 0 0 0 -444.66912259936765 111.06699173393827 0 111.06699173393827 -100.28509382123264 0 0 0 0 -331.80802875693178 30.120852900853833 0 30.120852900853833 -81.073582048066328 0 0 0 0 -350.21248969226644 9.9306942850540736 0 9.9306942850540736 -96.21848937804873 0 0 0 0 -311.87153938136498 -56.901327581096496 0 -56.901327581096496 -27.244984187673708 0 0 0 0 -362.32536251675913 12.007771486927595 0 12.007771486927595 -54.693189690538475 0 0 0 0 -423.57199865619503 -5.7811504181081546 0 -5.7811504181081546 1.7345178708437743 0 0 0 0 -409.58331839069467 -42.503930695344025 0 -42.503930695344025 -17.673096408388119 0 0 0 0 -582.54905126029621 39.785834345440207 0 39.785834345440207 0.66942683830620808 0 0 0 0 -780.96433187916864 -3.498353896219669 0 -3.498353896219669 31.330005404402527 0 0 0 0 -867.6715204605232 -60.736441423412771 0 -60.736441423412771 91.924083572249856 0 0 0 0 -794.23893011072914 298.47476125539339 0 298.47476125539339 -49.142282691665969 0 0 0 0 -729.62219899909906 308.14697171272087 0 308.14697171272087 -77.328617195010338 0 0 0 0 -1241.9461654613192 508.52637503795586 0 508.52637503795586 -142.81199578595874 0 0 0 0 -526.10443946712519 466.85351305114705 0 466.85351305114705 -328.4572459398978 0 0 0 0 -762.28314125729059 372.6820590598337 0 372.6820590598337 -115.98974069913129 0 0 0 0 -548.15841015269109 310.39106406047472 0 310.39106406047472 -111.08874984796611 0 0 0 0 -467.14320208110269 139.4905624959531 0 139.4905624959531 -42.412795546003053 0 0 0 0 -679.34242293848479 209.18068893562531 0 209.18068893562531 18.494626449765747 0 0 0 0 -561.60400749301721 166.29766030721157 0 166.29766030721157 -43.345532940346402 0 0 0 0 -421.07010107731213 230.42698209542431 0 230.42698209542431 -138.46110104914806 0 0 0 0 -303.68130170956817 250.4529741422366 0 250.4529741422366 -164.47088753155936 0 0 0 0 -416.5100433406804 269.26564998223915 0 269.26564998223915 -143.5705252400885 0 0 0 0 -545.74579257430423 306.09007648715544 0 306.09007648715544 -117.51296460431513 0 0 0 0 -422.58486393483008 264.07056271128613 0 264.07056271128613 -104.08460284477997 0 0 0 0 -400.82403935523064 331.22266991565675 0 331.22266991565675 -209.58674211046764 0 0 0 0 -287.89481259182742 318.65631754025253 0 318.65631754025253 -329.36872043555877 0 0 0 0 -469.39691859522327 356.54403169871171 0 356.54403169871171 -218.93623050585211 0 0 0 0 -251.80079936951776 262.12361698302288 0 262.12361698302288 -253.85508993639269 0 0 0 0 -289.72508877700477 257.12676182733549 0 257.12676182733549 -243.46839968846029 0 0 0 0 -389.82561020686484 283.16785297240256 0 283.16785297240256 -173.6876896201984 0 0 0 0 -214.72582913511792 175.73327086322035 0 175.73327086322035 -165.18833617801965 0 0 0 0 -308.37435924792641 243.32943390630908 0 243.32943390630908 -175.00824229725259 0 0 0 0 -202.67279061567086 172.04858751703932 0 172.04858751703932 -190.10823593807501 0 0 0 0 -252.00303758789218 158.84705996119897 0 158.84705996119897 -111.66745546501943 0 0 0 0 -342.77185287456132 277.43883023929334 0 277.43883023929334 -175.26205383379465 0 0 0 0 104.53174505846511 -0.29611090932814932 0 -0.29611090932814932 -40.448450002746767 0 0 0 0 1.0656000281256812 0.67151760812100303 0 0.67151760812100303 -3.5531379338796754 0 0 0 0 17.714239329495683 66.713986689423479 0 66.713986689423479 -72.828202079997482 0 0 0 0 -126.96009445211396 -28.713394355450646 0 -28.713394355450646 -37.356127265283249 0 0 0 0 -182.3549653340599 54.458935531314182 0 54.458935531314182 30.938045826961115 0 0 0 0 -51.158784666440965 72.240127673077723 0 72.240127673077723 4.0484089233526106 0 0 0 0 -76.830722768566375 -60.785549416874574 0 -60.785549416874574 31.423341747392442 0 0 0 0 -284.19144226864887 -51.558375018172796 0 -51.558375018172796 4.4132371668770247 0 0 0 0 -286.17966886967758 -37.837291014457833 0 -37.837291014457833 -60.322456247568994 0 0 0 0 -172.97460175246547 -6.7185280758426416 0 -6.7185280758426416 -41.571933446796152 0 0 0 0 -282.55384533692455 -97.33342543640623 0 -97.33342543640623 -10.314143053704356 0 0 0 0 -148.95870994787316 -49.725746344813274 0 -49.725746344813274 11.940056198385719 0 0 0 0 -34.90288743926277 8.5192143261621887 0 8.5192143261621887 -73.69920360103788 0 0 0 0 -112.74705240609299 34.005533380388897 0 34.005533380388897 -7.4646624562096804 0 0 0 0 -402.10681858061429 -14.314196471867035 0 -14.314196471867035 -5.2580166706347882 0 0 0 0 -147.73167138821171 -145.60787847449706 0 -145.60787847449706 -82.903356602977055 0 0 0 0 92.814888635385216 23.34866841491521 0 23.34866841491521 -125.29585905647895 0 0 0 0 -360.52572088386273 -414.97207711234182 0 -414.97207711234182 -124.12636629427016 0 0 0 0 -1.8499768264084651 28.020228079891695 0 28.020228079891695 -25.096250275185639 0 0 0 0 -53.75512623596606 80.387617499698081 0 80.387617499698081 161.55246432802369 0 0 0 0 -15.078771994915598 59.280682154399074 0 59.280682154399074 47.578860779069828 0 0 0 0 -38.112914706867336 8.5311650453128749 0 8.5311650453128749 -0.84888296738747915 0 0 0 0 -35.461826643820245 40.401595965597139 0 40.401595965597139 14.592015627921683 0 0 0 0 32.752488130418328 42.729042502282709 0 42.729042502282709 -21.447700054480947 0 0 0 0 25.347341247386908 -41.32640128594312 0 -41.32640128594312 14.734189147194229 0 0 0 0 -7.822433212494289 -87.415759617818708 0 -87.415759617818708 -49.228784915508641 0 0 0 0 -7.7252220096076698 1.498019149637499 0 1.498019149637499 -1.5021743028333105 0 0 0 0 -34.998380348536415 -24.939504787729788 0 -24.939504787729788 83.233446428623211 0 0 0 0 -394.81186097449608 120.12775776060198 0 120.12775776060198 281.07758663163827 0 0 0 0 -28.084614434824445 3.1203609727558765 0 3.1203609727558765 0.41119839957965043 0 0 0 0 -11.41827222114344 0.36173655353645184 0 0.36173655353645184 -0.045902537240728236 0 0 0 0 -964.85762704545539 -550.2495833646193 0 -550.2495833646193 -26.756141762167317 0 0 0 0 -538.33685366707505 -626.57891531753694 0 -626.57891531753694 -396.67467841575308 0 0 0 0 -363.80373401066197 267.56313036393465 0 267.56313036393465 -7.6942870569268962 0 0 0 0 -1070.2761308642732 7.9758917715487314 0 7.9758917715487314 143.67590585184098 0 0 0 0 -4.722623197576354 28.611095815820136 0 28.611095815820136 -210.30317253311659 0 0 0 0 -67.953344115529603 -59.936011071302801 0 -59.936011071302801 53.010655520210776 0 0 0 0 7.9035428049683105 27.643437292817453 0 27.643437292817453 -92.345296760210658 0 0 0 0 73.57240417280093 -28.350656421604981 0 -28.350656421604981 -205.88265696608232 0 0 0 0 23.661611996953752 -36.877737539677582 0 -36.877737539677582 -8.6199783675224353 0 0 0 0 121.78197716683462 300.75782834110032 0 300.75782834110032 -274.23631070626743 0 0 0 0 -21.461667172433636 -111.80399644199997 0 -111.80399644199997 -279.33843533671927 0 0 0 0 -71.015062245521449 83.414194059165311 0 83.414194059165311 -709.77929135540808 0 0 0 0 -966.97053628841104 173.52373429680392 0 173.52373429680392 -116.79778017826266 0 0 0 0 -305.07045498557568 -487.06113446692564 0 -487.06113446692564 -474.36442876735828 0 0 0 0 -152.75567196786528 271.01389597996967 0 271.01389597996967 141.55184496611713 0 0 0 0 -119.7542405424208 -235.36853711874346 0 -235.36853711874346 -199.77943063608132 0 0 0 0 -131.342420098491 -183.02865570646301 0 -183.02865570646301 -90.313323743263936 0 0 0 0 -62.993564031273024 -149.28960374759663 0 -149.28960374759663 -195.23567902889573 0 0 0 0 -229.28225678134595 -168.83899466747482 0 -168.83899466747482 58.92564655254273 0 0 0 0 -252.39969078370029 -285.19341929354482 0 -285.19341929354482 -42.482700425302028 0 0 0 0 -183.68946652559185 -46.910006011808036 0 -46.910006011808036 41.331998761158957 0 0 0 0 -181.65614550967274 -104.41834203248277 0 -104.41834203248277 -26.598481356650609 0 0 0 0 -233.12352921197026 -146.97013170628389 0 -146.97013170628389 -55.910117480712415 0 0 0 0 -3.5927900030212618 0.71458187605316859 0 0.71458187605316859 1.1358640752278459 0 0 0 0 -291.31172501872607 208.98477853070995 0 208.98477853070995 -48.200263230222617 0 0 0 0 -2.0316052280184325 0.52633074907964694 0 0.52633074907964694 0.43312051590690182 0 0 0 0 -431.38297879720454 -256.59091222740085 0 -256.59091222740085 -118.25293727812959 0 0 0 0 -525.39006708377144 -24.645067946728489 0 -24.645067946728489 32.041345276863922 0 0 0 0 -269.82697777159365 -89.393282803840066 0 -89.393282803840066 11.111735437038988 0 0 0 0 -217.94792576413047 -9.5300636437641515 0 -9.5300636437641515 -0.48105855519531815 0 0 0 0 -229.06726612078381 2.6708773636636352 0 2.6708773636636352 -9.8062438942279186 0 0 0 0 -115.4156773309879 6.0359727807814352 0 6.0359727807814352 -21.41282831481476 0 0 0 0 -155.54349771227172 -30.168888668820955 0 -30.168888668820955 -49.267802986556944 0 0 0 0 -10.298933727556175 -35.528151886150681 0 -35.528151886150681 -53.310582282371001 0 0 0 0 -108.9622317764742 -50.115729962470596 0 -50.115729962470596 -51.745537388667799 0 0 0 0 -173.94452766081889 -104.90153049201166 0 -104.90153049201166 -29.877775634009595 0 0 0 0 -132.04840199228283 -108.23871592359387 0 -108.23871592359387 -30.406557702074451 0 0 0 0 -218.68571273168868 -112.33725738597559 0 -112.33725738597559 3.7169952922774314 0 0 0 0 -224.62420350909338 -100.8910852693366 0 -100.8910852693366 23.490873897772019 0 0 0 0 -66.516052457697583 41.267443434094275 0 41.267443434094275 85.144436120079718 0 0 0 0 -292.93239345519851 -98.293020598323437 0 -98.293020598323437 52.536337671019282 0 0 0 0 -1.2417517402509457 -0.11472962414669663 0 -0.11472962414669663 0.043657724367434092 0 0 0 0 -233.06427762306762 -236.67906721304752 0 -236.67906721304752 -189.4214747558608 0 0 0 0 -244.93022988497637 -70.370969403888694 0 -70.370969403888694 -30.416683816617024 0 0 0 0 -258.93133284366763 -131.68565748573084 0 -131.68565748573084 -106.12434164136039 0 0 0 0 -206.14934793232169 -147.79166872298424 0 -147.79166872298424 -115.17048927571204 0 0 0 0 -135.01219150883475 -17.503148218478941 0 -17.503148218478941 18.239820025165045 0 0 0 0 -26.835835086499401 -34.727608474499675 0 -34.727608474499675 0.55509942987237082 0 0 0 0 -17.228400238601807 32.411177588531018 0 32.411177588531018 37.780375565809436 0 0 0 0 11.078981369399571 -5.030837435063404 0 -5.030837435063404 -7.7375826374716326 0 0 0 0 9.1704706498419455 -13.188053495969143 0 -13.188053495969143 -31.021968202760945 0 0 0 0 -6.9689343545007887 -9.9544490630016753 0 -9.9544490630016753 -1.3264455416770033 0 0 0 0 -8.3801865362080434 -3.6604584680443679 0 -3.6604584680443679 29.78959619369607 0 0 0 0 -3.1076229917030016 -0.016316036913020859 0 -0.016316036913020859 0.31813494645750584 0 0 0 0 -129.56217438369424 -101.99740447182239 0 -101.99740447182239 -75.701798006934723 0 0 0 0 -227.05604261924498 31.293023990489246 0 31.293023990489246 -31.210067005709789 0 0 0 0 -182.81831033996576 -35.798108921934272 0 -35.798108921934272 54.697601597820722 0 0 0 0 -106.24200300891096 12.490588774368916 0 12.490588774368916 -64.992841101763929 0 0 0 0 -188.64811470891345 49.141619402527112 0 49.141619402527112 -79.997764401272661 0 0 0 0 -161.6512306302867 -33.026218471765276 0 -33.026218471765276 -237.73236960209215 0 0 0 0 -312.92804965959249 91.441884500929746 0 91.441884500929746 -172.00449875343679 0 0 0 0 -182.77355977078787 -6.9471163104744278 0 -6.9471163104744278 -97.631773073514523 0 0 0 0 -292.37841989358674 -79.076284267537986 0 -79.076284267537986 49.518718184402132 0 0 0 0 -395.25481090056621 -89.981313590726643 0 -89.981313590726643 -45.722920188813532 0 0 0 0 -285.83648249685558 -123.78328236800382 0 -123.78328236800382 -20.269323385862208 0 0 0 0 -256.62460553155825 -110.3092837397576 0 -110.3092837397576 -51.369863331425677 0 0 0 0 -354.13312928853247 -184.93695255144462 0 -184.93695255144462 -105.58985869291359 0 0 0 0 -223.91640308770377 -103.125289886671 0 -103.125289886671 -45.073716799588709 0 0 0 0 -275.79952988183192 -36.211022273170897 0 -36.211022273170897 -11.147220636521297 0 0 0 0 -413.31848583664629 -324.97497825439677 0 -324.97497825439677 -164.92096824049349 0 0 0 0 -1.6600660213517777 0.069834220595407448 0 0.069834220595407448 0.5629121602486693 0 0 0 0 -444.1318888385029 -127.50769417622905 0 -127.50769417622905 21.388237700465652 0 0 0 0 -249.85027854436692 -68.209818989535734 0 -68.209818989535734 -4.8864190719577394 0 0 0 0 0.061504729733741881 -0.28309908481138368 0 -0.28309908481138368 1.0283002370665955 0 0 0 0 -21.575926793247945 -38.5355690299005 0 -38.5355690299005 36.671144009550972 0 0 0 0 -81.173375984314475 8.9817881019366723 0 8.9817881019366723 19.023422555105299 0 0 0 0 -81.763273460744585 2.4047669979470356 0 2.4047669979470356 13.255873980904965 0 0 0 0 -81.473007906621888 0.50586769764140627 0 0.50586769764140627 24.767557012408702 0 0 0 0 -90.59554621073471 7.0047455491551318 0 7.0047455491551318 9.6130443698199315 0 0 0 0 -3.3502709365145016 -0.20600336722272317 0 -0.20600336722272317 0.11273856964335405 0 0 0 0 -24.274896351420239 6.6482643483769834 0 6.6482643483769834 3.7378341277018308 0 0 0 0 -111.27126255144253 46.036663398367864 0 46.036663398367864 -10.434154010066948 0 0 0 0 -35.846112955601086 -17.726236602139466 0 -17.726236602139466 -48.495518979403641 0 0 0 0 -2.8755972329733677 0.0231459236666538 0 0.0231459236666538 3.8031915150190461 0 0 0 0 -92.400176038170372 2.2628085567507767 0 2.2628085567507767 28.868000160696283 0 0 0 0 -1.3967521425097402 33.733668977319212 0 33.733668977319212 1.4329916444698938 0 0 0 0 -16.763726941298092 9.7933177425869022 0 9.7933177425869022 6.694816565333257 0 0 0 0 -103.71676262928091 -19.259403848807153 0 -19.259403848807153 2.3074493839303614 0 0 0 0 -70.587611353444515 -6.4915728700173077 0 -6.4915728700173077 2.1846486766767788 0 0 0 0 -216.19013335875044 -163.57587040807971 0 -163.57587040807971 -139.22188005052334 0 0 0 0 -283.36072065332735 -93.329142430130787 0 -93.329142430130787 -17.877830571384948 0 0 0 0 -210.11171295607943 -79.388865224110532 0 -79.388865224110532 -89.572809864682313 0 0 0 0 -222.10196349182655 -42.928572746726786 0 -42.928572746726786 -7.619968228073958 0 0 0 0 -86.006464699626235 8.6032118797347721 0 8.6032118797347721 -5.6417969327185915 0 0 0 0 -172.062306458752 -34.582670658647658 0 -34.582670658647658 -0.044652289355781249 0 0 0 0 -92.110720237034897 -4.9761697482724756 0 -4.9761697482724756 -34.333693086139647 0 0 0 0 -141.47236459114583 -72.017411256096239 0 -72.017411256096239 -39.59679671021604 0 0 0 0 -154.05615811979794 -166.37253800974941 0 -166.37253800974941 -57.197397380612074 0 0 0 0 -189.02603611028624 -85.449654597025528 0 -85.449654597025528 -24.310345600692472 0 0 0 0 -59.098213245333035 -53.957855965854556 0 -53.957855965854556 -47.835158755699013 0 0 0 0 -90.230495970163105 -72.19455365149588 0 -72.19455365149588 -57.857013164807995 0 0 0 0 -76.355299717538287 -3.2903464953201365 0 -3.2903464953201365 -22.702817610408601 0 0 0 0 -114.38075380886997 -11.109966252864979 0 -11.109966252864979 -3.9315013270797863 0 0 0 0 -76.901047933546124 4.0360813409024558 0 4.0360813409024558 -6.9971499780876911 0 0 0 0 -62.081386448097817 26.652946834101385 0 26.652946834101385 1.6894432049593888 0 0 0 0 -66.322710441443007 40.204508926876088 0 40.204508926876088 16.156905415635265 0 0 0 0 -114.97559508474842 -13.125490587637159 0 -13.125490587637159 69.340986114910265 0 0 0 0 -54.762583616850144 22.083367102421558 0 22.083367102421558 -2.8581124818081554 0 0 0 0 -56.955182744954072 -1.487934501469681 0 -1.487934501469681 52.484225610472095 0 0 0 0 -24.349169975859695 65.682717327164028 0 65.682717327164028 34.201193189310288 0 0 0 0 -33.589887413852296 20.863022549543075 0 20.863022549543075 -15.764906877814155 0 0 0 0 -96.234868178410807 45.383487231908475 0 45.383487231908475 11.573967636156056 0 0 0 0 -67.594987326534465 95.903878665779303 0 95.903878665779303 131.73161772427375 0 0 0 0 -57.971507813533321 18.372830077066837 0 18.372830077066837 -2.9178102412067641 0 0 0 0 -60.084586554438204 4.7237344204220335 0 4.7237344204220335 14.019117527192975 0 0 0 0 -28.436905743644729 3.3348266247494394 0 3.3348266247494394 -80.268635639597051 0 0 0 0 166.61245582214281 76.326675791657181 0 76.326675791657181 -40.75952322641956 0 0 0 0 -20.057755663092045 -0.11895997451125506 0 -0.11895997451125506 9.3384688465118053 0 0 0 0 -46.523724475824622 -9.2014990537918493 0 -9.2014990537918493 -63.428292300581234 0 0 0 0 -46.166869982395838 -7.4185912124844435 0 -7.4185912124844435 -2.98183907506791 0 0 0 0 -73.810529392030446 -4.392218546081267 0 -4.392218546081267 9.561029846677684 0 0 0 0 -44.126447856160667 -5.0671642928468259 0 -5.0671642928468259 8.6359507419785615 0 0 0 0 -18.870070609534263 -10.783041820408522 0 -10.783041820408522 1.7549446955702717 0 0 0 0 -37.940123403373974 3.3207733502426868 0 3.3207733502426868 6.8268911445295641 0 0 0 0 -21.286701437650908 9.7181569700905737 0 9.7181569700905737 3.457814856915828 0 0 0 0 -54.085897156846841 -8.0988809299951754 0 -8.0988809299951754 10.059940413917502 0 0 0 0 -56.484105672468104 39.649621628147543 0 39.649621628147543 15.992315063573642 0 0 0 0 -78.915862663382057 13.818779012590937 0 13.818779012590937 10.520072374079064 0 0 0 0 -74.204345054718942 25.036601163622436 0 25.036601163622436 12.273405455594911 0 0 0 0 -63.543825066182762 34.657579364798949 0 34.657579364798949 20.270000649319627 0 0 0 0 -42.918723915017203 3.1340583645677551 0 3.1340583645677551 8.8032177424272007 0 0 0 0 -41.461889695438003 5.2639895890570187 0 5.2639895890570187 8.6000157435100846 0 0 0 0 -45.693602224603552 11.421926420773051 0 11.421926420773051 5.2817307155956783 0 0 0 0 -77.431031206624994 -35.688701189194546 0 -35.688701189194546 -68.237365618078911 0 0 0 0 -123.97501285582257 -3.1479778746261218 0 -3.1479778746261218 58.449387346332514 0 0 0 0 -78.838886555051431 -11.157878086213259 0 -11.157878086213259 34.915248210405025 0 0 0 0 -9.8918756929080054 -0.22732082764202488 0 -0.22732082764202488 10.563889660453817 0 0 0 0 -8.7857869662812433 -3.2332617152423104 0 -3.2332617152423104 6.867807792212079 0 0 0 0 -78.584574133971273 -26.695320703119478 0 -26.695320703119478 -6.9608973220065309 0 0 0 0 -63.372069397471932 2.7805504914667836 0 2.7805504914667836 -66.101953888073695 0 0 0 0 -58.197576737875352 -6.555546372615936 0 -6.555546372615936 -49.508282108628919 0 0 0 0 -17.192312665202067 -10.904596773393113 0 -10.904596773393113 7.2548193181267635 0 0 0 0 -39.611622238891869 -4.9205432984435333 0 -4.9205432984435333 0.53010460239681834 0 0 0 0 -66.126148658870079 2.2288304346557197 0 2.2288304346557197 4.6568280208821307 0 0 0 0 -68.605031420811429 -12.954027681895809 0 -12.954027681895809 -6.5302187829174727 0 0 0 0 -7.3994972548420836 0.21239796066611305 0 0.21239796066611305 7.8964927793274944 0 0 0 0 -88.803803658770448 26.57765656015755 0 26.57765656015755 -21.4772500730096 0 0 0 0 -5.1262448490102335 -12.55644280387456 0 -12.55644280387456 5.1705938619917013 0 0 0 0 -70.572128943580537 -5.9162811581880987 0 -5.9162811581880987 7.0741646862882135 0 0 0 0 -73.479054779847502 42.837064941632434 0 42.837064941632434 -4.9237349142204323 0 0 0 0 -35.774801467043289 10.367487576292206 0 10.367487576292206 -125.53975087911931 0 0 0 0 -37.951876427832758 30.835832856620982 0 30.835832856620982 -39.404705176872085 0 0 0 0 -314.33700332182343 -322.53908786748434 0 -322.53908786748434 35.884338307019789 0 0 0 0 -43.169824169191997 -26.274012269418449 0 -26.274012269418449 -149.56586876763049 0 0 0 0 -55.821066388511099 -11.733923387613686 0 -11.733923387613686 -57.723512490214944 0 0 0 0 3.4687513291537471 17.378178241313435 0 17.378178241313435 -240.70457619832723 0 0 0 0 -22.717936563716648 35.450779878489357 0 35.450779878489357 -79.310378479007341 0 0 0 0 -10.178386449195386 126.02645052884463 0 126.02645052884463 -116.15363382368014 0 0 0 0 -18.017632086026424 168.21502667501727 0 168.21502667501727 -185.23223162983413 0 0 0 0 -18.17717347155849 91.138833492502727 0 91.138833492502727 66.947519918690887 0 0 0 0 -50.716999535936338 99.901566482407929 0 99.901566482407929 53.691560190894961 0 0 0 0 -72.836889708749823 51.644592514448831 0 51.644592514448831 -51.54354342197621 0 0 0 0 -49.854049077868694 94.131233732640339 0 94.131233732640339 -10.717615083932287 0 0 0 0 -100.08268054086875 14.833546100750937 0 14.833546100750937 48.040348588617235 0 0 0 0 -75.632093228130543 193.8910126578885 0 193.8910126578885 138.76432646718354 0 0 0 0 -74.309261428752507 89.596404441212144 0 89.596404441212144 49.707913554804463 0 0 0 0 -112.26609873774396 86.477365940642244 0 86.477365940642244 409.74641152469121 0 0 0 0 -50.995739329526259 -195.62245877042983 0 -195.62245877042983 412.60600985439203 0 0 0 0 -108.27618092909324 49.061385850736542 0 49.061385850736542 252.00705468003616 0 0 0 0 -12.336311558447051 -120.17315585563165 0 -120.17315585563165 122.99149111829684 0 0 0 0 -153.13461681797344 67.154914467970684 0 67.154914467970684 59.306083110297095 0 0 0 0 -6.2775885092814523 -9.9470161393703833 0 -9.9470161393703833 12.584102157969543 0 0 0 0 -87.451556407472708 11.821654448359766 0 11.821654448359766 19.778220255120686 0 0 0 0 -8.6675685965028997 1.9719025632274949 0 1.9719025632274949 0.25365730921264884 0 0 0 0 -244.21863313502399 12.422876362912461 0 12.422876362912461 71.331183622354729 0 0 0 0 -141.7023837363522 15.824068014523164 0 15.824068014523164 -6.4444141644315494 0 0 0 0 -108.08812092997687 77.860830978155718 0 77.860830978155718 80.335315536262897 0 0 0 0 -66.920419649912219 91.112629771172578 0 91.112629771172578 91.079376307381153 0 0 0 0 -36.134667370453826 45.350946058357295 0 45.350946058357295 60.497054756506259 0 0 0 0 25.279729134577792 128.25291008541535 0 128.25291008541535 79.599119197017899 0 0 0 0 68.382195272681201 62.532465574276557 0 62.532465574276557 55.52247250119035 0 0 0 0 88.376630802074942 116.47538647648435 0 116.47538647648435 44.997569454142649 0 0 0 0 -31.430613423417526 22.679296665669426 0 22.679296665669426 99.423673656530809 0 0 0 0 -98.147581113255001 57.153614379660212 0 57.153614379660212 84.116741848730271 0 0 0 0 -116.36153602414197 -5.5433293130463426 0 -5.5433293130463426 46.100799059368001 0 0 0 0 -63.647948266185267 60.157546415244724 0 60.157546415244724 67.670224400713778 0 0 0 0 -71.780979095499788 21.040156070017474 0 21.040156070017474 40.374581155598207 0 0 0 0 -379.30814651390801 92.964221869537425 0 92.964221869537425 -135.77281431080883 0 0 0 0 -165.30807265949989 -61.262900213941975 0 -61.262900213941975 1.9569888728619844 0 0 0 0 -146.6926078432225 7.9771242993374472 0 7.9771242993374472 58.649027647143157 0 0 0 0 -211.74446939252084 -104.48820379855988 0 -104.48820379855988 -4.9400432435213588 0 0 0 0 -222.16576189518673 -58.526979929338268 0 -58.526979929338268 53.53562050561959 0 0 0 0 -155.72499132231314 -23.569053989400345 0 -23.569053989400345 34.065317162207066 0 0 0 0 -96.756775053148544 -4.8199638587525158 0 -4.8199638587525158 -0.77870678120962111 0 0 0 0 -105.70299345587409 44.510769581300337 0 44.510769581300337 57.158698308182466 0 0 0 0 -114.02656302759715 -84.042631461092242 0 -84.042631461092242 -141.08774696422552 0 0 0 0 -119.96560728457189 11.340199011934601 0 11.340199011934601 -19.060925249697902 0 0 0 0 -114.33893408896893 -26.158982958708521 0 -26.158982958708521 -114.29744464346004 0 0 0 0 -136.33337022188061 -70.394713112622412 0 -70.394713112622412 -62.527721557902623 0 0 0 0 -112.6740434167732 6.4144681620055053 0 6.4144681620055053 -30.099627017596504 0 0 0 0 -107.52754307753594 -4.8266271841451953 0 -4.8266271841451953 -13.714854640980775 0 0 0 0 -134.57575037736387 13.631983080009377 0 13.631983080009377 57.026478870893698 0 0 0 0 -183.10744378718664 -143.52770507691093 0 -143.52770507691093 -82.712927336893699 0 0 0 0 -213.68110605702532 -100.65365589372595 0 -100.65365589372595 20.514912315164111 0 0 0 0 -124.71126873636604 -65.599263030000657 0 -65.599263030000657 -77.348728200369806 0 0 0 0 -47.764307523804746 177.49856113343117 0 177.49856113343117 76.255774096031018 0 0 0 0 58.469830279409507 -221.85373216869766 0 -221.85373216869766 405.00594057638773 0 0 0 0 0.57112531009614287 -0.69518786194399951 0 -0.69518786194399951 6.0738050034748365 0 0 0 0 -83.694249705105904 -276.27294868833269 0 -276.27294868833269 53.035083000570012 0 0 0 0 -1.5771976981006723 0.13843769761444236 0 0.13843769761444236 9.2964010095838177 0 0 0 0 -278.94149364695841 -118.08727392138826 0 -118.08727392138826 20.438337536976178 0 0 0 0 -308.42772590908135 -32.079025209051451 0 -32.079025209051451 23.760374764293374 0 0 0 0 -227.18307311597891 -4.9800747185308865 0 -4.9800747185308865 -108.65384533953329 0 0 0 0 -298.40950509054528 2.7246690157699049 0 2.7246690157699049 -13.421594872816058 0 0 0 0 -245.10796505141843 -38.526155498700973 0 -38.526155498700973 29.69292138394303 0 0 0 0 -302.57100278700091 -70.025064260718864 0 -70.025064260718864 50.5808687115059 0 0 0 0 -252.19584968556592 -24.722335579961509 0 -24.722335579961509 2.8154256369307404 0 0 0 0 -292.32748583297507 -57.7589756516536 0 -57.7589756516536 48.675968838091649 0 0 0 0 -218.46557508037949 -8.4793290111440456 0 -8.4793290111440456 38.988660672170226 0 0 0 0 -226.80780153372416 -73.056555449345979 0 -73.056555449345979 32.666002593192388 0 0 0 0 -162.18736020457436 -33.004065999662998 0 -33.004065999662998 30.779672302189283 0 0 0 0 -153.11648236565361 39.173278035435374 0 39.173278035435374 53.386026060361473 0 0 0 0 -155.67128651169696 -5.6826740162823626 0 -5.6826740162823626 27.948137268835126 0 0 0 0 -191.16761635073635 23.871065227971485 0 23.871065227971485 8.9665238114284875 0 0 0 0 -237.6443547544477 -42.04427155565736 0 -42.04427155565736 4.8968945652050024 0 0 0 0 -154.33806729405842 3.3272240962751312 0 3.3272240962751312 -22.30144453808316 0 0 0 0 -97.695436130277812 -37.411824551978498 0 -37.411824551978498 16.837096650404419 0 0 0 0 -165.55664706260904 -10.819536814606181 0 -10.819536814606181 85.986036058422542 0 0 0 0 -37.578040892483841 71.333296032581529 0 71.333296032581529 37.558416920556738 0 0 0 0 -102.09485862385554 86.690324172136798 0 86.690324172136798 69.775978195639254 0 0 0 0 -407.99406827185521 -177.99629914312709 0 -177.99629914312709 3.1394505019043208 0 0 0 0 -413.0178694364331 -26.204528777550422 0 -26.204528777550422 38.057145848191794 0 0 0 0 -2.1398617426249906 0.25664812058273867 0 0.25664812058273867 7.7764848599857075 0 0 0 0 -176.0260153577874 37.885508068889976 0 37.885508068889976 8.4400481319935352 0 0 0 0 -309.96945787180812 -27.17564134191025 0 -27.17564134191025 26.833033718878141 0 0 0 0 -298.83228168295864 -97.155349523121913 0 -97.155349523121913 27.351078110974413 0 0 0 0 -166.30731364827079 -11.428165163892118 0 -11.428165163892118 27.633339426449311 0 0 0 0 -239.20165548875229 -127.58959627967852 0 -127.58959627967852 -125.13304709244744 0 0 0 0 -274.1797978560935 -65.480785968782584 0 -65.480785968782584 22.235825021187338 0 0 0 0 -0.14717239697585427 0.18089019948597951 0 0.18089019948597951 4.0000084273873924 0 0 0 0 -196.17873507396598 240.93221092200406 0 240.93221092200406 -66.381614348461881 0 0 0 0 -251.68738308504544 128.37980194299871 0 128.37980194299871 12.791500849063141 0 0 0 0 44.855879126653463 312.82239679091992 0 312.82239679091992 -138.70717060253628 0 0 0 0 54.463362822507406 394.67968544383353 0 394.67968544383353 -19.507461133325705 0 0 0 0 -202.79782848313698 -33.560759086881717 0 -33.560759086881717 -144.19151117981303 0 0 0 0 -182.09846817127982 130.14151910316468 0 130.14151910316468 354.96308071547855 0 0 0 0 -622.98060429245379 -265.65843328183792 0 -265.65843328183792 44.059466065793004 0 0 0 0 306.16193507285789 -281.75905727538793 0 -281.75905727538793 16.464258354528283 0 0 0 0 -0.19795442957161669 -0.045472679915654624 0 -0.045472679915654624 2.3285238340490153 0 0 0 0 -313.32297354173352 1.3109964307877817 0 1.3109964307877817 -119.13376809725014 0 0 0 0 -290.42588182369218 -166.62616437557517 0 -166.62616437557517 -213.4551320282917 0 0 0 0 -33.431296266721347 -81.972639196935233 0 -81.972639196935233 63.491801684347593 0 0 0 0 -11.066213157253515 -161.25153317441527 0 -161.25153317441527 106.10867422348298 0 0 0 0 -151.4912854222348 -20.654096448768428 0 -20.654096448768428 85.708421236383401 0 0 0 0 -97.091776094148372 -98.833624166360778 0 -98.833624166360778 62.88015180551654 0 0 0 0 -88.909300191005968 -70.82738870751632 0 -70.82738870751632 141.4293164092378 0 0 0 0 200.90169255173896 -244.6824039331882 0 -244.6824039331882 118.34357687577995 0 0 0 0 69.428467386047487 -102.03756407754167 0 -102.03756407754167 52.669959943198137 0 0 0 0 84.569644942237574 -123.26435152884153 0 -123.26435152884153 32.242048162617493 0 0 0 0 -45.313915510080278 -157.57337820605852 0 -157.57337820605852 35.020184829074879 0 0 0 0 -23.061319858000388 -99.778720536170937 0 -99.778720536170937 118.88760697681164 0 0 0 0 -85.190379665240471 86.348655103124202 0 86.348655103124202 3.8748920219652234 0 0 0 0 -175.53719363019081 -36.047540432923597 0 -36.047540432923597 67.145334823797441 0 0 0 0 -1.3092360129048828 -0.92183864969108953 0 -0.92183864969108953 8.5184109701572304 0 0 0 0 -309.15571188177637 115.64795254017827 0 115.64795254017827 12.374242047265398 0 0 0 0 -638.78562078287905 75.754216973189841 0 75.754216973189841 277.10280926630821 0 0 0 0 -289.48772918738541 20.315401369077335 0 20.315401369077335 388.31068778526424 0 0 0 0 82.097457618727276 639.5987557174268 0 639.5987557174268 197.38897633465058 0 0 0 0 -0.47920984576874304 -0.22183434149695813 0 -0.22183434149695813 2.8302309830592698 0 0 0 0 264.04179273419777 432.73224192269606 0 432.73224192269606 359.8471706060518 0 0 0 0 128.60710346902488 51.660199646864385 0 51.660199646864385 158.410003254804 0 0 0 0 -112.4226970125801 -69.193789761811331 0 -69.193789761811331 -88.317234941967399 0 0 0 0 -244.40248653522212 -139.25173733273482 0 -139.25173733273482 81.715153498886139 0 0 0 0 -122.18055146684128 -83.145226490452728 0 -83.145226490452728 39.509379269173223 0 0 0 0 -175.97411066596396 59.38890098967704 0 59.38890098967704 486.21800744529878 0 0 0 0 -215.33336170428083 -97.955897123814111 0 -97.955897123814111 -43.962287100169306 0 0 0 0 -211.92415333965619 -60.822429655099995 0 -60.822429655099995 48.882940021195736 0 0 0 0 -208.94804356058921 32.615849246160678 0 32.615849246160678 -61.632300988539555 0 0 0 0 -266.28022674876956 11.97572381885891 0 11.97572381885891 62.425867074328607 0 0 0 0 -280.56419718429606 -42.973920947489773 0 -42.973920947489773 50.0271475911577 0 0 0 0 -401.51642827155229 60.437841822322753 0 60.437841822322753 -19.007912746922784 0 0 0 0 -224.13448333592896 65.784236177072444 0 65.784236177072444 -48.72802487767035 0 0 0 0 -374.77815792884348 14.047071926427407 0 14.047071926427407 97.57721312615331 0 0 0 0 -1.5493405807662697 -2.1105113381063774 0 -2.1105113381063774 5.3804250510084231 0 0 0 0 -320.80026791327509 -81.166457263833649 0 -81.166457263833649 18.043082082973342 0 0 0 0 406.21074763883644 354.12333348879849 0 354.12333348879849 -163.50898930580888 0 0 0 0 -145.34330113844771 383.94674861017961 0 383.94674861017961 -159.53211665715344 0 0 0 0 -75.424141827592393 393.29416791158098 0 393.29416791158098 -258.13394490256167 0 0 0 0 -246.54721539586171 275.10922746437933 0 275.10922746437933 -461.50741508519747 0 0 0 0 -185.27496404060366 117.66700958486831 0 117.66700958486831 -104.01176871096011 0 0 0 0 -368.69283399298365 -11.683791628810582 0 -11.683791628810582 78.738078235404487 0 0 0 0 -160.28317530294044 -17.774006662088823 0 -17.774006662088823 -8.4215614595700572 0 0 0 0 -140.21663381620965 -23.523506175918101 0 -23.523506175918101 -13.083716012371951 0 0 0 0 -0.4503290588891784 -0.31653760946488774 0 -0.31653760946488774 -2.1683777319475492 0 0 0 0 -195.23288022192719 204.79082342555057 0 204.79082342555057 -43.963359344754508 0 0 0 0 41.60666574707102 124.35033103169462 0 124.35033103169462 -18.146326418986064 0 0 0 0 -129.27781664104623 59.213206572249646 0 59.213206572249646 170.44984994278911 0 0 0 0 -89.341350773091108 48.778718840316287 0 48.778718840316287 -6.8524622987555404 0 0 0 0 -381.12908219322344 293.90870964252258 0 293.90870964252258 425.61617909388951 0 0 0 0 -0.45165949551615592 -0.71071926143845587 0 -0.71071926143845587 0.029351251379743815 0 0 0 0 -109.08716388626453 89.144848708031759 0 89.144848708031759 134.09792538363217 0 0 0 0 -593.93155011112503 8.0125509554422933 0 8.0125509554422933 69.53728180390317 0 0 0 0 -127.44419988810478 71.168448222053257 0 71.168448222053257 219.21025869126424 0 0 0 0 -129.81364425250285 4.5320616472413349 0 4.5320616472413349 134.40909867272239 0 0 0 0 -222.314347562904 61.481854781400216 0 61.481854781400216 229.00413205526638 0 0 0 0 -492.24183347223698 -150.03826910802081 0 -150.03826910802081 118.25517305393078 0 0 0 0 35.417012879751383 85.173467240044829 0 85.173467240044829 174.22509236123642 0 0 0 0 31.422053438527655 93.50199559228713 0 93.50199559228713 156.86821016857539 0 0 0 0 -106.35303909081267 116.64662343846976 0 116.64662343846976 183.71488339572625 0 0 0 0 305.32617442896844 297.14903473360164 0 297.14903473360164 157.32327854592484 0 0 0 0 -8.0304131654586612 7.8459626765244437 0 7.8459626765244437 -5.7345521952284884 0 0 0 0 -13.912645520092155 129.87556777956661 0 129.87556777956661 189.61941581871361 0 0 0 0 -2.6681352668908289 2.7898874651310237 0 2.7898874651310237 -3.2041290348027971 0 0 0 0 -428.5043393588769 -188.60270680036399 0 -188.60270680036399 -15.991262069116601 0 0 0 0 -452.87576895404709 -261.4014752022257 0 -261.4014752022257 -72.30002342867283 0 0 0 0 -376.63729893107848 -152.65570436026019 0 -152.65570436026019 -4.4794089736227534 0 0 0 0 -252.79565782203235 55.229482426888012 0 55.229482426888012 -46.539985675745811 0 0 0 0 -11.277253646482684 10.384244069562385 0 10.384244069562385 -5.7429671333757586 0 0 0 0 -59.745483789009995 -45.299809993080999 0 -45.299809993080999 -54.501682308616552 0 0 0 0 -978.08634654238267 -36.790981150949847 0 -36.790981150949847 183.0879507959603 0 0 0 0 -548.15181467589082 -94.875484577519728 0 -94.875484577519728 189.41367663082383 0 0 0 0 -341.03958436962967 -94.689169970400826 0 -94.689169970400826 8.9448520050864317 0 0 0 0 -151.93933358094364 50.861468052587952 0 50.861468052587952 -24.060990644453796 0 0 0 0 -172.19077329353968 11.935692169883623 0 11.935692169883623 36.098443815400969 0 0 0 0 -167.41590758659004 -6.5489684912315624 0 -6.5489684912315624 107.44568994358997 0 0 0 0 -23.14079758070875 136.24369533629942 0 136.24369533629942 54.930155996070198 0 0 0 0 296.83821065658776 255.82819306167221 0 255.82819306167221 90.545020626016139 0 0 0 0 41.83972168107357 158.67753559132325 0 158.67753559132325 204.40026903619128 0 0 0 0 75.887389954066748 58.804253106625765 0 58.804253106625765 70.218142903444914 0 0 0 0 73.254050992300108 33.737811441750637 0 33.737811441750637 146.1698245185562 0 0 0 0 155.44506226677186 254.02370589243765 0 254.02370589243765 90.86807517497391 0 0 0 0 -16.353253856130323 117.579329319321 0 117.579329319321 40.046250198286543 0 0 0 0 -81.246825637022994 -11.288143870126987 0 -11.288143870126987 -10.962628876390227 0 0 0 0 -181.64791812805925 24.212073393986429 0 24.212073393986429 116.06318230661964 0 0 0 0 112.87258880526679 11.42988612929139 0 11.42988612929139 32.011568266585527 0 0 0 0 -48.081628806243316 113.78073432675353 0 113.78073432675353 218.52400753532129 0 0 0 0 -11.200798694504435 10.959302843781835 0 10.959302843781835 -5.0019449179485136 0 0 0 0 -57.873202453465638 -60.193963937748322 0 -60.193963937748322 -27.497855902100127 0 0 0 0 -63.826988512460275 -26.340840950047948 0 -26.340840950047948 43.532296149560352 0 0 0 0 -6.1372768444580288 45.389423321559661 0 45.389423321559661 -17.420176935766904 0 0 0 0 -26.398452778242714 7.1169675564237025 0 7.1169675564237025 -1.2516695125671466 0 0 0 0 -50.040579165315648 54.012883286410215 0 54.012883286410215 78.233810653557157 0 0 0 0 -597.06511325910014 -21.63325079869719 0 -21.63325079869719 272.07885112923532 0 0 0 0 -129.04432590893794 -229.52102320947324 0 -229.52102320947324 50.269811887053038 0 0 0 0 -74.851147901135846 -13.370671553839657 0 -13.370671553839657 40.082848819049104 0 0 0 0 53.897935320666875 175.23421386842347 0 175.23421386842347 74.823288474754008 0 0 0 0 -32.346136454067903 14.05883295099699 0 14.05883295099699 -4.8610528070671606 0 0 0 0 -21.60744110148929 8.0714874247865467 0 8.0714874247865467 -0.15265177395824381 0 0 0 0 -20.653790103249094 281.57230180547049 0 281.57230180547049 170.59852577895708 0 0 0 0 -334.34979843211386 310.34498166198387 0 310.34498166198387 -49.476691141589981 0 0 0 0 -10.219834748506244 1.9723289329730065 0 1.9723289329730065 -0.5407054864679548 0 0 0 0 -539.63823183290151 -785.37785342119582 0 -785.37785342119582 -658.29315264659272 0 0 0 0 -194.68178917031355 -347.49408697563626 0 -347.49408697563626 -103.91561896176881 0 0 0 0 -1168.8549211714926 -441.65216579686307 0 -441.65216579686307 46.564349748030509 0 0 0 0 35.821477016467725 -129.12969238208166 0 -129.12969238208166 -105.99151229561721 0 0 0 0 372.37063381907319 82.295239079450766 0 82.295239079450766 -160.50561947823553 0 0 0 0 -8.5618012313711205 -3.5722561184358419 0 -3.5722561184358419 -3.4012965652770966 0 0 0 0 -453.0809312028764 427.75441043512478 0 427.75441043512478 -110.53550173603708 0 0 0 0 -463.82285589436833 -624.69679200385133 0 -624.69679200385133 -393.54041751079149 0 0 0 0 -83.812656574657012 -25.294167778862857 0 -25.294167778862857 37.675967728314333 0 0 0 0 -50.948756103068263 -47.828756748224805 0 -47.828756748224805 84.615161510509097 0 0 0 0 -2.9777347862852253 -47.992774107255144 0 -47.992774107255144 8.7534635022147995 0 0 0 0 -28.007488615075943 7.2391002022001896 0 7.2391002022001896 -1.6009836347554312 0 0 0 0 -153.07996659136643 22.210500771980605 0 22.210500771980605 188.99764545670325 0 0 0 0 -36.125593734812355 -46.549435334942643 0 -46.549435334942643 -20.792935606341416 0 0 0 0 -223.49341869489308 574.53644862839337 0 574.53644862839337 -672.13419560254079 0 0 0 0 -574.98244394140374 515.0731664522757 0 515.0731664522757 -205.43553424200445 0 0 0 0 98.260832855991794 55.334276220092931 0 55.334276220092931 -285.5002465963853 0 0 0 0 -71.99583417728536 42.235043346678594 0 42.235043346678594 -78.358403436607148 0 0 0 0 -390.60759866230762 85.871106267955298 0 85.871106267955298 184.96842235474514 0 0 0 0 -543.66507023471786 283.88086191386753 0 283.88086191386753 42.72932546414404 0 0 0 0 -639.30479348386325 453.41180733043319 0 453.41180733043319 -7.6767389200938396 0 0 0 0 -459.28451926416983 463.14380115553803 0 463.14380115553803 -190.2949715602536 0 0 0 0 -745.80584108479889 597.79543975194667 0 597.79543975194667 -113.6293849451921 0 0 0 0 -697.769930850528 525.31448818649028 0 525.31448818649028 -5.2595269853469517 0 0 0 0 -1035.5264929389141 237.43219085975073 0 237.43219085975073 141.81104205007983 0 0 0 0 -591.15972003759816 103.25920534003433 0 103.25920534003433 -393.42691418218783 0 0 0 0 -409.88889757178185 93.590823872590477 0 93.590823872590477 -396.51112664616426 0 0 0 0 15.218358887892464 274.28172922664356 0 274.28172922664356 -750.33488629974363 0 0 0 0 -357.37298740571714 -113.61509616493589 0 -113.61509616493589 -758.88569720074531 0 0 0 0 394.27971447274103 145.68107101657654 0 145.68107101657654 -1912.548765857 0 0 0 0 -0.0011172322869124063 -3.293730411535936 0 -3.293730411535936 -15.884781256485862 0 0 0 0 -438.38369408260223 386.15099199681305 0 386.15099199681305 128.49971755549382 0 0 0 0 208.008926424538 772.23237896087699 0 772.23237896087699 86.321689209441786 0 0 0 0 -613.94585083984657 -230.44601337154927 0 -230.44601337154927 80.397052557087591 0 0 0 0 -327.40687978976439 -168.18852280370265 0 -168.18852280370265 -8.8309888656531257 0 0 0 0 -519.95862945128829 -188.89616650217067 0 -188.89616650217067 92.2761720132562 0 0 0 0 -485.09286113276812 -273.9021033121262 0 -273.9021033121262 28.543254733243884 0 0 0 0 1.44175485882058 -5.7378144020469062 0 -5.7378144020469062 -16.510666499051204 0 0 0 0 -529.94809830078702 -281.34754810233835 0 -281.34754810233835 29.661370700780026 0 0 0 0 163.94196396116786 -141.49336277016482 0 -141.49336277016482 -137.68606124130201 0 0 0 0 301.56155718398986 -236.59866071873063 0 -236.59866071873063 87.018162009170481 0 0 0 0 -313.50046939432468 -56.684655926909613 0 -56.684655926909613 137.51985920737951 0 0 0 0 -393.09223266313802 -123.1240447724102 0 -123.1240447724102 866.63449019115092 0 0 0 0 -36.224670081870883 -41.522466275608963 0 -41.522466275608963 10.126173949780423 0 0 0 0 -54.474019330370879 10.644076816393635 0 10.644076816393635 -16.51556412480727 0 0 0 0 -52.434584729830362 -59.841568217266286 0 -59.841568217266286 23.649725385906891 0 0 0 0 -81.902848871405411 8.0302037406049749 0 8.0302037406049749 2.2260930356958397 0 0 0 0 -66.211450786622635 -3.2269622769398012 0 -3.2269622769398012 -172.00854367237207 0 0 0 0 -68.539284616034479 -33.889873945938191 0 -33.889873945938191 -91.277186901567802 0 0 0 0 -84.29436964112881 44.628526060228523 0 44.628526060228523 -111.76879297493713 0 0 0 0 -61.849745971905918 17.513084457981066 0 17.513084457981066 -90.66495793518925 0 0 0 0 -58.137193130372367 71.235720054379314 0 71.235720054379314 -201.52148813670829 0 0 0 0 -87.750052760856704 85.799062655994931 0 85.799062655994931 -186.69771929879099 0 0 0 0 -185.65899387369404 165.51827323624775 0 165.51827323624775 -225.85329041600062 0 0 0 0 -79.02727285887299 73.374332174163243 0 73.374332174163243 -209.24579155076754 0 0 0 0 -66.584460830326634 51.403628069470415 0 51.403628069470415 -227.77070196655632 0 0 0 0 -117.50346043760203 113.06027546459836 0 113.06027546459836 -368.86664283910409 0 0 0 0 -144.73523594070411 67.731750430843704 0 67.731750430843704 -197.9512959352287 0 0 0 0 -226.5416563143142 212.35269896087175 0 212.35269896087175 -297.23051278135426 0 0 0 0 -141.97337535502561 176.90307362381782 0 176.90307362381782 -314.20855136148657 0 0 0 0 -198.10779352938948 269.62033481510707 0 269.62033481510707 -442.35114594591869 0 0 0 0 -405.53243686889437 360.70042903312515 0 360.70042903312515 -336.22130997652948 0 0 0 0 -94.135906288860383 116.80675983767674 0 116.80675983767674 -496.00606725499256 0 0 0 0 -280.40979557298306 252.99536885442512 0 252.99536885442512 -360.63748963818944 0 0 0 0 -155.45730943617104 67.613843467734796 0 67.613843467734796 -174.37584523891746 0 0 0 0 -94.94207863035831 13.208033058154456 0 13.208033058154456 -232.40921122777422 0 0 0 0 -112.98852068760254 -26.122807717066394 0 -26.122807717066394 -26.130076859451947 0 0 0 0 -144.97653230479671 -2.905228652590381 0 -2.905228652590381 7.3401459176816388 0 0 0 0 241.40495401480348 152.59360119331154 0 152.59360119331154 -260.79962416310082 0 0 0 0 -0.48884647015374627 0.7650191473022856 0 0.7650191473022856 -0.52126142979355539 0 0 0 0 -1692.5751679146706 354.16803520774278 0 354.16803520774278 106.78387747175566 0 0 0 0 -194.64632794941053 424.69735355160265 0 424.69735355160265 -338.76955574248132 0 0 0 0 -220.82064751789949 224.02148369962106 0 224.02148369962106 -414.74470895135505 0 0 0 0 69.224059915811495 -1.3507391600346637 0 -1.3507391600346637 -333.3553816697322 0 0 0 0 -283.28374071873304 148.33568463692018 0 148.33568463692018 -503.61645608653362 0 0 0 0 -242.52196469987075 349.25453913475189 0 349.25453913475189 -706.55423437922036 0 0 0 0 -601.79793985822948 483.04539099870567 0 483.04539099870567 -415.57843994564792 0 0 0 0 -402.22604338863152 372.08668402768672 0 372.08668402768672 -363.00491632974149 0 0 0 0 -601.76472232638093 483.2718028213049 0 483.2718028213049 -594.60017514372248 0 0 0 0 -1083.9485187096659 932.55719189792069 0 932.55719189792069 -1488.0794094618741 0 0 0 0 -1540.5933210997346 -228.00883009351628 0 -228.00883009351628 -1265.2160433801673 0 0 0 0 -797.25999060850882 511.04261164754871 0 511.04261164754871 -324.77336614250453 0 0 0 0 -318.2871077107925 399.9572741812737 0 399.9572741812737 -757.68578284855903 0 0 0 0 -570.81953962725129 169.2910649408168 0 169.2910649408168 -953.41037131933945 0 0 0 0 -1029.0608588169389 694.52124249936696 0 694.52124249936696 -673.65279511091649 0 0 0 0 -1210.9907287660917 307.34700244069381 0 307.34700244069381 -411.56314083276447 0 0 0 0 -2193.4648046352117 303.69727967660151 0 303.69727967660151 -480.87541052786582 0 0 0 0 -1011.9775916998155 -284.58634589798385 0 -284.58634589798385 49.348840739438401 0 0 0 0 -11.243976738324282 3.3320103801656282 0 3.3320103801656282 -1.0837883623198405 0 0 0 0 -807.34776219350169 761.81980385988345 0 761.81980385988345 -613.94596007880523 0 0 0 0 -1805.740084769036 165.14148422145058 0 165.14148422145058 24.610066740381626 0 0 0 0 -1939.5981985433086 774.61626973187003 0 774.61626973187003 -291.59692771959453 0 0 0 0 -1333.7317342486276 -108.73243745910088 0 -108.73243745910088 122.43926932335489 0 0 0 0 -1145.190069791762 413.48070636064631 0 413.48070636064631 -162.73183406001044 0 0 0 0 -1206.0764131331898 666.46959552981207 0 666.46959552981207 -183.62711594662051 0 0 0 0 -1229.2817209023606 737.17555436734347 0 737.17555436734347 -394.39580339332309 0 0 0 0 -590.90055233348698 483.24393297251078 0 483.24393297251078 -212.86855623893962 0 0 0 0 -1143.7559234342464 183.73061260647978 0 183.73061260647978 40.368944686205282 0 0 0 0 -293.9357934499335 157.3166604937947 0 157.3166604937947 -10.199864660865956 0 0 0 0 -753.80856241950187 589.07683543096687 0 589.07683543096687 -155.2028648333426 0 0 0 0 -729.42971573807336 457.80398985578069 0 457.80398985578069 -148.90250589185996 0 0 0 0 -161.50114252216918 271.31405880641819 0 271.31405880641819 -299.50360561194543 0 0 0 0 -151.98326738756532 -39.903108111785741 0 -39.903108111785741 40.994250149445179 0 0 0 0 -7.7105165610035975 1.6318085429388902 0 1.6318085429388902 2.1927393474500105 0 0 0 0 -256.42205263239748 158.24008637366745 0 158.24008637366745 -123.89669695497059 0 0 0 0 -2.4743748394167824 68.22235618869064 0 68.22235618869064 85.931648711042044 0 0 0 0 -88.93089125879294 -34.290363912357293 0 -34.290363912357293 219.33492458010824 0 0 0 0 -74.815012842055467 -18.267989262301853 0 -18.267989262301853 10.641050858204437 0 0 0 0 -76.612515437512684 -61.205251047356683 0 -61.205251047356683 52.959751795808643 0 0 0 0 -109.6147694652912 -17.011138424677625 0 -17.011138424677625 128.63635708774518 0 0 0 0 -35.47761526281738 11.221218307994377 0 11.221218307994377 116.34886494303498 0 0 0 0 -25.079754375179505 5.5755637875363675 0 5.5755637875363675 25.450392249560309 0 0 0 0 -38.658740126705652 17.305286625285476 0 17.305286625285476 105.91096208615068 0 0 0 0 -10.071108688270215 34.324867130787197 0 34.324867130787197 -13.931887971949891 0 0 0 0 -26.168324484236393 -6.8451319598520719 0 -6.8451319598520719 1.9102269894472583 0 0 0 0 -27.257982261993675 -4.3599994150555972 0 -4.3599994150555972 0.35297431657301104 0 0 0 0 -39.548924910351161 -10.607291814701966 0 -10.607291814701966 7.6761149763287904 0 0 0 0 -5.4753776094839886 -2.5859770455217967 0 -2.5859770455217967 3.5254663632425061 0 0 0 0 -13.626160189006541 -0.7040653144654403 0 -0.7040653144654403 1.3878687324333754 0 0 0 0 -6.4351492225723632 0.52069623291674816 0 0.52069623291674816 86.891699118338465 0 0 0 0 -17.845844925351685 -4.2444499171251096 0 -4.2444499171251096 -3.86595734090929 0 0 0 0 -18.370028538062595 -3.450250310835048 0 -3.450250310835048 0.57594051490851328 0 0 0 0 -19.798538120624471 -6.4607955646075652 0 -6.4607955646075652 3.4808255965239141 0 0 0 0 -54.384853056402505 -35.509983371605017 0 -35.509983371605017 111.09437590170683 0 0 0 0 20.013780254641027 -94.051004364542564 0 -94.051004364542564 71.650940882494524 0 0 0 0 -53.119547535947504 -24.119958903653924 0 -24.119958903653924 110.65079719585913 0 0 0 0 -46.24821972734901 -37.322279353038766 0 -37.322279353038766 66.228235332705026 0 0 0 0 -4.1710785894247238 -7.6045317680825519 0 -7.6045317680825519 2.2256692717429587 0 0 0 0 -14.248470675505772 -1.7578584269036543 0 -1.7578584269036543 1.6906943283903511 0 0 0 0 -12.188672379443233 -16.547338092113705 0 -16.547338092113705 18.708508781121509 0 0 0 0 -16.076521716631703 -2.4720454773252287 0 -2.4720454773252287 4.8133842711421266 0 0 0 0 -29.435576507417863 -6.9468984919969898 0 -6.9468984919969898 -3.1922968895524377 0 0 0 0 -16.021878867163196 -4.4983360331356455 0 -4.4983360331356455 -1.4319281663636616 0 0 0 0 -15.532824931275542 1.1767343046033991 0 1.1767343046033991 2.0949936162969269 0 0 0 0 -24.387460939746234 1.4781526378135368 0 1.4781526378135368 -1.7092429356630419 0 0 0 0 -28.553433317985764 -1.2796546339044426 0 -1.2796546339044426 2.1086816002799083 0 0 0 0 -37.409625100235644 -4.1843172209250383 0 -4.1843172209250383 4.1402794113258778 0 0 0 0 -9.9659565585827963 3.1291225552781619 0 3.1291225552781619 0.62965858081650239 0 0 0 0 -8.4944971835297505 2.7167033662308491 0 2.7167033662308491 2.2683670979871176 0 0 0 0 -34.90790378386373 -3.6500261928249529 0 -3.6500261928249529 3.5561151912759215 0 0 0 0 -5.5323934463667683 5.8946527714906551 0 5.8946527714906551 1.3988146577776206 0 0 0 0 -6.6789906609228638 -15.112987053577115 0 -15.112987053577115 -3.3677870231181259 0 0 0 0 -16.36509099109292 -4.0140409635646179 0 -4.0140409635646179 0.98133376256252358 0 0 0 0 -8.5472372455509316 -8.5708375962141456 0 -8.5708375962141456 4.6799825187317072 0 0 0 0 -29.523144274821334 4.8099350014683822 0 4.8099350014683822 10.424086970283895 0 0 0 0 -15.820242228955976 0.060213535128980311 0 0.060213535128980311 0.325782837236261 0 0 0 0 -19.330681506967842 4.7631567120417522 0 4.7631567120417522 -0.16432942856096178 0 0 0 0 -21.301038356192688 -1.5744486646127118 0 -1.5744486646127118 4.3363050403881456 0 0 0 0 -33.506690881392387 2.4338388543977345 0 2.4338388543977345 0.50660816194806557 0 0 0 0 -16.876599347418573 4.4287315942805776 0 4.4287315942805776 4.8187170529814374 0 0 0 0 -214.05436690482566 117.90506458203004 0 117.90506458203004 -99.421303693655091 0 0 0 0 -21.432699920208961 9.3487080543678047 0 9.3487080543678047 12.816346225583231 0 0 0 0 -17.747266618265876 1.8425611970715998 0 1.8425611970715998 1.8598234877593391 0 0 0 0 139.22469780505162 145.67046685537912 0 145.67046685537912 111.23267404886218 0 0 0 0 224.78926156319267 -137.85067617777236 0 -137.85067617777236 -463.9566484570496 0 0 0 0 1.0255155111290719 -1.448880477173736 0 -1.448880477173736 -1.0889690796035549 0 0 0 0 233.82762326650482 -64.563758032146239 0 -64.563758032146239 7.9191238788280316 0 0 0 0 90.00214080312071 -13.259303963684374 0 -13.259303963684374 -83.823703628879969 0 0 0 0 -4.8494034547603988 -3.8772710791983691 0 -3.8772710791983691 -2.8080623049765929 0 0 0 0 125.5086352410417 41.095032096337107 0 41.095032096337107 -62.686509991179832 0 0 0 0 25.014185294654453 104.40209561441031 0 104.40209561441031 50.554399947490992 0 0 0 0 1.2828928256401166 -0.49749210848582592 0 -0.49749210848582592 2.1887812428812663 0 0 0 0 -81.902898273105166 35.385759536298565 0 35.385759536298565 -76.884445227341303 0 0 0 0 -3.9236205572778999 40.201006088735994 0 40.201006088735994 13.709691396007429 0 0 0 0 30.333475050234483 7.0744267771971181 0 7.0744267771971181 -63.060276842410303 0 0 0 0 -73.257609204993059 -201.940710061446 0 -201.940710061446 227.28088894877533 0 0 0 0 -0.39391661260473398 3.4537911962407204 0 3.4537911962407204 -0.65330480335032215 0 0 0 0 -6.3570448881093213 -0.51013970941592035 0 -0.51013970941592035 -0.27075196039391253 0 0 0 0 -9.9281057207917911 1.7278632829093112 0 1.7278632829093112 2.5238842780069604 0 0 0 0 -5.9795426054033669 1.2677058405029413 0 1.2677058405029413 2.9097800795409512 0 0 0 0 -10.767387187112035 -0.46040590878374132 0 -0.46040590878374132 1.5489391495423206 0 0 0 0 -169.59658442434193 -48.70272725319137 0 -48.70272725319137 -14.405762753832903 0 0 0 0 -11.967629926664813 0.49708714493272055 0 0.49708714493272055 1.9959940599869697 0 0 0 0 -1.6383543956285926 -0.015878683541977523 0 -0.015878683541977523 0.13966052523447736 0 0 0 0 -9.9296960114884349 0.40889425699668269 0 0.40889425699668269 1.2949866234198453 0 0 0 0 4.8065965006353508 -12.448351961344258 0 -12.448351961344258 -22.525740790300972 0 0 0 0 -71.220334041252499 -71.826650679572822 0 -71.826650679572822 -57.411847724844051 0 0 0 0 -0.98871803712138728 0.12526564111116301 0 0.12526564111116301 0.1306549708903848 0 0 0 0 -5.082626675454776 6.2932485991977671 0 6.2932485991977671 2.0373286661402972 0 0 0 0 -8.0245892334648801 3.6647685620309289 0 3.6647685620309289 -1.3680164068099265 0 0 0 0 -12.026338748904891 -2.3385519713183953 0 -2.3385519713183953 -7.4489759515882952 0 0 0 0 31.552427859174259 18.654908247082282 0 18.654908247082282 -79.608809412542428 0 0 0 0 -9.4893857053991795 1.2824690958866158 0 1.2824690958866158 0.82260693898448833 0 0 0 0 -1.6050984827699963 0.048868018655017664 0 0.048868018655017664 -0.2027652971252365 0 0 0 0 -2.0908587944468309 -4.6681591008300529 0 -4.6681591008300529 -0.23315397734040744 0 0 0 0 -7.1871965129175805 -2.1531108622496049 0 -2.1531108622496049 3.2838932244869738 0 0 0 0 -7.3395851275454334 -17.785220573856577 0 -17.785220573856577 -7.4335029152795187 0 0 0 0 -3.6019111145433271 -3.175150597854099 0 -3.175150597854099 -1.6300002148082058 0 0 0 0 -3.5087831282435218 -4.2888453992225095 0 -4.2888453992225095 1.7513622816679799 0 0 0 0 -6.4268528427419369 -1.1645237499167251 0 -1.1645237499167251 -1.3684594027015464 0 0 0 0 -18.505806383804156 -15.983580706531825 0 -15.983580706531825 -1.3101442982526805 0 0 0 0 -0.39334232029550564 -1.2608092127820392 0 -1.2608092127820392 -5.5794730649176731 0 0 0 0 209.29863542266048 160.11709105154921 0 160.11709105154921 1128.2126281456531 0 0 0 0 -388.61724455557123 -292.60223206247247 0 -292.60223206247247 724.80830278802136 0 0 0 0 -494.16633013349747 101.70065081402009 0 101.70065081402009 -737.96471307593879 0 0 0 0 -609.98330544409691 555.16581260264081 0 555.16581260264081 394.35874399818221 0 0 0 0 -879.57629581373021 -206.34501614601015 0 -206.34501614601015 -169.46257919090067 0 0 0 0 -947.57145313466754 -216.72348820558727 0 -216.72348820558727 -200.00087205079157 0 0 0 0 -903.78689690202373 81.098293589583818 0 81.098293589583818 -829.4986494730947 0 0 0 0 -667.7164216363235 -412.63063451265953 0 -412.63063451265953 -173.35288996419365 0 0 0 0 -825.36206302670098 -87.980385910684845 0 -87.980385910684845 43.429187146713048 0 0 0 0 -602.58646543555551 -202.32214594046854 0 -202.32214594046854 96.61345380728585 0 0 0 0 -513.42332182138261 -67.460643212544483 0 -67.460643212544483 43.677027310607627 0 0 0 0 177.84448858323049 -129.04499530769135 0 -129.04499530769135 -1092.2622160903231 0 0 0 0 345.24523280514268 -371.0834786450622 0 -371.0834786450622 -820.74717563589138 0 0 0 0 331.23459814708258 -100.76533341028687 0 -100.76533341028687 372.80800954679944 0 0 0 0 1.3414909499319134 0.8575352538635812 0 0.8575352538635812 -4.8904152000851049 0 0 0 0 -504.58297122450494 -284.47953777507212 0 -284.47953777507212 -287.06960362948166 0 0 0 0 -1435.0834363147442 -543.42666778850185 0 -543.42666778850185 -714.10138921068199 0 0 0 0 -1640.7711865966448 617.00375544063832 0 617.00375544063832 -110.86099709613657 0 0 0 0 -618.19629897163031 104.3075961859978 0 104.3075961859978 -1379.3716818004216 0 0 0 0 -11.80111445529128 3.541736591513998 0 3.541736591513998 0.78087039879401265 0 0 0 0 -396.5026452059019 743.93339624020132 0 743.93339624020132 -998.19947632742151 0 0 0 0 50.460035861324286 298.30786480062 0 298.30786480062 -122.24556058894859 0 0 0 0 -432.84051103541424 -342.16905747841497 0 -342.16905747841497 556.10999310106183 0 0 0 0 -1996.2376824075654 -6.9490881094122869 0 -6.9490881094122869 3.0460419830258729 0 0 0 0 -3.2610345012710624 2.4082439775204829 0 2.4082439775204829 -0.43735641674946457 0 0 0 0 -2011.3578851275506 473.39378960048475 0 473.39378960048475 -86.981184414867357 0 0 0 0 -596.52753481060063 62.184393814917485 0 62.184393814917485 280.11953650819356 0 0 0 0 -1310.222409983644 -127.38341334592496 0 -127.38341334592496 394.32413556626562 0 0 0 0 -2010.8200903536606 -252.26226047437831 0 -252.26226047437831 323.51051761394115 0 0 0 0 -13.355049003561007 -4.3134963560461967 0 -4.3134963560461967 -1.0386503378348744 0 0 0 0 -395.06349836191293 123.42364653309983 0 123.42364653309983 3.2731158143969878 0 0 0 0 -2087.8787474704827 451.50598201223539 0 451.50598201223539 181.01270653969118 0 0 0 0 -393.37644487765283 111.90655771557817 0 111.90655771557817 -726.36968036103667 0 0 0 0 -1117.6475160676746 -55.50263083961886 0 -55.50263083961886 123.52431576925554 0 0 0 0 -754.31179318303111 232.48035087479434 0 232.48035087479434 111.77033620915631 0 0 0 0 -1840.3934481374581 -369.92903447123228 0 -369.92903447123228 -114.91773920528249 0 0 0 0 -1577.1856691679241 739.03867965432437 0 739.03867965432437 -333.21833407873214 0 0 0 0 -8.4818939888567257 -1.2107524868188762 0 -1.2107524868188762 1.4263807518176508 0 0 0 0 -734.57293313380433 318.60393191289455 0 318.60393191289455 -156.94984980063683 0 0 0 0 377.29602637540893 208.56519732593193 0 208.56519732593193 -208.83601473526642 0 0 0 0 -249.40137239274554 -291.24355606891265 0 -291.24355606891265 106.2179941665363 0 0 0 0 -5.8119151426166322 1.0172494146497755 0 1.0172494146497755 -2.850793723743644 0 0 0 0 263.18300216005355 -106.22519513774341 0 -106.22519513774341 -1842.4167714304858 0 0 0 0 -151.9672829663491 660.46679500383152 0 660.46679500383152 -391.98189588254172 0 0 0 0 -10.85056970329606 68.818131562035433 0 68.818131562035433 197.85557186439632 0 0 0 0 -27.630712863773141 -6.427812543289221 0 -6.427812543289221 0.72188988935870313 0 0 0 0 -566.53767579303167 68.784474026022053 0 68.784474026022053 597.42834903295625 0 0 0 0 -384.31485845005409 239.81930431043571 0 239.81930431043571 120.6676345157278 0 0 0 0 -464.27769606502625 154.93909834994486 0 154.93909834994486 36.914963394060273 0 0 0 0 -1432.8031364936214 210.68077496219925 0 210.68077496219925 34.420815976573913 0 0 0 0 -776.06742450580987 547.86749111118354 0 547.86749111118354 26.443495602173584 0 0 0 0 -1176.4720867007745 298.76439409150316 0 298.76439409150316 68.2246020876442 0 0 0 0 -22.610956024498591 9.1349436053227748 0 9.1349436053227748 -221.8976811849293 0 0 0 0 -3.6596547444245573 -1.6119261239962199 0 -1.6119261239962199 -0.86065050318303582 0 0 0 0 -349.63101824941987 -234.3888366880831 0 -234.3888366880831 -17.448806424360953 0 0 0 0 -505.10044598043351 602.46850321541626 0 602.46850321541626 -167.62706646114509 0 0 0 0 -11.920285816964636 0.072521504176252805 0 0.072521504176252805 -0.079119200677410323 0 0 0 0 -148.02942431668998 28.000608843420345 0 28.000608843420345 244.5722872269599 0 0 0 0 -129.85415397025099 -9.5143843861574453 0 -9.5143843861574453 211.64027429420608 0 0 0 0 -28.233921367789449 0.0048688177229927465 0 0.0048688177229927465 0.16799085514724568 0 0 0 0 20.74282067270542 39.514724582074905 0 39.514724582074905 -87.88020408024795 0 0 0 0 -599.79596141743241 -391.00040788655315 0 -391.00040788655315 -18.598562730529963 0 0 0 0 -1297.8111092332838 118.20240082689449 0 118.20240082689449 63.865666008716516 0 0 0 0 -1045.4974952044922 378.27832637800896 0 378.27832637800896 -298.93692463931211 0 0 0 0 -369.05905846583482 -164.10682209314746 0 -164.10682209314746 -571.59361566246434 0 0 0 0 -666.65433124759329 696.71996371189766 0 696.71996371189766 -206.73102603305648 0 0 0 0 -42.704497241702484 -19.869737316974579 0 -19.869737316974579 -2.1420546257979822 0 0 0 0 -44.516303149830492 -14.1674167391227 0 -14.1674167391227 -5.8749409048691632 0 0 0 0 -4.3830119186853018 -12.755222449607103 0 -12.755222449607103 -6.6399037613643177 0 0 0 0 -48.905224500880649 -34.15747430919366 0 -34.15747430919366 -24.569866481556119 0 0 0 0 -4.2599387348206221 -1.3385308675374432 0 -1.3385308675374432 -2.0080383224736922 0 0 0 0 -51.19334181344675 -27.78278651767846 0 -27.78278651767846 14.572319116266044 0 0 0 0 -43.571136746255434 -11.036181864754667 0 -11.036181864754667 0.26904872546026581 0 0 0 0 -45.254957384984664 -12.922796821771954 0 -12.922796821771954 1.1027070580703366 0 0 0 0 -5.6608747444200525 -3.3453449167272886 0 -3.3453449167272886 7.1846939712382323 0 0 0 0 33.45318612617757 -42.38133532871403 0 -42.38133532871403 22.507077899685839 0 0 0 0 33.42726314027459 -51.317612021418427 0 -51.317612021418427 -15.316516819282697 0 0 0 0 32.088602760290087 12.977152247161143 0 12.977152247161143 18.327171699259395 0 0 0 0 37.356930776946683 2.0393165883427073 0 2.0393165883427073 -58.753599853819253 0 0 0 0 -18.932728613443032 -24.33557121704348 0 -24.33557121704348 -37.463278312473008 0 0 0 0 -37.068591501714764 -123.59079380099958 0 -123.59079380099958 2.3688067032793185 0 0 0 0 45.376628746840652 -54.951059265274566 0 -54.951059265274566 -83.836786684322334 0 0 0 0 -30.732276718536014 -18.700576212849455 0 -18.700576212849455 40.446345402725456 0 0 0 0 -31.242318966764287 74.209924760006572 0 74.209924760006572 65.158820605011101 0 0 0 0 -35.434146813819687 -0.0011946190530326972 0 -0.0011946190530326972 1.7357218572190811 0 0 0 0 -9.6647890697786352 -66.237408194367674 0 -66.237408194367674 90.349129212316726 0 0 0 0 -35.732905248107272 51.301994007449657 0 51.301994007449657 112.22841741360693 0 0 0 0 16.664483103384555 57.504889853227326 0 57.504889853227326 55.612826145741906 0 0 0 0 -9.585396604700577 -0.9539090636115759 0 -0.9539090636115759 3.1825655571579672 0 0 0 0 -55.681923969821582 -4.8644604485652394 0 -4.8644604485652394 8.7443469937434202 0 0 0 0 -43.067748341716651 4.5141188338948837 0 4.5141188338948837 -0.97626560976118526 0 0 0 0 -17.976661161155789 -1.86379740927066 0 -1.86379740927066 -1.6545065933478327 0 0 0 0 -31.950742665172996 -5.0135731283478115 0 -5.0135731283478115 1.5635305417647187 0 0 0 0 -42.895765376637428 -6.4761725412128044 0 -6.4761725412128044 5.1880527851909619 0 0 0 0 -46.553083830083779 -11.582677195874112 0 -11.582677195874112 3.5761547399809359 0 0 0 0 -2.4912951777766104 -13.055744149085008 0 -13.055744149085008 -6.2217022116606806 0 0 0 0 -43.460332761620066 -10.112010619601932 0 -10.112010619601932 0.31632195313068223 0 0 0 0 -106.79972551478568 34.561866864253034 0 34.561866864253034 15.968126112007212 0 0 0 0 -38.995169757021358 55.222542286116777 0 55.222542286116777 15.477178968168303 0 0 0 0 39.276469388895578 59.00623307006159 0 59.00623307006159 -47.447206838123293 0 0 0 0 -27.527709227768355 -4.3048825463138201 0 -4.3048825463138201 -7.5774111072834103 0 0 0 0 0.47433632760063915 0.38164059423519348 0 0.38164059423519348 1.0560128139185556 0 0 0 0 -99.108225841911917 18.546976819416273 0 18.546976819416273 -12.908005980229291 0 0 0 0 -19.633039753254707 72.131028438651242 0 72.131028438651242 49.934735146478829 0 0 0 0 161.12079323931539 117.01018569061222 0 117.01018569061222 -33.456006256441924 0 0 0 0 92.69907349182904 49.441605535671897 0 49.441605535671897 1.1574390078860688 0 0 0 0 62.452632671855099 117.07844639096311 0 117.07844639096311 0.43242697298273924 0 0 0 0 -35.469200430932688 10.437445788837067 0 10.437445788837067 -29.299659547183353 0 0 0 0 38.14179685342242 19.439764097816123 0 19.439764097816123 -93.581464572174809 0 0 0 0 -17.454756576371437 26.952715426187979 0 26.952715426187979 -149.11252649272774 0 0 0 0 -113.41610282424517 2.8770113205828238 0 2.8770113205828238 -267.92612172099871 0 0 0 0 -133.65323909294966 -6.1086600587623252 0 -6.1086600587623252 -60.138768678674637 0 0 0 0 -52.115790010233468 35.045964764847554 0 35.045964764847554 -86.907148721875501 0 0 0 0 -66.414875135185866 53.307486597899697 0 53.307486597899697 22.29565160849279 0 0 0 0 -20.649538428526739 37.26670195371905 0 37.26670195371905 3.0094905340606601 0 0 0 0 -125.55295754489634 22.156835818340426 0 22.156835818340426 15.096951774900845 0 0 0 0 -78.570263810353936 26.513580623757207 0 26.513580623757207 3.0371768553320635 0 0 0 0 -82.435741994180717 -9.4830351132738997 0 -9.4830351132738997 -70.944411836183008 0 0 0 0 -118.35123074227522 -61.976758585981486 0 -61.976758585981486 -68.43812963341361 0 0 0 0 -110.50690980989748 -61.539723866065515 0 -61.539723866065515 -76.118832875051339 0 0 0 0 -209.96551304290188 0.24411934110003131 0 0.24411934110003131 -69.998387197203556 0 0 0 0 -165.56204482880457 -80.523156146176802 0 -80.523156146176802 -81.480478116011909 0 0 0 0 -289.64208674618567 -18.429947365983026 0 -18.429947365983026 -112.34470222085247 0 0 0 0 -0.10977720386346945 -0.4050755867435285 0 -0.4050755867435285 -0.21082214472317062 0 0 0 0 -337.66196211987062 -145.96366717396342 0 -145.96366717396342 -59.339837497348526 0 0 0 0 204.18527429553069 -136.07224158975032 0 -136.07224158975032 -634.9223348030655 0 0 0 0 -660.91649321684235 17.779640906297118 0 17.779640906297118 436.65115631125946 0 0 0 0 -34.400355167363159 -38.345885942254654 0 -38.345885942254654 -61.035159145592615 0 0 0 0 -3.2781864404740961 -0.041925456681710216 0 -0.041925456681710216 2.5559316049074248 0 0 0 0 45.380615831658361 -13.383570456160328 0 -13.383570456160328 -148.326846374767 0 0 0 0 -2.3583153424491172 0.22931704090614957 0 0.22931704090614957 -0.37495288896529555 0 0 0 0 -286.70859327011567 -58.977329172324517 0 -58.977329172324517 47.928120140804822 0 0 0 0 -0.51423283009800258 0.26528494152670845 0 0.26528494152670845 0.024798386636458503 0 0 0 0 -186.03733739054405 24.238539123120859 0 24.238539123120859 -129.91859455894974 0 0 0 0 -197.96722796231916 -119.06636377037785 0 -119.06636377037785 -0.72604162233187708 0 0 0 0 -271.33473417786809 -67.479026606046546 0 -67.479026606046546 -90.743945818797329 0 0 0 0 -229.51860041935288 -187.39803680937075 0 -187.39803680937075 -220.08096067087763 0 0 0 0 -150.49707291641971 -81.380807819896518 0 -81.380807819896518 -90.671165173237569 0 0 0 0 -174.25597215262496 -39.593577112646699 0 -39.593577112646699 -117.00785011706739 0 0 0 0 6.6287551635869022 -15.970938750828964 0 -15.970938750828964 -98.738870745916302 0 0 0 0 -27.170528960305091 -2.4884094317662857 0 -2.4884094317662857 -153.55966091853952 0 0 0 0 -27.420859580939577 -4.2826809651564872 0 -4.2826809651564872 -86.846296849153532 0 0 0 0 -13.798919648885203 -23.041573071210451 0 -23.041573071210451 -31.608101858335431 0 0 0 0 -26.848049664426071 -52.508150108815471 0 -52.508150108815471 -126.18999988590133 0 0 0 0 -26.959240121348557 -55.346163026831618 0 -55.346163026831618 -103.21118304769777 0 0 0 0 -10.686478985160647 -9.1718156450713195 0 -9.1718156450713195 -44.905415013705124 0 0 0 0 -4.971339025778434 -12.962833790766012 0 -12.962833790766012 -50.48270503739468 0 0 0 0 -7.2956435409250844 -25.129368302988723 0 -25.129368302988723 -97.092427415763723 0 0 0 0 -20.734864484227728 3.4161921353875186 0 3.4161921353875186 -67.484302764664335 0 0 0 0 25.367386229649128 11.765784830077337 0 11.765784830077337 -75.257228276654587 0 0 0 0 -3.370435521028412 17.76726342871666 0 17.76726342871666 -57.06366231262291 0 0 0 0 -532.01586442988992 -68.346944997500032 0 -68.346944997500032 -18.311629325585727 0 0 0 0 -660.55196467123824 156.66437604987311 0 156.66437604987311 29.918219410754773 0 0 0 0 -1009.7221364126835 102.68386814793027 0 102.68386814793027 265.30543499942632 0 0 0 0 -950.62695525924573 -47.754312030812571 0 -47.754312030812571 45.309411813273073 0 0 0 0 -618.32640893825737 -53.811879898494567 0 -53.811879898494567 -89.224517784483055 0 0 0 0 -527.84099252955275 34.702181361806197 0 34.702181361806197 -80.427013684354279 0 0 0 0 -171.632658090326 -172.58885173311455 0 -172.58885173311455 -168.83762465163556 0 0 0 0 -395.75904166069085 -185.78536077204876 0 -185.78536077204876 -78.172798643056012 0 0 0 0 -35.103910747493501 -40.56868019369756 0 -40.56868019369756 -129.75144975883904 0 0 0 0 -141.16287333016953 -138.96840851074126 0 -138.96840851074126 -129.96696983181306 0 0 0 0 -208.24273545100004 -104.00576851860922 0 -104.00576851860922 -112.13941031198374 0 0 0 0 -101.48736768926392 -167.83426075351986 0 -167.83426075351986 -104.89711944531973 0 0 0 0 -265.99482192147116 64.763930013527215 0 64.763930013527215 -0.94500739447221349 0 0 0 0 -223.64436829928218 -148.27949559295547 0 -148.27949559295547 30.301827107412009 0 0 0 0 -4.875263608257896 -2.5883921176203017 0 -2.5883921176203017 -0.85643255789005757 0 0 0 0 177.40729314270357 -379.38500491043328 0 -379.38500491043328 52.506324841731811 0 0 0 0 -210.3913523006122 89.905827206858248 0 89.905827206858248 -191.25460732574987 0 0 0 0 -586.90163275034229 529.45840276319802 0 529.45840276319802 -178.01530202570575 0 0 0 0 -236.29632695483451 132.08941150737621 0 132.08941150737621 33.179049875936926 0 0 0 0 17.686758048970205 146.95445572283762 0 146.95445572283762 0.071309757896415249 0 0 0 0 19.032204975519562 -322.95596072846547 0 -322.95596072846547 179.72271327072775 0 0 0 0 -430.81805784911558 1.1796111066257708 0 1.1796111066257708 56.752100508041622 0 0 0 0 -414.73912641202969 86.709152261488157 0 86.709152261488157 23.058675206592397 0 0 0 0 -792.20806367339719 417.16456803187543 0 417.16456803187543 -137.78460520644694 0 0 0 0 -1088.5378032611497 192.05977777863785 0 192.05977777863785 228.93743600019297 0 0 0 0 -560.35485957085621 -89.210941764988547 0 -89.210941764988547 -168.83613509546848 0 0 0 0 -8.8160622937089101 -1.8564672236250317 0 -1.8564672236250317 -0.0049140663793565409 0 0 0 0 -1357.784398539181 789.3269048328001 0 789.3269048328001 -269.59996914731187 0 0 0 0 -104.31723709298603 -408.70690536723805 0 -408.70690536723805 325.55471884023291 0 0 0 0 -105.57023088864389 -27.197108975037537 0 -27.197108975037537 357.70087785834039 0 0 0 0 -66.398515242035501 61.325822691828307 0 61.325822691828307 198.9073679802807 0 0 0 0 -141.98011534171201 -71.139002660204369 0 -71.139002660204369 130.97734268235445 0 0 0 0 -234.68110325050111 33.645318184233815 0 33.645318184233815 13.796134900431753 0 0 0 0 -768.03406384015398 -254.676814139974 0 -254.676814139974 307.30867985091845 0 0 0 0 -618.80843858359913 300.40174701850844 0 300.40174701850844 -63.865690496503476 0 0 0 0 -237.21641021685355 -57.448157836816563 0 -57.448157836816563 6.2354749366840565 0 0 0 0 -92.952689148898344 -35.674407818197963 0 -35.674407818197963 -101.66678216060063 0 0 0 0 -114.52604676870396 -129.47995974427033 0 -129.47995974427033 -33.821921969190043 0 0 0 0 -4.4999121154850172 1.3027379953866145 0 1.3027379953866145 -0.34839930888267157 0 0 0 0 -64.627820842793881 213.82589692555075 0 213.82589692555075 -175.2542776396009 0 0 0 0 -120.92365365922524 -140.49589798977752 0 -140.49589798977752 -33.326497307363752 0 0 0 0 -184.09326900665837 -146.41603135805849 0 -146.41603135805849 -33.851152516266268 0 0 0 0 -104.16794929063053 -96.668938235837516 0 -96.668938235837516 38.94236836117625 0 0 0 0 -84.384402126182977 -121.03293692776492 0 -121.03293692776492 -49.937923740285783 0 0 0 0 -96.146156478505873 -98.723194176576499 0 -98.723194176576499 48.614185884825019 0 0 0 0 -87.630893132901747 -80.108213356568513 0 -80.108213356568513 18.344355482657193 0 0 0 0 -67.950429895874549 -66.427199483404593 0 -66.427199483404593 37.97351331051815 0 0 0 0 -161.40772714723062 -56.828534452371514 0 -56.828534452371514 180.61609401040823 0 0 0 0 -94.428154399200139 -41.475700256431992 0 -41.475700256431992 238.94477500074368 0 0 0 0 -26.276719782772489 31.146284343432967 0 31.146284343432967 167.43516443934413 0 0 0 0 -85.561649338978896 20.689226376306351 0 20.689226376306351 104.65792916467876 0 0 0 0 -84.567598606241518 42.129933404838766 0 42.129933404838766 268.69281823464479 0 0 0 0 -265.01279594159132 56.19192028632051 0 56.19192028632051 404.23503898030458 0 0 0 0 -276.71843576918764 128.17325846805647 0 128.17325846805647 389.47114649059586 0 0 0 0 -2.6721187418642245 0.57160305732928762 0 0.57160305732928762 -0.17742143808959776 0 0 0 0 -177.68613094655484 13.598650780528146 0 13.598650780528146 385.97705365755905 0 0 0 0 -207.46482509079397 12.074906495055984 0 12.074906495055984 406.48935712896309 0 0 0 0 -124.84948857408745 85.332320073831397 0 85.332320073831397 327.79775093517628 0 0 0 0 -194.9002115214098 47.39842835886725 0 47.39842835886725 280.97961272358856 0 0 0 0 -150.17528712039893 118.30349404106698 0 118.30349404106698 370.84419353923568 0 0 0 0 -1.7131551080835692 8.0544368720110029 0 8.0544368720110029 -2.4205342893381281 0 0 0 0 63.445114569036377 34.03568698883555 0 34.03568698883555 -26.451729887063607 0 0 0 0 -128.03980109978147 294.10025753032141 0 294.10025753032141 -1083.117323938709 0 0 0 0 -27.116430512524055 20.044267354384715 0 20.044267354384715 -0.63496399169215678 0 0 0 0 145.61243916897365 130.8268014112283 0 130.8268014112283 350.97507772176982 0 0 0 0 10.355530205453761 252.4702662307015 0 252.4702662307015 414.2400961952676 0 0 0 0 -164.59866075886384 96.673853695114076 0 96.673853695114076 378.00859134446227 0 0 0 0 -3.8229651470210229 236.82264991043417 0 236.82264991043417 406.29875366925535 0 0 0 0 51.529981345964188 214.68857687806246 0 214.68857687806246 404.04551485141974 0 0 0 0 292.88984000529308 301.06408197317228 0 301.06408197317228 377.03132125425282 0 0 0 0 59.897495618824905 260.47768233919464 0 260.47768233919464 390.65500187653561 0 0 0 0 135.13777673206641 295.84053046349641 0 295.84053046349641 395.13642573232192 0 0 0 0 -30.292297546169721 383.67447259485357 0 383.67447259485357 430.1583896063571 0 0 0 0 215.26416731020436 407.1312491700088 0 407.1312491700088 387.57123039619637 0 0 0 0 -4.8636572518917092 303.28247793046251 0 303.28247793046251 431.26721456969017 0 0 0 0 -215.79896373771044 171.85760380871466 0 171.85760380871466 407.01430998673362 0 0 0 0 -203.99324911646636 9.2344668778106893 0 9.2344668778106893 218.69453456736846 0 0 0 0 -257.10241170721201 140.78415001224494 0 140.78415001224494 407.11264704987275 0 0 0 0 -165.15534660494814 138.73090361883681 0 138.73090361883681 295.29615373018623 0 0 0 0 -128.54774995352636 128.17942525291733 0 128.17942525291733 363.51401002165005 0 0 0 0 -355.46675577046335 -13.315273736926883 0 -13.315273736926883 260.66925429205935 0 0 0 0 -287.16138421713731 -9.5698928295722681 0 -9.5698928295722681 78.071252641050251 0 0 0 0 -445.23554835888353 -159.46837461769928 0 -159.46837461769928 21.495715389900511 0 0 0 0 -468.2670885908301 55.001707407679987 0 55.001707407679987 140.05114317872039 0 0 0 0 -419.1230564903417 58.682591612777628 0 58.682591612777628 328.90559437299862 0 0 0 0 -345.81843730308174 1.1507331840682582 0 1.1507331840682582 161.14616857670126 0 0 0 0 -351.57013339835709 307.35473052666202 0 307.35473052666202 311.46282932872236 0 0 0 0 -212.32176119254291 122.89663465745161 0 122.89663465745161 130.98508075323207 0 0 0 0 -87.809707947617426 194.45891441740207 0 194.45891441740207 322.56543014577232 0 0 0 0 -150.23207912979524 -51.583711732711095 0 -51.583711732711095 129.15158218325087 0 0 0 0 -225.4509698494694 -32.618784529958248 0 -32.618784529958248 272.81633970666826 0 0 0 0 -191.11894114126335 -17.940826428740138 0 -17.940826428740138 203.64062885568592 0 0 0 0 -259.3892569708878 26.790990111832343 0 26.790990111832343 343.99648597628885 0 0 0 0 -289.3193471816121 -73.227765537858204 0 -73.227765537858204 202.0548483314013 0 0 0 0 -276.75792646295486 -110.17106631207548 0 -110.17106631207548 40.268952206720769 0 0 0 0 -265.06931141930909 -46.21312380164909 0 -46.21312380164909 -26.440706747411014 0 0 0 0 -317.57863321441255 -134.99739698176791 0 -134.99739698176791 23.210130210708485 0 0 0 0 -201.15912744641901 -98.625310597363068 0 -98.625310597363068 33.616829306812178 0 0 0 0 -221.49943361037003 -105.60337010924877 0 -105.60337010924877 115.91925360268618 0 0 0 0 -189.44550971020544 -169.04520193583448 0 -169.04520193583448 -165.4400978269382 0 0 0 0 -351.65474277110843 -128.43266559485755 0 -128.43266559485755 -99.073293943394674 0 0 0 0 -168.79657680343371 -145.03319135371919 0 -145.03319135371919 -117.49261252710721 0 0 0 0 -296.18138189684396 -99.780894634386868 0 -99.780894634386868 -350.75620849836378 0 0 0 0 -351.02646616498532 -125.40502193367365 0 -125.40502193367365 -76.872533403426814 0 0 0 0 -259.78729586207874 82.737133309011625 0 82.737133309011625 -670.80571657093242 0 0 0 0 -316.45554729907599 25.58714544931172 0 25.58714544931172 -308.34609857184705 0 0 0 0 -252.0436966007951 15.821151338166544 0 15.821151338166544 -350.49696356265531 0 0 0 0 -361.47582878044159 218.62441100070384 0 218.62441100070384 -453.7296193287084 0 0 0 0 -536.56007110100836 411.91015523200781 0 411.91015523200781 -649.04396047154933 0 0 0 0 -247.14517257853731 303.6697885629543 0 303.6697885629543 -717.81842458964366 0 0 0 0 -313.59527673984849 -181.77810483597455 0 -181.77810483597455 -140.51171819261845 0 0 0 0 -4.1287193762234082 1.8189746527235648 0 1.8189746527235648 -1.139023052872719 0 0 0 0 -589.79090505636123 47.171400533866745 0 47.171400533866745 -208.93497053013951 0 0 0 0 -1337.852158692931 357.88110913180412 0 357.88110913180412 -239.79093712300482 0 0 0 0 -200.36977534873586 268.39318679229973 0 268.39318679229973 -235.11036181539748 0 0 0 0 -643.37705113969696 -183.10656342744244 0 -183.10656342744244 -91.244827858521603 0 0 0 0 -740.16026977312868 287.97025707516968 0 287.97025707516968 92.673394169109997 0 0 0 0 -866.42124789339869 90.819997938601773 0 90.819997938601773 -230.3848788361056 0 0 0 0 -891.28814829258044 -541.11613503714489 0 -541.11613503714489 -656.10067644722585 0 0 0 0 -567.34186986466011 -114.09090120253995 0 -114.09090120253995 -216.58898203677563 0 0 0 0 -293.43157424106175 -94.941628574605147 0 -94.941628574605147 -653.69503085188535 0 0 0 0 -488.22283814808725 -291.44001499989685 0 -291.44001499989685 -352.85335778547415 0 0 0 0 -365.1575927721351 -46.558170186050575 0 -46.558170186050575 -133.14800945059187 0 0 0 0 -291.70365240643878 -133.47612184243235 0 -133.47612184243235 -365.59904633472388 0 0 0 0 -130.61209701244297 120.88982797623498 0 120.88982797623498 -939.45407845409136 0 0 0 0 -125.54218718508491 186.7893197674216 0 186.7893197674216 -614.63574035766101 0 0 0 0 -78.712182688148459 359.19308894541791 0 359.19308894541791 -763.12057287738799 0 0 0 0 -121.16386133516062 202.65522555032203 0 202.65522555032203 -1107.321241982027 0 0 0 0 -297.29347834392684 -256.19262088275354 0 -256.19262088275354 -790.17600478318673 0 0 0 0 -148.51376232310213 -48.141229659057672 0 -48.141229659057672 -1395.6741724124295 0 0 0 0 -93.532318637400749 107.32983195127463 0 107.32983195127463 -984.9988114556345 0 0 0 0 -904.45438533707602 831.49227959698055 0 831.49227959698055 -1032.4079215626452 0 0 0 0 -742.63043101911353 82.952071937134633 0 82.952071937134633 -1553.5442357796021 0 0 0 0 -348.02537711971127 -429.44105083111958 0 -429.44105083111958 -1323.0647583675218 0 0 0 0 -1617.505203220644 -308.66635349559601 0 -308.66635349559601 -438.64546991835323 0 0 0 0 -1.031003874206899 -0.89931528047062415 0 -0.89931528047062415 -2.9654555923505903 0 0 0 0 -879.59644938970087 -16.957763746476303 0 -16.957763746476303 144.12802129099509 0 0 0 0 -1164.0056618560202 -225.30680765031752 0 -225.30680765031752 -8.1109653940829958 0 0 0 0 -109.85275120333245 358.34934122030108 0 358.34934122030108 -689.70754330668206 0 0 0 0 -240.78471595403789 408.34647762192765 0 408.34647762192765 -263.55511032290815 0 0 0 0 -178.872042509116 217.26646848343444 0 217.26646848343444 -465.01822754326622 0 0 0 0 -335.46199261772563 -84.58493014267242 0 -84.58493014267242 93.258191163113793 0 0 0 0 -23.357323082719176 -98.927405368686834 0 -98.927405368686834 -40.35875717785575 0 0 0 0 -1.3029767771534715 -2.4273115577138498 0 -2.4273115577138498 -1.926791324427823 0 0 0 0 -434.56254851132144 52.677967977218259 0 52.677967977218259 78.645458410563151 0 0 0 0 -340.58156596753543 551.53322940999271 0 551.53322940999271 -598.40318590847414 0 0 0 0 -407.17811554262153 335.8812938724293 0 335.8812938724293 -741.10863320252315 0 0 0 0 -187.04817390203971 262.60704095438405 0 262.60704095438405 -833.28744872325638 0 0 0 0 -146.41227210883517 193.39030618790161 0 193.39030618790161 -745.45642766483081 0 0 0 0 -415.64220609420954 -71.454026733251567 0 -71.454026733251567 -427.73089851913028 0 0 0 0 -278.10926321801071 60.123832050898358 0 60.123832050898358 -334.75275237429241 0 0 0 0 -394.35752147928724 -30.781921037473239 0 -30.781921037473239 52.525967664681446 0 0 0 0 -0.43634157795356732 -0.33304751662001308 0 -0.33304751662001308 -2.140296235317467 0 0 0 0 -102.27329066702464 -13.335658756944504 0 -13.335658756944504 -379.99734257929185 0 0 0 0 -423.02441079718756 227.80018366556439 0 227.80018366556439 -830.91664964448023 0 0 0 0 -633.64533833219684 391.04606376760637 0 391.04606376760637 -207.11116483782666 0 0 0 0 -93.863402675069665 376.48103813358472 0 376.48103813358472 -764.43864761565715 0 0 0 0 -215.47248916079479 -294.96650948923889 0 -294.96650948923889 -111.16573673022884 0 0 0 0 65.434180748194194 -242.54177612961263 0 -242.54177612961263 -308.05989359814305 0 0 0 0 -375.96697662458701 597.61064401852423 0 597.61064401852423 -659.84771579113317 0 0 0 0 -6.8416937355913774 -0.82929204842387705 0 -0.82929204842387705 -0.35289295057842729 0 0 0 0 -11.179954371746135 -32.322507807924978 0 -32.322507807924978 -137.63009245287634 0 0 0 0 -101.26394976884967 -289.08245602979082 0 -289.08245602979082 116.77756943576668 0 0 0 0 -19.245924343973577 -3.6045950828150559 0 -3.6045950828150559 0.18858284253305069 0 0 0 0 112.753525224236 -173.32361629946703 0 -173.32361629946703 -239.16215258816612 0 0 0 0 5.1786499165209534 -109.26945482966005 0 -109.26945482966005 -264.47221474819543 0 0 0 0 -378.53552227676118 -161.76934334483576 0 -161.76934334483576 -169.52059549950954 0 0 0 0 -711.36131564390053 -169.90467305332044 0 -169.90467305332044 85.38538608506019 0 0 0 0 47.943728779631783 -32.427908658967056 0 -32.427908658967056 -470.4205806623159 0 0 0 0 -8.6609967718082572 3.2510450234087536 0 3.2510450234087536 -1.1889468274292136 0 0 0 0 12.096378527259731 5.4822195650599213 0 5.4822195650599213 -68.733334950227004 0 0 0 0 -66.189721729799203 -42.338880344183053 0 -42.338880344183053 59.341695678774386 0 0 0 0 -48.065829905179271 -96.188701276476536 0 -96.188701276476536 -62.482974392151505 0 0 0 0 -58.200468965933396 -116.44054020029841 0 -116.44054020029841 -97.494643365201227 0 0 0 0 -54.531454877229407 -119.37358295657236 0 -119.37358295657236 -118.93409277216551 0 0 0 0 -22.632223545602756 -25.744183198794303 0 -25.744183198794303 -59.601436211055386 0 0 0 0 -186.47247484005311 -149.81212690567946 0 -149.81212690567946 -124.90509946351949 0 0 0 0 6.8131130433939688 -95.901570833259029 0 -95.901570833259029 -249.65677801028323 0 0 0 0 -24.676269590091124 -69.724159655193915 0 -69.724159655193915 62.689491835184754 0 0 0 0 -8.8090050311711252 3.3900258904566769 0 3.3900258904566769 -1.3633752738762621 0 0 0 0 -1764.9485615682518 -452.60792960566789 0 -452.60792960566789 97.764438595761362 0 0 0 0 -1315.5783425412392 -231.70248055254072 0 -231.70248055254072 57.108965213092404 0 0 0 0 -1802.3575437489872 -266.03188572272876 0 -266.03188572272876 407.77840369700505 0 0 0 0 -2499.6131275035295 -622.65569583653735 0 -622.65569583653735 356.54027270777658 0 0 0 0 -1214.9273735080278 -546.12823541284729 0 -546.12823541284729 -2.1362735516239866 0 0 0 0 -1166.5970389831582 -361.65147019929458 0 -361.65147019929458 -68.0894791544155 0 0 0 0 -678.99923323964231 -449.72386719025388 0 -449.72386719025388 -265.91243100199199 0 0 0 0 -701.40570240943271 -255.97240312565867 0 -255.97240312565867 -140.46395405457761 0 0 0 0 -839.3785062166221 -224.05353712967681 0 -224.05353712967681 -39.597707776953257 0 0 0 0 -833.09941476231415 -237.98133717005337 0 -237.98133717005337 -100.41089523495327 0 0 0 0 -1096.8666697996541 -415.54835218490609 0 -415.54835218490609 -84.801649053456657 0 0 0 0 -1137.9605237421329 -142.81507238012847 0 -142.81507238012847 -30.868263060994934 0 0 0 0 -771.65769767568236 -216.58986971741754 0 -216.58986971741754 -102.00798767331685 0 0 0 0 -1010.2611490496729 -301.2951901358727 0 -301.2951901358727 -49.114436213476694 0 0 0 0 -866.01042138556477 -207.81722543258593 0 -207.81722543258593 -17.551630312803468 0 0 0 0 -889.65034379713097 -325.34883733821982 0 -325.34883733821982 -33.409387558005847 0 0 0 0 -978.92376071877334 -341.06405957019456 0 -341.06405957019456 46.118484956989583 0 0 0 0 -841.78896558584802 -94.606887587270791 0 -94.606887587270791 -28.151299764857356 0 0 0 0 -917.67835766315329 -242.45246269043801 0 -242.45246269043801 -278.57658333232166 0 0 0 0 -1377.1421009109254 343.42502490474038 0 343.42502490474038 331.33718766030898 0 0 0 0 -1369.4276011312195 304.2058184706637 0 304.2058184706637 -49.995354163342029 0 0 0 0 -1358.8440506158167 -258.42163924702595 0 -258.42163924702595 61.847449949632676 0 0 0 0 -1779.096587754465 194.25491471966464 0 194.25491471966464 295.40655533953111 0 0 0 0 -2498.7962717466116 -173.39935045991894 0 -173.39935045991894 425.94669365266293 0 0 0 0 -2018.7484833418448 549.48615601280255 0 549.48615601280255 372.36276835226954 0 0 0 0 -1003.3067202920865 606.67897130067979 0 606.67897130067979 69.550024397647576 0 0 0 0 -2500.5465265529838 1024.2052738450518 0 1024.2052738450518 521.11126954857525 0 0 0 0 -437.85939844606332 -36.77134721988574 0 -36.77134721988574 336.56430100372381 0 0 0 0 -872.36262894660376 807.34654887197178 0 807.34654887197178 220.65384274322543 0 0 0 0 -1464.7212755350665 1118.805995832799 0 1118.805995832799 203.18074282350403 0 0 0 0 -2547.7221497910359 1485.3581079872408 0 1485.3581079872408 90.349083725834177 0 0 0 0 -2.7963390268781509 7.9916406066721901 0 7.9916406066721901 0.2258531892630799 0 0 0 0 -12.729426142660941 6.7672447931328747 0 6.7672447931328747 23.167241775795333 0 0 0 0 -219.00453379794726 1267.952950940261 0 1267.952950940261 -1522.7405583199848 0 0 0 0 -5.4185186043698437 10.027445852716049 0 10.027445852716049 5.7266036094166743 0 0 0 0 -2486.1151164218691 -12.801215753506897 0 -12.801215753506897 9.9766576435387133 0 0 0 0 407.44851597140951 148.44211504908537 0 148.44211504908537 41.347085023750594 0 0 0 0 8.8999542928551172 9.5946228068277772 0 9.5946228068277772 3.9941086433799473 0 0 0 0 -142.21428518595167 -84.480813596681173 0 -84.480813596681173 11.949313626016647 0 0 0 0 -23.016188977560795 3.8459218963311326 0 3.8459218963311326 6.8897332276903072 0 0 0 0 19.032576560262441 -31.586553942321643 0 -31.586553942321643 -251.36684376867763 0 0 0 0 -1194.049683739488 -1023.1625422041384 0 -1023.1625422041384 -744.25416263460306 0 0 0 0 -20.013155093354506 1.5011801892734515 0 1.5011801892734515 4.1122370300083997 0 0 0 0 -40.553582849324812 266.23862961716213 0 266.23862961716213 -464.45292546547353 0 0 0 0 -171.57806104245265 140.3940118045457 0 140.3940118045457 236.92954919629301 0 0 0 0 -13.939254060518579 -135.84032651083453 0 -135.84032651083453 11.783955484781472 0 0 0 0 -53.2556837066073 -4.827609889331681 0 -4.827609889331681 17.467124452258087 0 0 0 0 39.414799199077606 144.92073509525926 0 144.92073509525926 38.212878017577168 0 0 0 0 -173.36655500655138 144.04931600108708 0 144.04931600108708 192.35176394770491 0 0 0 0 4.262705428278565 7.5608718909750419 0 7.5608718909750419 5.1725810125660052 0 0 0 0 349.42901295047886 337.7671276280505 0 337.7671276280505 368.16346551215747 0 0 0 0 206.64417921030508 551.02020906085181 0 551.02020906085181 180.84089044698567 0 0 0 0 543.54821970350895 471.12033711657085 0 471.12033711657085 81.650913719976785 0 0 0 0 0.78416165745975519 -3.4379506015045207 0 -3.4379506015045207 0.075772886497578629 0 0 0 0 -812.53153906643274 189.29476259706996 0 189.29476259706996 378.38686810685761 0 0 0 0 365.54851600588336 38.507319143126097 0 38.507319143126097 393.88517768995234 0 0 0 0 -1272.86243966149 28.363908941709269 0 28.363908941709269 1609.6742773889055 0 0 0 0 -700.13952000053905 -309.21036503756625 0 -309.21036503756625 326.46512345892756 0 0 0 0 -1096.7111688582345 790.50986803349906 0 790.50986803349906 -834.66820591690635 0 0 0 0 -1017.721418066707 -1042.859508377147 0 -1042.859508377147 -1247.0227476692335 0 0 0 0 203.93162261805992 690.65985187227943 0 690.65985187227943 25.17759705147779 0 0 0 0 -160.99817239500408 577.26223917739924 0 577.26223917739924 -99.295520689786699 0 0 0 0 73.709793673916465 -243.34721064127419 0 -243.34721064127419 -301.93509923697763 0 0 0 0 -513.02674712354383 -811.88903995144176 0 -811.88903995144176 -272.38585849691765 0 0 0 0 -1140.8690842634769 -337.00657108531402 0 -337.00657108531402 46.034382390527526 0 0 0 0 -1555.9743768378084 3.2516918577361693 0 3.2516918577361693 126.33288973622462 0 0 0 0 -1317.701277397905 -487.17181420055982 0 -487.17181420055982 -62.020521650679228 0 0 0 0 -807.12391975553601 367.49811397058289 0 367.49811397058289 -102.69277177714439 0 0 0 0 -5.1968817238250367 -0.57471938709747583 0 -0.57471938709747583 -0.36014614545672063 0 0 0 0 -71.777829183394715 254.51512526932189 0 254.51512526932189 -154.91902356847012 0 0 0 0 -22.372077507744329 -4.1032247958219443 0 -4.1032247958219443 0.19512577234233086 0 0 0 0 296.23387479816483 118.15457541092721 0 118.15457541092721 -187.95765566580815 0 0 0 0 -1456.4819533895925 -1747.5137447029279 0 -1747.5137447029279 29.82014938607206 0 0 0 0 -1926.9020657291512 212.87052502304647 0 212.87052502304647 142.10431852750335 0 0 0 0 -2645.9760461660953 -396.06203552974159 0 -396.06203552974159 -52.800006523569408 0 0 0 0 -1940.5946773632982 -1464.0667314992866 0 -1464.0667314992866 -106.88472894838833 0 0 0 0 -955.7180473341632 431.32698993883878 0 431.32698993883878 892.72333804750633 0 0 0 0 -2574.6819832283963 -97.69721802897061 0 -97.69721802897061 745.94120032774572 0 0 0 0 -85.616920763285862 -864.52053138799602 0 -864.52053138799602 64.698876561538782 0 0 0 0 -700.15506144556639 -1730.065970356073 0 -1730.065970356073 -526.77575133553091 0 0 0 0 -1638.3978621221972 -1849.441768065391 0 -1849.441768065391 -26.77418851873017 0 0 0 0 320.1006241889595 924.52809262540586 0 924.52809262540586 -418.97607522306907 0 0 0 0 -3312.1117208782293 -719.25271721237948 0 -719.25271721237948 -278.98619753169442 0 0 0 0 933.96695744800945 -950.59187949494208 0 -950.59187949494208 -164.00349797920535 0 0 0 0 -5.2238971288006963 -6.5456020352276534 0 -6.5456020352276534 -11.102073551054417 0 0 0 0 -3572.4164944296435 895.31300296788868 0 895.31300296788868 -183.44010009626072 0 0 0 0 -1430.6459619697316 -165.92942018452777 0 -165.92942018452777 -472.8243915187204 0 0 0 0 -2101.0490852379426 -161.9611693802276 0 -161.9611693802276 -18.581391734209319 0 0 0 0 -1604.8943183279339 636.89662555287532 0 636.89662555287532 -363.01524494642581 0 0 0 0 9.4562432000873482 -490.97236564909173 0 -490.97236564909173 589.91472302535112 0 0 0 0 -1373.5471679039201 383.4757357668168 0 383.4757357668168 -157.29938184244202 0 0 0 0 -16.446715896978073 -25.484515691979698 0 -25.484515691979698 -20.53218815162333 0 0 0 0 8.6258403785059272 -5.5259750175309819 0 -5.5259750175309819 188.45366641604414 0 0 0 0 -524.98200337708477 485.51168880567457 0 485.51168880567457 129.20934048230629 0 0 0 0 -782.19223442424436 48.79989364848052 0 48.79989364848052 568.26501972842743 0 0 0 0 -240.84772607780133 -278.75249184800498 0 -278.75249184800498 -535.17942346156997 0 0 0 0 -25.694561476026138 76.470992584816941 0 76.470992584816941 -191.72547923383263 0 0 0 0 135.71017848918746 -23.451607327606325 0 -23.451607327606325 -234.68330432332914 0 0 0 0 -519.53997162618361 -41.61474751185915 0 -41.61474751185915 -233.91930045023605 0 0 0 0 -1062.5705511524384 -469.9696059123612 0 -469.9696059123612 -184.58948277105446 0 0 0 0 -660.21455464381506 -299.63071505587777 0 -299.63071505587777 -459.61675525752389 0 0 0 0 -1570.7929375323056 -558.94641509765324 0 -558.94641509765324 -476.95371376063486 0 0 0 0 -1267.3979204792749 -956.82515080823759 0 -956.82515080823759 -1181.5254765255183 0 0 0 0 -44.033509686952129 336.13198621191191 0 336.13198621191191 -337.46916819970869 0 0 0 0 25.3515234682136 -138.34175290742905 0 -138.34175290742905 -1082.7522266365011 0 0 0 0 427.21478839344491 33.761573030305271 0 33.761573030305271 -60.053005274197687 0 0 0 0 4.7010684255865272 180.52693544517024 0 180.52693544517024 -76.475980365746636 0 0 0 0 189.64078615274775 331.84657988621416 0 331.84657988621416 -214.41105297785271 0 0 0 0 -208.23577405667857 -90.85761364873315 0 -90.85761364873315 257.72400904424529 0 0 0 0 -47.594975094708715 -1.3734870540801127 0 -1.3734870540801127 1.405605203026822 0 0 0 0 -795.86290252893832 241.674708964513 0 241.674708964513 1506.2470609093109 0 0 0 0 108.78365911609581 -119.85190182567617 0 -119.85190182567617 -55.759975933343981 0 0 0 0 36.114948800951879 -25.647819464241081 0 -25.647819464241081 -72.945109936776475 0 0 0 0 -13.507008190267182 -3.5112133698881456 0 -3.5112133698881456 -0.8809047626367571 0 0 0 0 -44.911448307087085 -116.58779139493343 0 -116.58779139493343 148.47915450948972 0 0 0 0 22.100802705685965 -58.176196774648155 0 -58.176196774648155 -61.127824534070726 0 0 0 0 23.319526888275504 -2.8928150691135102 0 -2.8928150691135102 24.732565475899406 0 0 0 0 -39.773626547367257 26.552134809187486 0 26.552134809187486 -58.568368359959436 0 0 0 0 -63.273304609709157 -9.4005686393593351 0 -9.4005686393593351 -84.134388390178174 0 0 0 0 -61.74192270705953 67.803899122862703 0 67.803899122862703 -110.63672184876918 0 0 0 0 -272.4737552913266 21.329231582895034 0 21.329231582895034 -45.927887197027673 0 0 0 0 -282.9749107852283 123.21956967280329 0 123.21956967280329 -47.94890919411506 0 0 0 0 -788.5415745754035 142.22203662804498 0 142.22203662804498 10.175698266512597 0 0 0 0 -1061.4066955703129 -116.41631846599813 0 -116.41631846599813 81.84611835669466 0 0 0 0 -764.10292535310509 56.733040788472238 0 56.733040788472238 115.95090410402887 0 0 0 0 -615.01242074924448 -31.746765292567716 0 -31.746765292567716 9.905266132821211 0 0 0 0 -768.75088325913202 -133.15102086330876 0 -133.15102086330876 -24.422112432763583 0 0 0 0 -619.23852131934291 26.323370461579202 0 26.323370461579202 17.270733646729809 0 0 0 0 -273.37049009710972 10.119321751252741 0 10.119321751252741 -91.27690799787635 0 0 0 0 -428.80589528090513 84.978547442609653 0 84.978547442609653 43.450964768205552 0 0 0 0 -464.83014551330416 -15.531944827088523 0 -15.531944827088523 -236.98118274864041 0 0 0 0 -478.14355916681052 -25.829886854139843 0 -25.829886854139843 -102.09232329233754 0 0 0 0 -640.12224060723929 -218.81566582165485 0 -218.81566582165485 -204.04728344599528 0 0 0 0 -468.55448827062355 -136.11090833972725 0 -136.11090833972725 -185.18720214219258 0 0 0 0 -365.10308307745254 -195.18693692009546 0 -195.18693692009546 -220.58647337649813 0 0 0 0 -337.71729654711635 266.39979256828565 0 266.39979256828565 -292.85835769162713 0 0 0 0 -179.97494342272148 -37.505191384714493 0 -37.505191384714493 -235.32511343897534 0 0 0 0 -183.91829591500027 55.791919156641853 0 55.791919156641853 -717.94825179892143 0 0 0 0 -336.86772367921367 18.033045891808598 0 18.033045891808598 -6.113919690113633 0 0 0 0 74.141320384562277 220.46287121867061 0 220.46287121867061 -765.79527004590409 0 0 0 0 -4.7122468917936402 3.5727409362026048 0 3.5727409362026048 -1.9271996343340274 0 0 0 0 3.3357629700853977 90.488332667661837 0 90.488332667661837 -200.52761435470097 0 0 0 0 -5.2487529287645884 118.76792338572494 0 118.76792338572494 -37.510407917158432 0 0 0 0 -6.3404581319941826 61.450970138839438 0 61.450970138839438 -7.0940483584119249 0 0 0 0 -61.271877894849695 -47.126163906824502 0 -47.126163906824502 26.415922306835483 0 0 0 0 -265.93679866413731 55.694502005290133 0 55.694502005290133 -13.244408526865698 0 0 0 0 0.70637590881320023 1.3809468707444514 0 1.3809468707444514 -1.3872252228355795 0 0 0 0 -23.078059620289423 2.9539452780455804 0 2.9539452780455804 0.93520742424215086 0 0 0 0 -4.0952356966583956 -0.52567334119753895 0 -0.52567334119753895 -0.12057716558069265 0 0 0 0 -8.8598184493494045 2.4320193128056076 0 2.4320193128056076 -8.271863421200095 0 0 0 0 -5.9699077738368942 -6.6130957956793281 0 -6.6130957956793281 -12.964394453554974 0 0 0 0 -4.2635227910200157 2.5016830762901385 0 2.5016830762901385 -0.8421490926930193 0 0 0 0 -3.9648595335274877 -0.52565288606399463 0 -0.52565288606399463 2.8024761398861529 0 0 0 0 -68.298610381432809 112.7510373172712 0 112.7510373172712 -7.1777892574721136 0 0 0 0 -56.67652876275497 93.935501545525767 0 93.935501545525767 7.1456960565094505 0 0 0 0 -9.7717029152286159 3.6273457361472525 0 3.6273457361472525 0.025149543701091348 0 0 0 0 -24.262041000072713 1.7791872368372026 0 1.7791872368372026 20.015298545149562 0 0 0 0 -17.3621533409165 0.79445560297295881 0 0.79445560297295881 1.2511476333934177 0 0 0 0 -86.615166147726995 37.763007484870343 0 37.763007484870343 176.08736332071214 0 0 0 0 -12.286997117385908 -69.267652047850106 0 -69.267652047850106 68.036093969465469 0 0 0 0 -23.560945374809265 -0.68958997628121255 0 -0.68958997628121255 0.87304180879999849 0 0 0 0 2.7249881832885876 0.28917696570124463 0 0.28917696570124463 -5.6224772925079947 0 0 0 0 -2.5233436947546579 -7.3332992595089763 0 -7.3332992595089763 -12.101435873275364 0 0 0 0 1.1469576575145766 -7.8513851196422593 0 -7.8513851196422593 -3.4686596129263876 0 0 0 0 -2.8639015452422427 12.475629076228557 0 12.475629076228557 4.1400238245918217 0 0 0 0 -21.164762088745505 3.942742565456979 0 3.942742565456979 1.1736639852207928 0 0 0 0 -21.238456027122993 6.4187680660845956 0 6.4187680660845956 -3.3160561072827477 0 0 0 0 -4.7926124051045917 19.998021515376877 0 19.998021515376877 -24.865288237470139 0 0 0 0 -119.8181815573098 132.10714126396275 0 132.10714126396275 -54.058663820812512 0 0 0 0 -21.801188566989058 6.811122715140888 0 6.811122715140888 0.46616080425403772 0 0 0 0 -81.063484679592875 40.379409359977672 0 40.379409359977672 -19.082522770787023 0 0 0 0 -0.34522210336634629 -1.793728792382228 0 -1.793728792382228 -0.96260204528557569 0 0 0 0 -41.178887132381988 -15.847559250705444 0 -15.847559250705444 22.944362520594495 0 0 0 0 109.69007406303899 -71.133609642697593 0 -71.133609642697593 -131.69573610441 0 0 0 0 -3.0600842179665051 -37.907074920407211 0 -37.907074920407211 21.877322957903772 0 0 0 0 -0.90100737802666586 -7.9105270968405765 0 -7.9105270968405765 -4.9989256747827095 0 0 0 0 -11.815979910879832 -18.419370301944028 0 -18.419370301944028 4.5518111960337251 0 0 0 0 -5.454487517686573 1.2718794835265275 0 1.2718794835265275 -2.6811480858589931 0 0 0 0 19.063102827494731 -3.5755117769331974 0 -3.5755117769331974 -23.703990529732664 0 0 0 0 8.4359557062707609 -12.414768774111621 0 -12.414768774111621 -29.215646306029271 0 0 0 0 19.330535002802208 -6.4444679558411906 0 -6.4444679558411906 -47.192687822316586 0 0 0 0 23.714658062144736 -36.892359004153207 0 -36.892359004153207 -8.7580894110205918 0 0 0 0 -20.328133104317107 -6.2485180686563595 0 -6.2485180686563595 -1.3256976814077595 0 0 0 0 -26.946833568214061 -7.098137445780452 0 -7.098137445780452 13.998671056540047 0 0 0 0 -31.287604277268656 -15.122542686494342 0 -15.122542686494342 0.05818467114481507 0 0 0 0 -38.848368063352652 4.8228072831737361 0 4.8228072831737361 -0.64543864554503427 0 0 0 0 -30.5538978761615 43.77275887691826 0 43.77275887691826 73.0731338272833 0 0 0 0 -46.746073033865663 1.0186132970219601 0 1.0186132970219601 0.82854507819844803 0 0 0 0 -37.906440469358586 -27.921528927549105 0 -27.921528927549105 68.082904281115702 0 0 0 0 -137.14135668454446 350.84686755937639 0 350.84686755937639 482.00354286618904 0 0 0 0 -1.4378256502902254 0.56866640330520735 0 0.56866640330520735 -0.077333129868504713 0 0 0 0 84.085946899979717 -19.397897621396282 0 -19.397897621396282 -222.71482671751824 0 0 0 0 83.804207115803365 283.37858125097182 0 283.37858125097182 203.49096887564133 0 0 0 0 12.963124239116041 99.027264646121978 0 99.027264646121978 -15.848116401012703 0 0 0 0 -3.1700017481372242 3.9477653118890359 0 3.9477653118890359 -2.5834656043219559 0 0 0 0 1.4528341576051886 3.2002958477123831 0 3.2002958477123831 -1.7500365744074706 0 0 0 0 72.188628242392127 24.58391366245327 0 24.58391366245327 -8.9032737422257924 0 0 0 0 71.825285486470733 30.534371689682352 0 30.534371689682352 25.933675507495536 0 0 0 0 159.94622986715513 35.77764384921511 0 35.77764384921511 -92.753760674164596 0 0 0 0 -8.6520866561818366 3.888325475106285 0 3.888325475106285 -19.490984009254134 0 0 0 0 8.2196541194730912 15.981086887654527 0 15.981086887654527 -31.027548826704333 0 0 0 0 -7.4488347132781207 11.655315562854584 0 11.655315562854584 -16.808312834096618 0 0 0 0 0.63275276826900573 2.0937812323127485 0 2.0937812323127485 -5.2989208213231542 0 0 0 0 7.8344726262540476 11.723792387256097 0 11.723792387256097 -38.981438304126641 0 0 0 0 10.989412061562234 15.134865373336766 0 15.134865373336766 -35.438911838611602 0 0 0 0 -4.6218348864122163 19.314063687040061 0 19.314063687040061 -21.947262816678176 0 0 0 0 -12.207302748232905 18.205212794770887 0 18.205212794770887 -21.504705730125124 0 0 0 0 -12.89211840427788 17.154843083358401 0 17.154843083358401 -11.919518632232212 0 0 0 0 -9.2767204934118723 19.351234285035503 0 19.351234285035503 -7.999674254580448 0 0 0 0 -7.1014728511875358 16.063239527145075 0 16.063239527145075 -9.4270519071136754 0 0 0 0 -12.833332215951684 3.4621300071427195 0 3.4621300071427195 -9.4818195196589699 0 0 0 0 -8.3529787089537422 12.791721606124611 0 12.791721606124611 -1.4858367431427268 0 0 0 0 -25.373113957021815 38.058866511377346 0 38.058866511377346 -21.68159316234869 0 0 0 0 -12.612783409608628 19.974877116330156 0 19.974877116330156 -8.6988606652228064 0 0 0 0 9.4847749159707746 23.986766461252273 0 23.986766461252273 -77.90641668390731 0 0 0 0 -2.9340153939583615 18.132817687703209 0 18.132817687703209 -4.1101998957597061 0 0 0 0 -6.9167345508557503 1.9644855125596905 0 1.9644855125596905 -17.910959282453064 0 0 0 0 -16.914276103384005 -5.1742684294258554 0 -5.1742684294258554 -4.8443959973989328 0 0 0 0 -52.574831835155123 -13.33907865020598 0 -13.33907865020598 -5.2120635212919524 0 0 0 0 -25.551966594483929 6.4129959662307101 0 6.4129959662307101 -24.786392543766311 0 0 0 0 -60.887142988249252 20.046827658708935 0 20.046827658708935 -12.73046256390262 0 0 0 0 -38.665850610687812 32.049557129201702 0 32.049557129201702 -15.050245143568191 0 0 0 0 -0.65209114307275939 7.8998324081129692 0 7.8998324081129692 -2.5641213576173656 0 0 0 0 -73.929231901607636 -29.489165659529021 0 -29.489165659529021 -12.249116491022995 0 0 0 0 -66.812039086829827 24.771235103577283 0 24.771235103577283 -10.767546220036593 0 0 0 0 -9.1411499591614422 2.8958785226245256 0 2.8958785226245256 0.13699216449450935 0 0 0 0 -33.666068111498134 9.1455428914312336 0 9.1455428914312336 -14.039911289348311 0 0 0 0 -75.339645978015824 -12.963979336318971 0 -12.963979336318971 41.688669785120624 0 0 0 0 -43.387598221267126 -2.9088047397686694 0 -2.9088047397686694 -2.6197406691617289 0 0 0 0 -95.019984211956853 -3.2884568093026019 0 -3.2884568093026019 20.919777163061099 0 0 0 0 -94.413214861731831 20.647278073271366 0 20.647278073271366 11.485600647510182 0 0 0 0 -88.761136458577312 9.1938697086740149 0 9.1938697086740149 25.746873858833851 0 0 0 0 7.9497031858323055 15.737786267782818 0 15.737786267782818 -3.4714897166057881 0 0 0 0 5.4376854236179497 -17.835514256706006 0 -17.835514256706006 1.0087504926764268 0 0 0 0 -25.77335175656631 4.7033281645103067 0 4.7033281645103067 -0.13297789036109431 0 0 0 0 -43.654337404937905 -0.31591419420442435 0 -0.31591419420442435 22.091644200967096 0 0 0 0 -16.432601697826161 -5.2556968900648693 0 -5.2556968900648693 -2.1308951499980173 0 0 0 0 -31.935842084634601 -5.7594495499649838 0 -5.7594495499649838 -4.5680895512889492 0 0 0 0 -33.162069210471685 -7.836521801900119 0 -7.836521801900119 1.4665262513276502 0 0 0 0 -3.2792666002942497 2.1913138317193557 0 2.1913138317193557 -4.689415681094804 0 0 0 0 -4.3687607062920506 -9.9728070444031118 0 -9.9728070444031118 -22.412151198987829 0 0 0 0 -12.087939916175998 -8.3119150855455359 0 -8.3119150855455359 -21.249350062736994 0 0 0 0 -20.692252923991532 -8.7452658522818183 0 -8.7452658522818183 -3.788167844512941 0 0 0 0 -23.926467810508711 -30.425336591426912 0 -30.425336591426912 4.9747819608005557 0 0 0 0 -23.053919275585898 -18.000492364889737 0 -18.000492364889737 -31.86945375182404 0 0 0 0 -9.2240817462157167 -0.2832701271552196 0 -0.2832701271552196 -74.943960388903633 0 0 0 0 -1.5313723043198877 -20.358627760585136 0 -20.358627760585136 -31.80958664918262 0 0 0 0 -14.963275076521541 -1.2222079257824134 0 -1.2222079257824134 -13.919280696766918 0 0 0 0 8.8962338569809383 -15.588329856123327 0 -15.588329856123327 -103.42650302858056 0 0 0 0 -0.48639663117735954 -0.26466045335367294 0 -0.26466045335367294 -0.036279897737544031 0 0 0 0 -22.020437599356896 -22.398642569480558 0 -22.398642569480558 -71.016944655440966 0 0 0 0 -8.3895286746641204 -6.5174312886615553 0 -6.5174312886615553 -131.21058891705934 0 0 0 0 -34.541688289299394 -24.700184551350731 0 -24.700184551350731 -72.310234088275138 0 0 0 0 -18.546637149856977 13.876028040676147 0 13.876028040676147 -145.16312241373021 0 0 0 0 -68.682336519143959 5.4903333129747125 0 5.4903333129747125 -110.46562506715145 0 0 0 0 -98.681570201793846 87.728881576872482 0 87.728881576872482 -166.92204429535877 0 0 0 0 -47.727170926355797 -3.680521802483895 0 -3.680521802483895 -90.57447093977953 0 0 0 0 -1.2712934335947921 -31.525895629503793 0 -31.525895629503793 -79.92486274248165 0 0 0 0 -9.6722185730052104 -33.744063714674212 0 -33.744063714674212 -47.675462820204302 0 0 0 0 4.9280516171794488 -36.43239945622463 0 -36.43239945622463 -99.07043383194889 0 0 0 0 -8.7548067144890354 -67.958267618656237 0 -67.958267618656237 19.754732493999654 0 0 0 0 -23.797749054883127 -30.079065260528523 0 -30.079065260528523 -1.5330738285902044 0 0 0 0 -7.2904423509947378 -52.635119227138489 0 -52.635119227138489 -41.883120370659071 0 0 0 0 -23.375294048401884 -36.008668167703718 0 -36.008668167703718 6.4412542404229498 0 0 0 0 -21.092515851231916 -27.396965211443955 0 -27.396965211443955 29.394360156198672 0 0 0 0 -7.8172268824679065 -68.635601243672681 0 -68.635601243672681 88.053031201782687 0 0 0 0 -8.242110824345076 -67.869642892745105 0 -67.869642892745105 202.0192846547111 0 0 0 0 7.9792461730103312 -12.571638213889969 0 -12.571638213889969 -70.064254406755026 0 0 0 0 28.913176872843678 -61.199469388647458 0 -61.199469388647458 -66.096364862041526 0 0 0 0 13.725982681283142 -56.321638914707819 0 -56.321638914707819 -6.97143954453486 0 0 0 0 12.958327369418697 16.586549154821569 0 16.586549154821569 -95.371631286859838 0 0 0 0 19.020957973932866 22.897744102868046 0 22.897744102868046 58.900222843597248 0 0 0 0 116.48460981010496 -56.186983133321974 0 -56.186983133321974 -8.7435658166625672 0 0 0 0 -24.985779834279128 -2.2626117513431154 0 -2.2626117513431154 3.3432781048054494 0 0 0 0 -14.851363732069913 -87.388318325896535 0 -87.388318325896535 135.4657501958477 0 0 0 0 26.654608245457581 -86.89475058000869 0 -86.89475058000869 74.312384562419766 0 0 0 0 113.59392683519161 -95.991881395111932 0 -95.991881395111932 73.59077436098778 0 0 0 0 -19.380024641411666 -5.0363559274446077 0 -5.0363559274446077 -0.093870176964370167 0 0 0 0 -3.0991704938680975 -2.6709801478432551 0 -2.6709801478432551 1.1948971785282838 0 0 0 0 -32.494793466287234 -11.881856376304086 0 -11.881856376304086 23.168212261627559 0 0 0 0 -38.783137250843168 0.43792079146237484 0 0.43792079146237484 2.0524672868659763 0 0 0 0 -20.480362047294168 1.8831285200964309 0 1.8831285200964309 1.14767327847375 0 0 0 0 -3.4409229743866439 2.4121043305002181 0 2.4121043305002181 2.2665381505312956 0 0 0 0 -22.271073004719376 -4.6365370396027199 0 -4.6365370396027199 0.29328153549463343 0 0 0 0 -42.238447900517713 -7.6919951898386785 0 -7.6919951898386785 5.8654041644212498 0 0 0 0 -24.323710700577976 -1.3317984205881999 0 -1.3317984205881999 0.70539736350758631 0 0 0 0 -23.848499010856813 -2.1729410557515365 0 -2.1729410557515365 -1.9052067266384256 0 0 0 0 -27.478037181728723 2.7946344797571783 0 2.7946344797571783 -4.5083730653845464 0 0 0 0 -24.208729657059848 -16.373291607362404 0 -16.373291607362404 -6.2173467596077217 0 0 0 0 -19.31472333516448 -5.4580003372465589 0 -5.4580003372465589 -0.76853119452071494 0 0 0 0 -48.327611778368009 23.685800562107261 0 23.685800562107261 61.962525711842773 0 0 0 0 -6.8085153762767092 1.700642039275639 0 1.700642039275639 -1.5753872917250533 0 0 0 0 -7.0307576546883865 -9.0354154264874751 0 -9.0354154264874751 2.4180368356846884 0 0 0 0 -29.943408481409278 -5.7796720082715893 0 -5.7796720082715893 1.9316861804848031 0 0 0 0 -32.037504779180381 32.578028252423906 0 32.578028252423906 16.09202873344185 0 0 0 0 -59.295183694994194 -13.800902130770112 0 -13.800902130770112 13.835453496940033 0 0 0 0 -36.160596301813712 -15.66272514447266 0 -15.66272514447266 -13.241377258892953 0 0 0 0 -1.1077753058319644 1.50576221301265 0 1.50576221301265 -1.2190170934346052 0 0 0 0 -104.40670634537491 -48.001136807561466 0 -48.001136807561466 -26.02527291998689 0 0 0 0 26.650899284958541 64.116128070973048 0 64.116128070973048 -58.455869460954546 0 0 0 0 -105.81454554676748 47.908206397880008 0 47.908206397880008 -22.836431126684317 0 0 0 0 15.75189746388196 34.087026971197616 0 34.087026971197616 -103.10294777551314 0 0 0 0 -199.68637082143323 66.560081223944877 0 66.560081223944877 105.91981798386939 0 0 0 0 40.440739937421313 -74.046823338488707 0 -74.046823338488707 -96.803563376938413 0 0 0 0 -80.484059480175347 -39.520380146629343 0 -39.520380146629343 161.42055066044657 0 0 0 0 14.144575178164814 59.904013279854325 0 59.904013279854325 -57.685393695604873 0 0 0 0 -27.116490181743835 -1.1732115330801447 0 -1.1732115330801447 0.62093637934868595 0 0 0 0 19.218173373606987 44.657117469871821 0 44.657117469871821 -29.119638803196949 0 0 0 0 71.602358538733824 -0.59085039244872917 0 -0.59085039244872917 -37.069214106570463 0 0 0 0 -15.652570297253988 59.161071263928122 0 59.161071263928122 50.628738133846085 0 0 0 0 23.284199633133539 40.105028241958109 0 40.105028241958109 -82.5034377632212 0 0 0 0 -26.598234333258006 84.718102528890995 0 84.718102528890995 -88.790945310485085 0 0 0 0 -127.84180306861163 28.589361471162192 0 28.589361471162192 -52.71712787427191 0 0 0 0 -117.8239281823262 -51.309861856142902 0 -51.309861856142902 -42.943770847002298 0 0 0 0 -40.657926089173998 51.067754216291775 0 51.067754216291775 -26.942169825440232 0 0 0 0 -100.33048412801145 -22.188603238170231 0 -22.188603238170231 -9.6077281444300979 0 0 0 0 -109.15783308763105 66.208809714917052 0 66.208809714917052 3.6987499705015239 0 0 0 0 -0.51161856685763496 1.653016830967335 0 1.653016830967335 -0.62696926801015407 0 0 0 0 -45.427241718598452 -61.192541007992759 0 -61.192541007992759 -56.144839696913664 0 0 0 0 -0.95417016013732336 5.8302126228527555 0 5.8302126228527555 -2.2281050805398763 0 0 0 0 -0.12518885306682392 0.55607733659422465 0 0.55607733659422465 -0.40044524007653437 0 0 0 0 -16.598407804837962 0.19225542501741444 0 0.19225542501741444 -3.0639177176906287 0 0 0 0 47.485072721552569 40.231714940881375 0 40.231714940881375 -61.14859697251859 0 0 0 0 -27.590806662767136 -48.369639058869552 0 -48.369639058869552 40.001902605521479 0 0 0 0 -120.27081895009542 2.177189630993098 0 2.177189630993098 12.51309905723167 0 0 0 0 -18.902114332860947 64.120852256238777 0 64.120852256238777 -64.574100484806763 0 0 0 0 -4.1682061320316279 20.173136386094342 0 20.173136386094342 -64.377298273074757 0 0 0 0 -13.651376745337913 9.8826908528262294 0 9.8826908528262294 -5.0453905028923405 0 0 0 0 23.244592675713648 -39.697733070326194 0 -39.697733070326194 -12.155864141203644 0 0 0 0 -17.502577878799457 68.583574412610176 0 68.583574412610176 -16.990226232058376 0 0 0 0 21.697226569824124 -16.99085162749941 0 -16.99085162749941 3.7988307635253022 0 0 0 0 0.74034126968258818 -0.33139588805715547 0 -0.33139588805715547 -1.4494294224191253 0 0 0 0 -74.861633968102979 -22.181956070996421 0 -22.181956070996421 8.2276785818291955 0 0 0 0 -53.632606729101099 -24.946265303989691 0 -24.946265303989691 4.7794073946858475 0 0 0 0 -2.0168431448967041 -13.750328304485308 0 -13.750328304485308 2.3072740386239965 0 0 0 0 -68.99872233576798 -9.3842677989274872 0 -9.3842677989274872 25.510501524555167 0 0 0 0 -84.78753474833502 28.222461647932249 0 28.222461647932249 48.630602815043119 0 0 0 0 -39.278220637990877 10.04580590775444 0 10.04580590775444 0.66970055990911759 0 0 0 0 -5.3390469368213829 -1.8098825587309086 0 -1.8098825587309086 -0.88761116481489366 0 0 0 0 -185.14308883681588 -52.304251321535901 0 -52.304251321535901 47.966397526023684 0 0 0 0 69.115487186012615 19.001275322895253 0 19.001275322895253 3.9692261691803381 0 0 0 0 -27.452575119926408 -2.1249807138117225 0 -2.1249807138117225 1.9192203362653601 0 0 0 0 -35.945334536783776 -11.562390965180896 0 -11.562390965180896 23.71274248862872 0 0 0 0 -115.14548972564626 -2.4868852606745264 0 -2.4868852606745264 88.699088260443233 0 0 0 0 10.255062538381026 -22.106459574163381 0 -22.106459574163381 -12.941731098337641 0 0 0 0 11.103497487147251 -41.719919564717372 0 -41.719919564717372 7.4350702753253017 0 0 0 0 -32.650090820916375 -77.228640475322976 0 -77.228640475322976 102.28779810685268 0 0 0 0 18.451597150314228 -26.449753338961496 0 -26.449753338961496 46.732818273754098 0 0 0 0 -36.667251305510945 -30.28720909698572 0 -30.28720909698572 -31.153355560404179 0 0 0 0 -0.75888806513557938 -99.646038230645502 0 -99.646038230645502 -30.960156017340751 0 0 0 0 34.898370504164632 -61.982700935512526 0 -61.982700935512526 7.6219429812005748 0 0 0 0 85.241454288450768 -53.81079782726772 0 -53.81079782726772 -107.617951399498 0 0 0 0 89.716460575549945 1.390251000583568 0 1.390251000583568 3.3085409157492904 0 0 0 0 -51.427272608965723 -50.53005744184361 0 -50.53005744184361 -24.024955141780936 0 0 0 0 -51.800231775243219 -44.305897842056645 0 -44.305897842056645 -104.25244490015893 0 0 0 0 -24.876211616283399 58.329080664557978 0 58.329080664557978 -66.798871967499679 0 0 0 0 -23.657400894234428 -43.378936751989528 0 -43.378936751989528 -297.68755089906517 0 0 0 0 99.773089448397513 -40.204623077972457 0 -40.204623077972457 -2.8119690445596461 0 0 0 0 144.967729426593 67.787286343559572 0 67.787286343559572 -90.174486336535892 0 0 0 0 -9.8285492957978491 14.173883430865999 0 14.173883430865999 -10.977072890707689 0 0 0 0 28.644437977209236 31.454931917459703 0 31.454931917459703 -33.034693376318273 0 0 0 0 -56.260441381504279 -86.825952581787021 0 -86.825952581787021 -24.589466412046704 0 0 0 0 -33.573777159585916 -40.09157394403239 0 -40.09157394403239 -39.784174399234416 0 0 0 0 -75.06969194454723 -75.510123191503112 0 -75.510123191503112 -60.720137125646033 0 0 0 0 -143.1986643565906 -60.254860490426495 0 -60.254860490426495 -12.035374799629608 0 0 0 0 -169.17028331853362 104.88020395262924 0 104.88020395262924 6.5236200980730246 0 0 0 0 -0.73017450854661092 -4.6375838044267814 0 -4.6375838044267814 -2.4199451956910041 0 0 0 0 -92.250126275801449 47.592538140067518 0 47.592538140067518 -42.413161716119923 0 0 0 0 -162.93196516557509 10.81037311392015 0 10.81037311392015 15.641164263011454 0 0 0 0 -5.8989965261804018 -0.72947630262004992 0 -0.72947630262004992 -0.94224584438292602 0 0 0 0 -153.99495067751923 21.228938310883336 0 21.228938310883336 15.131260135338835 0 0 0 0 -67.459111921445583 28.994574397264955 0 28.994574397264955 -32.537853285032952 0 0 0 0 -0.4153200748625796 0.56484990504148413 0 0.56484990504148413 -0.24126359909558204 0 0 0 0 -68.285229791392339 -11.285029064196124 0 -11.285029064196124 -22.192447056909828 0 0 0 0 -64.26683463385416 5.1787089017023149 0 5.1787089017023149 2.1802938970602099 0 0 0 0 -48.662442748396359 9.5987185129608719 0 9.5987185129608719 0.93298822596329956 0 0 0 0 -48.40732684267789 3.0283612058465295 0 3.0283612058465295 -11.920282841670996 0 0 0 0 -67.176805865907227 10.26702985657198 0 10.26702985657198 -13.637334995235278 0 0 0 0 -50.107398565547555 -0.2440662668824416 0 -0.2440662668824416 -18.338018033573917 0 0 0 0 -20.140188274803222 -1.6966861580162913 0 -1.6966861580162913 -32.799897759361329 0 0 0 0 -48.996540529018603 1.9109461838668267 0 1.9109461838668267 -14.157672658634965 0 0 0 0 -67.48051219341869 -7.7086684354751469 0 -7.7086684354751469 -14.313818088219616 0 0 0 0 -61.750393804035411 -51.778946853310799 0 -51.778946853310799 -62.000505524777509 0 0 0 0 -61.72820326357396 -9.4438867205881252 0 -9.4438867205881252 -27.146550417400249 0 0 0 0 -139.64183177318046 3.9622801388393327 0 3.9622801388393327 -29.207378776089968 0 0 0 0 -16.532458497498737 -18.586586960887303 0 -18.586586960887303 -47.369008747393309 0 0 0 0 -18.70793935198526 -15.328030605763161 0 -15.328030605763161 -51.24773597196679 0 0 0 0 -42.654948458766739 -20.720180781899899 0 -20.720180781899899 -48.752629120174788 0 0 0 0 25.290526769869757 14.696413426570075 0 14.696413426570075 -33.876521472120203 0 0 0 0 10.611519620062609 -18.787011742203504 0 -18.787011742203504 -84.851451440049004 0 0 0 0 -18.46305269366918 16.797344228734026 0 16.797344228734026 -15.817903596547302 0 0 0 0 -0.39855360054737332 -0.068980367739030157 0 -0.068980367739030157 0.13475058614121238 0 0 0 0 -40.223473150799691 59.996312389145714 0 59.996312389145714 -18.311301745467745 0 0 0 0 -2.733833852049429 13.981110307126755 0 13.981110307126755 -13.847999533793029 0 0 0 0 -84.457472643396613 9.5428330726527975 0 9.5428330726527975 -11.542324253977313 0 0 0 0 12.04906033943189 59.204158182998981 0 59.204158182998981 -26.36991740041276 0 0 0 0 -11.609364827651998 17.32186359112162 0 17.32186359112162 -16.265102639522453 0 0 0 0 -3.4595268352713902 88.476416013174457 0 88.476416013174457 38.910358342594009 0 0 0 0 -69.655007481567736 15.984022679542818 0 15.984022679542818 67.576795680761279 0 0 0 0 -46.005873084222912 -4.3307298086036781 0 -4.3307298086036781 -3.903946629483471 0 0 0 0 4.1428746727215184 14.343776098889521 0 14.343776098889521 -16.568896038064622 0 0 0 0 -11.856478635770472 16.336032379021219 0 16.336032379021219 -14.397448428376608 0 0 0 0 122.02447358479913 188.70887845012487 0 188.70887845012487 -83.374655643898677 0 0 0 0 -86.042901905362669 43.891230605769124 0 43.891230605769124 25.529961065356247 0 0 0 0 -379.93138983177778 141.98824095019586 0 141.98824095019586 -3.8582053765890123 0 0 0 0 -228.58275495861744 -110.66712692790952 0 -110.66712692790952 29.705739920015731 0 0 0 0 -8.6451489592275781 -31.311055793446734 0 -31.311055793446734 8.1426087856880898 0 0 0 0 224.58983344544322 31.0048103414777 0 31.0048103414777 -105.24704851959905 0 0 0 0 -82.031709838216557 -83.793629298231053 0 -83.793629298231053 22.403776125871673 0 0 0 0 -190.96804780211096 -19.986907291694592 0 -19.986907291694592 52.338811314077248 0 0 0 0 -74.056599864470627 2.5198287898666649 0 2.5198287898666649 12.797088585100028 0 0 0 0 -96.643836530707631 22.84895151469641 0 22.84895151469641 42.50769635595276 0 0 0 0 -15.62426084906474 -63.054992821008298 0 -63.054992821008298 -20.390651014455386 0 0 0 0 -134.33008409355534 -0.35032954067401079 0 -0.35032954067401079 29.200428394231267 0 0 0 0 -16.649352529476825 -28.630790376709719 0 -28.630790376709719 9.2226266875748948 0 0 0 0 -142.94440893809951 63.636993261340251 0 63.636993261340251 91.694202087492414 0 0 0 0 8.8364182734600831 -4.3612513156866939 0 -4.3612513156866939 -1.1956208525902166 0 0 0 0 -198.5940072800222 4.1261336173063796 0 4.1261336173063796 38.60051618536005 0 0 0 0 -69.759847750334302 -11.670392139875958 0 -11.670392139875958 31.538016875201833 0 0 0 0 -7.1401483315389314 0.58511902184035591 0 0.58511902184035591 0.12367282511725231 0 0 0 0 -17.698543518359656 -79.460780530457839 0 -79.460780530457839 106.79138293183178 0 0 0 0 -38.544985517888563 7.5888126761446983 0 7.5888126761446983 16.675286701868686 0 0 0 0 -39.031885315979864 -20.154422309384874 0 -20.154422309384874 6.5503293746831259 0 0 0 0 -16.312851152882104 -44.966754363687244 0 -44.966754363687244 35.551327907120822 0 0 0 0 -64.815809005074698 18.387357090985006 0 18.387357090985006 -14.284397055257855 0 0 0 0 -62.881083687443606 27.829049563927811 0 27.829049563927811 -0.34045464747441656 0 0 0 0 -78.28926401904755 11.689882529642546 0 11.689882529642546 19.320383118124937 0 0 0 0 -83.388973465087474 -3.7356804472574368 0 -3.7356804472574368 -12.411131290703452 0 0 0 0 -149.26424389538442 21.481022904071835 0 21.481022904071835 27.099570289786016 0 0 0 0 -195.21399967018078 -2.1589993207557825 0 -2.1589993207557825 49.375755826282244 0 0 0 0 -233.59985702994163 -5.8153777979199504 0 -5.8153777979199504 44.22555099481724 0 0 0 0 -227.57869489947916 -38.990999095536438 0 -38.990999095536438 57.101149907304716 0 0 0 0 -203.59302737840335 -31.68000028499462 0 -31.68000028499462 19.388920533303121 0 0 0 0 -197.41504730154998 -45.402347987504115 0 -45.402347987504115 41.252471349074995 0 0 0 0 -185.60989378394879 -11.380301217664169 0 -11.380301217664169 41.505535426116225 0 0 0 0 -173.75211701149237 14.636948796380963 0 14.636948796380963 13.917173952382301 0 0 0 0 -191.1148604946211 -4.5584440445748271 0 -4.5584440445748271 84.987822205210449 0 0 0 0 -135.71525593901538 -22.434524587774337 0 -22.434524587774337 52.993484762090262 0 0 0 0 -185.77897778919578 5.5322041090554848 0 5.5322041090554848 49.755486479099574 0 0 0 0 -213.59067431485164 -59.909228956028187 0 -59.909228956028187 34.961102985785374 0 0 0 0 -222.81428921879706 24.018656339133486 0 24.018656339133486 131.23011114425319 0 0 0 0 -215.2345314495833 -4.1240313249671772 0 -4.1240313249671772 87.041976378384163 0 0 0 0 -212.20605664408095 -31.423189370377123 0 -31.423189370377123 124.86831332371338 0 0 0 0 -437.34837773354229 -122.61507497021131 0 -122.61507497021131 89.300645994351669 0 0 0 0 -214.91184567795426 602.15499681673623 0 602.15499681673623 -341.01863865843438 0 0 0 0 -755.92835255593673 -279.03673224170115 0 -279.03673224170115 290.27925114396987 0 0 0 0 -32.445651300698955 -59.3253723016457 0 -59.3253723016457 -26.021587677628247 0 0 0 0 -7.1869284843752581 -1.9202436506100806 0 -1.9202436506100806 -0.52714672696838749 0 0 0 0 -182.40045748349803 233.40018112425071 0 233.40018112425071 -232.1257204297757 0 0 0 0 -156.40040967709865 -140.58141421604 0 -140.58141421604 -55.867266627606114 0 0 0 0 -76.815874205801265 50.87831456272842 0 50.87831456272842 -33.128223932939591 0 0 0 0 -121.27987345417205 64.530431084592635 0 64.530431084592635 8.9268559128626066 0 0 0 0 -95.335222118144884 36.365447215589711 0 36.365447215589711 39.356050579218845 0 0 0 0 -94.555413003723515 69.427054619027558 0 69.427054619027558 -171.69685980814472 0 0 0 0 -174.17893723774614 -61.946563654290912 0 -61.946563654290912 110.10733389775419 0 0 0 0 -57.952420565995467 -14.402158315524627 0 -14.402158315524627 13.321871669653731 0 0 0 0 -29.174276999125141 55.509186517519993 0 55.509186517519993 -352.90541786307313 0 0 0 0 -226.48693723900124 221.85352032278558 0 221.85352032278558 -300.92009529358074 0 0 0 0 -10.566610579719494 0.44791580771443051 0 0.44791580771443051 -0.35070056340293299 0 0 0 0 61.816220204842466 -115.41508861592102 0 -115.41508861592102 9.6133686492248671 0 0 0 0 -20.332708740089075 -29.200526106621929 0 -29.200526106621929 13.353168207460952 0 0 0 0 11.250786092551607 -44.954398634523386 0 -44.954398634523386 -75.347976621142379 0 0 0 0 -1.1578163105581467 -4.416619579229625 0 -4.416619579229625 0.31383178516072263 0 0 0 0 -321.24263282454194 -34.76195930273434 0 -34.76195930273434 -76.528502765994517 0 0 0 0 -382.85667487683349 138.89869866331466 0 138.89869866331466 -88.154907058524259 0 0 0 0 -145.82341893584089 67.654708616357993 0 67.654708616357993 -141.67522082642358 0 0 0 0 -170.98285628586746 -42.737218015595317 0 -42.737218015595317 -28.141235285530911 0 0 0 0 -233.8329442484428 236.12159725039214 0 236.12159725039214 -257.61801181506416 0 0 0 0 -152.1750188156293 76.214486151662868 0 76.214486151662868 -223.8312022665703 0 0 0 0 -189.63324777689559 159.77213060675649 0 159.77213060675649 -200.37205062260318 0 0 0 0 -143.61742741947091 91.221655681868242 0 91.221655681868242 -300.70723315961089 0 0 0 0 -208.66134850729213 124.38888801980659 0 124.38888801980659 -79.04135870719756 0 0 0 0 -112.47449690812937 121.66215884047563 0 121.66215884047563 -175.19703517401615 0 0 0 0 -50.439681289703003 27.76782015680083 0 27.76782015680083 -63.500428266269083 0 0 0 0 -98.858661666803528 -70.186961340195253 0 -70.186961340195253 31.232984340396651 0 0 0 0 -169.03530040608712 26.1600814401896 0 26.1600814401896 -54.421428701965624 0 0 0 0 -94.776575883781334 -59.860742582929966 0 -59.860742582929966 209.63270349769155 0 0 0 0 26.032355994950194 -15.002277681100793 0 -15.002277681100793 42.082863376538057 0 0 0 0 -130.03874012561755 -8.0312867564649935 0 -8.0312867564649935 60.805253188123913 0 0 0 0 -53.25102773188155 101.01469382911245 0 101.01469382911245 -32.984685139347874 0 0 0 0 -28.820534830408178 85.317081808488709 0 85.317081808488709 -34.694171300751805 0 0 0 0 -66.341153094046604 -7.4813025927129271 0 -7.4813025927129271 71.360540091104411 0 0 0 0 -93.647205181143818 132.40499377434719 0 132.40499377434719 -49.51778747352995 0 0 0 0 -65.882745549890387 102.59195661779621 0 102.59195661779621 -25.391205855816338 0 0 0 0 -145.5795642219091 104.225355137089 0 104.225355137089 -64.4257116495628 0 0 0 0 -113.87196499435959 127.84694052933128 0 127.84694052933128 -44.099360667937248 0 0 0 0 -86.989612772395049 68.660227727310541 0 68.660227727310541 -30.731626917011795 0 0 0 0 -67.521494209572836 -3.0615300591144372 0 -3.0615300591144372 13.166671167331472 0 0 0 0 -118.48471699365518 124.30878468293369 0 124.30878468293369 -104.00336034013844 0 0 0 0 -90.277794818148323 136.90917730408856 0 136.90917730408856 -143.90984307994859 0 0 0 0 -245.39349455682532 158.23985891475672 0 158.23985891475672 -111.1233417836562 0 0 0 0 -131.4780079920929 57.723771107652396 0 57.723771107652396 -56.893741909254913 0 0 0 0 -119.76655194590421 112.28338560939869 0 112.28338560939869 -190.03590300527833 0 0 0 0 -137.40274869362838 134.81097327046859 0 134.81097327046859 -123.08108683388264 0 0 0 0 -152.18873254229766 163.25791588549191 0 163.25791588549191 -175.97690124162659 0 0 0 0 -204.64457943943489 76.263646091394321 0 76.263646091394321 -124.19238525659125 0 0 0 0 -82.580747188752866 138.89461246928539 0 138.89461246928539 -123.2870937258765 0 0 0 0 38.403446464426452 83.402081577357421 0 83.402081577357421 -28.503072951493728 0 0 0 0 115.60334585197415 209.34390458190833 0 209.34390458190833 44.676585175482955 0 0 0 0 -65.024716815365537 123.22985301118672 0 123.22985301118672 3.9862092212983953 0 0 0 0 -40.107389749538925 36.237186336761965 0 36.237186336761965 -23.737935471122967 0 0 0 0 -1.1872576773125658 9.8417200404612295 0 9.8417200404612295 0.22156969699180007 0 0 0 0 -90.647622683161899 256.16931801351876 0 256.16931801351876 -152.34164197624841 0 0 0 0 -13.738221448588128 3.1457115414701313 0 3.1457115414701313 7.6350316629464086 0 0 0 0 -135.23771692812716 136.73722566927171 0 136.73722566927171 294.04274757209924 0 0 0 0 -71.922967320254429 165.66491684628059 0 165.66491684628059 -81.634699894284495 0 0 0 0 -80.37711357849048 171.66414720086993 0 171.66414720086993 -73.847657133610483 0 0 0 0 -191.92503069677332 615.1863211595263 0 615.1863211595263 -73.388845484908799 0 0 0 0 -36.516622787050437 547.35635382844316 0 547.35635382844316 -125.01123562972919 0 0 0 0 -177.97117098827948 -390.42669229531157 0 -390.42669229531157 -212.15733432817069 0 0 0 0 -242.68920949035783 79.035281342767178 0 79.035281342767178 502.15405366348233 0 0 0 0 -335.65345321746645 -66.286932478190408 0 -66.286932478190408 -145.65522749286373 0 0 0 0 -273.59622571376167 -110.74790212451677 0 -110.74790212451677 -113.80209537916625 0 0 0 0 -400.77569605035387 -103.73081501465634 0 -103.73081501465634 -48.593208437415512 0 0 0 0 -223.06495896925674 -78.018295271675939 0 -78.018295271675939 -134.52270724218067 0 0 0 0 -198.48704548679052 66.727559100627957 0 66.727559100627957 71.943729676860357 0 0 0 0 -233.38025176238961 99.260560818718247 0 99.260560818718247 167.77271691034252 0 0 0 0 -82.088569479965372 98.6099166707736 0 98.6099166707736 37.789578025736319 0 0 0 0 -72.508967582324203 97.519990417174256 0 97.519990417174256 70.044757425161151 0 0 0 0 -50.55703814613662 91.777001462445241 0 91.777001462445241 36.861680213454378 0 0 0 0 -91.829694758771666 -16.715141524813319 0 -16.715141524813319 126.48606167333764 0 0 0 0 -143.45989862351416 80.344682243273837 0 80.344682243273837 370.40289623582947 0 0 0 0 -2.3058494086617429 -83.263346930007714 0 -83.263346930007714 55.599164335259388 0 0 0 0 -55.713289562260236 -11.97347562983358 0 -11.97347562983358 -2.0631611325655985 0 0 0 0 -86.258152276486726 55.239653779743321 0 55.239653779743321 127.47652149352393 0 0 0 0 -61.510280807972087 -4.7828470128356297 0 -4.7828470128356297 0.51194682042238926 0 0 0 0 -44.37761629158851 26.532247654781486 0 26.532247654781486 1.1298482186482079 0 0 0 0 -84.364983365494481 24.941742077985964 0 24.941742077985964 42.761393965926345 0 0 0 0 -49.759233028603603 82.918224541999834 0 82.918224541999834 14.715351610947437 0 0 0 0 9.3911846139089903 95.271512151827096 0 95.271512151827096 10.981289257005642 0 0 0 0 -41.760645116423468 36.085588799768026 0 36.085588799768026 -6.6870013921319389 0 0 0 0 -87.150221097941539 45.203095416974065 0 45.203095416974065 5.2185609979824221 0 0 0 0 -38.032934020677203 53.745944150683727 0 53.745944150683727 -31.738259889893868 0 0 0 0 -73.470989997233573 34.335491202382343 0 34.335491202382343 3.0786825410468737 0 0 0 0 -24.650830166680421 4.0692653971792545 0 4.0692653971792545 0.95751357512915258 0 0 0 0 -34.731685584382262 31.304577796316551 0 31.304577796316551 22.573965437797938 0 0 0 0 -58.801204414754466 25.16684743924128 0 25.16684743924128 49.877734458071345 0 0 0 0 -55.049162517479999 20.950768898704155 0 20.950768898704155 23.795865263569283 0 0 0 0 -28.332434845699268 11.971479870412622 0 11.971479870412622 3.5633451359202648 0 0 0 0 -58.837919096191399 28.019800513776215 0 28.019800513776215 22.294167711742773 0 0 0 0 -61.780847797825118 5.0212192061803265 0 5.0212192061803265 -0.013742184295008286 0 0 0 0 -133.27348404451163 20.459899304784109 0 20.459899304784109 29.892221354700332 0 0 0 0 -80.344845726878702 30.88457756279206 0 30.88457756279206 22.35018143198667 0 0 0 0 -74.373074280461879 24.780377179704374 0 24.780377179704374 14.154402360210938 0 0 0 0 -26.329204387537175 33.424827324225845 0 33.424827324225845 8.4955532798212658 0 0 0 0 -27.020169063587673 52.049234262006706 0 52.049234262006706 -4.1774142543969788 0 0 0 0 -156.38509398252791 42.223521205283504 0 42.223521205283504 30.512671218445405 0 0 0 0 -50.102871272171939 1.6504887897925609 0 1.6504887897925609 -10.109701982148181 0 0 0 0 -50.341552674464765 3.2127580412710586 0 3.2127580412710586 -4.2599012133950964 0 0 0 0 -1.316735436746967 12.816823946033992 0 12.816823946033992 2.3895410371821129 0 0 0 0 12.598529583505297 27.073421390092108 0 27.073421390092108 -2.6442976809354395 0 0 0 0 -8.7253469927005742 -0.34768156339247014 0 -0.34768156339247014 -0.021157629637525766 0 0 0 0 -16.322190030600673 8.2447458908610827 0 8.2447458908610827 3.0352291267666858 0 0 0 0 -11.946922279655325 8.2987775524374499 0 8.2987775524374499 0.76193853052963245 0 0 0 0 -9.1387715082890111 4.9443295721478542 0 4.9443295721478542 2.8315639054271742 0 0 0 0 -44.984918571368326 0.66665782476957247 0 0.66665782476957247 -7.349548348942335 0 0 0 0 14.50181194833749 18.246329281931366 0 18.246329281931366 -12.481250028929821 0 0 0 0 29.106671158224344 47.336394679574994 0 47.336394679574994 -5.1847039971095512 0 0 0 0 -22.875864934940182 43.408165207244551 0 43.408165207244551 11.631540253634498 0 0 0 0 10.314681167696108 23.938470820080369 0 23.938470820080369 2.5266373705733827 0 0 0 0 -51.251530801308022 -1.5303472692979003 0 -1.5303472692979003 -10.566189721886531 0 0 0 0 -16.806768730249814 15.611554234858708 0 15.611554234858708 3.2651908946359502 0 0 0 0 -46.387412073156156 0.59129529476274456 0 0.59129529476274456 -3.6335003760558209 0 0 0 0 -55.095946192981501 -3.3299897860002829 0 -3.3299897860002829 -3.9837011210654509 0 0 0 0 -55.331030719425712 7.0367192323181129 0 7.0367192323181129 0.38753481029311843 0 0 0 0 -44.244571215973338 8.95681984589379 0 8.95681984589379 -2.2522053281738863 0 0 0 0 -39.458452821279934 -1.6284801611358262 0 -1.6284801611358262 -4.8368637043706144 0 0 0 0 -42.193800833190835 2.8016136555861806 0 2.8016136555861806 -10.546512767779518 0 0 0 0 -17.282095007197469 15.112232454080043 0 15.112232454080043 3.0890470835370158 0 0 0 0 -45.86039974409141 -0.017864613915577365 0 -0.017864613915577365 -5.166301064711206 0 0 0 0 -45.57171633425969 -1.7423831518082693 0 -1.7423831518082693 -4.150908191133226 0 0 0 0 -45.901730913981737 -0.18374029960364169 0 -0.18374029960364169 2.3043157804593335 0 0 0 0 -43.272569334998479 -8.206400967216247 0 -8.206400967216247 -6.0984697375314454 0 0 0 0 -24.317971219283208 -1.2747089154363493 0 -1.2747089154363493 -9.6180916556768921 0 0 0 0 -66.440148633870194 49.596179107822493 0 49.596179107822493 -35.375356922475135 0 0 0 0 220.1161169653933 -179.48862238084433 0 -179.48862238084433 -139.55095544002322 0 0 0 0 0.11255540263706365 -0.13382282486464447 0 -0.13382282486464447 -2.0434902914635646 0 0 0 0 -175.68430449657899 -143.08890604782727 0 -143.08890604782727 -67.772637036145426 0 0 0 0 -201.02954187560317 -156.06663870557458 0 -156.06663870557458 103.56208428510979 0 0 0 0 -294.21235360535502 149.75428466810797 0 149.75428466810797 -193.02849537597729 0 0 0 0 -897.56671486391861 -116.20019470328575 0 -116.20019470328575 87.941037780261979 0 0 0 0 1.2011915775638222 0.756176883983251 0 0.756176883983251 -4.1379871829766648 0 0 0 0 259.79391062949435 71.406419417114364 0 71.406419417114364 -174.37643411894976 0 0 0 0 -38.528914674894622 6.0499850354486853 0 6.0499850354486853 -7.7395039635912326 0 0 0 0 -123.51768771353818 -6.9913781805373896 0 -6.9913781805373896 -20.054257058254176 0 0 0 0 10.91410225245636 158.92503756107169 0 158.92503756107169 -33.9324478204679 0 0 0 0 -163.53338714328493 -169.6865246741564 0 -169.6865246741564 -340.0212818129944 0 0 0 0 -128.17694160697829 134.2136412154826 0 134.2136412154826 -116.70355641724473 0 0 0 0 -151.42263613782779 126.47089916747179 0 126.47089916747179 120.17892589008 0 0 0 0 -22.509719037264475 -3.5858240635803336 0 -3.5858240635803336 -1.3032187111351563 0 0 0 0 -5.357282330569987 1.9285637006170191 0 1.9285637006170191 -2.5790682965884564 0 0 0 0 105.51101226130413 74.458094286419794 0 74.458094286419794 35.01576916145757 0 0 0 0 -44.432522828858055 63.339402624508466 0 63.339402624508466 157.42506878915162 0 0 0 0 -2500.743623830218 -303.97130749894023 0 -303.97130749894023 -470.28160583238667 0 0 0 0 -2234.7657058819095 -655.3262926724824 0 -655.3262926724824 -130.36743634766839 0 0 0 0 -844.43088943454859 -770.7542625352346 0 -770.7542625352346 -353.33560581737731 0 0 0 0 -1494.6273629435454 366.59954285357321 0 366.59954285357321 61.205375653021889 0 0 0 0 -10.267341889571085 -2.3936430179954327 0 -2.3936430179954327 -0.5263332749722992 0 0 0 0 -2434.4445799965306 -53.048966026574654 0 -53.048966026574654 430.32374458904258 0 0 0 0 -2334.9570074722287 -284.42952730631271 0 -284.42952730631271 370.98597551306329 0 0 0 0 -2498.9640767371584 166.36957973379569 0 166.36957973379569 562.07894897545873 0 0 0 0 -1975.1979379975173 22.114808671636144 0 22.114808671636144 371.27018248937975 0 0 0 0 -1904.4528837099242 -376.18291244970021 0 -376.18291244970021 388.70956505923476 0 0 0 0 -982.75759043844664 153.15274732156325 0 153.15274732156325 78.9042708752973 0 0 0 0 -1693.1818321396968 150.54480663476451 0 150.54480663476451 214.98131631009119 0 0 0 0 -1728.4695991750814 468.8272743826484 0 468.8272743826484 159.08210786859848 0 0 0 0 -2863.6209192134447 686.89264765499775 0 686.89264765499775 230.4114242429026 0 0 0 0 -1689.9646038928804 1039.2854064560584 0 1039.2854064560584 -651.2868191036207 0 0 0 0 -19.789119032199721 -4.2571454536017503 0 -4.2571454536017503 -2.1992873358992653 0 0 0 0 -1194.5606385833271 -1512.4460576689439 0 -1512.4460576689439 -1550.140501101994 0 0 0 0 -2501.7315703779186 -272.14824990107121 0 -272.14824990107121 -2865.1243868130387 0 0 0 0 -3385.0010989917446 -774.98385371349741 0 -774.98385371349741 -559.00617496516384 0 0 0 0 106.92267094828821 -335.80252194846486 0 -335.80252194846486 -666.03201375618141 0 0 0 0 -727.73233574086407 502.81794252102782 0 502.81794252102782 -235.20246239895042 0 0 0 0 367.26049899495047 69.003769146966107 0 69.003769146966107 -308.04779649095713 0 0 0 0 -47.332765427322514 -9.0581531837462386 0 -9.0581531837462386 -1.2680776396555185 0 0 0 0 -372.62255102194467 -147.41450849539461 0 -147.41450849539461 304.54768569426733 0 0 0 0 -80.322077320452081 197.54848488044775 0 197.54848488044775 -1.1012120944319577 0 0 0 0 -57.344560465000541 15.62703305023625 0 15.62703305023625 56.940461868716284 0 0 0 0 310.68312287544541 -61.644413523750586 0 -61.644413523750586 -365.17527983600536 0 0 0 0 122.3728750937953 -106.39249045417159 0 -106.39249045417159 73.006233207201603 0 0 0 0 -238.708247545208 -36.827239663843784 0 -36.827239663843784 61.295774869010529 0 0 0 0 -276.81916723065297 70.47987053721738 0 70.47987053721738 211.72611380513547 0 0 0 0 -319.21440026792334 -244.11718162166244 0 -244.11718162166244 465.70669016484828 0 0 0 0 -116.95584439868253 -251.21058160417556 0 -251.21058160417556 -338.46835044390173 0 0 0 0 -424.96358294807942 -538.83583830332361 0 -538.83583830332361 -325.54427816439647 0 0 0 0 -524.82757097005742 -458.83036581235689 0 -458.83036581235689 -272.0193218395832 0 0 0 0 -198.58272612099609 -210.87162818203288 0 -210.87162818203288 -172.90755260229457 0 0 0 0 -282.44298914736919 -160.25586607521578 0 -160.25586607521578 -196.44034507908236 0 0 0 0 -328.18258520285053 -197.47991947905874 0 -197.47991947905874 -235.33026261503741 0 0 0 0 -531.13349277056477 -364.78449903950394 0 -364.78449903950394 -227.99830253811902 0 0 0 0 -991.49519981745198 -819.32875251997814 0 -819.32875251997814 -393.66835495989159 0 0 0 0 -617.96794493684138 -325.09899011102777 0 -325.09899011102777 -206.30575278900173 0 0 0 0 -1631.4699893865327 -645.85562769842602 0 -645.85562769842602 8.6548011693315132 0 0 0 0 -1696.4989473076221 -783.29971307396579 0 -783.29971307396579 136.07183066185956 0 0 0 0 -1983.3505505528883 -890.88917119435575 0 -890.88917119435575 96.755834961725697 0 0 0 0 -2499.8575485095312 -1421.7271978360266 0 -1421.7271978360266 -230.37553649887897 0 0 0 0 -1235.5665532716393 -1381.0184133361713 0 -1381.0184133361713 -944.92657852908292 0 0 0 0 -3.9778102309605714 -1.7981249511716726 0 -1.7981249511716726 -0.8823985922028218 0 0 0 0 -2500.2263166999583 -46.302067653969978 0 -46.302067653969978 249.22781448051813 0 0 0 0 -1703.4311576237487 -467.32071699072344 0 -467.32071699072344 279.96315872949447 0 0 0 0 -1721.4608912245722 105.80848674900994 0 105.80848674900994 61.67410095712421 0 0 0 0 -126.36237117206474 26.809869180976733 0 26.809869180976733 -279.96697691190252 0 0 0 0 -4.2261008527769093 -4.2384785614764695 0 -4.2384785614764695 -1.4576065457039067 0 0 0 0 -16.177794505962396 -12.146631967370205 0 -12.146631967370205 6.439923200675528 0 0 0 0 -44.695031388575444 -73.590810712069583 0 -73.590810712069583 24.7153521082898 0 0 0 0 -89.903116263933953 34.530657054443857 0 34.530657054443857 -12.598748108473046 0 0 0 0 -83.831892130452616 12.438700208020496 0 12.438700208020496 -15.89285791043136 0 0 0 0 -19.235000028986974 -14.191904049719973 0 -14.191904049719973 1.7343164578160055 0 0 0 0 -71.97009484469163 78.080068477474953 0 78.080068477474953 -14.357591501171779 0 0 0 0 5.9282463252529851 -94.175490299947583 0 -94.175490299947583 -105.22391252141006 0 0 0 0 -20.376961309169047 -16.295451403430974 0 -16.295451403430974 -2.4483624049424302 0 0 0 0 -60.1596566336666 3.6923170796437716 0 3.6923170796437716 7.1381924807089945 0 0 0 0 -108.08658494861083 -7.5872076901180492 0 -7.5872076901180492 -6.183824345427638 0 0 0 0 -84.155692483043822 26.674510588214844 0 26.674510588214844 -14.542050657083941 0 0 0 0 -97.221139747030975 22.16801632604114 0 22.16801632604114 -11.347557679179999 0 0 0 0 -84.049500180879477 11.127594927621288 0 11.127594927621288 -2.59477827672481 0 0 0 0 -88.12865843615873 26.053299136557598 0 26.053299136557598 12.850630474484205 0 0 0 0 -39.70365408451471 56.110139780465033 0 56.110139780465033 11.462841677668621 0 0 0 0 -66.546624181639345 23.890516678445692 0 23.890516678445692 -13.886490761904497 0 0 0 0 -81.437439712026389 28.774082557839165 0 28.774082557839165 1.2861632489079966 0 0 0 0 -101.15284932919894 7.2831291843795043 0 7.2831291843795043 -0.282746038355981 0 0 0 0 -63.118246124205825 -38.178033089676561 0 -38.178033089676561 122.64653175903004 0 0 0 0 -75.333478779255529 47.04429750687018 0 47.04429750687018 47.247119134134209 0 0 0 0 -38.594145421466237 65.781262374311382 0 65.781262374311382 -30.611985760358948 0 0 0 0 -32.716992644927814 84.925578120923319 0 84.925578120923319 9.6719740822290987 0 0 0 0 -45.513374295565882 156.98111659458391 0 156.98111659458391 -66.775919207856987 0 0 0 0 -308.60188913941965 184.51083590675398 0 184.51083590675398 252.35348040312272 0 0 0 0 -1513.7073243080558 629.77720302060129 0 629.77720302060129 4.3502940611666361 0 0 0 0 -947.28543643654848 -231.32274343942453 0 -231.32274343942453 -9.9623591587644675 0 0 0 0 -1845.8858259703047 149.81996671351237 0 149.81996671351237 267.53801939694097 0 0 0 0 -2499.2895273890099 571.98803784576137 0 571.98803784576137 311.33958518386021 0 0 0 0 -1830.4041263351464 832.41359054330246 0 832.41359054330246 -227.56380486343747 0 0 0 0 -294.23207989401453 -31.688896613296151 0 -31.688896613296151 343.49354530713208 0 0 0 0 -17.629701946755034 -13.537731631082863 0 -13.537731631082863 -3.8705898576268929 0 0 0 0 -1740.1956480295121 450.56591276628001 0 450.56591276628001 31.472660713393502 0 0 0 0 191.38863755187958 -166.40111743608736 0 -166.40111743608736 -281.97453658249947 0 0 0 0 -158.18581888751214 188.19878292055881 0 188.19878292055881 197.2518078426989 0 0 0 0 -170.83506779563322 89.623887287702843 0 89.623887287702843 -48.715956330606701 0 0 0 0 -8.325097133000483 -4.6198083627637061 0 -4.6198083627637061 -2.0332216641577996 0 0 0 0 -2499.0284066089371 1221.7619134310744 0 1221.7619134310744 -454.26743515499652 0 0 0 0 210.81630559178302 -530.23470579490538 0 -530.23470579490538 -148.42500760822065 0 0 0 0 -1045.7061984130341 -903.57256073881979 0 -903.57256073881979 -255.19499146631168 0 0 0 0 -792.5672084341677 154.93795127901302 0 154.93795127901302 18.076769090203328 0 0 0 0 -64.707131195253169 167.94887690939333 0 167.94887690939333 -362.96668963495227 0 0 0 0 -2495.460591252609 -508.1277753141984 0 -508.1277753141984 355.53445961294466 0 0 0 0 12.245488397609734 -51.639079238354697 0 -51.639079238354697 35.556853510412282 0 0 0 0 -7.632688095202262 6.0675730524754456 0 6.0675730524754456 -10.128673907137935 0 0 0 0 65.254845893339734 -23.59197762090411 0 -23.59197762090411 0.32942597173710858 0 0 0 0 -7.7042275597341359 4.3360179127361533 0 4.3360179127361533 -10.166222735489372 0 0 0 0 -6.0348764685695642 -81.621198868462983 0 -81.621198868462983 -3.1796864875762054 0 0 0 0 -14.719600310017995 177.44244760752878 0 177.44244760752878 -110.44667014264598 0 0 0 0 50.545767295719997 -63.11158958264437 0 -63.11158958264437 -89.940550658103504 0 0 0 0 -47.223922091739951 31.386980096821617 0 31.386980096821617 23.194994698292476 0 0 0 0 -41.79800555716065 -15.396609464038306 0 -15.396609464038306 -14.250748905811179 0 0 0 0 -2.6500234692021181 4.8322825083933836 0 4.8322825083933836 -7.233394547152618 0 0 0 0 -35.154816291178577 3.7923224159239908 0 3.7923224159239908 39.139070190349344 0 0 0 0 21.648801437950169 61.016223999440172 0 61.016223999440172 29.885838460968444 0 0 0 0 -169.64215329579019 67.869969678339274 0 67.869969678339274 97.719044824450521 0 0 0 0 -1.3137832460036378 1.7875430511992576 0 1.7875430511992576 -2.5149831356480217 0 0 0 0 -303.68441042238646 -79.408403352729422 0 -79.408403352729422 111.58874102045047 0 0 0 0 86.741825778578914 27.004232158089245 0 27.004232158089245 -41.004716724844002 0 0 0 0 82.287889336657827 113.54587066008867 0 113.54587066008867 -55.746788007204486 0 0 0 0 6.5969359412265476 56.676545919444379 0 56.676545919444379 -38.989725817218869 0 0 0 0 -68.605581672474443 34.945583293950754 0 34.945583293950754 13.083186464652499 0 0 0 0 -67.699854482023511 -4.2661511648757369 0 -4.2661511648757369 -3.5382302164628072 0 0 0 0 32.397188573107996 -11.35986322962026 0 -11.35986322962026 0.47978929834062001 0 0 0 0 -37.391009286235203 20.434879645538558 0 20.434879645538558 -3.3077569090592078 0 0 0 0 -17.347949893483019 14.750454310034456 0 14.750454310034456 -19.297438895185223 0 0 0 0 -41.440513381850906 27.410219331526605 0 27.410219331526605 -13.462199233471438 0 0 0 0 -37.033245591035666 15.613070829350633 0 15.613070829350633 -12.883622829494925 0 0 0 0 -74.694589740916854 1.6033986221214036 0 1.6033986221214036 -12.313405148948732 0 0 0 0 -69.416360622446518 1.930263625569296 0 1.930263625569296 -20.96062971471838 0 0 0 0 -91.333228863149998 12.409799151788093 0 12.409799151788093 -0.22244455651889439 0 0 0 0 -113.65564408934733 -5.2955918477989599 0 -5.2955918477989599 5.3375911616003577 0 0 0 0 -112.23776865466789 -24.625048399240768 0 -24.625048399240768 -9.5828733780640505 0 0 0 0 7.1343408409338736 -21.329577045392284 0 -21.329577045392284 -25.242981668064147 0 0 0 0 -68.706554168868081 23.483434756049881 0 23.483434756049881 -22.996237679062688 0 0 0 0 -81.771428669424495 -17.964584823502378 0 -17.964584823502378 -36.365255767152121 0 0 0 0 -38.680513845039968 -36.485691563643428 0 -36.485691563643428 9.8446114165126275 0 0 0 0 3.8880964663730992 27.723315967868899 0 27.723315967868899 -3.4490220053481835 0 0 0 0 -18.810949111124501 23.601360027289843 0 23.601360027289843 13.982590795474721 0 0 0 0 -0.66038179301978062 0.20258537345159766 0 0.20258537345159766 5.1117367303125185 0 0 0 0 -0.12515454069536208 0.86987151122701789 0 0.86987151122701789 1.052646088867645 0 0 0 0 -103.3751615000001 16.91906717813481 0 16.91906717813481 42.4280923604083 0 0 0 0 72.134390568237905 -12.308848674097604 0 -12.308848674097604 -18.795589550850082 0 0 0 0 23.326704338855052 45.35808501626795 0 45.35808501626795 -9.4687670427133099 0 0 0 0 -0.32805315048148032 2.4618950024132555 0 2.4618950024132555 0.41866105788796049 0 0 0 0 -1.6981689555119885 4.7335060765541925 0 4.7335060765541925 2.8375639726627169 0 0 0 0 -25.133007874306003 7.3129388180421575 0 7.3129388180421575 1.6032649804092216 0 0 0 0 21.013376217921177 31.021534409557319 0 31.021534409557319 28.434613607803442 0 0 0 0 -6.1548174360353904 -0.22213353470539232 0 -0.22213353470539232 6.3584273730732672 0 0 0 0 -5.6389325760352023 9.6262549304658585 0 9.6262549304658585 5.811422904231927 0 0 0 0 -38.367538035402049 -1.558207280082982 0 -1.558207280082982 -7.2148760440574584 0 0 0 0 -162.10539891164808 51.286082797317476 0 51.286082797317476 4.7841216416614998 0 0 0 0 -84.69229569468007 31.090855972291592 0 31.090855972291592 -4.1793400440514574 0 0 0 0 -76.702752223962307 61.905172971574643 0 61.905172971574643 32.041955914374967 0 0 0 0 12.653083252826036 -0.70345965661067567 0 -0.70345965661067567 -24.311429161121396 0 0 0 0 -65.361616495712951 44.512650725044466 0 44.512650725044466 -30.551440430894445 0 0 0 0 -75.624709145347879 7.2523892100400218 0 7.2523892100400218 -82.330115302848299 0 0 0 0 -147.44709895436972 20.955414689857889 0 20.955414689857889 -40.607819943555114 0 0 0 0 -92.767894059208629 -12.806836921028037 0 -12.806836921028037 -92.79263363842324 0 0 0 0 -28.18271402688697 -27.173985628727451 0 -27.173985628727451 -32.645072185043126 0 0 0 0 -83.691027325016876 20.407697107623903 0 20.407697107623903 -39.970965623355028 0 0 0 0 -35.889512661342451 -16.036871953679082 0 -16.036871953679082 -22.268014348194811 0 0 0 0 -154.28770272074325 -51.880350421375226 0 -51.880350421375226 -44.25390374241374 0 0 0 0 -131.96196360887552 -20.128860294167907 0 -20.128860294167907 -8.1216197209918448 0 0 0 0 -141.63241312691434 -17.2642237492012 0 -17.2642237492012 14.744365089081782 0 0 0 0 -130.73236897857714 -14.409270774907512 0 -14.409270774907512 14.172866797191119 0 0 0 0 -78.876310575276875 -31.033346016491635 0 -31.033346016491635 -1.8552086320418084 0 0 0 0 -52.827288244356168 -3.5939564990476924 0 -3.5939564990476924 10.643731353230237 0 0 0 0 61.226933409063349 -13.213091612669757 0 -13.213091612669757 -11.274827398327204 0 0 0 0 -145.03769108637425 1.6956021826019878 0 1.6956021826019878 15.054101722008227 0 0 0 0 -21.989311255991197 37.712321685566408 0 37.712321685566408 19.758228671043753 0 0 0 0 -0.13582708064891941 -0.32014442736392823 0 -0.32014442736392823 0.60832714183530179 0 0 0 0 -0.10547362473285204 -0.41948534700210871 0 -0.41948534700210871 1.9457273176347765 0 0 0 0 -121.96233410129571 24.606859977985096 0 24.606859977985096 5.1579735451623492 0 0 0 0 -160.00721005345986 20.816726965654823 0 20.816726965654823 4.3297677252694484 0 0 0 0 -0.093331283167313983 -0.58645200880825143 0 -0.58645200880825143 0.15132171496142399 0 0 0 0 37.70958010697359 -25.321805801125009 0 -25.321805801125009 -38.854272282042217 0 0 0 0 34.464743881926552 -34.234778057877833 0 -34.234778057877833 -16.781593223540497 0 0 0 0 -0.7544420753945964 -1.3990034204408772 0 -1.3990034204408772 -1.0250893915325305 0 0 0 0 -30.316504371561678 -40.031672079272425 0 -40.031672079272425 11.952445094156644 0 0 0 0 -42.245009189346092 42.832497085182339 0 42.832497085182339 11.498620077133182 0 0 0 0 -68.561501430835051 30.06073393892791 0 30.06073393892791 -19.69379751511201 0 0 0 0 -73.13407153001026 9.4641612704525642 0 9.4641612704525642 -9.9205798409885801 0 0 0 0 -84.550160900442279 28.870951563573726 0 28.870951563573726 -19.048369882770089 0 0 0 0 -36.543273970903101 -24.930011924363271 0 -24.930011924363271 -4.9573662071482687 0 0 0 0 -97.535106066276057 21.484153297305511 0 21.484153297305511 -12.378619286563207 0 0 0 0 1.0308080788006109 -2.7668374693601265 0 -2.7668374693601265 -4.0175606768629599 0 0 0 0 -91.613840945290576 -30.172364832963183 0 -30.172364832963183 2.5616332006059537 0 0 0 0 -115.36213841174322 -14.645978948424023 0 -14.645978948424023 7.2818306302722391 0 0 0 0 -77.140347047276009 -20.738241638054731 0 -20.738241638054731 -4.1586417433894667 0 0 0 0 -71.844654230197193 -36.227296474157342 0 -36.227296474157342 3.3669468146163499 0 0 0 0 -32.842823328021041 -1.5605439826111729 0 -1.5605439826111729 10.058441491216296 0 0 0 0 -183.51888728867016 29.509091213454333 0 29.509091213454333 -16.079203604759641 0 0 0 0 -187.21193995421254 12.432349458550279 0 12.432349458550279 2.2159035940035778 0 0 0 0 -162.81586261675693 13.916952150691884 0 13.916952150691884 -10.613537132104511 0 0 0 0 -116.57177333100117 -18.147175584258186 0 -18.147175584258186 -2.6891670009776689 0 0 0 0 -163.70142596551887 -1.6564052987716593 0 -1.6564052987716593 4.1990803116733417 0 0 0 0 -149.52986515813245 -1.8780156088047164 0 -1.8780156088047164 6.972299422545035 0 0 0 0 -144.97685742038448 3.8283437474750315 0 3.8283437474750315 -11.616027877036586 0 0 0 0 -168.99540507479833 22.666905470620577 0 22.666905470620577 -8.4176889213808863 0 0 0 0 -173.6044741198566 22.325976768853764 0 22.325976768853764 -13.92195310048217 0 0 0 0 -184.00860292380094 47.068283239756262 0 47.068283239756262 -24.756652948441673 0 0 0 0 -170.87724756794341 20.707710511635476 0 20.707710511635476 -8.7606912631846114 0 0 0 0 -261.14021489026345 -17.61805595250695 0 -17.61805595250695 24.474978470199513 0 0 0 0 -126.29720727620588 22.956109915757679 0 22.956109915757679 22.418885950898471 0 0 0 0 -85.297074743728444 36.961246983834883 0 36.961246983834883 -13.784993990159137 0 0 0 0 -133.38741056395884 9.9061567245976647 0 9.9061567245976647 -54.822230326485396 0 0 0 0 -147.42118717945414 39.561794646150418 0 39.561794646150418 10.034274776508028 0 0 0 0 -118.73934983715299 60.170139089151462 0 60.170139089151462 -29.729791880396078 0 0 0 0 -1.7756612881347564 -1.7150376188222083 0 -1.7150376188222083 -1.3114013752411706 0 0 0 0 -17.256924624554813 20.647692202207395 0 20.647692202207395 -71.696138792887723 0 0 0 0 -205.53067569831182 26.546512012829254 0 26.546512012829254 -8.5539126725537926 0 0 0 0 -214.85960714475368 43.946109462222125 0 43.946109462222125 -3.1272786893341049 0 0 0 0 -1.1201077269729609 -1.0827437119580168 0 -1.0827437119580168 -1.9950125958215117 0 0 0 0 -196.05475804502203 34.915802186599763 0 34.915802186599763 -8.4225584720103512 0 0 0 0 -194.82670982992568 24.610197644548975 0 24.610197644548975 -15.242368745031172 0 0 0 0 -211.40965861364384 46.908096125453369 0 46.908096125453369 -19.798068819808122 0 0 0 0 -0.42870159711032585 -0.34873661526791011 0 -0.34873661526791011 -0.6377980333344142 0 0 0 0 -137.23382083723118 42.030976203169359 0 42.030976203169359 11.694762981467932 0 0 0 0 -260.62642834017424 44.253008608142025 0 44.253008608142025 3.3894924330769527 0 0 0 0 -43.409520843510109 4.9479891644654117 0 4.9479891644654117 -17.926701120660823 0 0 0 0 -3.0367500729369254 -6.6983073719086619 0 -6.6983073719086619 -7.3480300218189196 0 0 0 0 -146.34710087884014 -23.720155027780152 0 -23.720155027780152 9.0302423217581804 0 0 0 0 -131.31292374270561 44.633532360651714 0 44.633532360651714 2.4624313325510911 0 0 0 0 -102.89507984247757 54.367586121458828 0 54.367586121458828 -16.37467911710894 0 0 0 0 -226.15575886258739 15.119683556165 0 15.119683556165 -5.4907710275103341 0 0 0 0 -208.95638896504533 34.927007632132756 0 34.927007632132756 -16.001170955744811 0 0 0 0 -191.05993168838177 26.031319157162471 0 26.031319157162471 -11.962218179393915 0 0 0 0 -204.88220696810095 13.538899104899389 0 13.538899104899389 -0.13345916631271848 0 0 0 0 -129.50950774143257 -8.5338696170957533 0 -8.5338696170957533 -7.4168000814912034 0 0 0 0 -183.33465743883426 -1.4434460264212987 0 -1.4434460264212987 4.9779914889551264 0 0 0 0 -137.24576490367417 2.6566926926752323 0 2.6566926926752323 -10.330450164917693 0 0 0 0 -211.43941466267279 -3.9605273170690793 0 -3.9605273170690793 1.311343058368891 0 0 0 0 -208.48856886173598 19.028800716412263 0 19.028800716412263 -11.625958421045283 0 0 0 0 -257.68525358603802 29.960889993818569 0 29.960889993818569 -6.608075892903571 0 0 0 0 -413.82348903207458 -48.867603764474438 0 -48.867603764474438 -42.795068528399554 0 0 0 0 -282.17499087559918 116.43623978931487 0 116.43623978931487 -23.317544718753879 0 0 0 0 -180.58869902871447 29.569402715126529 0 29.569402715126529 -205.33032088926757 0 0 0 0 -210.7414652015359 11.21729388483385 0 11.21729388483385 -26.924297709330062 0 0 0 0 -157.70661363075487 -12.954039246606385 0 -12.954039246606385 -151.2435523556519 0 0 0 0 -279.18967992297257 119.61109638723548 0 119.61109638723548 -161.90768199109505 0 0 0 0 -254.84707834628352 49.900349548960492 0 49.900349548960492 -26.214455580341564 0 0 0 0 -482.73180065665474 4.228972705223299 0 4.228972705223299 4.4616844437117607 0 0 0 0 -1.9769931113682446 0.84367116229122985 0 0.84367116229122985 -0.61337301503449382 0 0 0 0 -358.56770079416856 -214.56878340016297 0 -214.56878340016297 -137.66967787315957 0 0 0 0 -256.68990068667881 11.497015031115865 0 11.497015031115865 4.6294729606458986 0 0 0 0 -106.15594410727499 -89.254957974099966 0 -89.254957974099966 -80.449609915058431 0 0 0 0 -283.09708384601618 -68.635834831715826 0 -68.635834831715826 28.479489433215463 0 0 0 0 -177.77947916975972 -37.162714944374045 0 -37.162714944374045 35.227364370027317 0 0 0 0 -240.48664516217832 44.43567941664412 0 44.43567941664412 27.71452867068723 0 0 0 0 -161.32947247099901 47.069631958636343 0 47.069631958636343 -41.623666510950329 0 0 0 0 -236.97211573482491 -13.737318929395713 0 -13.737318929395713 36.201121885736711 0 0 0 0 -28.147380351088941 -77.214701028277659 0 -77.214701028277659 -6.9555911931754508 0 0 0 0 -4.7452520393505324 -16.367770446114662 0 -16.367770446114662 1.1537853073171025 0 0 0 0 20.880564895516727 -23.050377749624374 0 -23.050377749624374 26.385327664301258 0 0 0 0 0.46690701335489493 1.2343042150828438 0 1.2343042150828438 -0.49081476965920423 0 0 0 0 -36.136279108410235 -16.786142377069609 0 -16.786142377069609 2.3559205853616731 0 0 0 0 -10.731136736037264 -6.1183676424749436 0 -6.1183676424749436 0.3409162082596886 0 0 0 0 4.6453860807159799 -61.798862082404355 0 -61.798862082404355 -34.42019736786051 0 0 0 0 -64.271918639555224 -61.220996807323218 0 -61.220996807323218 -33.358813643236147 0 0 0 0 -172.48233668218018 -13.384135793472922 0 -13.384135793472922 55.767257283774484 0 0 0 0 -92.502166960221075 -53.509939705178908 0 -53.509939705178908 -25.26383346760349 0 0 0 0 -59.32316108730447 -38.120648123101205 0 -38.120648123101205 -44.769285185304966 0 0 0 0 -94.391650213583489 -38.690444720306914 0 -38.690444720306914 -39.828436121942843 0 0 0 0 -77.171134264484863 -53.763293030206341 0 -53.763293030206341 -42.920091371867443 0 0 0 0 -70.159122126025977 -52.716680412607829 0 -52.716680412607829 -43.277124959829962 0 0 0 0 -66.222098262995132 -2.0534408137173159 0 -2.0534408137173159 19.033648466539489 0 0 0 0 -16.534424707417202 -1.9173329358529827 0 -1.9173329358529827 18.482814271157849 0 0 0 0 -66.222098262973304 -2.0534408137149285 0 -2.0534408137149285 19.03364846653642 0 0 0 0 -6.9514761013548707 0.98718439682417625 0 0.98718439682417625 -1.0624285908508795 0 0 0 0 -3.7368460522120586 66.967701494575522 0 66.967701494575522 -105.35271327810887 0 0 0 0 -66.222098262966028 -2.0534408137400533 0 -2.0534408137400533 19.033648466543468 0 0 0 0 -21.652242892381764 -1.261935309705791 0 -1.261935309705791 -6.6517626484906032 0 0 0 0 -2.1258394906417379 -1.2564254680214049 0 -1.2564254680214049 16.06386811030734 0 0 0 0 0.4718309560013374 -8.1899392802954338 0 -8.1899392802954338 -5.1830961071923793 0 0 0 0 -15.469650290629943 -14.38316571624955 0 -14.38316571624955 -11.236429780150502 0 0 0 0 -17.570163299824507 0.28083492876447735 0 0.28083492876447735 -0.76529953060418876 0 0 0 0 -3.2436769465748512 -15.383195903138926 0 -15.383195903138926 -60.400331190850579 0 0 0 0 -4.7424671218609475 -6.6947297505891399 0 -6.6947297505891399 -6.8578498043219671 0 0 0 0 -20.351703943320899 1.3430339129567983 0 1.3430339129567983 -2.4793749875498179 0 0 0 0 -167.57681449941447 112.47496319997731 0 112.47496319997731 -38.834899747472946 0 0 0 0 -142.33716922776603 8.6707638630675135 0 8.6707638630675135 27.072599630956802 0 0 0 0 -1.5721739206170682 -6.55297343633314 0 -6.55297343633314 -7.7418219885009032 0 0 0 0 -40.737604274923797 -8.9875856471618363 0 -8.9875856471618363 -47.412563997490537 0 0 0 0 -7.7079423161794693 -7.6673421556619132 0 -7.6673421556619132 -31.767064478198336 0 0 0 0 -19.635692103358451 3.3247732824124796 0 3.3247732824124796 -26.231869144713755 0 0 0 0 -23.163588635201037 -8.2074271966345549 0 -8.2074271966345549 0.49484211699757985 0 0 0 0 -35.535292462245025 -19.773513501364071 0 -19.773513501364071 -3.1180320150456282 0 0 0 0 -142.94644872767822 -119.83639254054697 0 -119.83639254054697 -19.556460731040715 0 0 0 0 29.209189684843295 -24.180318639758298 0 -24.180318639758298 -33.339855802137549 0 0 0 0 -36.172784661561309 3.5853690933117832 0 3.5853690933117832 0.50656563319262204 0 0 0 0 -26.08214404390128 9.2421881104545491 0 9.2421881104545491 -9.010377347947724 0 0 0 0 -21.211921342151129 -7.8747805131873783 0 -7.8747805131873783 1.1975029062007687 0 0 0 0 -7.1991625457230839 -56.753292017362128 0 -56.753292017362128 -10.895503810919308 0 0 0 0 -23.212790549358033 -1.4994049647079919 0 -1.4994049647079919 1.2949370240744429 0 0 0 0 71.504978566117643 94.968623074320476 0 94.968623074320476 75.59847039102192 0 0 0 0 -98.429201302136789 -31.26974006377668 0 -31.26974006377668 9.3957374632814208 0 0 0 0 -0.40414705909861937 -0.41775490041759156 0 -0.41775490041759156 -0.22907899402976994 0 0 0 0 -96.029103422411026 -40.066550753992288 0 -40.066550753992288 -16.472026269030721 0 0 0 0 -36.646176179841859 4.3692247718445287 0 4.3692247718445287 0.35937955709630387 0 0 0 0 -49.225126867433573 49.323522775614265 0 49.323522775614265 -105.09854120538375 0 0 0 0 -42.662066715864057 16.180272102904155 0 16.180272102904155 27.170954859400808 0 0 0 0 -93.35583916851283 -61.391153769736093 0 -61.391153769736093 -35.833355673485585 0 0 0 0 23.924649822030915 15.53305377382776 0 15.53305377382776 -47.070259338554024 0 0 0 0 21.154999720623891 16.396593110569938 0 16.396593110569938 -4.8079552374892955 0 0 0 0 -0.037567102058048363 -0.47634156383186266 0 -0.47634156383186266 -3.7493135138272269 0 0 0 0 19.611970366342575 -11.085583522155048 0 -11.085583522155048 -13.822184767916042 0 0 0 0 -1.2227157496386667 0.2403763632032252 0 0.2403763632032252 -3.7270522700289743 0 0 0 0 18.544177150084579 -17.796823263404121 0 -17.796823263404121 -39.750713559535143 0 0 0 0 -4.202899174655272 18.066564255353804 0 18.066564255353804 -4.8521570203220108 0 0 0 0 -12.577952155937965 -5.1299204121030471 0 -5.1299204121030471 -45.982142020397987 0 0 0 0 -5.6388997285393998 -19.221336877783415 0 -19.221336877783415 -65.343841143687825 0 0 0 0 -0.36753643458266083 -0.76262275949820335 0 -0.76262275949820335 -0.8229905007670073 0 0 0 0 -106.23366242547309 51.248922263773238 0 51.248922263773238 -34.635739090176685 0 0 0 0 -137.02755574381445 -34.733008616695997 0 -34.733008616695997 3.6996094867035936 0 0 0 0 -29.747203581295253 24.41125537325749 0 24.41125537325749 -9.6345549062521059 0 0 0 0 -30.918794935991173 19.249045210176519 0 19.249045210176519 -22.034443994407411 0 0 0 0 -4.2977506254600684 -0.50572371589816356 0 -0.50572371589816356 -1.3583513286580944 0 0 0 0 -24.549932888578041 -3.3409597850909449 0 -3.3409597850909449 9.6589057709911685 0 0 0 0 -34.346932649503287 15.957140395020019 0 15.957140395020019 -9.0562964547434603 0 0 0 0 -34.432443907287961 19.430952922887627 0 19.430952922887627 0.65816760064558366 0 0 0 0 -36.06827770808377 20.134861356074452 0 20.134861356074452 8.6804033346270444 0 0 0 0 -30.197964829698321 33.227024915143375 0 33.227024915143375 -8.1671559653323129 0 0 0 0 -24.355343748604355 38.276237721461939 0 38.276237721461939 30.308697348064015 0 0 0 0 -16.772200902603799 -40.941583431768777 0 -40.941583431768777 -38.071298239055068 0 0 0 0 -51.070472361840075 8.6599419445174135 0 8.6599419445174135 -9.7621084034399246 0 0 0 0 21.904392719363386 31.967836865089339 0 31.967836865089339 -3.3005038996226403 0 0 0 0 -25.529345947583963 -6.866007227295384 0 -6.866007227295384 0.8962100392446013 0 0 0 0 -40.830060281114129 4.4999839163137949 0 4.4999839163137949 34.249776425304788 0 0 0 0 -18.155762908178076 -1.6579479295270403 0 -1.6579479295270403 -13.03410459197039 0 0 0 0 -18.538136687515362 -1.6721132059751653 0 -1.6721132059751653 -3.2691133919556705 0 0 0 0 -43.791930554629289 -5.5878530333204708 0 -5.5878530333204708 0.15440061877325206 0 0 0 0 -17.417002485764172 12.244062379895738 0 12.244062379895738 -2.4664841401497011 0 0 0 0 6.0297301113678259 7.2369451998588374 0 7.2369451998588374 1.9466122563403587 0 0 0 0 -24.451830448295368 3.7930627480894827 0 3.7930627480894827 -5.1546264058320048 0 0 0 0 -22.696453792545071 3.2081795290864648 0 3.2081795290864648 8.7309009242289903 0 0 0 0 -38.416189672199835 -2.5217882264679474 0 -2.5217882264679474 -6.1248236206229194 0 0 0 0 0.82233180935145356 15.081915526617649 0 15.081915526617649 -3.6079459197817414 0 0 0 0 -18.3008573712398 8.3582335745688745 0 8.3582335745688745 0.10832006549334139 0 0 0 0 -23.958173583902294 -1.4848988519254505 0 -1.4848988519254505 2.1211115397711495 0 0 0 0 -28.824998700480648 4.4686704888031841 0 4.4686704888031841 3.157928764718978 0 0 0 0 -38.137752695271047 -2.4858933440273177 0 -2.4858933440273177 -8.5198220263769144 0 0 0 0 -43.981426517915679 0.027604793427030927 0 0.027604793427030927 -1.9089274305636081 0 0 0 0 -42.744847808513441 -2.684135285735465 0 -2.684135285735465 1.6496727007415757 0 0 0 0 -26.943302023639262 1.5594805539035406 0 1.5594805539035406 -0.81819067002174961 0 0 0 0 -33.406758820437972 3.4141528087143342 0 3.4141528087143342 12.93538927714917 0 0 0 0 -12.203821332896183 3.4017959216636342 0 3.4017959216636342 0.89326104778886339 0 0 0 0 -19.100910273235058 -12.157087217136905 0 -12.157087217136905 -10.192271948828875 0 0 0 0 -18.532850383715584 5.9365428371352458 0 5.9365428371352458 -0.95243022131561528 0 0 0 0 -19.471689219404652 8.4253524262551309 0 8.4253524262551309 -2.2402954648221112 0 0 0 0 -18.69105036999099 10.716425501157119 0 10.716425501157119 -11.357661086051337 0 0 0 0 -25.160313347631018 -2.5513367705716519 0 -2.5513367705716519 -2.5429923121823776 0 0 0 0 -46.406384868838359 -11.144273211114751 0 -11.144273211114751 1.2151572451034554 0 0 0 0 -45.927845700029138 7.2036648762787081 0 7.2036648762787081 -6.8334819478382087 0 0 0 0 0.0061770423292060173 0.033055380403794743 0 0.033055380403794743 -0.29684127952500639 0 0 0 0 -24.752965279963064 0.1012795963388271 0 0.1012795963388271 -0.57683757058475749 0 0 0 0 -4.674926421419844 -0.92704640576407371 0 -0.92704640576407371 -1.1420417881278304 0 0 0 0 -25.817038695859083 -14.881662967861985 0 -14.881662967861985 -3.5631358653729421 0 0 0 0 -17.894898098031263 -5.738338309941355 0 -5.738338309941355 -7.5099341881596047 0 0 0 0 -19.850268856418552 21.306514977522966 0 21.306514977522966 16.424992951229342 0 0 0 0 -16.427945928698406 3.5416688250362682 0 3.5416688250362682 -0.94055947779054838 0 0 0 0 -8.2082573385705473 14.023477509029021 0 14.023477509029021 -2.2594837513297534 0 0 0 0 -23.356465199463855 12.72113794725135 0 12.72113794725135 -7.5942856637830118 0 0 0 0 -48.007453108330083 3.5369437476961139 0 3.5369437476961139 3.883294240480609 0 0 0 0 -3.2756607396897515 1.0528354631097727 0 1.0528354631097727 -5.9336267218456022 0 0 0 0 -76.743608913180651 2.7427200790434654 0 2.7427200790434654 -13.829756229552004 0 0 0 0 17.215145657784888 32.473577448956803 0 32.473577448956803 6.8959352349870642 0 0 0 0 -17.161300759435107 2.6052255701270042 0 2.6052255701270042 8.1049135978536242 0 0 0 0 -2.9640371581310205 -1.5635042878237186 0 -1.5635042878237186 0.64329211946991816 0 0 0 0 -66.370401889493223 -16.009268018951161 0 -16.009268018951161 -0.6765429568554282 0 0 0 0 -11.428854710265327 -1.371200577990674 0 -1.371200577990674 -1.9788081581082482 0 0 0 0 -36.955123669995373 2.3314183089618155 0 2.3314183089618155 -15.601598877792867 0 0 0 0 -43.49156837737246 2.6161650023245784 0 2.6161650023245784 50.954971750420327 0 0 0 0 -10.603816653126231 6.6443444656280519 0 6.6443444656280519 -3.1998583411391595 0 0 0 0 -60.889760177553399 -21.91856068202992 0 -21.91856068202992 -2.6811352210487769 0 0 0 0 -20.226487576732438 10.11409228236726 0 10.11409228236726 -0.11656543301149647 0 0 0 0 76.842555647266636 102.78409212220919 0 102.78409212220919 18.69797964500458 0 0 0 0 -11.15228825390659 6.0862091955237929 0 6.0862091955237929 -6.5157351117259168 0 0 0 0 164.00656283829449 -150.30804067641134 0 -150.30804067641134 -239.65493162473422 0 0 0 0 31.488636790498276 -98.583152148137629 0 -98.583152148137629 -53.981484480138533 0 0 0 0 -385.46963914747175 173.48751743610217 0 173.48751743610217 246.87644154004442 0 0 0 0 14.844473904420738 -70.765796877715502 0 -70.765796877715502 -67.949691718217082 0 0 0 0 -26.671357572896568 6.7426095311507694 0 6.7426095311507694 1.6466457242982928 0 0 0 0 -28.779809420768288 5.0973824898533167 0 5.0973824898533167 2.7385749267550636 0 0 0 0 -30.372435572804534 2.7495795037948483 0 2.7495795037948483 2.5701186302544556 0 0 0 0 -30.698813316295855 1.1294301460343377 0 1.1294301460343377 0.81490636599028221 0 0 0 0 -51.783477635588497 -19.898043802788834 0 -19.898043802788834 0.39634924325423526 0 0 0 0 -5.5220656558183663 6.1144212829946696 0 6.1144212829946696 -1.4916294425629477 0 0 0 0 -28.127914371551014 3.2160619308883724 0 3.2160619308883724 -2.1104363108497637 0 0 0 0 -54.569815142680454 -38.153495065757397 0 -38.153495065757397 -24.966522153938286 0 0 0 0 -40.334219660835515 -14.032521360638185 0 -14.032521360638185 -13.501293589564739 0 0 0 0 -128.52115238022452 10.993050392665992 0 10.993050392665992 -0.5497443472526129 0 0 0 0 -187.23544126417801 98.213950481848741 0 98.213950481848741 -70.350847765330172 0 0 0 0 -268.50653560347564 -60.693612737910087 0 -60.693612737910087 -9.157711237258809 0 0 0 0 -3.7621035918004679 -1.6580728583794411 0 -1.6580728583794411 -0.80117853651539406 0 0 0 0 -6.9911635745193053 7.4543188832062697 0 7.4543188832062697 -17.019003961831686 0 0 0 0 -20.196524937514667 17.622647958591187 0 17.622647958591187 -3.8666100874840388 0 0 0 0 -22.278291550072026 -18.848577750188042 0 -18.848577750188042 -42.513477925475343 0 0 0 0 61.699570292701537 86.976341616900442 0 86.976341616900442 -114.0437825703433 0 0 0 0 5.5320322084912448 4.3614089570181633 0 4.3614089570181633 -3.4199318533508496 0 0 0 0 7.3223789434196078 67.687940922263451 0 67.687940922263451 -53.687987938949263 0 0 0 0 -27.385396155936178 -45.289938809591661 0 -45.289938809591661 -3.7792111027285955 0 0 0 0 -19.627558680876973 -48.387946711595816 0 -48.387946711595816 -54.981203980508099 0 0 0 0 -77.947820614514058 -8.099743410092259 0 -8.099743410092259 13.215423349578572 0 0 0 0 -98.511535713842022 33.174676859525704 0 33.174676859525704 -49.673286985373238 0 0 0 0 -121.51355500236969 23.5280702623906 0 23.5280702623906 32.71797596704991 0 0 0 0 -118.06567449750219 2.7363438898989183 0 2.7363438898989183 74.425603579644559 0 0 0 0 -41.536863959663606 -6.497124172817351 0 -6.497124172817351 -14.445908304056502 0 0 0 0 -31.191332781155872 15.715703584091301 0 15.715703584091301 -4.1449134310471596 0 0 0 0 -108.06384842317493 6.6224481238523367 0 6.6224481238523367 51.471338627535715 0 0 0 0 -42.265732344611024 -3.0053171163979426 0 -3.0053171163979426 -2.6360557736603383 0 0 0 0 -57.487128590310903 1.1046374635209091 0 1.1046374635209091 -1.0167584453153002 0 0 0 0 -76.417619259860658 8.4404591371407491 0 8.4404591371407491 0.74187446307752225 0 0 0 0 -110.37664167847834 -15.600675304608501 0 -15.600675304608501 -9.8240727087444952 0 0 0 0 -86.633028539334191 10.957056688132241 0 10.957056688132241 10.166707052867011 0 0 0 0 -51.800061559828464 0.32659381651677677 0 0.32659381651677677 1.7435308020011178 0 0 0 0 -51.771078319943626 2.220323523981051 0 2.220323523981051 18.802314186102496 0 0 0 0 -50.862027395945319 -3.8246128412119411 0 -3.8246128412119411 0.29896627962665012 0 0 0 0 -40.859601828051382 -15.776693072299551 0 -15.776693072299551 -14.784192222120645 0 0 0 0 -69.428323678730521 -13.932318029362193 0 -13.932318029362193 19.801021223572718 0 0 0 0 -48.001991298289795 4.2640312564272023 0 4.2640312564272023 -3.7601408023967906 0 0 0 0 -48.056215773820441 -2.8036337686998642 0 -2.8036337686998642 21.981586238981919 0 0 0 0 -88.278271175295231 -5.803894221632504 0 -5.803894221632504 18.143257151962601 0 0 0 0 -51.390850485589908 4.7144253372019929 0 4.7144253372019929 16.341045423563159 0 0 0 0 -49.137170414889624 13.016656160783945 0 13.016656160783945 4.4885063537147971 0 0 0 0 -6.8440655600716127 13.142543946250704 0 13.142543946250704 10.033744748225899 0 0 0 0 -44.8712663713859 -5.0160304224741115 0 -5.0160304224741115 18.977565531621025 0 0 0 0 -72.71280102253877 7.3062925516625565 0 7.3062925516625565 22.276185601061385 0 0 0 0 -68.769228355187806 11.30769504863558 0 11.30769504863558 11.55029577901044 0 0 0 0 -50.180054352254956 17.17734182781361 0 17.17734182781361 6.8278115397945243 0 0 0 0 -65.559961850325635 27.672185217617805 0 27.672185217617805 11.230604156478773 0 0 0 0 -43.911907273992256 29.947190989497763 0 29.947190989497763 0.0086137115815407145 0 0 0 0 -0.25459942072339459 0.17437713118681586 0 0.17437713118681586 -0.026256671892723765 0 0 0 0 -58.743012328377517 6.8044608126432617 0 6.8044608126432617 0.026059315367661116 0 0 0 0 -0.11751137595258854 0.099705347308500336 0 0.099705347308500336 0.094079960973929816 0 0 0 0 -19.322115469229175 21.218036331335654 0 21.218036331335654 -2.4509368193746681 0 0 0 0 -81.061153922863014 -1.9362778072976958 0 -1.9362778072976958 5.5325817902716565 0 0 0 0 -0.14890118819189979 0.15228474226555022 0 0.15228474226555022 0.2078159092904123 0 0 0 0 -62.447030912466289 6.556768213290443 0 6.556768213290443 7.8820093902984141 0 0 0 0 -59.605287154685357 2.7238585166398366 0 2.7238585166398366 -1.1685621423392831 0 0 0 0 -59.154271381883518 0.21221874138819574 0 0.21221874138819574 12.73019551292283 0 0 0 0 -60.067790195340422 8.7778387255341244 0 8.7778387255341244 10.159028284873646 0 0 0 0 -60.436420888370776 7.4472498317464648 0 7.4472498317464648 5.7519001888022814 0 0 0 0 -32.268331982238124 20.444284530168606 0 20.444284530168606 10.856930008663298 0 0 0 0 -70.400472565772361 16.599971647392259 0 16.599971647392259 21.090602335229619 0 0 0 0 -0.098762741836075918 0.075816582056390303 0 0.075816582056390303 0.11771183806161944 0 0 0 0 -66.442041566639091 9.5058181054771325 0 9.5058181054771325 2.4609793658729444 0 0 0 0 -80.867325524646731 -11.581560113426924 0 -11.581560113426924 7.6676025435377966 0 0 0 0 -111.43969068348815 -67.124617108552769 0 -67.124617108552769 -36.043223035652431 0 0 0 0 -142.20874541229568 -54.712371787024644 0 -54.712371787024644 -40.094915001862262 0 0 0 0 0.50884489465566674 0.6899691179949059 0 0.6899691179949059 0.84574558288608104 0 0 0 0 -39.164952428614924 6.5873811397177775 0 6.5873811397177775 11.236354043520112 0 0 0 0 -45.6680412537753 -3.4722393762003723 0 -3.4722393762003723 9.1589775240740732 0 0 0 0 -18.076623387882137 -11.748074733870228 0 -11.748074733870228 8.7297608759930529 0 0 0 0 10.88457613610808 34.083899568777468 0 34.083899568777468 -8.0286410409914701 0 0 0 0 -18.780137546200422 4.4143629714958701 0 4.4143629714958701 -0.071875979744793622 0 0 0 0 -41.554632816259982 0.01837457949999393 0 0.01837457949999393 -3.1726358185550727 0 0 0 0 -41.543316351162503 0.5214478324476689 0 0.5214478324476689 5.9851064238632459 0 0 0 0 -339.58411374839488 37.232354636436888 0 37.232354636436888 -5.9167666030180257 0 0 0 0 -119.10515054331336 67.136940554953028 0 67.136940554953028 -12.485803710233666 0 0 0 0 -309.86459073761944 20.292360590297708 0 20.292360590297708 0.068646468869430474 0 0 0 0 -0.84214740083800166 0.25887712026350584 0 0.25887712026350584 0.22151290613453506 0 0 0 0 -317.65608834772502 -2.9465723622184452 0 -2.9465723622184452 -86.831110900328483 0 0 0 0 -332.01683254485397 -66.892030368503569 0 -66.892030368503569 -21.463835944479555 0 0 0 0 -440.99141231485919 140.84491216545968 0 140.84491216545968 -53.336630195563643 0 0 0 0 -1.1408074710132041 -0.62778697113738247 0 -0.62778697113738247 -0.26228106819845298 0 0 0 0 -222.70056916245085 52.225303777806673 0 52.225303777806673 -19.907089530687536 0 0 0 0 -140.52154401021835 -54.095485029844482 0 -54.095485029844482 -52.494867555304722 0 0 0 0 -218.75878069568716 -49.169623686384199 0 -49.169623686384199 -19.941670806860884 0 0 0 0 -129.9333704676319 -10.989271813979485 0 -10.989271813979485 -4.929003514887313 0 0 0 0 -217.38407712804064 50.448173840465877 0 50.448173840465877 -25.468535699786742 0 0 0 0 -183.00213431321026 11.156518100197076 0 11.156518100197076 10.537981946478567 0 0 0 0 -124.48766079193865 35.293699213476103 0 35.293699213476103 18.335211505045208 0 0 0 0 -100.69083109035631 -3.366270222210769 0 -3.366270222210769 1.224607990539786 0 0 0 0 -128.46274040546996 -21.001418180321764 0 -21.001418180321764 121.58556661493242 0 0 0 0 -100.44237132657594 -2.9394547318074871 0 -2.9394547318074871 1.2502504027440318 0 0 0 0 -119.68095658303355 -16.275589427725208 0 -16.275589427725208 73.676681627462671 0 0 0 0 -117.57905518343796 -50.313750882184529 0 -50.313750882184529 35.625299488538531 0 0 0 0 -83.178008117334684 -54.61602030174862 0 -54.61602030174862 16.971177697109738 0 0 0 0 -114.60176152148051 -39.433984941841118 0 -39.433984941841118 10.320364776512633 0 0 0 0 -116.09185123876614 -60.768868539464016 0 -60.768868539464016 27.378601062777079 0 0 0 0 -78.806099806068232 -18.472148100060394 0 -18.472148100060394 -11.790389708138207 0 0 0 0 -10.558539043413148 -2.8718199848622561 0 -2.8718199848622561 1.6978780167765644 0 0 0 0 -104.78242730156126 -12.228282302559849 0 -12.228282302559849 12.84450211826973 0 0 0 0 -15.626879762421112 -2.8668884364147686 0 -2.8668884364147686 2.2010352690272894 0 0 0 0 -150.30973229061055 29.47342688531387 0 29.47342688531387 35.186523034746415 0 0 0 0 -109.94995260208088 -59.693241599876387 0 -59.693241599876387 39.900619366167916 0 0 0 0 -157.28915121661703 23.312809660961648 0 23.312809660961648 29.904471957595433 0 0 0 0 -106.18281046007905 1.0534417383862296 0 1.0534417383862296 50.298516095950191 0 0 0 0 -98.626061209890452 -2.9725062695534312 0 -2.9725062695534312 2.1127542661425491 0 0 0 0 -100.39156605146127 43.486396739704858 0 43.486396739704858 8.1924962009134106 0 0 0 0 -51.769542666268535 -0.86402625898335828 0 -0.86402625898335828 -34.288186025600226 0 0 0 0 -112.57854800171521 -12.140666631952158 0 -12.140666631952158 21.347594774741662 0 0 0 0 -106.72457998466416 28.717452469596651 0 28.717452469596651 21.49398419944464 0 0 0 0 -92.757993113793418 -23.165897558859456 0 -23.165897558859456 21.327716364992511 0 0 0 0 -154.42331546082278 9.4015911791093458 0 9.4015911791093458 15.970637688936222 0 0 0 0 -146.78247304704564 33.98528728006761 0 33.98528728006761 2.7519715849266504 0 0 0 0 -130.8364190908178 14.561058087984634 0 14.561058087984634 18.187361834955027 0 0 0 0 -116.61964801143768 13.668530445328543 0 13.668530445328543 -13.13076092644485 0 0 0 0 -110.0502062493033 -23.891127543737795 0 -23.891127543737795 56.93539049083779 0 0 0 0 -21.554240277196655 0.9747340024946709 0 0.9747340024946709 -2.1243293187761534 0 0 0 0 -148.84013379134194 11.541771313749621 0 11.541771313749621 -9.594211905787688 0 0 0 0 -141.57947808456083 29.95193271907408 0 29.95193271907408 -38.726394630790992 0 0 0 0 -314.73542568954872 -61.072613864549794 0 -61.072613864549794 279.86940007902058 0 0 0 0 -179.92369149691513 64.654066732714114 0 64.654066732714114 12.543732776809748 0 0 0 0 -294.86419714957447 18.823848933762747 0 18.823848933762747 8.8292235703197548 0 0 0 0 0.092667839774307481 0.49187812262452724 0 0.49187812262452724 -2.1945170216685908 0 0 0 0 -197.68120288680802 49.82140921615769 0 49.82140921615769 -5.5001475225266176 0 0 0 0 1.7248821654774105 -1.646578636641209 0 -1.646578636641209 -3.4456109970207836 0 0 0 0 -185.89564145887562 23.427498345706624 0 23.427498345706624 -59.173083737417528 0 0 0 0 -222.01373982697987 281.50041604427577 0 281.50041604427577 -295.80231483031105 0 0 0 0 -148.99807707261061 57.689175823776964 0 57.689175823776964 -31.738016479633458 0 0 0 0 -157.89730030971987 34.970452853786412 0 34.970452853786412 -10.928651710311556 0 0 0 0 -163.89401081386131 21.860083401807898 0 21.860083401807898 -1.0243892172418327 0 0 0 0 -135.9061407576155 -0.27680909239580842 0 -0.27680909239580842 -4.5894275154335844 0 0 0 0 -135.42460199987181 3.0652535332113473 0 3.0652535332113473 4.0757882604333986 0 0 0 0 -107.86166630577645 -10.971447882355676 0 -10.971447882355676 -7.5340200194296756 0 0 0 0 -112.10031006654026 -23.392482342417949 0 -23.392482342417949 12.323050675994523 0 0 0 0 -105.33423604472409 -22.37292914361359 0 -22.37292914361359 40.673981035731003 0 0 0 0 -106.76846656834095 -18.658738885348839 0 -18.658738885348839 8.416627693816281 0 0 0 0 -92.90763729178434 -4.6201609476781869 0 -4.6201609476781869 20.969624422184779 0 0 0 0 -85.737825925112702 -11.474728744156323 0 -11.474728744156323 5.0644930201148668 0 0 0 0 -90.485003072546533 -13.123363809069588 0 -13.123363809069588 14.708622250937196 0 0 0 0 -93.072007305388979 -17.005302805338488 0 -17.005302805338488 9.9922236120307506 0 0 0 0 -77.339006180351134 -23.035709765466152 0 -23.035709765466152 -0.1099629069157686 0 0 0 0 -95.945459017857502 -17.340582978237535 0 -17.340582978237535 10.003516706742971 0 0 0 0 -76.796867185781821 -10.425975034150177 0 -10.425975034150177 3.9544292830790368 0 0 0 0 -103.5068130015643 23.949818751895918 0 23.949818751895918 -13.673384492951925 0 0 0 0 -83.494814955687616 -31.738150383208147 0 -31.738150383208147 9.9422212830216381 0 0 0 0 -83.661051534378203 25.903945772003681 0 25.903945772003681 -14.38128978327245 0 0 0 0 -71.959293663656354 35.524308150469487 0 35.524308150469487 -1.1001464612160703 0 0 0 0 -27.448762971017537 -3.832782333173995 0 -3.832782333173995 7.1587357781269692 0 0 0 0 -55.890034165478085 0.76715431779262833 0 0.76715431779262833 6.3259401231121934 0 0 0 0 -17.866205678275193 0.60432622225245325 0 0.60432622225245325 -7.9739660924324127 0 0 0 0 -107.46896027309049 30.58031074744963 0 30.58031074744963 -12.286186856165841 0 0 0 0 -57.993828052672626 6.0786114256520172 0 6.0786114256520172 7.2496318850398351 0 0 0 0 -146.66840637707537 82.33205204222574 0 82.33205204222574 -100.5902768955184 0 0 0 0 -74.335635426185036 19.632980530784153 0 19.632980530784153 -5.2857258464856614 0 0 0 0 -34.581432630123857 -8.0835906387232512 0 -8.0835906387232512 11.995423137042906 0 0 0 0 -23.446582734393814 70.716427641709828 0 70.716427641709828 -78.216052269370266 0 0 0 0 5.4096356302179629 -129.15808963684367 0 -129.15808963684367 26.267868553879907 0 0 0 0 -24.70854150177513 -3.5419958630506869 0 -3.5419958630506869 -9.3978659702299066 0 0 0 0 -149.62782661881647 64.747510445014541 0 64.747510445014541 -27.948647458673008 0 0 0 0 -142.22048814999289 52.846310487883216 0 52.846310487883216 80.695628239103826 0 0 0 0 -86.433084672280529 50.003460423568015 0 50.003460423568015 -139.72483159493959 0 0 0 0 -340.14383202966565 208.68254197689714 0 208.68254197689714 -90.280271380577233 0 0 0 0 -175.31966349922004 52.993521671983274 0 52.993521671983274 -30.530230911115723 0 0 0 0 -136.94904335743922 86.645006056039094 0 86.645006056039094 -108.95555440502085 0 0 0 0 -590.32778494435479 77.3699501105948 0 77.3699501105948 194.55274937119248 0 0 0 0 -4.6877049833206001 -3.9274068876783303 0 -3.9274068876783303 -1.7693975431944713 0 0 0 0 56.859243656544095 -158.03656406007906 0 -158.03656406007906 -6.1975282139378578 0 0 0 0 83.365762986883055 58.498686492098955 0 58.498686492098955 -69.313784790132559 0 0 0 0 -224.53436353270081 89.981653869375691 0 89.981653869375691 -53.604915435839139 0 0 0 0 -1.7207167275628308 -14.009494259082885 0 -14.009494259082885 -60.146511428020403 0 0 0 0 -269.2340757988859 -61.958028131862193 0 -61.958028131862193 44.716064625278023 0 0 0 0 -165.88450318816467 32.66194998165895 0 32.66194998165895 103.05079678677748 0 0 0 0 -163.3839516959124 -89.205013194015748 0 -89.205013194015748 51.388506872668813 0 0 0 0 31.987255356241803 -39.731784564037284 0 -39.731784564037284 30.618965982459088 0 0 0 0 -165.33439493615879 77.530020017589976 0 77.530020017589976 -9.9707549699843963 0 0 0 0 47.622463900683215 179.55584173759229 0 179.55584173759229 71.359498742900826 0 0 0 0 -360.00359791744268 179.96724984293223 0 179.96724984293223 266.36773913520756 0 0 0 0 -3.1919294886384151 0.81114076707039828 0 0.81114076707039828 0.53381661039502815 0 0 0 0 1427.8918857023818 -34.446363280200785 0 -34.446363280200785 -956.74014688115813 0 0 0 0 -144.88771282038942 39.586160791403415 0 39.586160791403415 40.162915350483445 0 0 0 0 -100.84056420462514 -0.45504515282006963 0 -0.45504515282006963 1.7728590684425352 0 0 0 0 -17.189104708971669 17.42438817971734 0 17.42438817971734 -2.6128055149149065 0 0 0 0 -135.70739609340671 -10.105793578720977 0 -10.105793578720977 111.33707906746412 0 0 0 0 -115.68744827823684 47.527801219913897 0 47.527801219913897 -12.90299809386272 0 0 0 0 -144.78711982525783 74.183097579333804 0 74.183097579333804 -54.578236799863305 0 0 0 0 -5.4821959965825044 -1.2006460559565397 0 -1.2006460559565397 -0.60386663908133364 0 0 0 0 -103.86418249977578 89.426907775992305 0 89.426907775992305 14.994015043475429 0 0 0 0 -128.38412425483693 24.303831451231787 0 24.303831451231787 7.1299594090190794 0 0 0 0 76.326584565927078 -26.031539890076058 0 -26.031539890076058 -8.0880345482673306 0 0 0 0 -58.361178853199817 -19.512108661896125 0 -19.512108661896125 29.595340829982206 0 0 0 0 -110.87053248603479 82.904209019564632 0 82.904209019564632 -19.683512684467608 0 0 0 0 -106.49427173577715 73.081738401400202 0 73.081738401400202 -100.70714927535468 0 0 0 0 -251.79220237168192 108.21520216072389 0 108.21520216072389 -39.271374216287114 0 0 0 0 -2.2414618630097607 -1.8015744844017973 0 -1.8015744844017973 -0.44613496305681433 0 0 0 0 -14.120773273960367 -29.190865964793183 0 -29.190865964793183 -19.655449589434653 0 0 0 0 -158.02479497647437 103.53771391953379 0 103.53771391953379 -13.484292570914784 0 0 0 0 -4.8280180641522747 -32.315017058062033 0 -32.315017058062033 -56.274097029376492 0 0 0 0 -149.20591090497692 87.570543940122121 0 87.570543940122121 -108.91587842890652 0 0 0 0 -331.82899528041889 178.2025916687036 0 178.2025916687036 -64.943525500700815 0 0 0 0 -292.20593080031176 -11.272227419621572 0 -11.272227419621572 -56.522977507282349 0 0 0 0 -192.67364620712033 69.407219502289848 0 69.407219502289848 -0.15103331553255306 0 0 0 0 -710.83349802086741 325.95569605519984 0 325.95569605519984 -75.686833045206669 0 0 0 0 -416.58885823457967 114.59942408962712 0 114.59942408962712 -0.073450021741243016 0 0 0 0 -485.23627477907576 158.50553546708417 0 158.50553546708417 -83.801359149743732 0 0 0 0 -479.13668083445373 224.84797953388113 0 224.84797953388113 -150.13591599997807 0 0 0 0 -481.84695658965938 226.31664778013285 0 226.31664778013285 -64.057372375442199 0 0 0 0 -705.7987136249285 355.69124281118707 0 355.69124281118707 -107.79907514581339 0 0 0 0 -325.67347320010595 223.73568592253403 0 223.73568592253403 -135.76701983566059 0 0 0 0 -312.20467645153985 120.45773899717419 0 120.45773899717419 -37.520175951802258 0 0 0 0 -226.76055930684106 160.26151205569016 0 160.26151205569016 -125.20490911981864 0 0 0 0 -344.17754333434277 124.18891981023448 0 124.18891981023448 -84.657923195625926 0 0 0 0 -119.84877549900557 54.173247051740191 0 54.173247051740191 -62.342325660815533 0 0 0 0 -226.49254148200271 102.97998232993979 0 102.97998232993979 -27.805753199457072 0 0 0 0 -241.83691175002605 85.58359306236062 0 85.58359306236062 -46.209019805041095 0 0 0 0 -150.43147390002559 16.568809438283836 0 16.568809438283836 -9.9417125999589757 0 0 0 0 -198.57780447194818 113.14917977448323 0 113.14917977448323 -33.443985620627529 0 0 0 0 -282.51120981310669 194.99040752104253 0 194.99040752104253 -148.34554063177924 0 0 0 0 -215.40782591312018 91.828972481128673 0 91.828972481128673 -85.184608328599182 0 0 0 0 -368.44556485400244 237.90907441338868 0 237.90907441338868 -128.88984615744602 0 0 0 0 -399.37189896604832 194.02055317071319 0 194.02055317071319 -105.6528397604428 0 0 0 0 -634.16236035751353 398.91953330643935 0 398.91953330643935 -190.67260259049095 0 0 0 0 -661.05277249326173 362.2727990377947 0 362.2727990377947 -150.53669982168051 0 0 0 0 -753.43729317297402 470.65411408489371 0 470.65411408489371 -181.32847987184334 0 0 0 0 -733.16391722485423 335.73422325439174 0 335.73422325439174 -118.77958851219368 0 0 0 0 -1114.0574072447926 681.05098591957835 0 681.05098591957835 -233.18268326356849 0 0 0 0 -1377.2876666171869 588.5779935650728 0 588.5779935650728 31.661405912397584 0 0 0 0 -1219.4050528024163 402.66021181223545 0 402.66021181223545 -7.9437770965275263 0 0 0 0 -1202.4859933041444 468.08063762570589 0 468.08063762570589 -32.811947870476274 0 0 0 0 -866.80961570753061 219.94632978292543 0 219.94632978292543 -34.23538721185804 0 0 0 0 -1465.859932651183 304.13456902742831 0 304.13456902742831 -5.1472593789297889 0 0 0 0 -1264.5640267865201 433.65765486849534 0 433.65765486849534 -102.71013959153726 0 0 0 0 -792.36384139012262 153.86906088288433 0 153.86906088288433 -0.079320533344490296 0 0 0 0 -1248.3144590230004 375.63018498524974 0 375.63018498524974 -20.539862475608949 0 0 0 0 -2497.5496694840185 757.80843763044186 0 757.80843763044186 0.49896604250095622 0 0 0 0 -2404.0072078981284 640.86887750539688 0 640.86887750539688 1.7857224395282287 0 0 0 0 -1888.0407443556542 0.67965797670933004 0 0.67965797670933004 -0.84686842812001517 0 0 0 0 -4.5507403279810887 0.50240183042781439 0 0.50240183042781439 0.45892534172179861 0 0 0 0 -1705.1933234092285 215.40223663874622 0 215.40223663874622 -0.40361115410268766 0 0 0 0 -1672.9946117418804 492.86371437612775 0 492.86371437612775 124.64628661729029 0 0 0 0 -1860.2519710737688 351.2098559549222 0 351.2098559549222 57.767437872431003 0 0 0 0 -1902.8073879652438 281.83662838870697 0 281.83662838870697 332.26988168874232 0 0 0 0 -5.0194794372505669 0.26314169805674226 0 0.26314169805674226 0.73007438368509181 0 0 0 0 -2189.7534352374641 442.6658021268222 0 442.6658021268222 348.79397082705697 0 0 0 0 -2498.3430647217683 589.66429123094463 0 589.66429123094463 398.45768814311725 0 0 0 0 -1841.1469412842416 673.02647469656222 0 673.02647469656222 193.63419219847916 0 0 0 0 -1737.7867580104066 507.02403305084329 0 507.02403305084329 122.32787282949913 0 0 0 0 -1611.7380360144671 587.42256082041638 0 587.42256082041638 44.384154860840731 0 0 0 0 -2255.7969122328577 742.57652634938347 0 742.57652634938347 218.80788559961499 0 0 0 0 -1713.7255639919458 814.80922196940128 0 814.80922196940128 158.83927430393607 0 0 0 0 -2500.4220932305689 1069.8913536280118 0 1069.8913536280118 76.930151318438845 0 0 0 0 -1369.4733960978047 1077.3390789988655 0 1077.3390789988655 -434.93177281706795 0 0 0 0 -2495.8341792867941 1563.5792323376961 0 1563.5792323376961 -584.87365064311075 0 0 0 0 -489.120757465098 466.44087415057356 0 466.44087415057356 -572.66562841506322 0 0 0 0 -1410.4876535371659 1006.7711004001069 0 1006.7711004001069 -438.98546506770975 0 0 0 0 -703.81276384612283 473.83567055589396 0 473.83567055589396 -236.07102265745021 0 0 0 0 -665.02615359619085 500.8249899277854 0 500.8249899277854 -241.67494189590252 0 0 0 0 -345.19429104260053 189.27517614460521 0 189.27517614460521 -153.7007643899741 0 0 0 0 -120.55514862715791 7.7465281541522018 0 7.7465281541522018 -203.83863329985707 0 0 0 0 -210.77560814715616 263.44259665175031 0 263.44259665175031 -393.36431412465504 0 0 0 0 -305.3046446799417 69.503801119074296 0 69.503801119074296 -23.904088159452385 0 0 0 0 -232.10035125894137 -8.3982906206261987 0 -8.3982906206261987 198.34869505245308 0 0 0 0 -45.971656753516015 1.4248227561724107 0 1.4248227561724107 0.67791554523979403 0 0 0 0 -460.87334035979802 516.43268477693562 0 516.43268477693562 -490.58088828272275 0 0 0 0 -15.399931345050689 3.2387072162399022 0 3.2387072162399022 -0.90247909665267967 0 0 0 0 -66.687456370033033 81.78842697119515 0 81.78842697119515 36.425234998971227 0 0 0 0 -268.57198026984406 54.945282500342273 0 54.945282500342273 38.735393521755896 0 0 0 0 -59.570939915944422 -1.4297554113457593 0 -1.4297554113457593 -0.2346267087938585 0 0 0 0 -69.938362573324412 87.90002620262085 0 87.90002620262085 4.0054199330329538 0 0 0 0 -25.648405448675476 50.144367094822421 0 50.144367094822421 -74.396508927805883 0 0 0 0 -126.20891134886915 19.464298897945781 0 19.464298897945781 -78.253296047485208 0 0 0 0 -365.1342675417618 171.82760640753196 0 171.82760640753196 -44.126174453737121 0 0 0 0 -873.20636921685946 -1083.1693191410213 0 -1083.1693191410213 -703.09416946571935 0 0 0 0 -2495.3340380896334 -652.5603322462498 0 -652.5603322462498 297.55535205664694 0 0 0 0 -943.79393991003599 1701.9857383913009 0 1701.9857383913009 -2379.2566173285163 0 0 0 0 -18.771959887041703 1.5080164404540728 0 1.5080164404540728 -2.2054327663342899 0 0 0 0 -484.85374158130435 -275.34531723651162 0 -275.34531723651162 56.472693236597479 0 0 0 0 -546.54251286728868 -151.90251219725133 0 -151.90251219725133 468.60973810653741 0 0 0 0 -631.78344350439875 -426.98900456395677 0 -426.98900456395677 243.62215508205554 0 0 0 0 -478.1430732866429 -361.93846491955992 0 -361.93846491955992 -6.8863163495152548 0 0 0 0 -650.61131732183276 -529.78100832324344 0 -529.78100832324344 -33.545745814882139 0 0 0 0 -552.67430897175655 -403.46048193854585 0 -403.46048193854585 92.135837414502021 0 0 0 0 -511.85759908737964 -310.17387399489962 0 -310.17387399489962 -236.48718978339343 0 0 0 0 -151.33919944696027 -45.394256193425917 0 -45.394256193425917 8.3936300343557377 0 0 0 0 -75.294103794498369 -28.875019136232368 0 -28.875019136232368 2.1653375808782584 0 0 0 0 -49.287875275800218 0.19947364087283148 0 0.19947364087283148 27.882792689987248 0 0 0 0 -61.097321878123211 16.841622374126807 0 16.841622374126807 22.480556108660114 0 0 0 0 -613.1913167318271 -173.39726237281138 0 -173.39726237281138 -62.894130120887326 0 0 0 0 -542.152558913338 -274.62790867821514 0 -274.62790867821514 -53.132444527054759 0 0 0 0 -59.469921900850451 -9.6895448276712557 0 -9.6895448276712557 12.083144415092457 0 0 0 0 -610.82116085122652 -213.87420965416868 0 -213.87420965416868 232.70672202915739 0 0 0 0 -13.457907970223353 -16.94816201036641 0 -16.94816201036641 23.52173071869003 0 0 0 0 -881.36279005724282 -142.60205278057038 0 -142.60205278057038 200.17340953197345 0 0 0 0 -654.99008415569915 -267.5034530838816 0 -267.5034530838816 149.39817221922567 0 0 0 0 -436.84004828146499 -22.536057464025589 0 -22.536057464025589 571.05260697364793 0 0 0 0 -179.02673895520275 -152.06225747240751 0 -152.06225747240751 405.05545495547449 0 0 0 0 -346.62387514726288 -41.312416016150564 0 -41.312416016150564 142.31425510100416 0 0 0 0 311.13762273574685 188.52390329270202 0 188.52390329270202 356.3989986100205 0 0 0 0 -281.74421838395392 -2.243798549429016 0 -2.243798549429016 455.57215852252284 0 0 0 0 -536.43327600906923 826.67743506749139 0 826.67743506749139 1192.3342226724815 0 0 0 0 -823.18825897582428 -26.378202995508218 0 -26.378202995508218 895.90153959052395 0 0 0 0 129.7494333464856 943.65846717730528 0 943.65846717730528 1080.9363009484914 0 0 0 0 -33.339197216686657 19.135536433563303 0 19.135536433563303 -5.5687995495269327 0 0 0 0 -306.2661860913795 157.24275217642571 0 157.24275217642571 887.86806268118335 0 0 0 0 705.09310594544331 464.22162043794651 0 464.22162043794651 -207.75382620650998 0 0 0 0 -470.65390630459297 4.173559199644842 0 4.173559199644842 511.79268044896889 0 0 0 0 -283.74632529043811 347.4713033709204 0 347.4713033709204 31.288382974718843 0 0 0 0 -718.28854202395451 -339.9253253816405 0 -339.9253253816405 196.68042678301208 0 0 0 0 -672.53108226522454 -211.10045318362245 0 -211.10045318362245 -69.583586164149892 0 0 0 0 -1030.8330082710527 10.438460083511018 0 10.438460083511018 -91.364131988284498 0 0 0 0 -1991.408776426746 -604.75313324342278 0 -604.75313324342278 -1186.3657557634797 0 0 0 0 -1145.9307083684835 298.30755270445661 0 298.30755270445661 -615.97330667291681 0 0 0 0 -1600.9053551844991 -432.0155089049058 0 -432.0155089049058 -120.85542146158332 0 0 0 0 -402.87835231608187 729.80579602562648 0 729.80579602562648 -265.70278684890036 0 0 0 0 -202.56693658715812 702.74498831463916 0 702.74498831463916 -480.27132877144322 0 0 0 0 -346.5322937560868 759.94368530452039 0 759.94368530452039 -536.56800807796753 0 0 0 0 -982.12991469608096 301.10537666259734 0 301.10537666259734 -636.16275594225408 0 0 0 0 -286.10145181242842 583.63213012331107 0 583.63213012331107 -463.32723607426851 0 0 0 0 -41.289030269697832 867.97171859405262 0 867.97171859405262 -357.01329584987616 0 0 0 0 -464.30816529419826 337.70187893793559 0 337.70187893793559 -397.99163971523376 0 0 0 0 -972.16675683007634 113.4557926956968 0 113.4557926956968 -674.79243903984343 0 0 0 0 -504.3782403344494 523.62187286933818 0 523.62187286933818 -396.34722747168416 0 0 0 0 -3504.1882898121839 -333.38796978494429 0 -333.38796978494429 -13.688882362042932 0 0 0 0 -12.575264017018668 -5.8651657510370683 0 -5.8651657510370683 1.1790918791177205 0 0 0 0 -3068.1831336314062 -380.64459240102769 0 -380.64459240102769 -106.79888113688503 0 0 0 0 -1063.3394665368251 411.21637852869935 0 411.21637852869935 -689.43940188312263 0 0 0 0 -2838.6952790924697 488.97534239860215 0 488.97534239860215 -567.94310422529088 0 0 0 0 -1746.626802138373 -77.856722813721717 0 -77.856722813721717 -812.26414378840309 0 0 0 0 -1739.8810515264486 588.00168731806298 0 588.00168731806298 -753.65270485736983 0 0 0 0 -975.04975087720959 221.99514815798648 0 221.99514815798648 -1130.8193003198467 0 0 0 0 1.7314551715257664 4.547801756130653 0 4.547801756130653 1.0832145372745003 0 0 0 0 -345.8335460479866 227.69671933790687 0 227.69671933790687 368.60400121815655 0 0 0 0 -1153.9388738085981 839.70536682529564 0 839.70536682529564 -559.89523272216229 0 0 0 0 -537.15368850531013 -192.79141761714345 0 -192.79141761714345 147.2323131258745 0 0 0 0 -48.013544688583551 14.220030533475324 0 14.220030533475324 22.756940983620311 0 0 0 0 -128.10058239399223 409.09243993988002 0 409.09243993988002 312.76685817208249 0 0 0 0 -804.52727704960853 -779.10023152373469 0 -779.10023152373469 -594.31955752159411 0 0 0 0 -116.36378555923147 -255.76993590982329 0 -255.76993590982329 -913.80349228564228 0 0 0 0 106.31360912278979 -45.116425740584873 0 -45.116425740584873 151.5189771194382 0 0 0 0 -403.12280610641665 -480.34054360829282 0 -480.34054360829282 -334.90109369465063 0 0 0 0 -454.62389880555565 -565.64709162219151 0 -565.64709162219151 -475.56230070835227 0 0 0 0 -745.16609652244551 -657.34548200700215 0 -657.34548200700215 -198.20229449677572 0 0 0 0 -214.7546459239893 12.067025671033662 0 12.067025671033662 95.304752105103944 0 0 0 0 -103.4556964997646 79.460098710681905 0 79.460098710681905 93.833325416173466 0 0 0 0 -21.44026942639249 -6.1394799351795939 0 -6.1394799351795939 0.67261184656610595 0 0 0 0 -58.642850780628052 17.859513427644522 0 17.859513427644522 21.369707911954325 0 0 0 0 -405.61739230361854 -454.10555860945533 0 -454.10555860945533 -253.2614892683921 0 0 0 0 -116.46358089568093 77.50279101326305 0 77.50279101326305 166.35592617212023 0 0 0 0 -174.93376073567197 34.997912150232878 0 34.997912150232878 213.81003358422095 0 0 0 0 -179.32579928127234 4.1478026617387513 0 4.1478026617387513 148.24517029752951 0 0 0 0 -147.77110917311802 22.912746470557067 0 22.912746470557067 52.918890268938412 0 0 0 0 -195.13502095158856 -135.25280963007521 0 -135.25280963007521 103.35444200020902 0 0 0 0 -127.38949438292912 -85.578227659734239 0 -85.578227659734239 -44.246645147400159 0 0 0 0 -7.5343655513259762 -4.456579926834106 0 -4.456579926834106 1.7217691771843247 0 0 0 0 -148.27472962606407 -238.12977137539201 0 -238.12977137539201 -228.32109096062777 0 0 0 0 -163.33197555592051 50.061305202754738 0 50.061305202754738 160.71879323488974 0 0 0 0 -43.331537498394027 37.841653584225242 0 37.841653584225242 32.031228455148721 0 0 0 0 -87.794713010746847 14.402755450482264 0 14.402755450482264 1.6536010932507856 0 0 0 0 -122.15018129716918 0.88570120812666175 0 0.88570120812666175 70.257807254489677 0 0 0 0 -16.301156350186425 -30.177470717501876 0 -30.177470717501876 24.625291738500483 0 0 0 0 -145.17019006756891 -2.3218353957919007 0 -2.3218353957919007 93.668668123253084 0 0 0 0 -84.274237228059064 29.612721154469789 0 29.612721154469789 69.193398987668246 0 0 0 0 -119.33677782070299 -6.5210849888215137 0 -6.5210849888215137 82.032435732990336 0 0 0 0 -155.80362691386836 4.8121039992103931 0 4.8121039992103931 78.904550302239102 0 0 0 0 -136.4235347211652 -1.8018204759906098 0 -1.8018204759906098 61.732285263744956 0 0 0 0 -155.9279133010532 27.270560025862444 0 27.270560025862444 71.670981063928593 0 0 0 0 -125.54848633235088 44.015488004864721 0 44.015488004864721 67.831034147882306 0 0 0 0 -183.22294073973899 33.564968118285123 0 33.564968118285123 72.585291029212556 0 0 0 0 -154.70407102328318 28.394287855847082 0 28.394287855847082 66.09998088766578 0 0 0 0 -169.2497355743908 15.450976574662164 0 15.450976574662164 52.3459613217276 0 0 0 0 -197.21274587711378 -16.557116067676134 0 -16.557116067676134 53.937078528253835 0 0 0 0 -179.78375505196163 0.93411768279608509 0 0.93411768279608509 65.40265389160939 0 0 0 0 -165.58838725699752 -32.994306562966969 0 -32.994306562966969 51.218717571669941 0 0 0 0 -98.008066353325376 -60.669785105741362 0 -60.669785105741362 -33.20007864789136 0 0 0 0 -204.5534274775855 -38.570302527839203 0 -38.570302527839203 39.589168435190466 0 0 0 0 -16.290203491364608 -32.601750322075958 0 -32.601750322075958 22.107491258249627 0 0 0 0 -152.76559812173946 -29.752862697748213 0 -29.752862697748213 37.668768742089348 0 0 0 0 -139.3479583003209 -29.872716757653549 0 -29.872716757653549 29.274642318198772 0 0 0 0 -144.61126929822785 -23.600146096709068 0 -23.600146096709068 49.267218710919082 0 0 0 0 -92.043917590351612 28.335888528347841 0 28.335888528347841 0.73946117184976901 0 0 0 0 -119.80755684155156 24.036781722626074 0 24.036781722626074 59.779572388259112 0 0 0 0 -113.79640522137925 8.9979543383078635 0 8.9979543383078635 75.772422602289225 0 0 0 0 -148.0219137948734 37.06695428247258 0 37.06695428247258 82.4064633410635 0 0 0 0 -142.75805712164583 21.847353326739267 0 21.847353326739267 99.128751330510568 0 0 0 0 -30.784944555845868 80.979803754633579 0 80.979803754633579 57.345967662683393 0 0 0 0 -40.320514203500352 69.500121878179712 0 69.500121878179712 64.599711314552238 0 0 0 0 -31.860081805036316 86.55893638716249 0 86.55893638716249 58.645595239408465 0 0 0 0 -31.53647263302264 76.353179474041639 0 76.353179474041639 60.134091089727576 0 0 0 0 -69.401101887429832 71.461281135198163 0 71.461281135198163 68.077481548659478 0 0 0 0 -52.449742446944583 68.276565158406271 0 68.276565158406271 64.678977167500577 0 0 0 0 -45.055015460180584 81.684462848787149 0 81.684462848787149 61.258039939709285 0 0 0 0 -76.26017166825477 61.808000837095676 0 61.808000837095676 69.044098308917157 0 0 0 0 -237.31273410294671 65.355349112989643 0 65.355349112989643 127.71087229606655 0 0 0 0 -95.19050652181906 19.620698353872218 0 19.620698353872218 -0.79695156571229497 0 0 0 0 -99.687830192167894 60.453736661427762 0 60.453736661427762 73.79665810817977 0 0 0 0 -9.5449806500666909 -15.937921293290813 0 -15.937921293290813 12.805678073603326 0 0 0 0 -114.50612087579793 -33.577029981524902 0 -33.577029981524902 98.493459690167356 0 0 0 0 -103.62979313949836 61.154263072249101 0 61.154263072249101 75.688118659076039 0 0 0 0 -104.82606077245146 56.07924958050684 0 56.07924958050684 73.351303688147382 0 0 0 0 -140.09415726730367 58.733301647269741 0 58.733301647269741 79.352886571662225 0 0 0 0 -133.55403497460065 57.068113145223492 0 57.068113145223492 78.863491735746209 0 0 0 0 -103.33343827966019 67.826868866823858 0 67.826868866823858 74.431588110392681 0 0 0 0 -134.59330658835097 62.223555059784523 0 62.223555059784523 64.4195186622579 0 0 0 0 -97.727235810212733 81.474381800269498 0 81.474381800269498 73.809300714613869 0 0 0 0 -84.009351864209748 69.423567476159604 0 69.423567476159604 77.517143420936293 0 0 0 0 -71.180814902545535 81.798932991598235 0 81.798932991598235 70.550332507399531 0 0 0 0 -95.465122857423921 77.796144509526101 0 77.796144509526101 75.002416215852094 0 0 0 0 -90.611874968919437 69.209671966090028 0 69.209671966090028 71.927772656405111 0 0 0 0 -63.432352332369192 77.781946631676092 0 77.781946631676092 68.5572478489009 0 0 0 0 -68.374197394878138 69.744176028028605 0 69.744176028028605 70.739443788146616 0 0 0 0 -97.484216483368073 65.806772538434771 0 65.806772538434771 71.718204734606644 0 0 0 0 -99.679161873500561 74.123948633012219 0 74.123948633012219 74.425449009485249 0 0 0 0 -272.51842270779161 -175.32581725138812 0 -175.32581725138812 18.675596276045553 0 0 0 0 -21.913376524982652 -2.2235173519395772 0 -2.2235173519395772 15.711495658791527 0 0 0 0 -29.370941839915758 80.178183398931594 0 80.178183398931594 73.205280931156381 0 0 0 0 -49.344980196459801 82.974968006543008 0 82.974968006543008 65.067084339547193 0 0 0 0 -43.082226790080313 86.108888132420233 0 86.108888132420233 62.667660400348936 0 0 0 0 -44.048597731627524 80.031789309968843 0 80.031789309968843 60.222073501104873 0 0 0 0 -47.843224683021617 85.674127167324968 0 85.674127167324968 70.74935815356659 0 0 0 0 -38.757711600861512 90.687430026194463 0 90.687430026194463 64.413027648520881 0 0 0 0 -64.254928238864522 81.670791773651274 0 81.670791773651274 68.804742694706874 0 0 0 0 -48.346828359513893 88.031874169315188 0 88.031874169315188 68.045875384561356 0 0 0 0 -71.472383035539679 81.8971317235074 0 81.8971317235074 77.125216369840928 0 0 0 0 -79.987088697889703 81.701895569709109 0 81.701895569709109 86.525973108746868 0 0 0 0 -50.076574128121138 91.100639023587405 0 91.100639023587405 78.790123767495231 0 0 0 0 -45.164825902946177 81.508877003616789 0 81.508877003616789 76.929386510027129 0 0 0 0 -33.960679801151855 92.786677026670915 0 92.786677026670915 77.277323926910128 0 0 0 0 -35.175845507474151 90.052739657018861 0 90.052739657018861 71.355810754033115 0 0 0 0 -16.816880226928333 64.825038567020783 0 64.825038567020783 91.971538864678365 0 0 0 0 -23.769061760453042 71.644690375900268 0 71.644690375900268 80.165294528446822 0 0 0 0 -41.486612811495434 87.557251851172225 0 87.557251851172225 86.642901633872725 0 0 0 0 119.16171122905507 90.895233075383473 0 90.895233075383473 75.032954396065207 0 0 0 0 -21.373377979572979 97.339935832215446 0 97.339935832215446 98.245346541075179 0 0 0 0 73.57177404369304 38.758141294455299 0 38.758141294455299 86.850841550627194 0 0 0 0 11.052239014272345 34.488289423135356 0 34.488289423135356 122.67542311540578 0 0 0 0 -20.371597811383253 81.631361784102111 0 81.631361784102111 108.42729512947807 0 0 0 0 -46.277109252601804 94.960931172477729 0 94.960931172477729 84.487324043130585 0 0 0 0 -50.564750631936477 45.045250102628287 0 45.045250102628287 96.116692658698582 0 0 0 0 -76.446153662698634 77.975860124525127 0 77.975860124525127 67.717382433362786 0 0 0 0 -136.57801699889387 48.601735204963283 0 48.601735204963283 87.736270583646174 0 0 0 0 -133.46572885722708 48.429176546956469 0 48.429176546956469 47.726466174212987 0 0 0 0 -172.16772752099496 47.996001430176989 0 47.996001430176989 77.570605632420865 0 0 0 0 -197.24485303323308 47.084662008778423 0 47.084662008778423 65.887219598302437 0 0 0 0 -139.14613606290368 11.756388140951572 0 11.756388140951572 20.783675511095623 0 0 0 0 -222.27057511154931 19.295970643618357 0 19.295970643618357 46.088878476102707 0 0 0 0 -172.90936299832538 -55.409533312921667 0 -55.409533312921667 1.6304798149212161 0 0 0 0 -147.75150184295489 27.372248849548896 0 27.372248849548896 100.88840314567588 0 0 0 0 -43.789787788169633 39.528888762378529 0 39.528888762378529 39.785019227383486 0 0 0 0 -189.51100523013156 7.0702964629700773 0 7.0702964629700773 98.025413584165449 0 0 0 0 -54.476258079628678 65.047872093212305 0 65.047872093212305 129.26033022358757 0 0 0 0 -9.0584641703421767 25.107055691146289 0 25.107055691146289 15.979709623592413 0 0 0 0 -192.71361124578107 -142.88222292956601 0 -142.88222292956601 -73.879458654543129 0 0 0 0 -287.43937451860984 -121.16488675962654 0 -121.16488675962654 -7.452580102083175 0 0 0 0 -141.77910160085594 -108.27886628994082 0 -108.27886628994082 -82.230001927431829 0 0 0 0 -162.3344234033284 -59.962140613789572 0 -59.962140613789572 -10.100250154569324 0 0 0 0 -198.51934429278481 -77.606619485886569 0 -77.606619485886569 -0.36341917927040868 0 0 0 0 -205.6398579243978 -89.749509356338564 0 -89.749509356338564 -19.129396213810026 0 0 0 0 -180.32403085460101 -19.08620617822713 0 -19.08620617822713 37.020750403845113 0 0 0 0 -206.51867113082699 -12.845115673363523 0 -12.845115673363523 30.440383654905531 0 0 0 0 -242.02489526278805 -42.098507290274711 0 -42.098507290274711 26.741486839344134 0 0 0 0 -235.5893879608775 -47.143880681900839 0 -47.143880681900839 30.688313811624738 0 0 0 0 -171.17873600908297 21.652493973390801 0 21.652493973390801 53.211659472751649 0 0 0 0 -220.81354546190414 -8.876044335075818 0 -8.876044335075818 51.377187386711029 0 0 0 0 -203.48181916611793 32.402227627550218 0 32.402227627550218 60.289363457190689 0 0 0 0 -294.31743827577156 -51.370957421069392 0 -51.370957421069392 30.315442394982085 0 0 0 0 -207.00733786703677 -0.89013660253355908 0 -0.89013660253355908 32.850514338124469 0 0 0 0 -258.64566690905485 30.57767717611793 0 30.57767717611793 28.48217874856573 0 0 0 0 -266.3039147577656 -65.370865506404385 0 -65.370865506404385 12.031409063090933 0 0 0 0 -242.42427490612317 -65.351640231614283 0 -65.351640231614283 6.5732355715505548 0 0 0 0 -262.67714231420541 -30.681823842501103 0 -30.681823842501103 43.766172932239499 0 0 0 0 -268.93234325252706 -61.38560481118531 0 -61.38560481118531 14.00311262863454 0 0 0 0 -401.3211762701103 -64.051631494519341 0 -64.051631494519341 34.504716900799934 0 0 0 0 -221.43536891431279 -31.651432025508932 0 -31.651432025508932 -14.876679850048617 0 0 0 0 -284.96869269053423 28.015691553578023 0 28.015691553578023 -67.505751744947474 0 0 0 0 -258.43407256960199 -103.81693427046093 0 -103.81693427046093 -50.937567024911722 0 0 0 0 -31.749499387983072 19.45733833498349 0 19.45733833498349 8.7953707829012071 0 0 0 0 -110.25099896801839 46.813393783905667 0 46.813393783905667 22.720624014755685 0 0 0 0 -138.72244411682914 57.67986151143765 0 57.67986151143765 33.040739703177451 0 0 0 0 -5.8204783048552571 -0.39559619108469235 0 -0.39559619108469235 2.4238348386257011 0 0 0 0 -295.15326512072352 -163.7564141899708 0 -163.7564141899708 -34.409233533564873 0 0 0 0 -44.066534886256704 -40.176526755270061 0 -40.176526755270061 41.930558736454032 0 0 0 0 -160.14878092337676 -53.481685260604763 0 -53.481685260604763 81.705540502555777 0 0 0 0 -205.16314653595691 -14.964589550633491 0 -14.964589550633491 90.064239526358506 0 0 0 0 -276.02426726624617 -96.763501695298544 0 -96.763501695298544 -34.963536344831823 0 0 0 0 -332.73180006354596 -155.02121476808145 0 -155.02121476808145 -7.59287054915319 0 0 0 0 36.933280052038754 159.79076049977539 0 159.79076049977539 16.926850129574177 0 0 0 0 -26.318236777972274 20.825566903543226 0 20.825566903543226 1.8150554490582236 0 0 0 0 -202.14481565437745 160.28081633477655 0 160.28081633477655 72.961213051632058 0 0 0 0 -246.68203858908237 -61.444521524727634 0 -61.444521524727634 51.383503403910254 0 0 0 0 -56.091779447226145 -55.527881778684218 0 -55.527881778684218 -49.368104631452297 0 0 0 0 -173.13639273417357 -53.936842529388855 0 -53.936842529388855 1.0944599472441041 0 0 0 0 -179.5178155450576 -20.781238351496881 0 -20.781238351496881 71.462649195909762 0 0 0 0 -145.23940987087951 -7.7478905496074297 0 -7.7478905496074297 19.849855984580245 0 0 0 0 -145.33237497070672 21.600755153779939 0 21.600755153779939 50.644884706473022 0 0 0 0 -205.52120983665372 -58.544480921113447 0 -58.544480921113447 126.96192451989054 0 0 0 0 -69.179688872107363 61.75119049791877 0 61.75119049791877 98.11546788953126 0 0 0 0 -182.76256092397307 -69.617790486043134 0 -69.617790486043134 -22.004085398398956 0 0 0 0 -244.83469715460888 -45.5536256579786 0 -45.5536256579786 37.88370652789024 0 0 0 0 -263.27392085343308 -120.59417269696598 0 -120.59417269696598 24.718089267112248 0 0 0 0 -200.74478805416584 -166.84123423300889 0 -166.84123423300889 -117.3792361070814 0 0 0 0 -336.86423693919005 -87.194267691145683 0 -87.194267691145683 28.427254728833759 0 0 0 0 -270.25186163066246 -50.505501279476903 0 -50.505501279476903 -19.190368351659117 0 0 0 0 -37.125674143637298 -41.75228610747115 0 -41.75228610747115 33.519046388143494 0 0 0 0 -280.14556071760308 -100.45821028722941 0 -100.45821028722941 82.623867918273163 0 0 0 0 120.88343188459112 124.45799647146077 0 124.45799647146077 -57.596339147134586 0 0 0 0 -25.833257393399158 21.31377834366026 0 21.31377834366026 -1.7320285374101916 0 0 0 0 -218.53394026855676 -241.90665705144852 0 -241.90665705144852 -64.601501520653869 0 0 0 0 -16.745302426008493 -5.4593963911317474 0 -5.4593963911317474 27.866460743037806 0 0 0 0 -316.7109105648924 -278.89707473765964 0 -278.89707473765964 62.061504275868629 0 0 0 0 -829.50264759827405 -43.062262703502256 0 -43.062262703502256 63.481996598550211 0 0 0 0 -299.95139495895478 30.811077140177304 0 30.811077140177304 34.272420723856158 0 0 0 0 -297.84610570749885 69.925855632129611 0 69.925855632129611 33.238840228738809 0 0 0 0 -123.8131769862357 -125.03795915660584 0 -125.03795915660584 -88.285416424224877 0 0 0 0 0.96167886113765633 -2.913928101241936 0 -2.913928101241936 -0.44003757578092717 0 0 0 0 -21.900372725864145 -77.756164017350329 0 -77.756164017350329 -42.963214964669078 0 0 0 0 -31.998350640431454 44.161710712912054 0 44.161710712912054 -105.78768821030189 0 0 0 0 -84.489318645742969 -55.717005436494333 0 -55.717005436494333 -16.161883172578086 0 0 0 0 -261.28154572961535 67.02448400134486 0 67.02448400134486 30.372390844174333 0 0 0 0 -265.47940761933569 31.862621352980568 0 31.862621352980568 32.957533327043393 0 0 0 0 36.105260654800077 67.967214362818936 0 67.967214362818936 90.595553636266686 0 0 0 0 -3.8133156299396438 -0.21766593516004917 0 -0.21766593516004917 3.1066102223051075 0 0 0 0 19.275064428641599 45.109376504007685 0 45.109376504007685 -356.02324711412894 0 0 0 0 90.140684280067944 179.4104519844791 0 179.4104519844791 -274.34636967237861 0 0 0 0 22.711289299372766 81.710313245080812 0 81.710313245080812 -41.863009743647126 0 0 0 0 -470.3247757181598 383.03677678319758 0 383.03677678319758 29.463614579948626 0 0 0 0 -25.630299113225547 -10.498087411357787 0 -10.498087411357787 -0.34436626337296072 0 0 0 0 -213.45875535462983 288.64088500934167 0 288.64088500934167 -155.58223380248637 0 0 0 0 418.03637782419173 719.63233288052152 0 719.63233288052152 -14.04945735113904 0 0 0 0 -6.5925383088031637 -15.100980580895758 0 -15.100980580895758 0.4234908827902828 0 0 0 0 -12.994551428410091 7.026976741072211 0 7.026976741072211 -2.3596016627580187 0 0 0 0 -256.13912938661451 -789.63654989532722 0 -789.63654989532722 -1426.3563361935594 0 0 0 0 -2125.9568565531008 638.26014602687405 0 638.26014602687405 1879.3741222139338 0 0 0 0 -242.35629319601867 531.79188342846453 0 531.79188342846453 -53.424864964310927 0 0 0 0 181.3080096088961 143.23292699706124 0 143.23292699706124 -311.24374243141574 0 0 0 0 285.41163285470975 337.11904390474774 0 337.11904390474774 -178.62614008963544 0 0 0 0 739.4282377608979 271.51156391719746 0 271.51156391719746 -333.95863029656971 0 0 0 0 147.58836700478423 424.14364670358509 0 424.14364670358509 453.98434605703119 0 0 0 0 -505.40548684888563 -214.11431678050303 0 -214.11431678050303 220.30373428703024 0 0 0 0 -1219.1003586981096 -258.54987253901345 0 -258.54987253901345 235.16307009321736 0 0 0 0 -839.05744799731474 127.56311835436418 0 127.56311835436418 26.832815919732184 0 0 0 0 -835.88722488929307 230.56101321053802 0 230.56101321053802 268.91024872202433 0 0 0 0 -1.213468538292497 -12.377876509931063 0 -12.377876509931063 7.5465739533623895 0 0 0 0 -836.370069440316 496.64432378585383 0 496.64432378585383 -301.04761019536835 0 0 0 0 -2361.1447189695609 -640.0450246368008 0 -640.0450246368008 119.24184091677314 0 0 0 0 -1615.8385400959305 -642.38505716632289 0 -642.38505716632289 -719.27507985422085 0 0 0 0 -904.70322014194971 386.97808753181744 0 386.97808753181744 -229.33014043604953 0 0 0 0 -1782.4807147025094 -241.191610640303 0 -241.191610640303 536.60441767519205 0 0 0 0 399.76717788281167 72.377956947192843 0 72.377956947192843 -257.77075040521527 0 0 0 0 528.13150639448213 1171.592732660793 0 1171.592732660793 535.66312378842213 0 0 0 0 189.57940826503909 -92.38549484503335 0 -92.38549484503335 111.77606458420587 0 0 0 0 -30.49638466505229 18.326296996481432 0 18.326296996481432 -6.6048854986444505 0 0 0 0 -122.40960465576791 269.79398273549771 0 269.79398273549771 -304.57872989961447 0 0 0 0 -153.21260766044725 -258.79160641824126 0 -258.79160641824126 -511.02135476975786 0 0 0 0 -2231.096120530543 -145.93045714680886 0 -145.93045714680886 18.374178423749527 0 0 0 0 -1829.7243417917925 768.73854571386448 0 768.73854571386448 -92.182748944473587 0 0 0 0 -762.68129509818391 -699.14486073203739 0 -699.14486073203739 -1119.9541772764028 0 0 0 0 -1410.8962388503933 393.00120318261997 0 393.00120318261997 29.398253699319412 0 0 0 0 -966.30556591365894 54.276716710732899 0 54.276716710732899 -79.492736307396626 0 0 0 0 -1027.1933151008416 320.64102477831557 0 320.64102477831557 43.027391162055437 0 0 0 0 -971.84224211407673 39.491076839706182 0 39.491076839706182 -118.13262565371383 0 0 0 0 -21.172293261699139 -5.3509676891224505 0 -5.3509676891224505 -0.30369079297145074 0 0 0 0 -396.21576784587523 -16.457512019300339 0 -16.457512019300339 -136.85447020823943 0 0 0 0 -350.12557883278714 58.798290307929506 0 58.798290307929506 -63.341785705584925 0 0 0 0 -754.01670331694004 391.73241663968076 0 391.73241663968076 -33.027059530604674 0 0 0 0 -1333.5735830529629 60.451412369419586 0 60.451412369419586 197.27742442254839 0 0 0 0 -487.65770255177631 79.595398710375946 0 79.595398710375946 -90.68155653294059 0 0 0 0 -900.41705818046648 577.49751638236626 0 577.49751638236626 -122.07052811907738 0 0 0 0 -1130.909039448472 660.07646190465425 0 660.07646190465425 -141.67851669467996 0 0 0 0 -16.484715656149703 -9.1802499456942783 0 -9.1802499456942783 -2.5575069520064062 0 0 0 0 -159.08386844805864 -15.210811475680998 0 -15.210811475680998 -80.251813665845475 0 0 0 0 -550.30995772147526 -36.783758332605998 0 -36.783758332605998 315.65365206924571 0 0 0 0 -127.67131795682144 194.06405729243454 0 194.06405729243454 -220.29481320465356 0 0 0 0 -311.2725164581334 183.23246452125701 0 183.23246452125701 -101.91625123834683 0 0 0 0 -13.06542423949368 -7.4518928570352543 0 -7.4518928570352543 -1.9244829863489716 0 0 0 0 -323.17722354848229 166.25398091092868 0 166.25398091092868 -50.162799567418006 0 0 0 0 -225.87677341059498 6.5221148844828463 0 6.5221148844828463 14.031921090190735 0 0 0 0 -252.41618951066266 45.107523459711388 0 45.107523459711388 -50.71017161030818 0 0 0 0 -35.466638760051865 6.2006926235150104 0 6.2006926235150104 10.977886642021076 0 0 0 0 -27.622523086127316 -0.87755936313205751 0 -0.87755936313205751 7.6284333227429855 0 0 0 0 -51.766206420812523 212.80676123495846 0 212.80676123495846 -133.39295014503023 0 0 0 0 -261.35503822105238 27.096430735861304 0 27.096430735861304 -113.40869697287613 0 0 0 0 -8.1572039325148609 -0.93096150504311481 0 -0.93096150504311481 3.3014394804067053 0 0 0 0 -32.312922926496839 15.040147563253761 0 15.040147563253761 18.880631177304245 0 0 0 0 -29.587097976080258 14.613365444030649 0 14.613365444030649 7.7846462794810662 0 0 0 0 -85.093375389130415 22.796068743197338 0 22.796068743197338 51.160321971519807 0 0 0 0 -311.11572573225567 242.36164587627655 0 242.36164587627655 -153.96863995488943 0 0 0 0 -333.23836680411478 231.12492493659107 0 231.12492493659107 -90.230986049547539 0 0 0 0 -78.09957869561913 -45.467795194432256 0 -45.467795194432256 184.0206315046039 0 0 0 0 -47.521564017997434 -28.058698882091537 0 -28.058698882091537 -10.300917726955266 0 0 0 0 7.7567539365190896 -26.3898288440339 0 -26.3898288440339 130.90844204340237 0 0 0 0 -150.70227979819902 77.779980067926999 0 77.779980067926999 139.68005043805715 0 0 0 0 -474.54334305439261 195.363633704638 0 195.363633704638 142.71183536229591 0 0 0 0 -3.337474958103968 17.114058579741531 0 17.114058579741531 9.6102783933640907 0 0 0 0 -75.81717726104398 96.379686433652068 0 96.379686433652068 15.143850762854981 0 0 0 0 -54.698044030628807 73.321855656977391 0 73.321855656977391 -4.4143265151560627 0 0 0 0 -50.403631512657739 52.89409778602203 0 52.89409778602203 39.163328035838276 0 0 0 0 -46.770168203038338 21.474485585121442 0 21.474485585121442 -0.45790778003083688 0 0 0 0 -51.267075977477361 21.157419552905594 0 21.157419552905594 -14.58336252597951 0 0 0 0 -25.046361181214621 18.429189445534426 0 18.429189445534426 2.5789652848402138 0 0 0 0 -73.816677770715614 169.36129306490787 0 169.36129306490787 -276.0683391704128 0 0 0 0 -4.0438680073908984 -3.2254117661482713 0 -3.2254117661482713 3.0245885272817534 0 0 0 0 -365.762560539064 42.707450185059315 0 42.707450185059315 32.635257986314059 0 0 0 0 -227.29848269801005 193.3645745163717 0 193.3645745163717 -133.15551420636734 0 0 0 0 -115.32883477573341 -134.35481797145076 0 -134.35481797145076 -202.09327476915144 0 0 0 0 313.9908036587949 -144.55547098132843 0 -144.55547098132843 -117.09071260879364 0 0 0 0 -146.01838690341538 60.974799267016124 0 60.974799267016124 82.025720928364535 0 0 0 0 -576.89505106868455 -334.19798665703729 0 -334.19798665703729 -155.17629869472762 0 0 0 0 -8.1670465096106994 -6.1943736952415875 0 -6.1943736952415875 -5.4008874432679947 0 0 0 0 -524.63070772396895 -486.67347921047894 0 -486.67347921047894 235.27456766484829 0 0 0 0 -96.473798622115282 -765.91792635026195 0 -765.91792635026195 -94.624679831990761 0 0 0 0 -1119.6107678083499 -986.634424205914 0 -986.634424205914 6.3373136401160082 0 0 0 0 -8.4408579164419706 -4.1714965139551552 0 -4.1714965139551552 -1.6336380478448038 0 0 0 0 -537.87492679191928 -829.69921993700837 0 -829.69921993700837 -159.901539170463 0 0 0 0 -1116.9929608670282 549.51202874477781 0 549.51202874477781 -746.62055201197131 0 0 0 0 379.17304422638699 227.51304167929277 0 227.51304167929277 -828.09392048559801 0 0 0 0 -28.03671932149463 -16.677373110381687 0 -16.677373110381687 -10.185791104765798 0 0 0 0 -276.26759721943381 642.19775580491955 0 642.19775580491955 -80.332217811648903 0 0 0 0 -138.37077411952487 -336.01278923650909 0 -336.01278923650909 480.80302586259495 0 0 0 0 -29.504082970073796 120.23598522686734 0 120.23598522686734 317.33678345433236 0 0 0 0 -46.249421101490043 3.374639138226371 0 3.374639138226371 -1.4461571258443655 0 0 0 0 -19.995015728811268 -2.2127695477547604 0 -2.2127695477547604 -1.9951174407269718 0 0 0 0 -15.118803855526494 -7.9060341154827256 0 -7.9060341154827256 2.1268882450012825 0 0 0 0 -22.738198580440439 -2.0318617100597294 0 -2.0318617100597294 -0.42288576396094868 0 0 0 0 -4.2844478003787714 -0.84206922562528774 0 -0.84206922562528774 0.63447535115643738 0 0 0 0 -15.56512375514103 2.3045995158599908 0 2.3045995158599908 -0.20066901540940307 0 0 0 0 -15.18478288660117 -15.631495078633634 0 -15.631495078633634 -30.834209836853461 0 0 0 0 -11.810602002562518 -6.64112043265186 0 -6.64112043265186 -24.21526148242117 0 0 0 0 -0.24991512894990109 0.350110356995188 0 0.350110356995188 -0.056639334411618947 0 0 0 0 -105.12601952990553 -30.980626130093697 0 -30.980626130093697 3.0847703560834816 0 0 0 0 -99.733868359558983 -27.54540774484758 0 -27.54540774484758 -0.42354897419818371 0 0 0 0 -61.540759186842479 -17.491420640279102 0 -17.491420640279102 -2.8853059497014328 0 0 0 0 -46.381832005086835 4.4112205849729094 0 4.4112205849729094 -4.7530124288423394 0 0 0 0 -106.28410545897532 -6.1402453598940383 0 -6.1402453598940383 13.679854061010701 0 0 0 0 -105.44917002475995 -10.545540078126578 0 -10.545540078126578 14.787942431818919 0 0 0 0 -106.0178411704328 -7.8593478404750385 0 -7.8593478404750385 24.423697638660087 0 0 0 0 -64.387499506134191 12.854643530835347 0 12.854643530835347 4.9004395955149107 0 0 0 0 -118.69215125911433 16.751362444288361 0 16.751362444288361 5.3731925912279621 0 0 0 0 -109.38766738525374 5.3914904102923629 0 5.3914904102923629 -6.261601866827732 0 0 0 0 -183.9486706207008 83.2026542661755 0 83.2026542661755 -22.336182093637944 0 0 0 0 -126.90435865827021 -8.6535862514929249 0 -8.6535862514929249 16.111635547903916 0 0 0 0 -100.83317094770109 -10.752989451489299 0 -10.752989451489299 -6.7034819758027879 0 0 0 0 -170.37120370186676 -23.800511719095311 0 -23.800511719095311 25.917660832786169 0 0 0 0 -118.22325878742595 -55.935891853960356 0 -55.935891853960356 45.409065341033966 0 0 0 0 -248.41722912344494 155.17302570238587 0 155.17302570238587 -27.276317485259369 0 0 0 0 1.5777616752978005 0.84644954778800496 0 0.84644954778800496 -0.78564616025022005 0 0 0 0 -204.41708971173648 24.800543707039651 0 24.800543707039651 18.466885851324378 0 0 0 0 37.793255041484372 -83.286095820573337 0 -83.286095820573337 15.37984867941509 0 0 0 0 -109.79190365274553 -50.311717144330032 0 -50.311717144330032 67.959682662422892 0 0 0 0 -216.11419667296286 42.426825708432943 0 42.426825708432943 82.537860789921069 0 0 0 0 -3.477042826382819 8.3801614998020497 0 8.3801614998020497 2.5336060495159884 0 0 0 0 -22.397080122063926 97.604371954289036 0 97.604371954289036 -41.419549930648827 0 0 0 0 -70.465406811141293 40.069723435112792 0 40.069723435112792 -26.156315996404885 0 0 0 0 -60.635821997200765 19.919197609530443 0 19.919197609530443 0.16351462580769294 0 0 0 0 -12.589111659709811 8.4168410212061389 0 8.4168410212061389 7.7435741297627176 0 0 0 0 -71.677806936262641 -1.4156133018041146 0 -1.4156133018041146 -11.202318623611063 0 0 0 0 -17.697340671888362 4.4567273588208067 0 4.4567273588208067 6.0583048844011493 0 0 0 0 -153.91284740734409 -37.342764305284163 0 -37.342764305284163 45.828818736865628 0 0 0 0 -12.602535689100947 9.8463184701629132 0 9.8463184701629132 -0.35119845306052433 0 0 0 0 -29.532622258913761 19.681421103893541 0 19.681421103893541 5.2150005767603034 0 0 0 0 -6.0088575364983683 46.164056134531123 0 46.164056134531123 19.360475481958474 0 0 0 0 -69.142895152384881 26.24535732028653 0 26.24535732028653 12.863065534151247 0 0 0 0 -10.970543661082047 43.589134897516487 0 43.589134897516487 15.788279909755602 0 0 0 0 -21.011705663863808 19.594662606203137 0 19.594662606203137 4.7292920789189159 0 0 0 0 -15.639824798934569 18.734660903310328 0 18.734660903310328 -3.5593142514878764 0 0 0 0 -23.048566879053936 11.267507326124221 0 11.267507326124221 -3.8042332581630056 0 0 0 0 -34.311359566068859 12.369831648517902 0 12.369831648517902 -5.8242754055161186 0 0 0 0 -34.921003115443831 11.712304003169812 0 11.712304003169812 3.7836555340913343 0 0 0 0 -357.15929913253058 -22.176106949103996 0 -22.176106949103996 89.898428918037553 0 0 0 0 103.61958789757045 92.810562295519503 0 92.810562295519503 -34.379376371567105 0 0 0 0 87.654285502066159 -206.78328726611102 0 -206.78328726611102 -165.80695266004841 0 0 0 0 -332.27147293411508 26.1224264390695 0 26.1224264390695 31.269696553672475 0 0 0 0 -323.1935196583654 -42.994482555561262 0 -42.994482555561262 33.787641121361958 0 0 0 0 -239.12184237377369 -71.762521876260507 0 -71.762521876260507 39.887819833643789 0 0 0 0 -182.69104046919165 50.309665391696853 0 50.309665391696853 -9.5518703571160586 0 0 0 0 -144.36565519153783 -20.880172638369828 0 -20.880172638369828 32.460054043915989 0 0 0 0 -63.848884039995028 -18.641573113721734 0 -18.641573113721734 12.028101339437853 0 0 0 0 -71.562582807426224 -7.9120590317170354 0 -7.9120590317170354 54.563152050498502 0 0 0 0 -35.889755696682187 -19.421378917890252 0 -19.421378917890252 14.091624616345143 0 0 0 0 -77.410145322558492 -12.181932619484996 0 -12.181932619484996 19.151086543834026 0 0 0 0 -75.243662039305491 5.4027498518644279 0 5.4027498518644279 21.733546208824919 0 0 0 0 -96.752195786873926 0.64044226585247088 0 0.64044226585247088 21.130238995683612 0 0 0 0 -99.270005934707115 -16.169397629711796 0 -16.169397629711796 19.113049473242427 0 0 0 0 -104.52829593945353 -24.610262300735485 0 -24.610262300735485 28.852222070064727 0 0 0 0 -125.74397102154762 -3.6171969328802334 0 -3.6171969328802334 24.459620683401226 0 0 0 0 -98.318428687154665 -0.41357110469016334 0 -0.41357110469016334 16.387746535767747 0 0 0 0 -107.45472535068257 9.5653644762337535 0 9.5653644762337535 23.225963364544441 0 0 0 0 -76.502678960343474 17.924627286625309 0 17.924627286625309 -6.6271290668801157 0 0 0 0 -47.524976774409879 -4.7817406365702482 0 -4.7817406365702482 -8.0109846109228329 0 0 0 0 -35.794795588117267 -17.063373181169368 0 -17.063373181169368 -0.45964305878806044 0 0 0 0 -20.682207280693547 9.7341161789743182 0 9.7341161789743182 -13.198597780211458 0 0 0 0 -101.77605940441572 75.460018247636981 0 75.460018247636981 -51.821153962240714 0 0 0 0 -162.95031701185508 15.776062816228659 0 15.776062816228659 33.988477874925593 0 0 0 0 -139.97714053750769 18.359752737274164 0 18.359752737274164 21.736010918857573 0 0 0 0 -233.8298242505989 121.88821394011575 0 121.88821394011575 -30.658815577267887 0 0 0 0 -1.0770876527497109 -1.010886874743921 0 -1.010886874743921 -1.0906166479525492 0 0 0 0 23.822007993047009 1.9556393532220682 0 1.9556393532220682 5.3757913803001429 0 0 0 0 -49.523406911475206 5.2118785618353272 0 5.2118785618353272 3.398186043341219 0 0 0 0 25.571643995761406 -0.93674267181313553 0 -0.93674267181313553 3.6686926595857585 0 0 0 0 -56.638267884811285 -66.131203779969326 0 -66.131203779969326 -44.940967815071417 0 0 0 0 38.797177046435536 -12.930280210018736 0 -12.930280210018736 3.814438282395713 0 0 0 0 -18.766790473275698 -12.648760110871919 0 -12.648760110871919 -0.82639902993797421 0 0 0 0 4.6277339332737029 -18.171708386631053 0 -18.171708386631053 7.7050294153441428 0 0 0 0 -78.268435724039591 26.1901784480998 0 26.1901784480998 17.957217642613614 0 0 0 0 -375.80011042961269 -68.834571189822782 0 -68.834571189822782 41.734784708871075 0 0 0 0 -210.67454815935344 -5.6661258185740735 0 -5.6661258185740735 17.623804395312618 0 0 0 0 2.6538774274158641 51.865364527790916 0 51.865364527790916 -23.297905817791616 0 0 0 0 8.6607061786780832 71.261722512921551 0 71.261722512921551 -56.203627480929072 0 0 0 0 -14.718428114982089 157.67254273147955 0 157.67254273147955 36.487200014586961 0 0 0 0 -62.4521670453978 22.609963861985761 0 22.609963861985761 12.321853751066556 0 0 0 0 -65.583571585841128 13.976497847939299 0 13.976497847939299 12.793015717510542 0 0 0 0 -20.385903159573303 13.159387930891796 0 13.159387930891796 -3.5995244533438218 0 0 0 0 -19.695367737591909 -10.792701473865222 0 -10.792701473865222 4.967626938756009 0 0 0 0 -1.4068655755268082 -4.5377594846222102 0 -4.5377594846222102 -1.9152881325297022 0 0 0 0 7.3366306884490768 -20.438804355902448 0 -20.438804355902448 9.1374904499386957 0 0 0 0 -47.732588281354765 -3.2928362371324056 0 -3.2928362371324056 6.4987745850094143 0 0 0 0 -5.1924337879876745 0.019828316028103643 0 0.019828316028103643 1.0201895065095492 0 0 0 0 -35.090796038674853 8.8094111697521384 0 8.8094111697521384 1.7421230138934334 0 0 0 0 -21.509166072457447 8.6558555724786856 0 8.6558555724786856 1.7022407345621104 0 0 0 0 -30.348574451652951 -2.9067246303464103 0 -2.9067246303464103 4.3735622689979721 0 0 0 0 -82.193061733945797 -16.459657240019354 0 -16.459657240019354 3.6699316289525221 0 0 0 0 -2.9975555595130601 -4.7890963588354758 0 -4.7890963588354758 1.8625207330647222 0 0 0 0 -4.5201321608183207 3.7991378657550285 0 3.7991378657550285 8.4616571399783425 0 0 0 0 -520.57966106708045 143.37943104187798 0 143.37943104187798 90.50971254213573 0 0 0 0 78.787185612549365 719.34969913172404 0 719.34969913172404 55.329565994670702 0 0 0 0 37.02896016080922 -72.786032161657431 0 -72.786032161657431 50.875756323031965 0 0 0 0 346.21439811500022 6.7725791639659292 0 6.7725791639659292 -86.136717233820946 0 0 0 0 -678.40922804822912 -179.71682319301226 0 -179.71682319301226 38.943705932812136 0 0 0 0 -149.01288929831935 -104.85813857692392 0 -104.85813857692392 -61.173035345706921 0 0 0 0 -4.1220213029829438 -2.7904288784066509 0 -2.7904288784066509 -1.7350082175554955 0 0 0 0 -54.182583906149375 37.538995795339815 0 37.538995795339815 -47.215146508967337 0 0 0 0 -20.691864162014099 9.6804410983918388 0 9.6804410983918388 -25.109356262356073 0 0 0 0 -24.610359408150543 29.58375568204346 0 29.58375568204346 -4.5613072190681123 0 0 0 0 -49.790492166997865 13.193352273330675 0 13.193352273330675 11.822010559056253 0 0 0 0 -45.14882846873661 11.803973575488271 0 11.803973575488271 -2.9360774297183525 0 0 0 0 -41.865688380290521 4.7834091314023226 0 4.7834091314023226 10.838080865387383 0 0 0 0 -27.060708554908842 12.165201361623744 0 12.165201361623744 -1.419172547670291 0 0 0 0 -22.793822517481317 5.2744233364390567 0 5.2744233364390567 1.0132532131862337 0 0 0 0 -66.263653492758749 40.814931721130506 0 40.814931721130506 -0.26878102528780801 0 0 0 0 -67.794301063217517 18.69698036286546 0 18.69698036286546 -30.228167325623872 0 0 0 0 -27.558234896243007 21.489615046848741 0 21.489615046848741 -2.2605592792423179 0 0 0 0 -77.482693357756943 -20.27469828408266 0 -20.27469828408266 -22.061890899953596 0 0 0 0 -19.138484673843777 -32.277635808270418 0 -32.277635808270418 -27.163334384811606 0 0 0 0 -30.113749766555827 4.7282196859164571 0 4.7282196859164571 4.2320064954503049 0 0 0 0 -45.796046723204199 59.447189964352219 0 59.447189964352219 7.7193160917886416 0 0 0 0 3.8903569623953729 2.7832733680551414 0 2.7832733680551414 -1.5648219691641927 0 0 0 0 -62.96779895691725 3.0699158232230275 0 3.0699158232230275 -27.316949477168254 0 0 0 0 -13.401016945350705 7.0442267082781242 0 7.0442267082781242 5.9500853091635015 0 0 0 0 -8.4391927674194704 1.6818032359034873 0 1.6818032359034873 -1.2135931680312808 0 0 0 0 -115.27985364734195 24.524369632053777 0 24.524369632053777 7.5261897627412964 0 0 0 0 -74.16034281138127 8.2734174780666763 0 8.2734174780666763 21.768487816189008 0 0 0 0 -56.543581842764979 26.326040301005378 0 26.326040301005378 -13.385540671782564 0 0 0 0 -39.581148645505891 4.3528776924877093 0 4.3528776924877093 -12.194134309324795 0 0 0 0 -27.661745559045812 3.6077606226922398 0 3.6077606226922398 15.964860467309336 0 0 0 0 -35.194751940466602 -4.5510757234278714 0 -4.5510757234278714 0.83433127943720464 0 0 0 0 -7.5652088329298408 3.7825683303238478 0 3.7825683303238478 3.521179920124581 0 0 0 0 -35.691340840370685 9.9623534081711114 0 9.9623534081711114 -8.3111252644343949 0 0 0 0 -51.235158865176345 -15.257509382835678 0 -15.257509382835678 18.765342368918027 0 0 0 0 -35.060293535119854 11.727124191567327 0 11.727124191567327 -8.2221306051678766 0 0 0 0 -26.327995790049442 -8.0554075782968013 0 -8.0554075782968013 -0.19088439826612991 0 0 0 0 -22.74407295481069 11.040986012874328 0 11.040986012874328 -11.984295253439996 0 0 0 0 -35.237453052556134 4.3748879402314387 0 4.3748879402314387 -15.44959726642719 0 0 0 0 -22.837348168896369 -39.57458200674067 0 -39.57458200674067 4.6439124624243959 0 0 0 0 -28.409985705060535 13.279470846363893 0 13.279470846363893 -22.748270069278078 0 0 0 0 -26.940718090903829 3.28559934955274 0 3.28559934955274 -7.8372386355590606 0 0 0 0 -18.612617001691973 -5.2534032151701169 0 -5.2534032151701169 -4.0399360618529307 0 0 0 0 -15.57193092172929 4.6554542497109992 0 4.6554542497109992 -20.581704659934985 0 0 0 0 -26.632460495369742 -24.532774745018344 0 -24.532774745018344 -87.585825321150878 0 0 0 0 -34.215793906114413 19.038730642283099 0 19.038730642283099 -3.7688302869005383 0 0 0 0 -91.998062507853319 -24.710096190679678 0 -24.710096190679678 -1.5727616348517586 0 0 0 0 -40.599961399326276 37.125440249531266 0 37.125440249531266 -55.009113017345157 0 0 0 0 -98.799342309452186 -32.104931426564804 0 -32.104931426564804 -15.485249206106346 0 0 0 0 -19.261174647377629 -32.807847245471066 0 -32.807847245471066 -39.992391023800337 0 0 0 0 -32.798710679788201 -4.8898470182314213 0 -4.8898470182314213 -57.401940202951891 0 0 0 0 -67.777565534437599 13.609984561297779 0 13.609984561297779 -43.633284948938126 0 0 0 0 -47.167767845210619 -17.939462243237585 0 -17.939462243237585 -44.411428938607514 0 0 0 0 28.025633413075411 -47.55989088841693 0 -47.55989088841693 -34.544012265805804 0 0 0 0 -40.174352620611899 -58.572374188565618 0 -58.572374188565618 -36.014018829583904 0 0 0 0 -33.013565770048444 13.083580300730375 0 13.083580300730375 7.3630194650945668 0 0 0 0 -6.2211782029480673 -123.26583791146197 0 -123.26583791146197 17.426144628422662 0 0 0 0 -22.831561859132592 7.1962868325889602 0 7.1962868325889602 2.1659764493622946 0 0 0 0 -52.450755553611089 3.7688796534989706 0 3.7688796534989706 56.583011400484793 0 0 0 0 -29.119917431700742 -47.828525171972615 0 -47.828525171972615 -25.588243356193288 0 0 0 0 -4.9267034287143758 -1.3425414012098429 0 -1.3425414012098429 0.20593428478491571 0 0 0 0 -43.346303587473813 -35.275396842778264 0 -35.275396842778264 -33.421962532397629 0 0 0 0 -1349.5830499188305 377.60962135853606 0 377.60962135853606 182.98714695833223 0 0 0 0 -16.727025653714932 -17.341707026001806 0 -17.341707026001806 -13.392431769449381 0 0 0 0 127.46598467184958 -154.25555207860907 0 -154.25555207860907 -1341.6897347087834 0 0 0 0 343.89765406098377 1364.729764897837 0 1364.729764897837 -336.17704843189495 0 0 0 0 -15.779791458546441 7.7776228918922996 0 7.7776228918922996 -1.574560782851222 0 0 0 0 -1469.1642666697662 -495.2873390120003 0 -495.2873390120003 376.03807672905623 0 0 0 0 -759.88751818282617 -471.4869744437342 0 -471.4869744437342 333.80093698769269 0 0 0 0 -887.16813972795353 -392.29191945175444 0 -392.29191945175444 294.52066330636626 0 0 0 0 -346.856756188703 287.73280058776754 0 287.73280058776754 180.95715075819044 0 0 0 0 -840.64976771362308 45.422292652464421 0 45.422292652464421 94.64725699327937 0 0 0 0 -9.0354842037306184 -0.78932814570420362 0 -0.78932814570420362 4.1632747911011077 0 0 0 0 -51.748771995851428 63.589076150631691 0 63.589076150631691 -33.065195236502404 0 0 0 0 -125.06305070751841 37.073702440707166 0 37.073702440707166 -20.800167037631127 0 0 0 0 -12.936130678268455 45.980767294706766 0 45.980767294706766 -72.619000693661292 0 0 0 0 -5.8061065109198786 7.9755309011966204 0 7.9755309011966204 -15.149166556524085 0 0 0 0 -17.898827336546674 34.907323022871424 0 34.907323022871424 -27.608484307957042 0 0 0 0 -27.856516012805514 19.646465854909366 0 19.646465854909366 -10.558607023709556 0 0 0 0 -20.203827209941664 -7.6235823618831091 0 -7.6235823618831091 -2.4794471845179942 0 0 0 0 -2.1991617983417626 4.0154089516799303 0 4.0154089516799303 -17.695243676434423 0 0 0 0 20.827039334442816 2.7902050094990045 0 2.7902050094990045 -55.634471327353822 0 0 0 0 -21.282849679046194 -19.500988896495983 0 -19.500988896495983 -60.714283121905794 0 0 0 0 -85.779562211377197 100.35761334125459 0 100.35761334125459 -44.711453791853273 0 0 0 0 -3.2232641432689206 -1.4783436013072659 0 -1.4783436013072659 -0.036408872276201265 0 0 0 0 -3.07036330961121 -2.7358918904674425 0 -2.7358918904674425 -13.857224868481254 0 0 0 0 5.6339832022131304 11.082775033945381 0 11.082775033945381 -23.820074040965665 0 0 0 0 8.9092861434837687 -5.0391751275687966 0 -5.0391751275687966 -45.954966562324898 0 0 0 0 -3.7841315835152329 0.16411961266331332 0 0.16411961266331332 -4.6161849095674672 0 0 0 0 -12.684471477783518 10.616660564367294 0 10.616660564367294 -3.5920504521955081 0 0 0 0 -10.379579737181302 20.540895596748044 0 20.540895596748044 -13.552982332013016 0 0 0 0 -31.278973233769648 -8.9789677528688117 0 -8.9789677528688117 -88.377112092352036 0 0 0 0 -212.58708296019176 120.09036354271382 0 120.09036354271382 16.079261035421951 0 0 0 0 -5.2044353127421346 24.811120302603513 0 24.811120302603513 -55.225673120137799 0 0 0 0 -13.262105674875784 30.609554394412044 0 30.609554394412044 -25.191136143117156 0 0 0 0 -1.852689754405219 -0.41282230757496308 0 -0.41282230757496308 0.15369252306710202 0 0 0 0 -10.860698340482486 -78.030916706510652 0 -78.030916706510652 -74.360611892783709 0 0 0 0 -1107.1965174553625 679.32230950965641 0 679.32230950965641 750.09913474696259 0 0 0 0 -840.80151120119262 1457.9116353833306 0 1457.9116353833306 -264.92722436815257 0 0 0 0 -1947.794238392431 1060.5739498522653 0 1060.5739498522653 625.0470740925266 0 0 0 0 -176.55207919683016 1078.5650009613237 0 1078.5650009613237 -59.667497311238549 0 0 0 0 -23.913949100192383 -24.929175715419774 0 -24.929175715419774 -22.291081411638938 0 0 0 0 -302.74783062259667 12.251975261245207 0 12.251975261245207 -61.463312373893132 0 0 0 0 -87.920881102283602 518.08504688192534 0 518.08504688192534 -503.15981285407543 0 0 0 0 -75.235568377654999 76.082512059321743 0 76.082512059321743 106.8441520643255 0 0 0 0 -103.58360809451551 23.018964398835124 0 23.018964398835124 -35.767853460468814 0 0 0 0 -65.736707520816708 -49.112802650693993 0 -49.112802650693993 -101.53064142200401 0 0 0 0 -483.39146679888654 123.58201991554051 0 123.58201991554051 -9.6623286028288931 0 0 0 0 -106.80732874620298 -72.005843919539075 0 -72.005843919539075 -83.402986489876639 0 0 0 0 -112.17477563760622 34.921172897286851 0 34.921172897286851 -32.345910175806694 0 0 0 0 -126.24178897739694 -13.936511456030757 0 -13.936511456030757 -20.73334473268369 0 0 0 0 -51.197054885720718 -24.000323253943861 0 -24.000323253943861 -14.705214772279987 0 0 0 0 -59.595838702851324 -6.8682091822611255 0 -6.8682091822611255 -26.463642633860673 0 0 0 0 -45.587548498824617 -33.844881372795498 0 -33.844881372795498 -24.640872124622547 0 0 0 0 -36.607522206726571 -5.2207402443332285 0 -5.2207402443332285 -27.826626874889371 0 0 0 0 -54.467687308308086 -31.949374996998358 0 -31.949374996998358 -52.780271320755674 0 0 0 0 -68.704937600414269 -31.809394707906904 0 -31.809394707906904 -52.516743295311699 0 0 0 0 -30.558265878993552 -10.090582691657801 0 -10.090582691657801 -71.788588290470216 0 0 0 0 -17.317225664257421 3.0689825905938051 0 3.0689825905938051 -25.44462523282305 0 0 0 0 -25.030061469209613 -15.777947657765026 0 -15.777947657765026 -66.295303905295441 0 0 0 0 2.8024708118609851 10.717832333358501 0 10.717832333358501 -10.23639508618453 0 0 0 0 -6.3216013163182652 -11.696578368331757 0 -11.696578368331757 -49.202465293972182 0 0 0 0 -31.218359587601299 12.683227111017715 0 12.683227111017715 1.4525403088605344 0 0 0 0 0.64629226340547064 -2.1758152570318146 0 -2.1758152570318146 -8.9397697327712091 0 0 0 0 32.865568966059072 -5.0936643824184102 0 -5.0936643824184102 -27.532400401410769 0 0 0 0 -13.015016883902717 -31.065679287843523 0 -31.065679287843523 -7.2690350838835229 0 0 0 0 -15.503591221859097 -17.423288486281763 0 -17.423288486281763 -20.077260817291062 0 0 0 0 -19.190238484501606 -29.247026623632792 0 -29.247026623632792 13.988500973426653 0 0 0 0 12.928927325752738 -23.226371516049312 0 -23.226371516049312 -15.834102654430808 0 0 0 0 -41.835169375692203 -4.8794496546546782 0 -4.8794496546546782 20.016201719223773 0 0 0 0 -6.0422276541570881 -2.7219441546534142 0 -2.7219441546534142 -3.1672927612477189 0 0 0 0 -20.884394025559374 -11.109877838087051 0 -11.109877838087051 -6.7026823086096341 0 0 0 0 -33.588325083812407 -1.6927100189185822 0 -1.6927100189185822 -0.16547565550212673 0 0 0 0 -31.730346262032981 -3.6534421022112156 0 -3.6534421022112156 -18.330720382240088 0 0 0 0 -16.898562898288056 -4.5355537290075318 0 -4.5355537290075318 -7.5645873727043096 0 0 0 0 -24.173477484645446 -7.1922333180880145 0 -7.1922333180880145 -3.2923847049339656 0 0 0 0 -23.474040321240409 -9.6139831721788127 0 -9.6139831721788127 -3.5106519135422425 0 0 0 0 -31.827433677099179 -9.1668628554053839 0 -9.1668628554053839 -0.94087860827130498 0 0 0 0 -46.056939732174214 -20.910248051197527 0 -20.910248051197527 31.063538294767795 0 0 0 0 -62.832367893577612 0.89460641375330852 0 0.89460641375330852 0.57645864063852059 0 0 0 0 -44.974366347290925 -23.305071620021636 0 -23.305071620021636 -2.5423384320482114 0 0 0 0 -70.232261266570276 9.3830670745819589 0 9.3830670745819589 -47.356527389054918 0 0 0 0 -80.276685315468058 -0.34963349393717635 0 -0.34963349393717635 0.22806073947685945 0 0 0 0 -51.26439154552645 -22.009788753216526 0 -22.009788753216526 -0.67981938571665523 0 0 0 0 -16.755833324694322 -25.64091406863912 0 -25.64091406863912 -9.2304690626915544 0 0 0 0 -45.353057921791333 37.073338500176988 0 37.073338500176988 -47.098001105882986 0 0 0 0 -10.269439207133814 -5.0768789791953282 0 -5.0768789791953282 -2.4491429099997641 0 0 0 0 -31.979369420234434 -32.885111082236563 0 -32.885111082236563 65.058781357187627 0 0 0 0 -31.063791239430429 12.250913400083206 0 12.250913400083206 -23.481198160879245 0 0 0 0 -43.661947422550384 24.367772882916142 0 24.367772882916142 -31.565192633066999 0 0 0 0 -36.712214117178519 -15.491631492350734 0 -15.491631492350734 46.97025121646152 0 0 0 0 -25.415911333817348 7.3959124813973176 0 7.3959124813973176 -8.4059293736938798 0 0 0 0 -16.108216842288044 -8.0952379782344366 0 -8.0952379782344366 -3.851745494489649 0 0 0 0 -3.2758502770375344 -13.940440114185151 0 -13.940440114185151 -4.6912462660575329 0 0 0 0 -29.998273035693273 -3.4747258196001098 0 -3.4747258196001098 -18.920592423295091 0 0 0 0 -35.449052792595467 7.2976705795350654 0 7.2976705795350654 -13.57453523508542 0 0 0 0 -40.148101002248524 -1.3939109879554117 0 -1.3939109879554117 0.55847886503654642 0 0 0 0 -33.023540560005131 6.0020258124344767 0 6.0020258124344767 -20.926877916312094 0 0 0 0 -32.602470932193683 7.6013240939090991 0 7.6013240939090991 -22.152302962956085 0 0 0 0 -42.869741392714786 14.473139331999676 0 14.473139331999676 -20.360206055904513 0 0 0 0 -38.893980426713824 12.03323058943424 0 12.03323058943424 46.007436873393566 0 0 0 0 -45.883077552201058 -1.8790817133797937 0 -1.8790817133797937 0.38140872267615467 0 0 0 0 -60.208506762606703 7.3633394909006995 0 7.3633394909006995 11.628003027231841 0 0 0 0 -6.6351514470225084 37.745140615913513 0 37.745140615913513 26.871067066179666 0 0 0 0 -0.23616255852812174 0.18313672785788526 0 0.18313672785788526 -0.022836355262721653 0 0 0 0 -48.425293277643505 26.913781772689063 0 26.913781772689063 24.074793611779882 0 0 0 0 -65.030179125878931 22.249412643850025 0 22.249412643850025 13.341589402235066 0 0 0 0 -66.740423007824575 28.168842371433215 0 28.168842371433215 40.864593595571833 0 0 0 0 -63.607104689916014 45.300585441311952 0 45.300585441311952 9.090534810636882 0 0 0 0 -58.769182406555046 -0.9734801663985877 0 -0.9734801663985877 97.762323589331913 0 0 0 0 -43.761425533630245 30.693566699498987 0 30.693566699498987 40.891318640549287 0 0 0 0 -28.112610371848859 -21.501209962271911 0 -21.501209962271911 78.489319126018472 0 0 0 0 -69.006618676809012 -24.628731644802116 0 -24.628731644802116 148.06364706135344 0 0 0 0 -76.438137306846329 32.971338383283765 0 32.971338383283765 41.847916246906578 0 0 0 0 -67.270331322230049 12.661439111069811 0 12.661439111069811 15.41574916790924 0 0 0 0 -92.925364899623673 -1.0566091260346369 0 -1.0566091260346369 -36.077068418674372 0 0 0 0 -99.6065450521819 40.447169833330165 0 40.447169833330165 -7.2731575427434763 0 0 0 0 -120.32765330332404 -17.350894001031854 0 -17.350894001031854 -4.5806738945457255 0 0 0 0 -132.84055362901199 33.554047643724857 0 33.554047643724857 -62.584106539587005 0 0 0 0 -199.53154093134799 8.9287502297288555 0 8.9287502297288555 -41.818230798190584 0 0 0 0 -124.74180124019767 -11.664281706083333 0 -11.664281706083333 -0.15696477924225752 0 0 0 0 -160.06427959896973 -97.211975259207264 0 -97.211975259207264 -106.65591024315582 0 0 0 0 -78.723284378633252 -15.699417157177587 0 -15.699417157177587 -37.760838904514614 0 0 0 0 -74.333852034935262 31.678978423123525 0 31.678978423123525 -15.530563496037441 0 0 0 0 -56.129797841037544 20.893064443579242 0 20.893064443579242 -9.8822472759492399 0 0 0 0 -56.145905096484512 20.359118996136406 0 20.359118996136406 13.649854412018797 0 0 0 0 -54.003312837179692 17.436283961705019 0 17.436283961705019 0.016249555749959361 0 0 0 0 -5.2997661123881699 -1.2889337509119798 0 -1.2889337509119798 -4.9857648169213995 0 0 0 0 9.0922004070744151 21.101847019635567 0 21.101847019635567 -0.00083730454969203113 0 0 0 0 -25.181891147074566 -70.940430397433602 0 -70.940430397433602 11.000040095588361 0 0 0 0 -36.39255747331481 -80.964894380936258 0 -80.964894380936258 -29.383297290571978 0 0 0 0 -17.753020151238161 -51.502608592130237 0 -51.502608592130237 -8.4485693014909202 0 0 0 0 -9.9766605253244052 -40.44335343704013 0 -40.44335343704013 -23.859982175228708 0 0 0 0 2.311217802693136 -61.722035296814937 0 -61.722035296814937 -36.272279569373175 0 0 0 0 -7.7874826592305908 -66.42205611354629 0 -66.42205611354629 -33.453136002154281 0 0 0 0 27.065767161577241 -14.85198661414563 0 -14.85198661414563 -21.97473669713581 0 0 0 0 -104.39797281095525 8.096133475817112 0 8.096133475817112 98.533823067493245 0 0 0 0 -19.575092926956131 -44.779007447719749 0 -44.779007447719749 50.607009403232723 0 0 0 0 -44.59597013120856 -9.6649687306807817 0 -9.6649687306807817 -2.1162005363753247 0 0 0 0 -10.921891951880156 2.677033378168808 0 2.677033378168808 2.4203802576954918 0 0 0 0 -23.749705894397437 -7.5746490729040605 0 -7.5746490729040605 -2.5651910958948774 0 0 0 0 -25.25353073401493 -11.361738274210779 0 -11.361738274210779 9.6339614090279611 0 0 0 0 -30.994700776429141 -6.9309296661562243 0 -6.9309296661562243 -0.77905981463735419 0 0 0 0 -39.367626876206486 -53.683260677694818 0 -53.683260677694818 86.550302469757185 0 0 0 0 -15.592937817011261 -31.114638566118742 0 -31.114638566118742 37.205126422738886 0 0 0 0 -52.016299588838592 -27.621306142951767 0 -27.621306142951767 135.10989499140294 0 0 0 0 -31.411965319570953 -3.8073763778647756 0 -3.8073763778647756 -1.5736098191241263 0 0 0 0 -53.749638635548763 12.111317508143657 0 12.111317508143657 226.36157693406585 0 0 0 0 -11.988236556571792 -70.438548354781801 0 -70.438548354781801 116.27124000615379 0 0 0 0 -34.897304402591544 -33.185567967206509 0 -33.185567967206509 73.715584787441117 0 0 0 0 -37.483101571328007 -68.534932940254322 0 -68.534932940254322 55.954248577891178 0 0 0 0 -21.408198561992322 -17.604590968885972 0 -17.604590968885972 103.65168814010519 0 0 0 0 -26.960713925771415 -22.703908644271451 0 -22.703908644271451 118.34749941139671 0 0 0 0 -3.3614705494692316 -80.495220468496839 0 -80.495220468496839 259.76562899899318 0 0 0 0 -7.866198799626968 -0.74306728127176314 0 -0.74306728127176314 0.43043601360178352 0 0 0 0 8.4963864614910563 -7.1196537093402696 0 -7.1196537093402696 90.870864780282773 0 0 0 0 -36.633160588069586 -34.959650770150972 0 -34.959650770150972 74.200927888753654 0 0 0 0 -47.212832181248814 17.085168483944869 0 17.085168483944869 99.308692061690834 0 0 0 0 -60.492668535480334 -9.2583167238432154 0 -9.2583167238432154 34.764750397741068 0 0 0 0 -83.077246441796888 -9.7880115239894394 0 -9.7880115239894394 83.311829843136479 0 0 0 0 -40.481386841172935 -28.547187826479842 0 -28.547187826479842 24.876201121650638 0 0 0 0 -52.358552593228524 -17.298338572482024 0 -17.298338572482024 60.878530473298838 0 0 0 0 -87.618647568044253 -21.864397404282983 0 -21.864397404282983 23.933653754482698 0 0 0 0 -97.100605889980216 13.083144072023742 0 13.083144072023742 24.527821154879746 0 0 0 0 -76.628233570372686 -32.16785921816161 0 -32.16785921816161 -13.115647006636266 0 0 0 0 -47.857399740518304 -51.590641014131904 0 -51.590641014131904 48.530214867686709 0 0 0 0 -34.437892825597373 -58.976378017374429 0 -58.976378017374429 36.574939577288433 0 0 0 0 -56.768893784901593 -62.697396305513386 0 -62.697396305513386 -13.642756276044366 0 0 0 0 -59.051186870987294 -40.890946819722615 0 -40.890946819722615 25.425958386999696 0 0 0 0 -46.420250990369823 -52.892944428139778 0 -52.892944428139778 -17.021342456516088 0 0 0 0 -40.822400466517138 -72.800464382986675 0 -72.800464382986675 -3.9897053694484157 0 0 0 0 -29.78874676405394 -81.485717091900852 0 -81.485717091900852 -98.411787301371874 0 0 0 0 -57.409478820278309 -53.083329404490968 0 -53.083329404490968 -79.353064025045256 0 0 0 0 -55.030487950585666 -82.134636659744388 0 -82.134636659744388 -63.358345755569985 0 0 0 0 -87.84679308035993 -45.081242023798609 0 -45.081242023798609 -21.815428272543329 0 0 0 0 -21.702991086436668 -37.14952411600666 0 -37.14952411600666 -212.36785525953033 0 0 0 0 -77.062162955859094 -106.92769207001291 0 -106.92769207001291 -153.03743916830902 0 0 0 0 -34.592614582761598 -29.056912918189219 0 -29.056912918189219 -117.77993381807173 0 0 0 0 -98.123315296761575 -17.444556053298346 0 -17.444556053298346 -43.886172929563742 0 0 0 0 -86.13135331342346 -68.578723893250753 0 -68.578723893250753 -73.900603184003216 0 0 0 0 -128.53816700258176 -29.787378779517056 0 -29.787378779517056 -12.509407184767742 0 0 0 0 -108.16326194407884 -80.919445447802957 0 -80.919445447802957 -127.14282505077571 0 0 0 0 -118.95795919356169 -64.235743402165951 0 -64.235743402165951 -74.057496154086436 0 0 0 0 -141.90388253945093 -35.523610170635308 0 -35.523610170635308 -74.831422589220196 0 0 0 0 -193.16249864173005 -39.495880326898927 0 -39.495880326898927 -38.400289536617592 0 0 0 0 -66.26260115862533 -149.52554061928851 0 -149.52554061928851 -294.91010548192526 0 0 0 0 -159.97144982295512 -83.81505619961969 0 -83.81505619961969 0.16460556578815214 0 0 0 0 -269.88368416437879 -45.493648456299248 0 -45.493648456299248 -46.181169861147247 0 0 0 0 -249.67877001142188 -158.58327846096404 0 -158.58327846096404 -123.15119820753435 0 0 0 0 -4.401344806450652 5.9557258432577251 0 5.9557258432577251 35.886647016836491 0 0 0 0 -1.5260085919251765 -0.45660093921893363 0 -0.45660093921893363 -0.014646735073466428 0 0 0 0 -9.2177467033325229 -4.8373697431408385 0 -4.8373697431408385 15.468398302781228 0 0 0 0 -2.4801533478894271 -6.9723819941751168 0 -6.9723819941751168 -0.043195003370759946 0 0 0 0 -8.7837668368811137 -13.889065068188875 0 -13.889065068188875 9.9191284036142662 0 0 0 0 -4.4335429707557239 -0.60419565287071464 0 -0.60419565287071464 0.22517205510971408 0 0 0 0 -0.13262602857139427 -30.527534410438534 0 -30.527534410438534 -91.737176823144949 0 0 0 0 -5.6499591104802676 -52.636111705910295 0 -52.636111705910295 -109.52568100412446 0 0 0 0 -15.348159604607645 -70.445521018600118 0 -70.445521018600118 -51.855061314240587 0 0 0 0 -20.546252089290647 -51.108776096311999 0 -51.108776096311999 -63.477079632776565 0 0 0 0 -12.378148387491819 -39.051382015342654 0 -39.051382015342654 -39.388445158612747 0 0 0 0 -3.9009580803758581 -1.7738512374449156 0 -1.7738512374449156 0.88814753013516345 0 0 0 0 -3.726747372202226 -0.79297147429778569 0 -0.79297147429778569 6.4006919611087225 0 0 0 0 -5.9690384231507778 -0.38220192220108601 0 -0.38220192220108601 0.017292712275099459 0 0 0 0 -6.7155272189120296 -0.93193628698722208 0 -0.93193628698722208 2.1006179859791754 0 0 0 0 -8.2884413006249815 0.084845195754014613 0 0.084845195754014613 1.5690608148042866 0 0 0 0 -7.4057835988351144 1.0713067467004167 0 1.0713067467004167 -0.0041142958239492626 0 0 0 0 -7.8845307165756822 1.0261628153959088 0 1.0261628153959088 0.80167238653125472 0 0 0 0 -9.4126334871065751 1.0344326720198325 0 1.0344326720198325 0.71861870530495964 0 0 0 0 -43.595325043410412 41.959308089711769 0 41.959308089711769 54.49298805112597 0 0 0 0 -7.8137260322837392 1.3764945464873968 0 1.3764945464873968 1.1527065061878394 0 0 0 0 4.6179055199499999 28.208818098746981 0 28.208818098746981 4.0036738864418666 0 0 0 0 -58.068168074794812 -74.030774871749173 0 -74.030774871749173 -11.065232078670434 0 0 0 0 -7.4089446802929899 -0.4321673951182845 0 -0.4321673951182845 0.30230906605366054 0 0 0 0 -30.524570985566243 -42.505691922252296 0 -42.505691922252296 16.311885718003879 0 0 0 0 1.1705465721752262 20.460443155222819 0 20.460443155222819 -18.508874350688416 0 0 0 0 -110.51041017350508 -52.168262873581021 0 -52.168262873581021 -0.10022402426329018 0 0 0 0 -7.3176571794829215 1.4125701145145495 0 1.4125701145145495 0.46965620276713183 0 0 0 0 -173.49204371911765 47.718652079566851 0 47.718652079566851 35.165013113626657 0 0 0 0 -1.0888787295036693 0.0099907981435478632 0 0.0099907981435478632 -0.37267396621408105 0 0 0 0 -91.864268977908068 34.484308791531106 0 34.484308791531106 -37.662401950221977 0 0 0 0 -92.386251879187284 11.026592550918693 0 11.026592550918693 46.704938623194408 0 0 0 0 -69.603069184755441 -41.53790816815382 0 -41.53790816815382 21.446859271342248 0 0 0 0 -1987.2765744001335 2028.3561711722534 0 2028.3561711722534 -1169.7209570327266 0 0 0 0 -3438.5424858315964 1072.7873065950075 0 1072.7873065950075 -365.85389213371127 0 0 0 0 -20.886344081694617 -9.4116876058025838 0 -9.4116876058025838 -0.33285017341259393 0 0 0 0 -1562.4525375950179 360.05282610155172 0 360.05282610155172 -1538.979256073849 0 0 0 0 -1139.9595181209042 820.94161068110373 0 820.94161068110373 449.64377206853169 0 0 0 0 -1118.476375057362 823.60298431813374 0 823.60298431813374 -1683.957460833502 0 0 0 0 -7.7819956322344126 0.77421443240044141 0 0.77421443240044141 3.3072073145659893 0 0 0 0 -3313.187256225734 163.93626203888334 0 163.93626203888334 267.92388839682712 0 0 0 0 -6.0419565824660992 4.37666901090995 0 4.37666901090995 -1.4786163630517355 0 0 0 0 -82.314189655957307 19.568317639091887 0 19.568317639091887 9.6370469574862909 0 0 0 0 39.806668570767215 -11.942072227077613 0 -11.942072227077613 -23.230614617662333 0 0 0 0 -62.30233916859288 -27.356262635135153 0 -27.356262635135153 -2.713514809331258 0 0 0 0 -19.022962376756141 -7.4342501217429486 0 -7.4342501217429486 2.4004773765313132 0 0 0 0 -13.470018957946643 1.5277875068432962 0 1.5277875068432962 0.80184073859990512 0 0 0 0 -35.871209983990411 1.8530663956898934 0 1.8530663956898934 -1.173803052638732 0 0 0 0 -33.087770541615157 -3.1162904692403757 0 -3.1162904692403757 0.51427175906480183 0 0 0 0 -9.8465265571831111 -1.7931714636993661 0 -1.7931714636993661 4.7860721856560113 0 0 0 0 -1889.0863198368388 -121.3507967632504 0 -121.3507967632504 -441.72268667193293 0 0 0 0 -0.81897908482014259 4.0893226672922367 0 4.0893226672922367 5.426125061869655 0 0 0 0 -2759.2742335992334 1753.095082671317 0 1753.095082671317 232.93504398697723 0 0 0 0 -2801.2519526988763 1379.7169646519824 0 1379.7169646519824 -577.22085785398303 0 0 0 0 -956.97465345716773 895.41995209290872 0 895.41995209290872 -963.1184237235575 0 0 0 0 -284.74081128749094 251.32465569182511 0 251.32465569182511 14.153251301257114 0 0 0 0 -3648.769530215679 1113.5940591119206 0 1113.5940591119206 -143.47308420829722 0 0 0 0 -0.62269407393077358 -5.183328712469935 0 -5.183328712469935 -1.451874278891693 0 0 0 0 4.8340108722186415 -63.638634793259882 0 -63.638634793259882 -88.012148333454149 0 0 0 0 -0.2751284049539322 -1.213833960273405 0 -1.213833960273405 -1.6004259978875828 0 0 0 0 -13.948408698379353 -62.430960836752249 0 -62.430960836752249 -20.002823327797032 0 0 0 0 -92.627983392594615 -119.28125495528764 0 -119.28125495528764 -59.530241991549211 0 0 0 0 -181.76793955904577 9.3265766720092564 0 9.3265766720092564 3.7092703508483851 0 0 0 0 7.6804263477824861 37.698250959995939 0 37.698250959995939 -96.754004905654185 0 0 0 0 -71.88014769001893 2.0322549605264157 0 2.0322549605264157 19.75474066715816 0 0 0 0 -171.33735687448643 -115.28092376434729 0 -115.28092376434729 81.843294091808247 0 0 0 0 -42.702532404806277 -5.7932228581883578 0 -5.7932228581883578 -0.44472296544476175 0 0 0 0 -52.356431093707215 -24.454519848478412 0 -24.454519848478412 28.799595909008758 0 0 0 0 11.336103673096659 186.65625326031471 0 186.65625326031471 -90.207468420839916 0 0 0 0 -78.31473515759717 -10.173183876009716 0 -10.173183876009716 -7.333395506017041 0 0 0 0 -1232.9084422268115 290.00519398352327 0 290.00519398352327 -655.34945348667497 0 0 0 0 -17.96609757273184 -14.921945412939706 0 -14.921945412939706 -11.436529808643634 0 0 0 0 -760.06062269138783 612.95865308943735 0 612.95865308943735 -547.20484871585359 0 0 0 0 -84.955496598755417 26.640927652537584 0 26.640927652537584 -15.290213215329878 0 0 0 0 -53.103254875416724 9.9768363484338352 0 9.9768363484338352 -14.922942553110261 0 0 0 0 -6.8953236853402373 -2.6842522389350165 0 -2.6842522389350165 1.7824829370737021 0 0 0 0 -1539.0754806111709 733.1288997183965 0 733.1288997183965 -437.60896362922722 0 0 0 0 -957.20025195040944 887.19376148115271 0 887.19376148115271 -396.81707034069859 0 0 0 0 -1527.4751211146213 831.12122244824104 0 831.12122244824104 -460.09140151589429 0 0 0 0 -119.94302014868299 159.26235040275765 0 159.26235040275765 -154.93397078265912 0 0 0 0 -320.31501100690366 -4.9205102454279768 0 -4.9205102454279768 -51.700831157468201 0 0 0 0 3.6005848229589787 11.774275754629585 0 11.774275754629585 14.907355976635298 0 0 0 0 -254.32572085936044 90.047055638261327 0 90.047055638261327 212.33494952572619 0 0 0 0 -250.38514714107441 75.135847887999262 0 75.135847887999262 -82.514596314754726 0 0 0 0 -434.07455334434781 187.69656236396588 0 187.69656236396588 123.25151550962346 0 0 0 0 -12.786931796738628 -3.5654873429300551 0 -3.5654873429300551 7.3217436838037138 0 0 0 0 -1305.4201886074898 847.38750578220038 0 847.38750578220038 -389.9626733288751 0 0 0 0 -1465.8434338851803 399.37701313417301 0 399.37701313417301 -231.87251102735536 0 0 0 0 -1612.5448288764019 589.83010684745477 0 589.83010684745477 -11.047453136648983 0 0 0 0 -829.91064871838898 892.70551788245575 0 892.70551788245575 -137.67830523335101 0 0 0 0 -238.07511532615899 -22.465717738598869 0 -22.465717738598869 141.46221116091874 0 0 0 0 9.0216125868809343 18.100441797213492 0 18.100441797213492 20.848287913210324 0 0 0 0 -238.78152126527129 4.3265851248511353 0 4.3265851248511353 74.092882127239136 0 0 0 0 -283.46033552804147 58.755658728030198 0 58.755658728030198 12.259682410382084 0 0 0 0 -293.96754622867411 32.323397458869408 0 32.323397458869408 237.71108218418794 0 0 0 0 -153.45695353632618 177.58062840751609 0 177.58062840751609 -234.59881260354587 0 0 0 0 -119.23855548878782 59.576383187521969 0 59.576383187521969 -16.007178667736298 0 0 0 0 4.4005706250066083 24.322087656526264 0 24.322087656526264 25.860887387076794 0 0 0 0 168.72110671123664 -255.03185759653707 0 -255.03185759653707 -522.33883635192888 0 0 0 0 -334.28688281908398 274.9292577088072 0 274.9292577088072 138.79027366451373 0 0 0 0 -1782.1506162793812 577.85461921046135 0 577.85461921046135 -56.155609501722211 0 0 0 0 -1444.5811752676236 -157.49625986683168 0 -157.49625986683168 216.86227890106267 0 0 0 0 -819.7571242821432 446.62658735029072 0 446.62658735029072 -273.475853461935 0 0 0 0 -1438.0580429819311 309.77843150569061 0 309.77843150569061 229.97992385691032 0 0 0 0 -1727.2846977151712 -108.59569058008128 0 -108.59569058008128 -330.73408127781022 0 0 0 0 -1066.6819962292066 -51.003525016372805 0 -51.003525016372805 -567.2404226045519 0 0 0 0 -1296.5600294363176 -275.5149855480513 0 -275.5149855480513 -297.03696105814197 0 0 0 0 -682.29489750364155 451.53962940071233 0 451.53962940071233 22.084778789740085 0 0 0 0 -23.533588456826664 -23.628617648586285 0 -23.628617648586285 -20.008479060315473 0 0 0 0 -6.8243829047729321 -1.7375153227053133 0 -1.7375153227053133 4.1508223730922644 0 0 0 0 -555.67172821761778 -214.35873811564034 0 -214.35873811564034 -209.62878597003146 0 0 0 0 -1200.8113203646644 1247.9344958862439 0 1247.9344958862439 -168.75062221573717 0 0 0 0 -198.36248809807148 215.14324804592934 0 215.14324804592934 156.73537007080631 0 0 0 0 -1.5932437819137704 178.435656498767 0 178.435656498767 74.957497771973237 0 0 0 0 -308.12743255582609 -42.774360754204054 0 -42.774360754204054 73.34290952262927 0 0 0 0 -511.94007179432083 89.63811819729699 0 89.63811819729699 -71.832658961210598 0 0 0 0 -475.09291320126067 7.202996070269819 0 7.202996070269819 217.47056210185747 0 0 0 0 -254.32211140760046 -34.975244132250737 0 -34.975244132250737 -63.023480815575283 0 0 0 0 -183.51824416932141 -17.739699104070837 0 -17.739699104070837 48.213901515213365 0 0 0 0 -18.288126112023747 -1.227480852789725 0 -1.227480852789725 4.3438782877261453 0 0 0 0 -266.67664807386973 182.92411167834211 0 182.92411167834211 238.27334506497755 0 0 0 0 10.847344024787162 193.2088282596012 0 193.2088282596012 100.78515659813365 0 0 0 0 -346.74269341918443 86.198016751647913 0 86.198016751647913 130.66966205568497 0 0 0 0 -359.5558600521108 -52.69763790280922 0 -52.69763790280922 38.043878597171215 0 0 0 0 -95.427343139308505 175.03731085850632 0 175.03731085850632 74.869067164940134 0 0 0 0 10.778800497500924 68.519074140775047 0 68.519074140775047 34.100691169381662 0 0 0 0 -28.975913327609305 48.348280139670806 0 48.348280139670806 10.82941265484078 0 0 0 0 -17.723978905181866 65.797539086309371 0 65.797539086309371 13.867912687107037 0 0 0 0 -45.052893546970154 65.725878290410492 0 65.725878290410492 14.762255234554686 0 0 0 0 -11.214288505458171 44.700539933137065 0 44.700539933137065 11.211904560042967 0 0 0 0 -87.10055946308421 62.258199271622289 0 62.258199271622289 52.671747938135923 0 0 0 0 -78.926565255387686 24.130038156574301 0 24.130038156574301 33.947075103271345 0 0 0 0 -6.8703017017251113 11.52052700355398 0 11.52052700355398 -12.311127219351874 0 0 0 0 -14.5526878026318 -0.016879283973736392 0 -0.016879283973736392 2.3486855114600829 0 0 0 0 27.362056903293706 90.906592689531863 0 90.906592689531863 81.287232932364077 0 0 0 0 -0.30664435346530539 -1.3731662662522837 0 -1.3731662662522837 1.0049448599145876 0 0 0 0 5.6214213578932686 47.813667210968219 0 47.813667210968219 164.10725523997098 0 0 0 0 29.664009022773826 81.260439899521316 0 81.260439899521316 54.650287944121374 0 0 0 0 -14.137307823446463 58.903907882622207 0 58.903907882622207 101.91165631847434 0 0 0 0 24.795358234157902 95.80706481488869 0 95.80706481488869 114.36106302988014 0 0 0 0 146.02093579868961 36.162213064137745 0 36.162213064137745 114.6270670720437 0 0 0 0 38.264801934292336 77.379471285435045 0 77.379471285435045 203.0226462500018 0 0 0 0 -74.259216025573551 21.908580505506052 0 21.908580505506052 156.64324495426308 0 0 0 0 47.935767767761718 88.10789014734064 0 88.10789014734064 26.955876220313712 0 0 0 0 -214.91479742708907 132.10572077528354 0 132.10572077528354 67.312442284691997 0 0 0 0 -60.212515087026986 50.475054697015821 0 50.475054697015821 -9.3219558790274277 0 0 0 0 -96.49186837340676 16.944346805241366 0 16.944346805241366 27.581306528364621 0 0 0 0 101.51281158754136 62.639275805204306 0 62.639275805204306 -25.908369590379834 0 0 0 0 -114.4443758897396 188.25747465228619 0 188.25747465228619 -9.0566515935638563 0 0 0 0 -265.48657974478465 160.34813531759653 0 160.34813531759653 406.82867222674054 0 0 0 0 -5.1545217963981713 4.8696820386942932 0 4.8696820386942932 -2.7154807389242208 0 0 0 0 200.02019951038528 271.9778559221412 0 271.9778559221412 79.855157083260963 0 0 0 0 -453.2502905507863 -191.80570433693424 0 -191.80570433693424 13.362228638798115 0 0 0 0 -294.74971947863378 -9.6589000495480377 0 -9.6589000495480377 216.94760900709457 0 0 0 0 -727.05230246169958 -291.28873708683682 0 -291.28873708683682 37.449660079813839 0 0 0 0 216.91610692373797 321.89940635117432 0 321.89940635117432 163.56280793963975 0 0 0 0 -1.6592051173866764 1.6230424103528094 0 1.6230424103528094 -1.6158848914418069 0 0 0 0 -718.86281046898512 31.149844251416425 0 31.149844251416425 50.052153743168674 0 0 0 0 -315.59862855030224 -110.34866821266132 0 -110.34866821266132 -10.511459105529866 0 0 0 0 -475.15273656501085 -24.515707080051016 0 -24.515707080051016 -19.648310761760513 0 0 0 0 -527.28550706015085 -81.058914103455663 0 -81.058914103455663 8.7167839140247452 0 0 0 0 -371.64989607126336 -133.86038343769269 0 -133.86038343769269 17.017740605650602 0 0 0 0 -478.87572760144394 -51.797937684800445 0 -51.797937684800445 270.96283993818679 0 0 0 0 -431.30166609538719 -86.225027455229224 0 -86.225027455229224 291.2179324765234 0 0 0 0 -429.05380318585594 -112.02859470146234 0 -112.02859470146234 507.87519385646533 0 0 0 0 -336.68523980356986 -32.276340125790966 0 -32.276340125790966 102.27050476869238 0 0 0 0 -537.33586519448727 -80.897589534970166 0 -80.897589534970166 347.98508571369791 0 0 0 0 -537.05797526368406 -46.324164611082438 0 -46.324164611082438 322.15773040566819 0 0 0 0 -362.61797075610957 -85.633988483660119 0 -85.633988483660119 106.57741356145164 0 0 0 0 -643.87199446951854 83.831532080609804 0 83.831532080609804 45.447423987710408 0 0 0 0 -438.14514556892391 3.146005042549163 0 3.146005042549163 -159.36499803393571 0 0 0 0 -485.29099823807337 -60.748423495613366 0 -60.748423495613366 96.969193265315653 0 0 0 0 -1621.6038274712337 200.48756149021958 0 200.48756149021958 505.11299451113479 0 0 0 0 -217.62187442777577 124.67054371728031 0 124.67054371728031 45.433539907119894 0 0 0 0 -2.1100006884458935 2.6752027866882884 0 2.6752027866882884 -2.7740364971580798 0 0 0 0 306.64376568167063 127.29728350904247 0 127.29728350904247 -206.41556953160557 0 0 0 0 -376.70057754247682 -124.63883370804422 0 -124.63883370804422 404.23301994262869 0 0 0 0 -549.24954584315128 14.415456021765834 0 14.415456021765834 -179.37742608841126 0 0 0 0 -678.56176098478318 561.93654504245126 0 561.93654504245126 -503.17236114921724 0 0 0 0 -576.50685550911294 392.07582197670496 0 392.07582197670496 -263.36632167418406 0 0 0 0 116.79227275800076 957.28125088956301 0 957.28125088956301 -346.54450638846919 0 0 0 0 -778.51637415905134 1106.4555672736108 0 1106.4555672736108 -369.98398661542069 0 0 0 0 -244.17272047209553 753.10387111491332 0 753.10387111491332 -600.27367721542294 0 0 0 0 -1139.1638777837506 777.08770519845018 0 777.08770519845018 -648.43415140743718 0 0 0 0 -1125.5726843882003 932.69207392423948 0 932.69207392423948 -595.44548310616221 0 0 0 0 -957.32853285963938 1207.2259973725081 0 1207.2259973725081 -770.04184599532095 0 0 0 0 -9.7407050424281749 0.65796179449432657 0 0.65796179449432657 4.1391162126940459 0 0 0 0 -1478.8572995487866 507.79424740817035 0 507.79424740817035 -1005.8611487159412 0 0 0 0 -911.72715638200316 456.30895268511335 0 456.30895268511335 -515.68166046543934 0 0 0 0 -965.12048526352737 733.41591328960646 0 733.41591328960646 -938.11800583504305 0 0 0 0 -1236.4571638908092 321.76216680708103 0 321.76216680708103 -322.80599726045546 0 0 0 0 -1669.2800864805604 1296.4908476166886 0 1296.4908476166886 -821.95108443714958 0 0 0 0 -1183.912910228697 -162.60244378865258 0 -162.60244378865258 -2.6345759208476864 0 0 0 0 -5.2108252136777651 1.0391359916741578 0 1.0391359916741578 1.4951864191288853 0 0 0 0 1.0109801664315512 -58.734444379363325 0 -58.734444379363325 0.080428938211618992 0 0 0 0 -1071.4907485723816 1164.5094758411183 0 1164.5094758411183 -383.56354915922378 0 0 0 0 -5.7101714955890941 -2.3967998606458849 0 -2.3967998606458849 0.25185639815466632 0 0 0 0 -470.48815284331795 -58.395817794550581 0 -58.395817794550581 -252.57438539129996 0 0 0 0 -481.02733444031765 -40.50490641847199 0 -40.50490641847199 -178.81697336498945 0 0 0 0 -648.77595006827323 -45.560450233937942 0 -45.560450233937942 -164.76365227281815 0 0 0 0 -683.76410258184478 246.18192014894143 0 246.18192014894143 -429.21754556081498 0 0 0 0 -764.57474303871277 108.92084373315835 0 108.92084373315835 -360.36934227106462 0 0 0 0 -696.72050793301605 167.87656493121892 0 167.87656493121892 -327.5585644855006 0 0 0 0 -963.94402444444131 119.50903760113758 0 119.50903760113758 -2.2533710816428383 0 0 0 0 -1606.2803799251906 555.55770207920568 0 555.55770207920568 -278.64875561855843 0 0 0 0 -749.0174400042888 183.43517673847251 0 183.43517673847251 -265.86546594447714 0 0 0 0 -531.7323863603815 -65.637095649362664 0 -65.637095649362664 0.53139326530092745 0 0 0 0 -354.99402327372809 -95.368475787463197 0 -95.368475787463197 -199.54754167352505 0 0 0 0 -1.7843787794405443 -0.87485686043250155 0 -0.87485686043250155 -0.2894607138550121 0 0 0 0 10.657822686647705 -253.79264809100505 0 -253.79264809100505 -152.92638392332157 0 0 0 0 -348.48147548645284 -47.804591025842342 0 -47.804591025842342 113.23359234093947 0 0 0 0 42.063932463992387 -59.174477924615317 0 -59.174477924615317 -0.30571279197126933 0 0 0 0 41.959494911239744 -59.648531186775564 0 -59.648531186775564 0.22622185572507403 0 0 0 0 -516.30624742094369 5.8252365157327404 0 5.8252365157327404 175.4405276415564 0 0 0 0 -2.0664969590137332 -0.66956558722799997 0 -0.66956558722799997 -0.02974936761074648 0 0 0 0 -477.21325013918977 -89.666189909257639 0 -89.666189909257639 63.267958703747809 0 0 0 0 132.97961236129413 -76.014560406951318 0 -76.014560406951318 -87.335874602823992 0 0 0 0 -147.86206417423091 103.32045617620281 0 103.32045617620281 113.74960923144872 0 0 0 0 -161.5531979824591 -141.00466966798047 0 -141.00466966798047 -101.41241587353295 0 0 0 0 -190.61076814779517 -151.19634463104782 0 -151.19634463104782 -7.3645699861804133 0 0 0 0 -328.1368639717839 -47.269798289754931 0 -47.269798289754931 49.407167475555156 0 0 0 0 -414.47532230372599 -163.99075433363183 0 -163.99075433363183 4.2482029733829449 0 0 0 0 -338.06232213232215 -160.72713489625198 0 -160.72713489625198 8.7989789415122459 0 0 0 0 -205.534770973376 -186.23854149404463 0 -186.23854149404463 71.888274401282843 0 0 0 0 -274.03591883648187 -103.40912260827702 0 -103.40912260827702 -10.039171355451764 0 0 0 0 -170.47260120411374 -175.1363784095235 0 -175.1363784095235 4.5282920460198284 0 0 0 0 -181.21997444683802 -246.53166583901498 0 -246.53166583901498 283.71303625391033 0 0 0 0 -266.01881327068259 104.30740323797392 0 104.30740323797392 357.63556217185226 0 0 0 0 12.558254538926121 -167.31035818576572 0 -167.31035818576572 39.436201768725596 0 0 0 0 -370.81032879388658 -133.53703504924806 0 -133.53703504924806 38.346279276542646 0 0 0 0 -268.36745242821053 -90.299939676732151 0 -90.299939676732151 -189.74585582770669 0 0 0 0 -95.55230536327872 -230.34636820621725 0 -230.34636820621725 5.9670529808468018 0 0 0 0 -176.37554973021906 -324.23430587343898 0 -324.23430587343898 -101.41741900571608 0 0 0 0 -877.75373929910711 -161.89428696019004 0 -161.89428696019004 101.37252483266684 0 0 0 0 -529.7134695722707 -9.1320247516509099 0 -9.1320247516509099 124.7283332872716 0 0 0 0 -686.72671107163478 -175.85965242791539 0 -175.85965242791539 0.19496204188719418 0 0 0 0 -653.87776737533568 -186.43808666738181 0 -186.43808666738181 48.643059925574036 0 0 0 0 -650.7086880265233 -224.21807638466527 0 -224.21807638466527 58.059100934285709 0 0 0 0 -605.69239189843211 -211.137370466715 0 -211.137370466715 0.10254372474918588 0 0 0 0 -663.70058927548962 -211.96572443686421 0 -211.96572443686421 127.32127398556463 0 0 0 0 -543.84855389033328 -128.13264325341538 0 -128.13264325341538 81.6497554542496 0 0 0 0 -456.22444391736644 -115.49151348818054 0 -115.49151348818054 71.579855337297033 0 0 0 0 -440.57696280094387 -95.880569520481401 0 -95.880569520481401 26.945419561557628 0 0 0 0 -475.8702435635023 -170.61525068447543 0 -170.61525068447543 -46.235883369342332 0 0 0 0 -603.58443405298021 -206.45504665922502 0 -206.45504665922502 -118.45337198759535 0 0 0 0 -580.67415109996364 -143.64833459879782 0 -143.64833459879782 29.774837955441058 0 0 0 0 -575.45705877455657 -214.03454567921972 0 -214.03454567921972 -2.9414795843360935 0 0 0 0 -735.10950293717178 -228.0937696770774 0 -228.0937696770774 33.002582325258459 0 0 0 0 -713.18850702189957 -161.5419459367223 0 -161.5419459367223 -138.19113064993337 0 0 0 0 -719.70369307138753 -168.41097141661351 0 -168.41097141661351 -152.38087460813529 0 0 0 0 -703.3406300052302 -107.77710335565342 0 -107.77710335565342 -32.180548382516747 0 0 0 0 -1025.5474046443851 -41.813182970976584 0 -41.813182970976584 -58.201167578124569 0 0 0 0 -1257.8853055873042 -274.53524996069871 0 -274.53524996069871 -52.272339170275018 0 0 0 0 -804.30725765151146 -131.46071759890867 0 -131.46071759890867 62.247657049514807 0 0 0 0 -883.33388568817463 -142.62590619054345 0 -142.62590619054345 62.050471269556319 0 0 0 0 -800.74188648577547 -128.01223733219319 0 -128.01223733219319 -143.36455882481323 0 0 0 0 -1126.7232566408347 -367.37327377646437 0 -367.37327377646437 -177.19796244104668 0 0 0 0 -897.35282090010878 -165.59732298050886 0 -165.59732298050886 -85.404473737051887 0 0 0 0 -909.06212816012339 -149.79369403853619 0 -149.79369403853619 -36.179886338390133 0 0 0 0 -773.56241223696998 -61.916198203790799 0 -61.916198203790799 -67.088694764782076 0 0 0 0 -709.58753385847376 -132.36306626191669 0 -132.36306626191669 8.2885040013992466 0 0 0 0 -742.99436454639363 -91.277321241707455 0 -91.277321241707455 11.779405964228097 0 0 0 0 -700.96453178569209 -91.963211853408666 0 -91.963211853408666 11.483517578720466 0 0 0 0 -614.0809164322709 -83.008492648579079 0 -83.008492648579079 1.4257460725516609 0 0 0 0 -553.8088368386816 -85.967719680039238 0 -85.967719680039238 -69.575322616635276 0 0 0 0 -581.01379087659006 -167.48147123091246 0 -167.48147123091246 -52.982028071357604 0 0 0 0 -547.84560142512419 -110.15694117831264 0 -110.15694117831264 0.43226687636592942 0 0 0 0 -416.06284507936289 -126.38866940155664 0 -126.38866940155664 -1.1446991914249338 0 0 0 0 -547.05586922304065 -99.897983389216733 0 -99.897983389216733 1.6763309559299842 0 0 0 0 -423.80191437697795 -103.52186356954832 0 -103.52186356954832 -43.759202232469988 0 0 0 0 -482.4863179975946 -79.424210254755266 0 -79.424210254755266 -2.9458835209450029 0 0 0 0 -428.77181013702648 -114.68194639307757 0 -114.68194639307757 -33.378834854237709 0 0 0 0 -357.43090232624672 -121.08951279249825 0 -121.08951279249825 -41.800404080132196 0 0 0 0 -406.75897889232147 -86.931222272695564 0 -86.931222272695564 -18.941350962006254 0 0 0 0 -454.07924954554255 -176.17225146699869 0 -176.17225146699869 -39.936239297178673 0 0 0 0 -503.57300424046116 -154.33330335304055 0 -154.33330335304055 -39.609633084641239 0 0 0 0 -602.88691943927552 -120.05360069221064 0 -120.05360069221064 7.4978765796453217 0 0 0 0 -545.21972195198396 -153.14089325012523 0 -153.14089325012523 6.5296023152245652 0 0 0 0 -676.87837566641247 -151.00741203046266 0 -151.00741203046266 47.253316344067116 0 0 0 0 -756.0703654163226 -148.52640124525993 0 -148.52640124525993 51.123658489659874 0 0 0 0 -743.47726528618659 -210.09759672316716 0 -210.09759672316716 26.514014985488785 0 0 0 0 -616.76322908622478 -189.96690316689558 0 -189.96690316689558 29.049903340610783 0 0 0 0 -744.55947136820032 -215.03762365767756 0 -215.03762365767756 45.841109378603221 0 0 0 0 -829.75037134723243 -207.24019839519059 0 -207.24019839519059 84.199074006403492 0 0 0 0 -752.71897116512901 -168.43435056997151 0 -168.43435056997151 101.7612133680927 0 0 0 0 -810.31884108580562 -136.95160609373181 0 -136.95160609373181 90.277047418772781 0 0 0 0 -69.578075870376779 -14.699938510484316 0 -14.699938510484316 1.8210382412753461 0 0 0 0 -122.53404885218333 11.619850684693802 0 11.619850684693802 27.68405662625571 0 0 0 0 -8.8347994427884657 -3.3127997710600425 0 -3.3127997710600425 2.3463229281203928 0 0 0 0 -58.361143514033756 19.99510990234262 0 19.99510990234262 -13.170400876429085 0 0 0 0 -34.314699471069616 0.51812608249116465 0 0.51812608249116465 6.6033623591698642 0 0 0 0 -12.174255487037344 -1.2252186833017049 0 -1.2252186833017049 9.0430271014746744 0 0 0 0 -383.53252353452081 40.091377008652998 0 40.091377008652998 73.517465521892973 0 0 0 0 -10.642544744172483 -165.91165550702794 0 -165.91165550702794 186.95486583614911 0 0 0 0 34.635002651831016 92.573863460200187 0 92.573863460200187 89.031116356972689 0 0 0 0 -0.50824376119581005 -0.22678039356650004 0 -0.22678039356650004 3.0943754763502209 0 0 0 0 -142.89363078937458 46.250817773184394 0 46.250817773184394 311.01609083348575 0 0 0 0 -203.5380723625276 -65.195904682620011 0 -65.195904682620011 111.50649667442167 0 0 0 0 -67.060574318718864 -9.4534322675677913 0 -9.4534322675677913 25.163985541233046 0 0 0 0 -72.206810050907734 15.634429709531766 0 15.634429709531766 24.060102493557451 0 0 0 0 -275.16310772450379 -117.48266781495778 0 -117.48266781495778 9.7254579716543503 0 0 0 0 -208.96054763287248 -47.923448861202019 0 -47.923448861202019 61.008281962027937 0 0 0 0 -323.79992091978784 -64.799760566474902 0 -64.799760566474902 -0.17027748463092962 0 0 0 0 -296.53445155981899 -99.80776566058934 0 -99.80776566058934 -26.727085466531548 0 0 0 0 -382.02469444806047 -50.980034515083332 0 -50.980034515083332 1.5388520845152698 0 0 0 0 -219.44577432605729 -18.90145321165727 0 -18.90145321165727 12.60207218067675 0 0 0 0 -173.92371130166066 -59.429131491013521 0 -59.429131491013521 -22.910116752413671 0 0 0 0 -74.212515618928592 -4.6776069138612293 0 -4.6776069138612293 -46.704756780841613 0 0 0 0 -314.91410409440869 -48.451577662492305 0 -48.451577662492305 1.3645029526583627 0 0 0 0 -149.06238864655461 -44.894370360790475 0 -44.894370360790475 -85.135335413589416 0 0 0 0 -296.17746091386653 -96.553182924783073 0 -96.553182924783073 -50.749683415888171 0 0 0 0 -252.51729670334316 -123.55188874456962 0 -123.55188874456962 -73.83543435100475 0 0 0 0 -157.7631869252109 -7.8101468084082279 0 -7.8101468084082279 -4.6779457953960062 0 0 0 0 -55.450481809377379 115.19050842288743 0 115.19050842288743 214.58093503277496 0 0 0 0 -55.992749765471359 26.032453925040926 0 26.032453925040926 -2.8403272777945974 0 0 0 0 -94.546210871034418 -24.289665674887374 0 -24.289665674887374 23.582953571505868 0 0 0 0 -52.697916194739378 18.527749553371414 0 18.527749553371414 5.0559735591595185 0 0 0 0 -68.294067452938179 30.746074691620262 0 30.746074691620262 -5.5109440643586662 0 0 0 0 -4.4327733460729108 -27.971993505129888 0 -27.971993505129888 14.54714226345042 0 0 0 0 -126.61816315595206 19.519307528746026 0 19.519307528746026 51.249555880331172 0 0 0 0 -185.71220269006153 -80.092423334671366 0 -80.092423334671366 -42.73754683584275 0 0 0 0 -170.88606354097186 -31.943264018591758 0 -31.943264018591758 71.759577716637978 0 0 0 0 -13.734364102177725 -24.568116488284545 0 -24.568116488284545 33.629246352800656 0 0 0 0 -197.31497803977982 36.53119324313684 0 36.53119324313684 106.85393687955548 0 0 0 0 -227.68561455713643 5.8258292352538774 0 5.8258292352538774 95.786366933323734 0 0 0 0 -166.64334911988408 0.70595411232534389 0 0.70595411232534389 13.164358726899081 0 0 0 0 -101.7049598404457 26.240105289168312 0 26.240105289168312 16.101153652980347 0 0 0 0 -13.548134600627236 3.7094887508765169 0 3.7094887508765169 40.071177823673679 0 0 0 0 -56.775210777728091 13.519851182519897 0 13.519851182519897 4.7709159856417171 0 0 0 0 -47.068879046289993 1.8638161331143479 0 1.8638161331143479 11.374880519796577 0 0 0 0 -95.854585075401701 -126.13525131994993 0 -126.13525131994993 -77.724716842562884 0 0 0 0 -51.121312089055742 -48.147362764980713 0 -48.147362764980713 -135.63007277796532 0 0 0 0 -37.872537921408366 -69.215050427667848 0 -69.215050427667848 195.57661124051538 0 0 0 0 -35.631866037423265 5.7218658901169679 0 5.7218658901169679 2.8238272515156755 0 0 0 0 -23.520623897464247 -87.047246604390239 0 -87.047246604390239 180.11036778487232 0 0 0 0 -327.91242146349759 -94.522405563699976 0 -94.522405563699976 171.80528090229222 0 0 0 0 -14.572758328418171 1.1829458751854673 0 1.1829458751854673 7.4378890322105669 0 0 0 0 57.548695168152335 -103.20230146540916 0 -103.20230146540916 135.49613726199004 0 0 0 0 7.6770178143358692 754.98329189037497 0 754.98329189037497 -994.86254418481622 0 0 0 0 79.176434994298688 -17.39929131846495 0 -17.39929131846495 125.35808730673196 0 0 0 0 182.77699578688043 38.54373416588539 0 38.54373416588539 41.13216253232207 0 0 0 0 169.63407491424005 -901.40734590118768 0 -901.40734590118768 562.68171508693354 0 0 0 0 -387.4564577523779 -112.50923867384699 0 -112.50923867384699 123.46675364680704 0 0 0 0 -45.335191986861901 -168.07945461061581 0 -168.07945461061581 131.64159055345681 0 0 0 0 -187.79558060603813 0.12060310739116176 0 0.12060310739116176 133.86544528889863 0 0 0 0 -260.68229688552856 61.770732805304647 0 61.770732805304647 32.168133329424563 0 0 0 0 -5.7549715983768692 151.35105552275786 0 151.35105552275786 208.40028879725688 0 0 0 0 3.3069036472127067 -3.0999607924126735 0 -3.0999607924126735 10.36354996670107 0 0 0 0 195.9030755473068 199.74428807723029 0 199.74428807723029 63.108030012913218 0 0 0 0 -7.3980375398532487 43.215728976240712 0 43.215728976240712 60.929899999877705 0 0 0 0 -263.03401717940142 -47.897159404009813 0 -47.897159404009813 163.86830288757716 0 0 0 0 -302.0415145644165 -120.53652399518705 0 -120.53652399518705 29.95275702195454 0 0 0 0 -243.02987612599827 -43.941323133305332 0 -43.941323133305332 -103.67049641068093 0 0 0 0 -120.94882509131276 -10.390767852170029 0 -10.390767852170029 67.934395029628377 0 0 0 0 -287.78478168371294 135.13606024083947 0 135.13606024083947 124.08186233243396 0 0 0 0 -413.43807515947265 54.701330025741299 0 54.701330025741299 207.41312610238606 0 0 0 0 -665.51849672824756 105.40196083259934 0 105.40196083259934 282.30346715669111 0 0 0 0 -616.27341658482055 -311.62505655283059 0 -311.62505655283059 233.97510375973616 0 0 0 0 -354.78020439794273 238.63962525746047 0 238.63962525746047 240.92629989126226 0 0 0 0 -44.661288459603384 126.72638880476006 0 126.72638880476006 120.06405903041218 0 0 0 0 -11.603268328011353 2.5580198721419531 0 2.5580198721419531 -0.98566202836235917 0 0 0 0 -155.15502697855118 -110.69898810212544 0 -110.69898810212544 203.86445539132274 0 0 0 0 -33.609796202919824 -218.58671024268165 0 -218.58671024268165 -300.98333989448292 0 0 0 0 -59.733052104515764 30.706227688303819 0 30.706227688303819 -7.737675680359958 0 0 0 0 -231.67473739864363 -41.461236439095046 0 -41.461236439095046 -74.971013969335786 0 0 0 0 -719.63420671349377 434.15347420447824 0 434.15347420447824 1001.2520396886075 0 0 0 0 -238.9793926152488 -144.67315929776521 0 -144.67315929776521 -148.82652444557613 0 0 0 0 -359.71704820111336 -205.35264622169396 0 -205.35264622169396 -122.29358451851681 0 0 0 0 -574.75869636392963 -251.47377716487517 0 -251.47377716487517 -63.514552656001001 0 0 0 0 -433.0284360394653 -219.47570972181256 0 -219.47570972181256 -170.52255490410869 0 0 0 0 -419.66518865233229 -285.81927756659582 0 -285.81927756659582 -249.97815485858007 0 0 0 0 470.71198526525677 873.53672118164877 0 873.53672118164877 509.67411217818426 0 0 0 0 -52.423629505528197 29.78471295156514 0 29.78471295156514 -11.120463767924159 0 0 0 0 671.13783694682206 122.02575985101021 0 122.02575985101021 -874.60990771482557 0 0 0 0 -950.31480111645214 -310.74632067353713 0 -310.74632067353713 8.9525941458162492 0 0 0 0 -692.75963717552077 -255.71469817852562 0 -255.71469817852562 -63.658493697326236 0 0 0 0 -701.84634738030309 -326.52157624992992 0 -326.52157624992992 -191.87088680813167 0 0 0 0 -1076.1448225645654 -649.78623499184641 0 -649.78623499184641 -452.30824864455144 0 0 0 0 -763.42953884187591 -335.29100190164013 0 -335.29100190164013 -191.55095192784469 0 0 0 0 -728.15002877290863 -470.03460118004256 0 -470.03460118004256 -358.6512499359269 0 0 0 0 -37.694026174368332 22.18681099226319 0 22.18681099226319 -10.100537442008598 0 0 0 0 421.14465340951574 174.02199892564823 0 174.02199892564823 146.61148111975069 0 0 0 0 -2117.373776320499 -825.63267624745822 0 -825.63267624745822 -481.59992960407317 0 0 0 0 -13.619141335169502 8.796418051513335 0 8.796418051513335 -5.8477444554769686 0 0 0 0 -75.320919832556683 -39.859921109684819 0 -39.859921109684819 252.83017651269756 0 0 0 0 -222.65545627006213 52.723998461294741 0 52.723998461294741 511.32976971518406 0 0 0 0 487.16713957949105 551.90921301431513 0 551.90921301431513 607.04162286103428 0 0 0 0 -519.70926103617239 131.58926350659362 0 131.58926350659362 691.29062925216874 0 0 0 0 -291.59881519567352 -186.7520277320931 0 -186.7520277320931 328.29379124221578 0 0 0 0 42.020427958250366 -87.110999804377684 0 -87.110999804377684 50.989203463870354 0 0 0 0 -138.61205493420493 -204.09150005409549 0 -204.09150005409549 -303.00182258899497 0 0 0 0 -349.74707179914913 -116.33006566780949 0 -116.33006566780949 70.846396411338901 0 0 0 0 -712.32546243527759 -549.33360020189991 0 -549.33360020189991 -387.74832520782968 0 0 0 0 -122.52061992722884 -90.406168913857641 0 -90.406168913857641 -992.5245001574898 0 0 0 0 -110.00597468642718 36.87983071041279 0 36.87983071041279 -194.02651153877878 0 0 0 0 -278.58627051252552 1419.9171739959736 0 1419.9171739959736 -305.33444862786962 0 0 0 0 278.28300142712396 1410.3294485114857 0 1410.3294485114857 -358.75846138543022 0 0 0 0 -1606.7185224806744 652.33534841572032 0 652.33534841572032 62.69141713039312 0 0 0 0 -21.176028801183492 4.5625743696467058 0 4.5625743696467058 -0.33661195557152879 0 0 0 0 -339.20960363476843 1392.3623009257826 0 1392.3623009257826 -138.78872357009459 0 0 0 0 -149.57279906046369 51.945046959034357 0 51.945046959034357 233.89020649782742 0 0 0 0 -387.62822693272028 -508.17278712210486 0 -508.17278712210486 64.485119228337112 0 0 0 0 -1847.8508425446307 55.312895458981018 0 55.312895458981018 368.07202729489745 0 0 0 0 -1295.0325452166071 -681.67983978088296 0 -681.67983978088296 251.1263143751832 0 0 0 0 -1111.6573578321622 -260.54747576558123 0 -260.54747576558123 247.70456205787241 0 0 0 0 -1065.2961878689566 -155.52965308974592 0 -155.52965308974592 309.6254707106109 0 0 0 0 -270.31969946964819 132.78690616020708 0 132.78690616020708 -70.283724449092006 0 0 0 0 -6.0556357797224294 -1.3940688457155943 0 -1.3940688457155943 2.7228940667652584 0 0 0 0 -161.11261397053022 292.73237144363588 0 292.73237144363588 -199.62248808034178 0 0 0 0 -1041.55737956558 731.72033868835524 0 731.72033868835524 -396.12605190290753 0 0 0 0 -1066.5942948584561 -111.28156555822216 0 -111.28156555822216 373.80507077621144 0 0 0 0 -1045.5829388033453 -85.682865858626428 0 -85.682865858626428 630.71040776165501 0 0 0 0 -972.8649215632031 -164.72781296338133 0 -164.72781296338133 204.71862445358977 0 0 0 0 -971.29965137001273 -148.86277730272616 0 -148.86277730272616 -29.94630528022202 0 0 0 0 -2.752833207287722 6.549448083515264 0 6.549448083515264 1.63315012821062 0 0 0 0 -1010.294751055706 -106.20970791527907 0 -106.20970791527907 265.66896012106645 0 0 0 0 -1021.6930001865258 -168.95169243515738 0 -168.95169243515738 215.88620303625657 0 0 0 0 -180.52644320180116 100.41523406251827 0 100.41523406251827 -61.986024496638038 0 0 0 0 -34.259201058320926 2.8239635892880912 0 2.8239635892880912 3.1940529588632423 0 0 0 0 -28.352646403665858 121.71969737343875 0 121.71969737343875 248.33499724028275 0 0 0 0 -166.09725191532561 190.569833656181 0 190.569833656181 -158.19182917162675 0 0 0 0 -69.133167976578989 142.89056125311276 0 142.89056125311276 -141.65111427355578 0 0 0 0 -68.448441040269245 142.16452699461431 0 142.16452699461431 -217.89665018052528 0 0 0 0 -3.0804933167055424 255.34083679953505 0 255.34083679953505 -102.36661931546001 0 0 0 0 -36.494562644576945 227.57846544491463 0 227.57846544491463 -370.16164622873021 0 0 0 0 -25.487873493537435 1.1661185793163114 0 1.1661185793163114 1.6959315026174497 0 0 0 0 -180.63380846304062 103.06100537718999 0 103.06100537718999 -180.69727844788389 0 0 0 0 -147.41626203166379 146.64978831111921 0 146.64978831111921 -407.53201513025806 0 0 0 0 -646.73898944643952 36.89990045752279 0 36.89990045752279 -5.3091065141074978 0 0 0 0 -147.07499902803102 -71.857797395794364 0 -71.857797395794364 18.348378578457641 0 0 0 0 68.4544569457139 51.715474989364623 0 51.715474989364623 -173.47396201749692 0 0 0 0 -296.48884805960552 37.83064170633611 0 37.83064170633611 226.73360040976331 0 0 0 0 -109.5240534345794 210.19573969479569 0 210.19573969479569 274.56597138540451 0 0 0 0 369.97858944085965 241.49985372442271 0 241.49985372442271 112.2589648654814 0 0 0 0 0.18904509231397526 -1.5148842873902097 0 -1.5148842873902097 3.577465330272279 0 0 0 0 -239.40584249245512 -90.543446436897852 0 -90.543446436897852 -7.0238584968813811 0 0 0 0 -329.72491686117064 -179.65567898518174 0 -179.65567898518174 -66.773488634216164 0 0 0 0 -159.34075544478401 -159.28308075777915 0 -159.28308075777915 13.826805522177418 0 0 0 0 -161.17223225033376 63.426446244926495 0 63.426446244926495 -198.61885937597665 0 0 0 0 -148.04306423521484 129.4870310111896 0 129.4870310111896 98.88091362802399 0 0 0 0 -1133.593215369503 -52.662517844171362 0 -52.662517844171362 36.217069317071036 0 0 0 0 -1414.4227964338861 330.25601863620369 0 330.25601863620369 237.3723485645678 0 0 0 0 -2339.3987092615571 -67.472303432218894 0 -67.472303432218894 94.452805330428077 0 0 0 0 -908.61639831711273 53.405118903666107 0 53.405118903666107 63.292755197243196 0 0 0 0 -719.79152198829979 50.743848547893322 0 50.743848547893322 54.04964321482214 0 0 0 0 -1001.9853820947174 415.10530549691373 0 415.10530549691373 343.69607765754381 0 0 0 0 -1190.7954956670801 274.18202336754189 0 274.18202336754189 251.23808511612174 0 0 0 0 -1120.5760760747362 29.199468313021953 0 29.199468313021953 124.76209812213176 0 0 0 0 -49.838513155307737 16.219526463119905 0 16.219526463119905 -9.7247861792895947 0 0 0 0 -59.165018316463829 15.076139448007211 0 15.076139448007211 11.434877747621613 0 0 0 0 -850.13726953048899 515.48880641584469 0 515.48880641584469 -290.62824280418039 0 0 0 0 -311.07765897863283 -35.996831434089529 0 -35.996831434089529 -77.882981321507714 0 0 0 0 -0.85969187846541217 -2.3175140089487627 0 -2.3175140089487627 -1.9974359737554366 0 0 0 0 -1102.9897324324484 -107.4552172824408 0 -107.4552172824408 -37.810278052437013 0 0 0 0 -20.759176047457004 30.551647558346815 0 30.551647558346815 -214.96125830080825 0 0 0 0 -1.7601805658485148 -1.4698349886383824 0 -1.4698349886383824 -1.4093421203264875 0 0 0 0 -105.7189832965596 -5.6868849401364514 0 -5.6868849401364514 2.3453707888209578 0 0 0 0 -99.207226166830878 -76.485909723844316 0 -76.485909723844316 -133.39502665209102 0 0 0 0 -361.96326989770751 -346.92830785118531 0 -346.92830785118531 -339.15940850016125 0 0 0 0 -995.06909938674289 -251.2536802961161 0 -251.2536802961161 34.201973081909046 0 0 0 0 -848.08121633879637 -58.026602264303165 0 -58.026602264303165 4.0234691768640687 0 0 0 0 -1558.7662448148767 -464.4267069298096 0 -464.4267069298096 -201.22959971792397 0 0 0 0 -1089.0474042119167 51.052621114874214 0 51.052621114874214 -1111.6809130956594 0 0 0 0 -1078.1495731394498 -1055.2885865646761 0 -1055.2885865646761 -649.2524275857802 0 0 0 0 -18.029537636191208 0.49964115358941896 0 0.49964115358941896 -0.17273087621540295 0 0 0 0 -1562.535374591622 314.40701507980583 0 314.40701507980583 192.33572052676254 0 0 0 0 -75.364278693574306 269.15443902831316 0 269.15443902831316 -46.548742155237278 0 0 0 0 -126.73185001117963 -59.895030793625764 0 -59.895030793625764 306.67190214446163 0 0 0 0 -275.21637471435315 196.64937624477375 0 196.64937624477375 898.86900504018399 0 0 0 0 -44.528780592623093 2.4376703714687711 0 2.4376703714687711 1.6968078875827559 0 0 0 0 -329.19121407109924 723.26211219110519 0 723.26211219110519 11.34285562846145 0 0 0 0 -480.209287420279 -288.54017540123436 0 -288.54017540123436 118.05290278610647 0 0 0 0 -274.31124355978682 -25.16274947244915 0 -25.16274947244915 235.84318749955105 0 0 0 0 73.715885696161422 145.93118751679452 0 145.93118751679452 272.09772073209911 0 0 0 0 -269.3485292627156 -55.389818049523285 0 -55.389818049523285 779.95554015684627 0 0 0 0 -47.938150626004358 5.4914727128419223 0 5.4914727128419223 1.741222524131369 0 0 0 0 -800.18156020835158 468.4932022297736 0 468.4932022297736 1780.1357004298716 0 0 0 0 43.074961972804886 123.07850322253057 0 123.07850322253057 -599.86589479198483 0 0 0 0 -356.00678652173519 -443.30765437104037 0 -443.30765437104037 -1086.2504588342908 0 0 0 0 -825.81037361247945 -660.47454049217674 0 -660.47454049217674 -61.710618528493285 0 0 0 0 -203.13411863095098 344.11514210881353 0 344.11514210881353 -1510.5534085067743 0 0 0 0 -170.56243118168641 -666.64337038780627 0 -666.64337038780627 -540.27575492110088 0 0 0 0 -701.81194467515888 -958.82918839677518 0 -958.82918839677518 2.4837501905201975 0 0 0 0 -308.18081949092448 -177.49613069203889 0 -177.49613069203889 840.63331280918101 0 0 0 0 171.48912827033928 -607.55529199372313 0 -607.55529199372313 -1023.3359462839924 0 0 0 0 291.64984747637209 -307.15315822852108 0 -307.15315822852108 -367.91896471814516 0 0 0 0 -741.52462098908018 -665.01573456674112 0 -665.01573456674112 -482.13779881543849 0 0 0 0 -743.68545386976621 107.61000841216304 0 107.61000841216304 2.9484570148207752 0 0 0 0 -8.7839399213091554 -5.2351854067238932 0 -5.2351854067238932 -3.3859221087961755 0 0 0 0 -16.919698056386551 137.66664054307404 0 137.66664054307404 -325.10242935160301 0 0 0 0 -933.66296350082121 -174.46948592950633 0 -174.46948592950633 -542.79749755558373 0 0 0 0 -1943.8271912535056 365.31084368431823 0 365.31084368431823 -826.44902609724363 0 0 0 0 -876.31320409733053 -414.28871517978831 0 -414.28871517978831 -891.68068205202246 0 0 0 0 -963.20318142759061 -13.504210911867744 0 -13.504210911867744 -239.71705374762394 0 0 0 0 -590.98383011906117 112.04113258252607 0 112.04113258252607 -287.24527282402698 0 0 0 0 -1292.2656682158413 44.572626684189729 0 44.572626684189729 -163.5052458907553 0 0 0 0 -713.37508601644367 -74.933230230729691 0 -74.933230230729691 -6.3705256757159603 0 0 0 0 -1038.1840313726934 -150.85934542639353 0 -150.85934542639353 -13.283109975705543 0 0 0 0 -0.98801768579320992 -0.31494728823263074 0 -0.31494728823263074 0.30296799279764475 0 0 0 0 -722.30239762879864 -114.31398441832818 0 -114.31398441832818 149.91055952637015 0 0 0 0 104.9657544753718 -256.31597616157853 0 -256.31597616157853 127.84938401198021 0 0 0 0 -959.19892291504038 -142.42681179125617 0 -142.42681179125617 76.199203022490792 0 0 0 0 -310.71609871531109 284.10631956222602 0 284.10631956222602 -164.43014917150117 0 0 0 0 -146.92526645796897 210.97471428210798 0 210.97471428210798 -151.78620638902783 0 0 0 0 -176.60005079947587 111.4937447386402 0 111.4937447386402 -108.53374066884018 0 0 0 0 -554.06592999780332 32.077930759745783 0 32.077930759745783 -123.77273941838553 0 0 0 0 -281.38341777163441 174.85095676943416 0 174.85095676943416 7.0536785067189385 0 0 0 0 -159.1650350910495 86.164633195198462 0 86.164633195198462 -31.869140873673302 0 0 0 0 -225.69475386594422 197.29782637293491 0 197.29782637293491 -151.82680372641346 0 0 0 0 -233.95229807386931 176.92837263147504 0 176.92837263147504 -60.648125921074325 0 0 0 0 -306.46172478633525 95.470535042801885 0 95.470535042801885 -47.937375361525881 0 0 0 0 -406.48527348665812 76.970838399706452 0 76.970838399706452 -60.449061477166083 0 0 0 0 -396.60157590405834 37.597217364418185 0 37.597217364418185 -63.847136276165429 0 0 0 0 -275.82051855567261 -6.3564402922427803 0 -6.3564402922427803 -148.16758250268714 0 0 0 0 -519.05034906702349 -32.416866533711755 0 -32.416866533711755 -89.736926432484779 0 0 0 0 -275.16382173322927 102.45115723164642 0 102.45115723164642 -142.17389035020142 0 0 0 0 -236.43203674758843 105.09474049766243 0 105.09474049766243 -147.47457828480964 0 0 0 0 -814.34458545092639 -121.16906092215061 0 -121.16906092215061 16.786787784147919 0 0 0 0 -529.82533716562466 -102.44551211209171 0 -102.44551211209171 -97.433900726251977 0 0 0 0 -463.84440457416349 -92.927611297605353 0 -92.927611297605353 -97.832107190329765 0 0 0 0 -956.05502841754787 -493.08427507005723 0 -493.08427507005723 -147.4927250890251 0 0 0 0 -144.49893008453205 128.08580320118685 0 128.08580320118685 -198.08573793122093 0 0 0 0 -432.00837798776411 -118.81285252988583 0 -118.81285252988583 -228.89234831396527 0 0 0 0 -57.39035594422603 -10.95429087230599 0 -10.95429087230599 -309.34443297990538 0 0 0 0 -175.27966964563529 137.3052948157931 0 137.3052948157931 -137.13584089799338 0 0 0 0 -47.013473152706865 201.14420433903061 0 201.14420433903061 -117.8178029232156 0 0 0 0 -108.27735746829785 -6.3222305658204263 0 -6.3222305658204263 117.65414123744034 0 0 0 0 -192.29665859111265 -351.5069293841795 0 -351.5069293841795 -277.4157221512088 0 0 0 0 -15.169575119220553 -4.9944085016729431 0 -4.9944085016729431 -1.3437358245616331 0 0 0 0 85.021685824918677 77.72455918093091 0 77.72455918093091 -256.25102030759876 0 0 0 0 -3127.7314474410014 269.09428086254769 0 269.09428086254769 373.7133625903063 0 0 0 0 -2517.1455108974988 679.9573418117352 0 679.9573418117352 303.54780782126022 0 0 0 0 400.03906632274447 1491.1721536552614 0 1491.1721536552614 -1124.8608749527482 0 0 0 0 255.69081036726857 -573.2845324830721 0 -573.2845324830721 262.77272061129293 0 0 0 0 -567.5940965743066 127.04951374136499 0 127.04951374136499 34.468891823150443 0 0 0 0 -22.294038223490304 -11.586194364483859 0 -11.586194364483859 -5.3605946670621663 0 0 0 0 -39.417602373181126 2.8475231015945575 0 2.8475231015945575 1.7670594483784081 0 0 0 0 -11.713171183818687 1.4779338119188736 0 1.4779338119188736 2.4179730037814053 0 0 0 0 -195.63346254285352 -22.409274716388495 0 -22.409274716388495 -0.91718432050311094 0 0 0 0 -62.222643468980095 14.216856582030402 0 14.216856582030402 -8.5334160234533556 0 0 0 0 -236.74772254859272 54.130016831970693 0 54.130016831970693 -86.484185171412264 0 0 0 0 -1513.0392683958999 -846.03111405014704 0 -846.03111405014704 -174.84019221847532 0 0 0 0 -15.549523830548367 2.3238301250385973 0 2.3238301250385973 -0.21562458992433209 0 0 0 0 -1482.2111171924989 1320.4850309512619 0 1320.4850309512619 -1.8348958615198252 0 0 0 0 -629.61435876529868 -563.68414459983455 0 -563.68414459983455 -116.8535871704356 0 0 0 0 -298.64247713136137 -77.551355595149857 0 -77.551355595149857 590.62787288976233 0 0 0 0 -15.22996969969266 0.95133999538461467 0 0.95133999538461467 4.0114632273782362 0 0 0 0 276.01098588015157 -491.40723097093013 0 -491.40723097093013 -111.99823195616182 0 0 0 0 -235.68853500159457 132.82557786004509 0 132.82557786004509 74.631064449163432 0 0 0 0 -134.17004124850428 319.98758763742785 0 319.98758763742785 -1050.4795554876839 0 0 0 0 -1720.425905664335 470.61114433109856 0 470.61114433109856 -41.567888227483387 0 0 0 0 -577.34731451558764 184.92371008644591 0 184.92371008644591 21.119436317810425 0 0 0 0 -552.99237631911637 128.67026812742498 0 128.67026812742498 23.878134678481047 0 0 0 0 -489.04110269886587 200.84813252014877 0 200.84813252014877 20.357931099042844 0 0 0 0 -570.03234116908061 69.307521956832773 0 69.307521956832773 12.728840596856799 0 0 0 0 -622.78833582078369 103.59031444736075 0 103.59031444736075 47.701683849068104 0 0 0 0 -878.620684987407 96.174067344337914 0 96.174067344337914 62.174994768110878 0 0 0 0 -623.71441869351838 9.5298107005006614 0 9.5298107005006614 44.296336680448576 0 0 0 0 -309.00117571739247 104.64383284173459 0 104.64383284173459 -64.152679417225954 0 0 0 0 -473.87023788638908 90.748356270167221 0 90.748356270167221 27.27185568981804 0 0 0 0 -568.71701517421752 -34.268309420665787 0 -34.268309420665787 -36.731951198444222 0 0 0 0 -401.12973007593246 55.682087590022093 0 55.682087590022093 -7.7994337695645299 0 0 0 0 -390.7972106213856 94.329079595140456 0 94.329079595140456 -40.98026437466342 0 0 0 0 -640.44350538344588 113.11348131989155 0 113.11348131989155 45.019546126047999 0 0 0 0 -723.12742409328348 -40.748180184784928 0 -40.748180184784928 45.677029733277763 0 0 0 0 -708.53319993923651 -14.634812806008938 0 -14.634812806008938 -82.803341119594961 0 0 0 0 -761.13592026307015 -294.06033098836463 0 -294.06033098836463 -364.37670142758179 0 0 0 0 -420.22212702548131 35.003899452354744 0 35.003899452354744 -82.91381065901929 0 0 0 0 -1136.9629653470402 235.56947003619354 0 235.56947003619354 -48.930917925651556 0 0 0 0 48.128266256309871 -153.71433746247976 0 -153.71433746247976 -365.74661118132803 0 0 0 0 -3.6934778385148945 -2.9840105864164457 0 -2.9840105864164457 -3.1862424486478353 0 0 0 0 -531.26634490091237 -460.578800349792 0 -460.578800349792 -123.90518129098677 0 0 0 0 -774.48651470665936 -79.939300240213583 0 -79.939300240213583 307.7717590309278 0 0 0 0 34.237311644319561 65.840696285840522 0 65.840696285840522 -480.71600955514157 0 0 0 0 -4.9608486211934064 2.5655554286586408 0 2.5655554286586408 -0.56213394879503475 0 0 0 0 -9.8667514668923104 603.31696465798279 0 603.31696465798279 -37.458035521822126 0 0 0 0 -539.29979961060235 -87.091112144067665 0 -87.091112144067665 -120.410000990443 0 0 0 0 -699.25253535601223 169.0119663380583 0 169.0119663380583 -21.264860560584964 0 0 0 0 -575.26869810757853 240.10245668289184 0 240.10245668289184 -218.47546408308858 0 0 0 0 -665.44134104025579 -157.60320759212192 0 -157.60320759212192 97.062331287169343 0 0 0 0 -835.85859633835571 -182.41863370429724 0 -182.41863370429724 133.07256672504889 0 0 0 0 -839.6307399106754 -142.08963925111101 0 -142.08963925111101 128.52912101255333 0 0 0 0 -810.58377098717756 -164.53130571093936 0 -164.53130571093936 70.392080426697973 0 0 0 0 -868.79323387924978 124.84934589127016 0 124.84934589127016 41.102197305092034 0 0 0 0 -178.8765612475836 48.37183425467677 0 48.37183425467677 24.257063838519343 0 0 0 0 -672.22184144235507 -95.502049844262274 0 -95.502049844262274 76.636159866192884 0 0 0 0 -57.518824858481821 62.421275670431214 0 62.421275670431214 -5.7411339798686392 0 0 0 0 -123.02001822769671 -73.854998824373411 0 -73.854998824373411 7.9448564241551054 0 0 0 0 -79.321314504428301 -93.629444711496149 0 -93.629444711496149 167.47760340282815 0 0 0 0 -3.7991161821471167 1.0954154791311339 0 1.0954154791311339 4.03902643905771 0 0 0 0 -216.45131574210245 106.55484826087934 0 106.55484826087934 156.98090740985299 0 0 0 0 -203.92942307041085 26.591854209773373 0 26.591854209773373 42.913530572332974 0 0 0 0 -42.456836791330716 132.85873044816594 0 132.85873044816594 54.226070916525714 0 0 0 0 -254.34065598352754 157.03842554557059 0 157.03842554557059 24.552750399338947 0 0 0 0 -381.24780764240495 139.43565344266474 0 139.43565344266474 82.45111243115025 0 0 0 0 -238.34209447633475 44.125898786969401 0 44.125898786969401 -16.714789816491475 0 0 0 0 -3.3234043598080802 -1.2624258468830618 0 -1.2624258468830618 0.72481580249945488 0 0 0 0 -379.80347548451391 56.852429781349656 0 56.852429781349656 -16.142264484174689 0 0 0 0 -12.424948357911489 -9.0761305849412537 0 -9.0761305849412537 -3.997875614051579 0 0 0 0 -135.6099917688407 -64.092444267680776 0 -64.092444267680776 33.841215638498397 0 0 0 0 -23.63913904851006 -60.48657491927699 0 -60.48657491927699 23.07792068056915 0 0 0 0 -47.051632841830724 -61.479285087294443 0 -61.479285087294443 -44.124200546640736 0 0 0 0 -29.421112451020235 21.923888885498535 0 21.923888885498535 25.769810754639366 0 0 0 0 -15.498069473141584 0.66233068080796897 0 0.66233068080796897 12.497750184078111 0 0 0 0 -94.13751859241529 10.912965943821746 0 10.912965943821746 35.186157940203884 0 0 0 0 -95.176633415940159 -160.9958489716995 0 -160.9958489716995 -42.272550707695132 0 0 0 0 -14.97411048397035 3.0580004681696096 0 3.0580004681696096 12.643488239489329 0 0 0 0 -12.896663851519406 58.426827139227839 0 58.426827139227839 0.39023981245964023 0 0 0 0 -39.957194956616149 -69.25086933722082 0 -69.25086933722082 -191.06279305228315 0 0 0 0 -5.415351752522497 -1.2410957426385778 0 -1.2410957426385778 0.6095239518186224 0 0 0 0 -1239.9124644132608 -273.79978135101891 0 -273.79978135101891 -64.770711826879278 0 0 0 0 -613.82434183047735 -276.00735641796854 0 -276.00735641796854 -8.7647300568325903 0 0 0 0 -805.13000152510358 -103.66977491204935 0 -103.66977491204935 70.006527936749364 0 0 0 0 -272.86615850835369 51.195678684429978 0 51.195678684429978 114.83445873571097 0 0 0 0 -274.30548964146874 277.18004956492092 0 277.18004956492092 -49.838945576901843 0 0 0 0 34.314109693208593 -69.89636296885925 0 -69.89636296885925 39.249354048499072 0 0 0 0 -1236.9635201315814 -345.98762799985292 0 -345.98762799985292 -80.357113348758503 0 0 0 0 -12.14129734862945 89.733328359667212 0 89.733328359667212 23.195360754646572 0 0 0 0 -3.709787767702494 2.7521431442391133 0 2.7521431442391133 0.11833898801923537 0 0 0 0 -10.241354386380408 -40.470280073484105 0 -40.470280073484105 -2.7343367509151904 0 0 0 0 -1.1547118419376261 5.4290230357984939 0 5.4290230357984939 9.5402832750946907 0 0 0 0 0.78509355637541489 1.5325901735809282 0 1.5325901735809282 3.5233135200173411 0 0 0 0 -29.688939937386749 -120.33834602632461 0 -120.33834602632461 46.355914748923652 0 0 0 0 -536.58083745835938 221.85028943200848 0 221.85028943200848 38.193059948508193 0 0 0 0 -160.08310350720421 -40.637375864264754 0 -40.637375864264754 10.93920671334531 0 0 0 0 -93.724360728840111 30.556620175723992 0 30.556620175723992 -5.1683373885587116 0 0 0 0 -337.18258127751324 -59.804542274323921 0 -59.804542274323921 33.098963399047079 0 0 0 0 -283.65404196153395 -233.43306565235781 0 -233.43306565235781 75.732768317642922 0 0 0 0 -749.9264463748932 -351.64843058849948 0 -351.64843058849948 20.800741685968205 0 0 0 0 -647.42489098145597 93.106306214447955 0 93.106306214447955 103.06896980458535 0 0 0 0 -247.26426574910874 30.60799273127877 0 30.60799273127877 112.17392713121993 0 0 0 0 -283.00967649956146 -37.183628652693436 0 -37.183628652693436 0.053128873471946614 0 0 0 0 -46.424834921053844 -139.39872022416913 0 -139.39872022416913 43.287052853637427 0 0 0 0 -0.29508646519295212 0.037904877303333251 0 0.037904877303333251 0.90091283605568595 0 0 0 0 153.26424822951958 -190.68037154815147 0 -190.68037154815147 8.3245092368985922 0 0 0 0 -388.64255416869128 -112.60976513899149 0 -112.60976513899149 -112.79115851089969 0 0 0 0 13.563084554654779 24.460199029011537 0 24.460199029011537 -8.2248458321138003 0 0 0 0 -187.96905487365439 52.893868404523907 0 52.893868404523907 50.789671676607583 0 0 0 0 -372.14768182788248 -99.185235794289795 0 -99.185235794289795 -0.01686669395400275 0 0 0 0 -454.37556440182379 100.52615181076158 0 100.52615181076158 137.46401125488342 0 0 0 0 -450.09989991074008 28.593413093175613 0 28.593413093175613 106.4789859037237 0 0 0 0 -673.97455956328486 17.000690275193676 0 17.000690275193676 227.74097009675387 0 0 0 0 -677.62533480226921 43.924382416790195 0 43.924382416790195 124.3119468484042 0 0 0 0 -917.79176117933093 71.055659956986887 0 71.055659956986887 216.20770530346408 0 0 0 0 -716.11662747420269 286.79319608044108 0 286.79319608044108 21.582516907185664 0 0 0 0 -701.35451649696188 -286.75659484307505 0 -286.75659484307505 51.084398562148408 0 0 0 0 -9.4344166557624476 4.6470964170346178 0 4.6470964170346178 -0.32139584588530568 0 0 0 0 -87.914180090294394 160.06701173429605 0 160.06701173429605 174.29786537548284 0 0 0 0 -403.81943037622841 -201.14245613545467 0 -201.14245613545467 78.662194536754839 0 0 0 0 -286.27221955912682 155.71326325292523 0 155.71326325292523 340.92311854255928 0 0 0 0 -4.7456481588638724 1.9034416359488233 0 1.9034416359488233 0.18833427630257871 0 0 0 0 -268.92418406123761 -37.148820568718008 0 -37.148820568718008 217.76142554790047 0 0 0 0 -155.10408463296335 92.088855468413442 0 92.088855468413442 3.9299493074688883 0 0 0 0 -8.7284454505206668 368.3130773853544 0 368.3130773853544 198.82744788202751 0 0 0 0 55.470816671251669 12.178827334777409 0 12.178827334777409 -5.0160282543773675 0 0 0 0 -198.64550961612258 72.305765250826212 0 72.305765250826212 0.10032992896061936 0 0 0 0 -281.9285859691081 37.675950456820217 0 37.675950456820217 4.1222414335822748 0 0 0 0 -335.86465954083906 75.66981433506335 0 75.66981433506335 -0.17130226900534065 0 0 0 0 -577.23838678578613 15.835093258824417 0 15.835093258824417 26.543158394835281 0 0 0 0 -431.42116237962182 104.09603018380113 0 104.09603018380113 6.5772879425859401 0 0 0 0 -324.53063337258209 -14.256062046209365 0 -14.256062046209365 108.19698558702794 0 0 0 0 -779.21490708217243 139.36408097870688 0 139.36408097870688 40.46170793638629 0 0 0 0 -666.64797396371432 21.275965708905559 0 21.275965708905559 129.07921259631706 0 0 0 0 -579.038674316791 -14.786143085845692 0 -14.786143085845692 -162.52284111545092 0 0 0 0 -42.723566076849238 114.63017356338334 0 114.63017356338334 -3.6760523204743252 0 0 0 0 -772.43839530801779 -24.54533596886148 0 -24.54533596886148 0.14446328666053446 0 0 0 0 -84.599856111071858 38.413216896159852 0 38.413216896159852 47.291412575006355 0 0 0 0 -10.101136462340946 -5.8107159309595859 0 -5.8107159309595859 42.056897922945055 0 0 0 0 -10.35173209671666 7.9800811602552626 0 7.9800811602552626 58.078772560243408 0 0 0 0 -3.0906055941658508 1.6775437505830979 0 1.6775437505830979 -0.79942292512688562 0 0 0 0 10.068924557228456 89.516939791083786 0 89.516939791083786 6.4396147933109518 0 0 0 0 -923.06025300073998 -233.93373499466728 0 -233.93373499466728 37.714744976483814 0 0 0 0 -350.12341113839648 -69.490410233315515 0 -69.490410233315515 74.250098848696297 0 0 0 0 -230.70927429340009 99.639631361118518 0 99.639631361118518 42.237408273185565 0 0 0 0 -1.8875391319487953 1.0752019265444233 0 1.0752019265444233 1.0875838396466952 0 0 0 0 -5.7779984793130552 5.2709160341708952 0 5.2709160341708952 -2.4825903404220298 0 0 0 0 -1.7314567571813626 2.1267331321382841 0 2.1267331321382841 1.5096525211540994 0 0 0 0 -299.49761486025818 30.43144161713667 0 30.43144161713667 67.305234457512086 0 0 0 0 105.56749335003406 81.305720880885019 0 81.305720880885019 -88.384479803580234 0 0 0 0 -306.56932170064101 81.945725356538446 0 81.945725356538446 74.084150029680131 0 0 0 0 -441.08033599086048 -73.028475486510501 0 -73.028475486510501 70.86164480533796 0 0 0 0 -504.22851773422735 252.05186054812009 0 252.05186054812009 -5.0707550639226611 0 0 0 0 -1.5119767974465503 -9.6751522582842426 0 -9.6751522582842426 36.420352187916023 0 0 0 0 -47.999454162098118 81.932893959504156 0 81.932893959504156 2.9868335329655338 0 0 0 0 -3.9784620564435045 5.023754701350299 0 5.023754701350299 -4.1687410125386082 0 0 0 0 -59.230715129859163 36.865608136354467 0 36.865608136354467 -66.843439498887051 0 0 0 0 -109.33934590667195 1.0921061817514612 0 1.0921061817514612 18.469754870452459 0 0 0 0 19.421321408248332 7.0553296322656678 0 7.0553296322656678 -28.438663679646066 0 0 0 0 -200.21302884227043 25.561493017880565 0 25.561493017880565 -12.655702722232633 0 0 0 0 -254.27595061165266 134.68255414064294 0 134.68255414064294 -99.688392160579838 0 0 0 0 -137.6092198562983 -46.889190039482628 0 -46.889190039482628 -39.111573836223059 0 0 0 0 -144.54089801402677 65.489054927120478 0 65.489054927120478 9.5052706966266243 0 0 0 0 -144.0067988714892 36.489072634983707 0 36.489072634983707 73.638802556954346 0 0 0 0 -116.74142958158336 -27.562331004022994 0 -27.562331004022994 73.362192272878957 0 0 0 0 4.0806531391754106 -6.4490313497935059 0 -6.4490313497935059 -0.11388571797409403 0 0 0 0 -114.12956895484831 -0.52257965307371812 0 -0.52257965307371812 11.314409403239551 0 0 0 0 -147.26116972573072 44.822449040411492 0 44.822449040411492 -3.4254563854655657 0 0 0 0 -167.05713548284257 34.742741401691468 0 34.742741401691468 0.10145505878579014 0 0 0 0 -1.6779793047027738 -0.79434707020966755 0 -0.79434707020966755 -0.42767660677837421 0 0 0 0 -140.16658347145858 32.882798324281012 0 32.882798324281012 -0.1173863871388236 0 0 0 0 -221.75867285350978 261.04751536791707 0 261.04751536791707 -220.68736912593124 0 0 0 0 -239.06186343497393 108.48113131741951 0 108.48113131741951 -26.82446966251959 0 0 0 0 -622.84251645641052 -135.07840071561316 0 -135.07840071561316 -0.01916623641206873 0 0 0 0 -736.531855119174 -24.650843932034 0 -24.650843932034 -29.496917496242315 0 0 0 0 -871.90610733746144 -23.772309954096634 0 -23.772309954096634 -31.732462684272086 0 0 0 0 -802.08976953801175 -120.55903729917013 0 -120.55903729917013 -0.12818279621330753 0 0 0 0 -813.89141477235535 -60.487337423642288 0 -60.487337423642288 -92.619818476890714 0 0 0 0 -516.61828006642463 297.71464171140445 0 297.71464171140445 -98.898329833430182 0 0 0 0 -872.49969270691508 136.97608132719526 0 136.97608132719526 -13.834925743355974 0 0 0 0 -812.32772957411362 -48.666597256972295 0 -48.666597256972295 -9.243077712942096 0 0 0 0 -572.45710706651153 -39.52299793931536 0 -39.52299793931536 -82.436223664808324 0 0 0 0 -525.23875724006211 -183.77914465992907 0 -183.77914465992907 -24.57562932841563 0 0 0 0 -574.5399032315911 -162.07544894610021 0 -162.07544894610021 11.62665223500062 0 0 0 0 -2.9750177258223971 1.6707140190134595 0 1.6707140190134595 -1.8613384782517897 0 0 0 0 -424.20244131008803 -103.08940458929203 0 -103.08940458929203 -56.193263583937664 0 0 0 0 -752.84238747588824 -494.45802335190751 0 -494.45802335190751 -217.24501806798344 0 0 0 0 -404.32655685579812 -245.08460740560236 0 -245.08460740560236 -43.133881405354714 0 0 0 0 -499.48167647185619 -319.11571724539812 0 -319.11571724539812 -48.719624414728969 0 0 0 0 -936.05914856732124 -397.51558548281042 0 -397.51558548281042 -20.480276831346075 0 0 0 0 -222.19381231802981 -457.64004518540293 0 -457.64004518540293 -144.9406452252237 0 0 0 0 -99.448992119723698 -413.00392886445525 0 -413.00392886445525 -134.47265335875329 0 0 0 0 -391.63276629516622 -18.28101201580364 0 -18.28101201580364 -111.76888557717621 0 0 0 0 8.4527022570491681 -24.215164730162073 0 -24.215164730162073 -84.146064543122748 0 0 0 0 -558.98481809618534 -12.635122897496693 0 -12.635122897496693 -58.367497835061442 0 0 0 0 39.37667807827529 28.113062886875241 0 28.113062886875241 -22.752029552844192 0 0 0 0 348.39369784562587 -217.86826878188322 0 -217.86826878188322 -180.23994306272766 0 0 0 0 -221.61043740968307 60.426600991836779 0 60.426600991836779 13.878152691555329 0 0 0 0 -0.77935554567673648 -1.1763716775489854 0 -1.1763716775489854 -0.90962961712964008 0 0 0 0 -799.93360425513492 -57.255140617621052 0 -57.255140617621052 -17.381092763674587 0 0 0 0 -756.60798749152127 -242.57751572981203 0 -242.57751572981203 -64.207970177156085 0 0 0 0 -1041.0629921106884 -388.95524134170273 0 -388.95524134170273 -114.39241671825869 0 0 0 0 -6.2471299143666528 5.0630454806261156 0 5.0630454806261156 -5.3539642908337566 0 0 0 0 -580.54733307474817 -373.64407441123899 0 -373.64407441123899 -60.530714174849095 0 0 0 0 -98.24966017009865 85.15410107847346 0 85.15410107847346 -119.51679596103909 0 0 0 0 -1.8231350469197878 -0.95936260872493051 0 -0.95936260872493051 -0.70150977448116469 0 0 0 0 -117.1611080339062 156.3468647791496 0 156.3468647791496 -98.79162465988486 0 0 0 0 -171.4505315348506 135.46813041839181 0 135.46813041839181 -15.85288491134213 0 0 0 0 -166.91029540392447 95.88098629691828 0 95.88098629691828 -24.676813993115047 0 0 0 0 -0.66698822278416969 0.038340311599270649 0 0.038340311599270649 -0.30864511752958546 0 0 0 0 -267.5124626410543 86.804178002289746 0 86.804178002289746 -25.325964647788851 0 0 0 0 -159.98284301284002 159.93831424126495 0 159.93831424126495 -116.97342475897062 0 0 0 0 -103.75581086575403 99.656192316470197 0 99.656192316470197 -56.61767606990577 0 0 0 0 -116.24421507147781 92.325456286742053 0 92.325456286742053 68.656020996852476 0 0 0 0 -15.708065644343151 -1.3009778120289184 0 -1.3009778120289184 27.22342570087153 0 0 0 0 119.95519827193493 7.0519179466319883 0 7.0519179466319883 -56.894604584689716 0 0 0 0 -23.98937253337499 33.846344231349349 0 33.846344231349349 -102.15610980646943 0 0 0 0 -164.26788784981909 -47.910496831781415 0 -47.910496831781415 -95.728495063282026 0 0 0 0 -228.03217122958449 77.262177757230575 0 77.262177757230575 -93.026423977470131 0 0 0 0 -141.99382163950941 -20.149515393069123 0 -20.149515393069123 -74.746690522406766 0 0 0 0 -204.30577260295104 2.6338781221475074 0 2.6338781221475074 -51.521034129511236 0 0 0 0 -483.50891319561288 -217.76422293060131 0 -217.76422293060131 -108.4891021068197 0 0 0 0 -512.86793356529051 56.504019097163464 0 56.504019097163464 26.001914539032441 0 0 0 0 83.456193278922001 103.39031044246934 0 103.39031044246934 104.49838802786689 0 0 0 0 194.67386409018945 -110.54026521863932 0 -110.54026521863932 27.176698752263775 0 0 0 0 -1.522230369366639 -3.2505121776229089 0 -3.2505121776229089 -0.044116206265893076 0 0 0 0 -325.24777694051591 -54.08268252903315 0 -54.08268252903315 -44.040135177943284 0 0 0 0 -280.92703068966512 83.410537049391564 0 83.410537049391564 -8.5184735022926361 0 0 0 0 -1.8160209442648139 -3.3501333900499901 0 -3.3501333900499901 4.2948391714668457 0 0 0 0 -182.90072057276666 27.52453310182193 0 27.52453310182193 6.3949624551064517 0 0 0 0 153.68330909341785 -106.63384423845594 0 -106.63384423845594 -6.0613375994341823 0 0 0 0 -266.31376854710106 49.754336085879231 0 49.754336085879231 22.544582864981066 0 0 0 0 -151.46467873098663 -9.938954202287789 0 -9.938954202287789 11.418856804368716 0 0 0 0 -15.360239245375851 -47.1207270909822 0 -47.1207270909822 -26.098541196525957 0 0 0 0 9.5389388561598025 5.7009433097748001 0 5.7009433097748001 25.284867913072958 0 0 0 0 -27.475133868902049 -58.599834548359695 0 -58.599834548359695 58.675158470045602 0 0 0 0 -19.164268392632948 -32.935846647981577 0 -32.935846647981577 14.124109390240335 0 0 0 0 -149.71046510289307 -25.694416047970208 0 -25.694416047970208 34.201562374002151 0 0 0 0 -104.42738606336934 -3.2358893692083939 0 -3.2358893692083939 5.2945322673935493 0 0 0 0 -138.12652168170644 49.477113804691591 0 49.477113804691591 -15.058270690715744 0 0 0 0 -215.6910791674527 31.926157043694957 0 31.926157043694957 -8.7526769925398753 0 0 0 0 -248.63782566803275 99.582092250881715 0 99.582092250881715 -52.548285783169717 0 0 0 0 -153.36203958775513 147.17879429890687 0 147.17879429890687 -162.95742146732323 0 0 0 0 -150.66060817602556 80.293174076284345 0 80.293174076284345 -53.755296871927897 0 0 0 0 -86.637140694860136 73.665493744013759 0 73.665493744013759 -58.636774738307537 0 0 0 0 -172.15933414980827 109.34933937599783 0 109.34933937599783 -119.34960553238125 0 0 0 0 -159.30348662924189 58.284026659736412 0 58.284026659736412 -98.706320577475481 0 0 0 0 0.24980510820667767 0.11209958745843096 0 0.11209958745843096 -0.41603977967587369 0 0 0 0 156.60914882942598 -81.565034441540092 0 -81.565034441540092 -148.26668441138736 0 0 0 0 -236.06296195499453 140.98277395867171 0 140.98277395867171 -117.40654125256731 0 0 0 0 -222.89362701128266 90.679236600081254 0 90.679236600081254 -98.221327185141703 0 0 0 0 -275.95627519703703 160.22271770436998 0 160.22271770436998 -260.26590412091423 0 0 0 0 -295.06687551551295 123.01172485856199 0 123.01172485856199 38.038495633720231 0 0 0 0 -0.39573584972822573 -59.668531166134926 0 -59.668531166134926 -58.575327807811391 0 0 0 0 -165.83762098151783 100.12721839191386 0 100.12721839191386 -39.660769245747986 0 0 0 0 -151.08609692013124 299.95625711058256 0 299.95625711058256 -287.40202406272215 0 0 0 0 -5.2461300571314951 124.68781357121139 0 124.68781357121139 -216.58453191692206 0 0 0 0 -650.0870801602141 59.196601474577619 0 59.196601474577619 1.4796528988072168 0 0 0 0 -1.916570495843871 1.7571841667141115 0 1.7571841667141115 -1.8524966117649071 0 0 0 0 -526.62372672470519 321.12772894192437 0 321.12772894192437 -235.20187204333092 0 0 0 0 -474.89307011628262 295.79577538207599 0 295.79577538207599 -154.99694935529851 0 0 0 0 -283.93885549751576 -33.355258991869277 0 -33.355258991869277 -275.30412213609043 0 0 0 0 -571.58357608675215 103.82306285911892 0 103.82306285911892 -56.683805958284665 0 0 0 0 -374.99034564098838 64.385830128100508 0 64.385830128100508 -48.827178475482924 0 0 0 0 -252.7411461681113 247.07388559018153 0 247.07388559018153 -144.31156371597581 0 0 0 0 -211.44598046939063 204.86952082710695 0 204.86952082710695 -131.52550283640085 0 0 0 0 -231.38564827449318 190.80145479122035 0 190.80145479122035 -137.09744136475092 0 0 0 0 -17.918229202199882 -2.139788159613925 0 -2.139788159613925 -0.26074208417606554 0 0 0 0 -1680.2689720057242 1009.0829597679207 0 1009.0829597679207 -627.43167506491932 0 0 0 0 -1192.1336095397128 -1193.1380517747891 0 -1193.1380517747891 -873.54060077561451 0 0 0 0 -840.0448416313593 -123.67667990546541 0 -123.67667990546541 -0.91561239300380248 0 0 0 0 -2493.8138925799421 -735.45788521853399 0 -735.45788521853399 312.48343398366217 0 0 0 0 -1837.0024615876682 -341.4305548030062 0 -341.4305548030062 27.005133549722075 0 0 0 0 -323.44231734189816 -315.90565270373219 0 -315.90565270373219 -303.62856292314336 0 0 0 0 -531.60192542461664 -367.11373550719628 0 -367.11373550719628 -133.51160407209227 0 0 0 0 7.6976624855378759 38.005737540074314 0 38.005737540074314 -132.02369530412048 0 0 0 0 2.3652961405392432 -1.4272260891962105 0 -1.4272260891962105 1.6881002820434734 0 0 0 0 2.7438228195169359 -30.033485834566903 0 -30.033485834566903 -39.599492379555727 0 0 0 0 -314.11008529837272 15.183430931986365 0 15.183430931986365 -80.226906548845022 0 0 0 0 -3.1894943119278025 -8.0964987850929901 0 -8.0964987850929901 5.8549875487431882 0 0 0 0 -46.665342307627725 -65.039916979441045 0 -65.039916979441045 47.448665959483037 0 0 0 0 -44.689227521477335 -3.0228003690003451 0 -3.0228003690003451 2.2317240310388975 0 0 0 0 -60.502987415340613 -99.063740764464399 0 -99.063740764464399 153.62284321182125 0 0 0 0 -36.600895960763552 -3.7624954788679439 0 -3.7624954788679439 0.27389901603130551 0 0 0 0 52.743283763975342 54.382843697839888 0 54.382843697839888 -85.788244117642648 0 0 0 0 -500.97415161717799 48.526457786674655 0 48.526457786674655 5.909035288511518 0 0 0 0 -37.61839171241445 -28.098903023615492 0 -28.098903023615492 -39.139385712384573 0 0 0 0 -15.012235546520969 -25.016524819873425 0 -25.016524819873425 0.0088825974683298496 0 0 0 0 -84.773311629782256 -65.398311256903028 0 -65.398311256903028 -36.878279446162168 0 0 0 0 -133.30301930813584 -0.0038609399740465733 0 -0.0038609399740465733 -39.364893734670517 0 0 0 0 0.080487082904113549 -0.36328113344723079 0 -0.36328113344723079 0.2824420564199418 0 0 0 0 -212.51683141023204 -136.38792562702199 0 -136.38792562702199 -0.044379119993838742 0 0 0 0 -148.12598463395625 -0.33179994532422086 0 -0.33179994532422086 -14.736808946878909 0 0 0 0 -484.95353071299905 -68.217922877096427 0 -68.217922877096427 44.798718997839721 0 0 0 0 -512.29186130051676 -144.60902438791032 0 -144.60902438791032 -58.633949549260365 0 0 0 0 -624.57534165927791 -155.39834958169115 0 -155.39834958169115 63.157025945481735 0 0 0 0 -471.58415541461727 -84.248585342742032 0 -84.248585342742032 14.82057508603674 0 0 0 0 -563.99736122415925 -232.34167073891945 0 -232.34167073891945 31.405407843055173 0 0 0 0 -648.45901559045888 -313.75842352338941 0 -313.75842352338941 20.827581864199828 0 0 0 0 -573.74466081970604 -255.29710566540075 0 -255.29710566540075 52.159264039911932 0 0 0 0 -479.17219173278136 -73.903977878842682 0 -73.903977878842682 88.355053155426845 0 0 0 0 -1017.2487635846337 -75.389392027975418 0 -75.389392027975418 219.04661531981833 0 0 0 0 -1523.3765293240722 -253.62981287984189 0 -253.62981287984189 161.17579667958671 0 0 0 0 -805.84914522961481 277.24490697145666 0 277.24490697145666 92.673714318434918 0 0 0 0 -1514.5002599286381 -968.85239778601397 0 -968.85239778601397 -255.02466920481947 0 0 0 0 -249.73450105536904 -277.15149617528994 0 -277.15149617528994 -314.7863839460565 0 0 0 0 -940.96523963977234 -440.15726971764366 0 -440.15726971764366 -16.671554322794691 0 0 0 0 -133.87474846483383 -706.25200421081104 0 -706.25200421081104 -832.57195147083075 0 0 0 0 -710.35128403313138 -412.15374256058146 0 -412.15374256058146 -21.263803729111714 0 0 0 0 -1528.9669948475275 -128.01808893236841 0 -128.01808893236841 11.25172972398974 0 0 0 0 -288.93110781090218 -101.4409797250413 0 -101.4409797250413 -39.269596272999706 0 0 0 0 -531.11233233191888 -1269.7866084400232 0 -1269.7866084400232 -1074.3906279521552 0 0 0 0 -14.921323076038902 -2.7246785978196382 0 -2.7246785978196382 -0.16646494599183626 0 0 0 0 -1210.0094753306403 -688.96952259554587 0 -688.96952259554587 57.974120623744398 0 0 0 0 -658.1631866399548 -826.99885990681162 0 -826.99885990681162 -3.8632452404691122 0 0 0 0 -659.8067727457601 -236.04635599524715 0 -236.04635599524715 -425.96426645677582 0 0 0 0 -265.26256581964844 -78.644715447802582 0 -78.644715447802582 -171.51361707947376 0 0 0 0 -5.4130459247837734 3.6769145809332713 0 3.6769145809332713 -2.2671656244377405 0 0 0 0 -305.57082455730415 5.2560278368929403 0 5.2560278368929403 -16.14055918070153 0 0 0 0 -417.61532301109401 147.34754970074778 0 147.34754970074778 -196.02263934621774 0 0 0 0 -296.81058678931731 15.14114096940807 0 15.14114096940807 131.9279340235189 0 0 0 0 -355.41975181087037 96.977300455519526 0 96.977300455519526 33.242367457798764 0 0 0 0 -339.14092651950341 -131.93390253392522 0 -131.93390253392522 101.64157475678076 0 0 0 0 -174.92890608509879 -41.261877426347667 0 -41.261877426347667 135.37253933970896 0 0 0 0 -655.1507313216498 -63.076973428112751 0 -63.076973428112751 86.664135022993833 0 0 0 0 -110.67508609760262 -518.76169252755597 0 -518.76169252755597 -381.82645409477539 0 0 0 0 -37.800340255773335 -453.08813446865202 0 -453.08813446865202 -549.41989140189753 0 0 0 0 -46.794711114169331 -369.54251713918029 0 -369.54251713918029 119.67805906769945 0 0 0 0 -3.0839660094036816 -3.8798853731909304 0 -3.8798853731909304 -4.8597091929519465 0 0 0 0 702.51628721214365 -182.31773423704215 0 -182.31773423704215 -243.72428246397692 0 0 0 0 -770.44711989111238 -445.96039441199355 0 -445.96039441199355 -183.68505722670906 0 0 0 0 123.5755502979664 -581.03351804750582 0 -581.03351804750582 -397.17616511791061 0 0 0 0 65.63204100350049 -36.651047608658736 0 -36.651047608658736 -124.97381042562859 0 0 0 0 -242.50045819436491 -374.94269482043677 0 -374.94269482043677 658.9084206188702 0 0 0 0 -218.65145853573631 390.18314842798918 0 390.18314842798918 35.177715637400652 0 0 0 0 -256.63214912765397 -53.63945262368712 0 -53.63945262368712 741.32400831151801 0 0 0 0 -424.44033672885416 23.777047456461247 0 23.777047456461247 -189.67489031837036 0 0 0 0 -2374.3551176269029 -36.517721208316942 0 -36.517721208316942 -284.37389514373194 0 0 0 0 -327.67719280436722 -113.78610148595615 0 -113.78610148595615 -903.27590906870842 0 0 0 0 -1098.6507020856734 402.36319096861666 0 402.36319096861666 -283.26284150278241 0 0 0 0 -642.8768318374423 18.258994441212039 0 18.258994441212039 -453.88752757442467 0 0 0 0 -696.53445958910743 -100.5762529239459 0 -100.5762529239459 -717.06478017218433 0 0 0 0 -650.18840012821966 274.33272959836353 0 274.33272959836353 -411.38924350779888 0 0 0 0 -957.76399670513638 215.95679330694418 0 215.95679330694418 -403.45948869803857 0 0 0 0 68.028352018089208 -706.04494096187477 0 -706.04494096187477 -373.4907198121403 0 0 0 0 -2490.9552081150032 -944.77391364521748 0 -944.77391364521748 -281.87840024598847 0 0 0 0 -1009.5341305499824 -62.824380013854594 0 -62.824380013854594 17.35044060082663 0 0 0 0 -1977.7837662251914 56.9413276500078 0 56.9413276500078 33.591569718111415 0 0 0 0 -1347.7696932109247 274.19007540870888 0 274.19007540870888 20.417508012567623 0 0 0 0 -2503.5739468901083 352.23293180956972 0 352.23293180956972 441.35697123106337 0 0 0 0 -520.06162019394287 497.43221543286376 0 497.43221543286376 -222.53830899839514 0 0 0 0 -1173.3817013984299 630.57943557414319 0 630.57943557414319 56.469391242241841 0 0 0 0 -7.5089346504546768 -3.8945490453010905 0 -3.8945490453010905 2.0646704005357659 0 0 0 0 64.820559159714321 673.6628394157317 0 673.6628394157317 45.036005243853197 0 0 0 0 -2492.663234224849 706.43918525745892 0 706.43918525745892 443.70931747941688 0 0 0 0 -1941.5322415327464 694.10219705687177 0 694.10219705687177 443.37516514048014 0 0 0 0 -2499.747045637977 520.81338170874358 0 520.81338170874358 -100.3123613628413 0 0 0 0 -229.41245911636361 -331.29690032373935 0 -331.29690032373935 494.53787978606078 0 0 0 0 -4.1093232745507322 -2.9462812235294962 0 -2.9462812235294962 2.6222017924600354 0 0 0 0 -568.4568926234424 258.20604757163102 0 258.20604757163102 130.72986295428473 0 0 0 0 -1135.610988127366 -245.10727313685535 0 -245.10727313685535 742.95961662644572 0 0 0 0 -1002.5150864199095 523.09538673567988 0 523.09538673567988 -146.39926033118908 0 0 0 0 -2494.7221998714999 341.33574934301942 0 341.33574934301942 545.14353688271171 0 0 0 0 -2498.6461356243544 1160.6346781054051 0 1160.6346781054051 -387.62457431043543 0 0 0 0 -10.324962379230868 -4.0065109485897779 0 -4.0065109485897779 -1.4730781804705364 0 0 0 0 -155.49317989604151 309.21548528934034 0 309.21548528934034 333.19285176438211 0 0 0 0 -21.386238745890495 -10.895818756489398 0 -10.895818756489398 -1.0410765536595274 0 0 0 0 -906.87914867521431 109.80996801176809 0 109.80996801176809 133.44596402799237 0 0 0 0 -187.12275480305834 -515.12233419335428 0 -515.12233419335428 147.38504567322457 0 0 0 0 -21.938987472237386 133.63288857472395 0 133.63288857472395 -90.065168537483771 0 0 0 0 -150.67769991446403 49.097882603167761 0 49.097882603167761 -503.18037492849828 0 0 0 0 -932.33417665551679 345.91123851089429 0 345.91123851089429 110.96266933539346 0 0 0 0 -1061.5714153175722 138.36324841095563 0 138.36324841095563 -222.33110416065111 0 0 0 0 -796.69332579919865 36.12134736768553 0 36.12134736768553 192.29241515218564 0 0 0 0 -844.76698072476938 433.04784587240385 0 433.04784587240385 -72.511126554269595 0 0 0 0 -21.930809951880207 -10.784898854507617 0 -10.784898854507617 0.12649296199436044 0 0 0 0 -206.69730495604745 -203.02556116591643 0 -203.02556116591643 551.53844398650801 0 0 0 0 -350.43036526465585 111.68728816331009 0 111.68728816331009 479.28976157318675 0 0 0 0 183.01059895832441 -255.15770768458731 0 -255.15770768458731 299.41164966665156 0 0 0 0 -30.297079471281904 -1172.962697058575 0 -1172.962697058575 696.33106830577344 0 0 0 0 -10.198438134879936 -4.5714714229215971 0 -4.5714714229215971 0.40878029891255263 0 0 0 0 -1849.2089791152357 883.90440609896473 0 883.90440609896473 -227.31752269251956 0 0 0 0 -1997.720932246797 254.87538017140139 0 254.87538017140139 247.21646229363728 0 0 0 0 -928.28214003724315 -435.44722780673635 0 -435.44722780673635 -230.71988929685904 0 0 0 0 -12.568655802344267 -26.864762558258732 0 -26.864762558258732 -29.046798235407259 0 0 0 0 472.78771366076398 -160.58664938975699 0 -160.58664938975699 -118.20849383209497 0 0 0 0 -1497.6296656407576 207.83199063034817 0 207.83199063034817 133.09742546147638 0 0 0 0 -1360.0794495645678 121.42002538757282 0 121.42002538757282 12.850869023980522 0 0 0 0 -1709.9514289771614 511.36645840908943 0 511.36645840908943 40.75080790152424 0 0 0 0 -8.2811033484935237 -13.4192365872035 0 -13.4192365872035 -12.63852261982159 0 0 0 0 546.69535854030983 -363.45764540896266 0 -363.45764540896266 19.637139801069679 0 0 0 0 95.616435591604386 -52.94110260934076 0 -52.94110260934076 69.33278257238635 0 0 0 0 -12.750316570557011 -22.211627757403051 0 -22.211627757403051 -20.868264993695373 0 0 0 0 252.11991856504756 -197.20378651591227 0 -197.20378651591227 88.334556318721297 0 0 0 0 -140.92679884454992 -126.5119379153075 0 -126.5119379153075 116.63288922929746 0 0 0 0 -71.048421796480397 -152.43449509693437 0 -152.43449509693437 158.93326481785243 0 0 0 0 -280.26632809591683 -8.8638452143993618 0 -8.8638452143993618 160.78738110643098 0 0 0 0 -284.49477115023183 -25.121293531798642 0 -25.121293531798642 103.70786109070104 0 0 0 0 -247.10276795439495 -32.669588921363584 0 -32.669588921363584 62.019343458685398 0 0 0 0 -276.31096192101177 -99.456496403461642 0 -99.456496403461642 -54.145745820414959 0 0 0 0 -318.19810805110319 -148.07486038296156 0 -148.07486038296156 36.535939959063398 0 0 0 0 -341.89002111023001 -143.50574873796677 0 -143.50574873796677 81.071847034640086 0 0 0 0 -43.438061365406611 -83.208239641052387 0 -83.208239641052387 107.13603587512762 0 0 0 0 44.096349481416837 12.621276580959602 0 12.621276580959602 34.385542387081841 0 0 0 0 -138.50330399005179 36.857740589763807 0 36.857740589763807 16.893605678244057 0 0 0 0 72.808073580170458 195.26422843899195 0 195.26422843899195 -74.002575795149824 0 0 0 0 -82.231748680285818 -64.661500960340391 0 -64.661500960340391 -181.73968210906423 0 0 0 0 -530.28281698045612 -216.62709491170392 0 -216.62709491170392 66.394767198980844 0 0 0 0 -374.29089998245763 -275.11352625700965 0 -275.11352625700965 -81.278896695290314 0 0 0 0 -463.91429670176876 34.391106943389786 0 34.391106943389786 54.913994663721041 0 0 0 0 301.40554055340181 -4.7536959237063456 0 -4.7536959237063456 -143.67623771597573 0 0 0 0 -681.22554593335735 -167.7322073085827 0 -167.7322073085827 -36.823849724793945 0 0 0 0 -4.09057709602709 2.5112879310914842 0 2.5112879310914842 -1.4531193775447626 0 0 0 0 -597.17447556163825 -273.87036469548821 0 -273.87036469548821 -58.188781113636196 0 0 0 0 -29.333762585563989 -31.892867821181639 0 -31.892867821181639 -23.735241552479579 0 0 0 0 -258.21422652978072 16.161510905920295 0 16.161510905920295 84.843531014687869 0 0 0 0 239.6530660934659 -330.36399928625156 0 -330.36399928625156 -168.10936678783673 0 0 0 0 -77.354298725746048 52.658707614683408 0 52.658707614683408 79.052373059246747 0 0 0 0 -94.16585520584772 -10.324887042947744 0 -10.324887042947744 25.259077151299586 0 0 0 0 -75.404644769758306 47.051709248496081 0 47.051709248496081 92.869906974670812 0 0 0 0 -642.62859179831867 132.92591060834934 0 132.92591060834934 470.34783561353925 0 0 0 0 -102.88371999200899 47.581637793967275 0 47.581637793967275 93.408855546556879 0 0 0 0 -58.206214611056566 84.614158295420111 0 84.614158295420111 67.589579318962933 0 0 0 0 -103.54577941896787 103.01122266158404 0 103.01122266158404 71.994953959350823 0 0 0 0 34.482470129507419 9.5264250565160182 0 9.5264250565160182 66.86197196791511 0 0 0 0 -52.564156173117226 -1.665500248733224 0 -1.665500248733224 41.113717118238128 0 0 0 0 -57.320460999419083 -10.618055293659609 0 -10.618055293659609 33.731113010511763 0 0 0 0 -14.009185393919275 3.8990583045707083 0 3.8990583045707083 25.724212159006797 0 0 0 0 -38.492820600095001 48.991620331856211 0 48.991620331856211 73.87765055902355 0 0 0 0 -46.138087437895592 -20.227871107215833 0 -20.227871107215833 14.432813569499103 0 0 0 0 -30.822378781089355 -3.6082739777707502 0 -3.6082739777707502 27.716604521447152 0 0 0 0 -50.399592940848379 -1.6524281268702907 0 -1.6524281268702907 27.986201348267628 0 0 0 0 -2.3574143241929448 7.2413662217827621 0 7.2413662217827621 23.981007899596101 0 0 0 0 -487.25486903556884 -10.05872622658876 0 -10.05872622658876 -217.38707418324839 0 0 0 0 -47.015161618219281 9.1668175533795875 0 9.1668175533795875 27.52856071765018 0 0 0 0 -565.27811715177177 -300.00860537668365 0 -300.00860537668365 -83.663499981329551 0 0 0 0 -1135.861259672376 -413.25649338340281 0 -413.25649338340281 11.11258157958946 0 0 0 0 -12.062879798833308 -5.8488674471489617 0 -5.8488674471489617 5.6730181324299194 0 0 0 0 -1927.4131427771063 1590.6258153284277 0 1590.6258153284277 1144.172400954807 0 0 0 0 -636.25758741091704 -409.47666882006433 0 -409.47666882006433 -186.86278036340764 0 0 0 0 -34.517657122359196 9.3554701990897229 0 9.3554701990897229 25.68930784803706 0 0 0 0 -2.9056123710399504 -0.57325538481542537 0 -0.57325538481542537 3.6066102793619308 0 0 0 0 -3.8085267120733164 -2.8470500027932033 0 -2.8470500027932033 3.3254265287084479 0 0 0 0 -4252.7304509046371 -1549.0875812670474 0 -1549.0875812670474 -536.55749846236222 0 0 0 0 -4173.0580733155803 -1584.3318071248889 0 -1584.3318071248889 -945.02417444041566 0 0 0 0 -493.05761579549289 -356.05842915853793 0 -356.05842915853793 -673.96522195368016 0 0 0 0 -87.006692571318126 -2163.530350541474 0 -2163.530350541474 -2160.5226682438361 0 0 0 0 -2355.0588743215485 -468.83889762798549 0 -468.83889762798549 -279.86093840418744 0 0 0 0 -1551.4058516978839 -780.60744193235928 0 -780.60744193235928 -219.7887712957363 0 0 0 0 -1214.7621800041379 -727.96786781557705 0 -727.96786781557705 -63.560168861841703 0 0 0 0 -951.44161449014064 -429.69919165960391 0 -429.69919165960391 265.84330571356941 0 0 0 0 -1512.5589832551486 -680.95187824304776 0 -680.95187824304776 -19.837400185544993 0 0 0 0 -32.293474198239579 -2.2655370308618359 0 -2.2655370308618359 5.7847259864239753 0 0 0 0 -488.92193258468615 -615.83542368686517 0 -615.83542368686517 -289.34601230374324 0 0 0 0 -252.76661204666016 79.008481059009227 0 79.008481059009227 40.662313616886195 0 0 0 0 -120.06482291759312 -127.18633527998418 0 -127.18633527998418 -143.2040609665346 0 0 0 0 -783.62639168484384 285.42949177677099 0 285.42949177677099 -85.274485508405633 0 0 0 0 -1199.185466778421 -796.05263129516732 0 -796.05263129516732 592.60931494328861 0 0 0 0 -1519.1499279939817 -403.69148928728237 0 -403.69148928728237 268.26940557448017 0 0 0 0 -632.01257246155365 -311.27738998664711 0 -311.27738998664711 107.23477328614899 0 0 0 0 -786.71352879040933 -207.23452821804415 0 -207.23452821804415 330.38924626912245 0 0 0 0 -515.04304233212133 127.55849870970189 0 127.55849870970189 70.984697932581639 0 0 0 0 -781.81060553830321 10.510140087674472 0 10.510140087674472 35.291254235714405 0 0 0 0 -923.53090804355452 112.72203384813565 0 112.72203384813565 -33.348814604878498 0 0 0 0 -1314.6362624729081 -299.59240043794171 0 -299.59240043794171 84.264974635361341 0 0 0 0 -944.28806063834782 -177.47028584257782 0 -177.47028584257782 -246.91273358910803 0 0 0 0 -1307.8039930294908 -269.40534828710088 0 -269.40534828710088 108.49334515737758 0 0 0 0 -1193.6403583593778 -278.50104937456842 0 -278.50104937456842 28.571101121093307 0 0 0 0 -1307.554275354807 -390.31256091221576 0 -390.31256091221576 -75.001050657419 0 0 0 0 -1797.7283624800039 -221.5778952583737 0 -221.5778952583737 -131.55094130614179 0 0 0 0 -1502.8734769203293 -351.51715673737681 0 -351.51715673737681 -417.771771338093 0 0 0 0 -1930.3207595185668 -576.86595249999755 0 -576.86595249999755 -1146.3341964628362 0 0 0 0 -2083.8184817389701 -87.25269872676472 0 -87.25269872676472 -527.74081901502177 0 0 0 0 -1285.8869807387528 -363.36489052759225 0 -363.36489052759225 -453.40507890049867 0 0 0 0 -1441.7685455047667 -98.824123825500806 0 -98.824123825500806 -236.02896786582323 0 0 0 0 -1453.2779965231675 -387.36725292062238 0 -387.36725292062238 -77.087941371826673 0 0 0 0 -1086.8315044898336 -109.03431965926961 0 -109.03431965926961 -205.74933821388822 0 0 0 0 -1410.4401471844467 -430.02767130970165 0 -430.02767130970165 -75.297598039892364 0 0 0 0 -1704.2199849107419 -433.72760092450517 0 -433.72760092450517 48.163266166216999 0 0 0 0 -2443.8797494380124 -285.94520983792518 0 -285.94520983792518 -293.55184986683071 0 0 0 0 -1513.2865309517656 -377.67976244501642 0 -377.67976244501642 -275.43694344959022 0 0 0 0 -1540.6432986053987 -520.04282770004056 0 -520.04282770004056 -880.44685894681152 0 0 0 0 -1470.9765761352319 -564.2777999193595 0 -564.2777999193595 -347.92048006958566 0 0 0 0 -1548.7546735319866 -442.84832823378042 0 -442.84832823378042 -268.16851377158673 0 0 0 0 -1527.7816800778164 -500.79435916306534 0 -500.79435916306534 -179.00416857136224 0 0 0 0 -1408.8525686494249 -284.60358076546936 0 -284.60358076546936 80.05283731434065 0 0 0 0 -1498.6117263932756 -383.25922383761258 0 -383.25922383761258 -60.436046949695992 0 0 0 0 -1545.245551682965 -441.40076923944571 0 -441.40076923944571 24.17988272691764 0 0 0 0 -1485.7267470408115 -423.45281940687664 0 -423.45281940687664 -66.102078937754413 0 0 0 0 -1407.4277443822357 -340.06536453698209 0 -340.06536453698209 32.503024292221198 0 0 0 0 -1381.9174681680452 -389.79588248424261 0 -389.79588248424261 38.778261132588796 0 0 0 0 -1227.7132198292384 612.6989028968012 0 612.6989028968012 8.1165089833002639 0 0 0 0 -1952.8308900546544 -254.28736897805584 0 -254.28736897805584 113.10109160834588 0 0 0 0 -1226.7705157786404 -60.691474849578071 0 -60.691474849578071 142.11334580861075 0 0 0 0 -959.09715798869729 -86.149721842274971 0 -86.149721842274971 -89.342316990572272 0 0 0 0 -848.22733870512093 112.46190345519017 0 112.46190345519017 14.265385509669613 0 0 0 0 -1029.6550360281835 -152.27229569482847 0 -152.27229569482847 -206.85391295251611 0 0 0 0 -265.95991945813148 168.3314451476366 0 168.3314451476366 -132.59161938898535 0 0 0 0 -717.12168047652449 214.44422242779012 0 214.44422242779012 100.9384736020229 0 0 0 0 -81.489134810050018 91.594118949588392 0 91.594118949588392 -287.22260654693218 0 0 0 0 -572.47316202848742 -92.32124053459529 0 -92.32124053459529 -58.538415690852617 0 0 0 0 -6.7035920401713511 -8.1183963617870489 0 -8.1183963617870489 15.64719791418236 0 0 0 0 -2499.8639318537462 854.63072049540085 0 854.63072049540085 -147.88635317169951 0 0 0 0 98.181283769448783 -83.461603465041634 0 -83.461603465041634 -102.82507730481115 0 0 0 0 -47.318615268966823 -23.079495173575651 0 -23.079495173575651 94.395222197458452 0 0 0 0 -846.51835032328381 -580.56496784877515 0 -580.56496784877515 -295.2809429901132 0 0 0 0 -5.9497689190513299 -2.8284315685208625 0 -2.8284315685208625 -1.6633330018917696 0 0 0 0 -4.9366889730306447 -9.3387283661066931 0 -9.3387283661066931 8.0149894747994352 0 0 0 0 -2495.0646739930139 198.56035319983951 0 198.56035319983951 403.40586886466616 0 0 0 0 -538.50242450380028 146.64481830700288 0 146.64481830700288 28.152359470794636 0 0 0 0 -540.74625285425282 92.064748067321375 0 92.064748067321375 -130.24757576691854 0 0 0 0 -551.70713650296966 -35.491823308663584 0 -35.491823308663584 378.87165833572794 0 0 0 0 -544.84036508030249 59.759610286322797 0 59.759610286322797 118.05629765323374 0 0 0 0 -5.8926079397327555 -7.3740329156442073 0 -7.3740329156442073 5.2630839163500625 0 0 0 0 -2500.8849730020943 519.60504760461299 0 519.60504760461299 -101.51544161740567 0 0 0 0 -447.00957766214196 71.619591098449462 0 71.619591098449462 80.49687089569619 0 0 0 0 -2344.3040767796119 196.65358170203569 0 196.65358170203569 304.6758817090402 0 0 0 0 -167.16091864497866 -212.73061755300517 0 -212.73061755300517 -37.44321652956944 0 0 0 0 -14.029097914331942 71.296375048970901 0 71.296375048970901 51.352926413024285 0 0 0 0 -61.827410229539964 -213.96092677802227 0 -213.96092677802227 -170.57909925704399 0 0 0 0 -1.8518934569780185 0.71350864008086035 0 0.71350864008086035 -0.39843767636843691 0 0 0 0 -30.388157910390873 0.5887129240611193 0 0.5887129240611193 84.120912638943125 0 0 0 0 -7.6701485578922757 -0.53795911069771307 0 -0.53795911069771307 1.6197356091203825 0 0 0 0 -11.112994008138912 -21.341926089049288 0 -21.341926089049288 58.703724935022024 0 0 0 0 -41.217769679977209 20.983138657096561 0 20.983138657096561 -72.215856851565604 0 0 0 0 -20.028439230460208 -37.355547495713608 0 -37.355547495713608 -29.477152525416045 0 0 0 0 2.5606643526189146 -83.422501109701443 0 -83.422501109701443 11.992895479207618 0 0 0 0 -45.006523231422761 -53.552082546503925 0 -53.552082546503925 16.489133726516457 0 0 0 0 -13.183069907361642 -4.8494960926191197 0 -4.8494960926191197 50.564697926776034 0 0 0 0 -1.9647598289865016 -8.7522044330576936 0 -8.7522044330576936 0.54013275614439538 0 0 0 0 -75.596398508176208 -78.209084977842622 0 -78.209084977842622 91.826982904983879 0 0 0 0 -43.416437363717591 1.0369375119413391 0 1.0369375119413391 13.182151891767974 0 0 0 0 -182.1489994324802 -106.21887856190125 0 -106.21887856190125 181.989517314247 0 0 0 0 -147.64916465092392 122.74200659188864 0 122.74200659188864 77.022220967024168 0 0 0 0 -63.68740367032018 -12.804819860464253 0 -12.804819860464253 1.1686186082885193 0 0 0 0 -7.1345242807973364 4.7219066042945421 0 4.7219066042945421 6.1347345896576435 0 0 0 0 -19.905013267547474 -26.192220315509985 0 -26.192220315509985 -34.356799970930297 0 0 0 0 -66.523435213549163 -9.0134571538538903 0 -9.0134571538538903 1.6810940054717263 0 0 0 0 -91.414269938453799 -64.87723599014862 0 -64.87723599014862 91.773535107742646 0 0 0 0 -69.334500748653227 -179.77418833027843 0 -179.77418833027843 -69.679884975317691 0 0 0 0 -55.460042829246959 7.4044043992012121 0 7.4044043992012121 -8.4043128257402202 0 0 0 0 -52.695013586746484 3.1873598262317344 0 3.1873598262317344 0.063392764180606243 0 0 0 0 -12.778023355764162 -85.078135675037103 0 -85.078135675037103 68.667486242871689 0 0 0 0 -100.20003836459364 3.7807295925885001 0 3.7807295925885001 10.473509635006394 0 0 0 0 -13.1410712093834 -1.8783565289636783 0 -1.8783565289636783 6.2315355778108978 0 0 0 0 -101.42199740897922 46.853321663117214 0 46.853321663117214 145.07723592528947 0 0 0 0 18.508205196754716 24.958083325080821 0 24.958083325080821 -60.984847748849518 0 0 0 0 -137.72271467428345 147.05221219040149 0 147.05221219040149 -77.942275166911429 0 0 0 0 -107.13168274228519 -71.321128745998806 0 -71.321128745998806 -104.80192055924064 0 0 0 0 -134.09247090910503 -10.371524447199192 0 -10.371524447199192 40.15308810238318 0 0 0 0 -50.837422117288952 33.862885448774051 0 33.862885448774051 26.098123820395188 0 0 0 0 104.9092266009684 -106.70967196271661 0 -106.70967196271661 -99.698636883954293 0 0 0 0 1.877544855116144 -0.21198755182925311 0 -0.21198755182925311 1.3910895655259607 0 0 0 0 -92.349372049626254 253.21325706438572 0 253.21325706438572 -282.13166072826141 0 0 0 0 12.677157831277327 7.8947877265985653 0 7.8947877265985653 -15.712162334135769 0 0 0 0 -101.74398804030352 27.903009236038884 0 27.903009236038884 37.433952155076781 0 0 0 0 -172.22748064238112 34.832169844116947 0 34.832169844116947 39.427243215604221 0 0 0 0 -125.5745569151768 72.946996348444372 0 72.946996348444372 57.759970647212498 0 0 0 0 -231.96493207895401 3.7663720059976811 0 3.7663720059976811 52.536313349602437 0 0 0 0 -122.23285509877678 26.880915491877978 0 26.880915491877978 56.850917915208072 0 0 0 0 -105.36496371079556 25.003807033503819 0 25.003807033503819 38.331264803104261 0 0 0 0 -28.193379662632651 2.216042225504907 0 2.216042225504907 41.999222832117368 0 0 0 0 -29.78803182404954 2.3543184619648798 0 2.3543184619648798 42.867527748194135 0 0 0 0 -108.90245604843949 4.0956110399411045 0 4.0956110399411045 37.447715215766834 0 0 0 0 -44.882653525753994 -29.014462108440966 0 -29.014462108440966 38.679021823930846 0 0 0 0 82.30060075999063 -51.987709694711214 0 -51.987709694711214 15.676470916914127 0 0 0 0 -20.481192526902305 -32.415003095741611 0 -32.415003095741611 40.052876068671367 0 0 0 0 -4.7812184748969315 -0.40057330402615321 0 -0.40057330402615321 17.761925930239293 0 0 0 0 8.9394379780205782 -29.656838553245606 0 -29.656838553245606 30.695214717786897 0 0 0 0 -24.726886616183037 -14.828309445049577 0 -14.828309445049577 34.581876554603923 0 0 0 0 -14.208634671886102 -25.388387494752152 0 -25.388387494752152 36.994897313300712 0 0 0 0 -142.18400857941197 -16.562674598148931 0 -16.562674598148931 33.858686947668957 0 0 0 0 -1.5108211532708182 -2.8684186475303619 0 -2.8684186475303619 10.716930917126826 0 0 0 0 -186.48172574173077 -35.9306449672913 0 -35.9306449672913 25.98084157003268 0 0 0 0 3.7881080234074034 2.4062068851217191 0 2.4062068851217191 -37.879959631723068 0 0 0 0 -101.52623420736927 -137.78109320689146 0 -137.78109320689146 -49.912868275509936 0 0 0 0 -325.06193000636267 -136.64820065196955 0 -136.64820065196955 40.412532163926699 0 0 0 0 -348.6893413728103 7.3999861363572563 0 7.3999861363572563 89.172190935951221 0 0 0 0 -248.70269362838008 -135.02908235713949 0 -135.02908235713949 23.865142252700196 0 0 0 0 -385.88614834147302 -143.15678710725615 0 -143.15678710725615 23.878224491807487 0 0 0 0 -340.72303403902333 -180.37120589210554 0 -180.37120589210554 3.4913595926796006 0 0 0 0 -203.99260929872253 63.513148940111932 0 63.513148940111932 -21.980948724762129 0 0 0 0 9.7917993103619665 5.2017339312433251 0 5.2017339312433251 -63.352067673452439 0 0 0 0 -0.795079696726674 -1.296896819678544 0 -1.296896819678544 -0.86740265672720085 0 0 0 0 11.110416571733367 16.982767946126444 0 16.982767946126444 21.020917191624903 0 0 0 0 -31.159552395372884 52.200073096719734 0 52.200073096719734 83.638934335196609 0 0 0 0 -2.031365716131404 16.057118343239381 0 16.057118343239381 43.053135381383527 0 0 0 0 -13.994197317544604 19.214006491129112 0 19.214006491129112 39.933365277660414 0 0 0 0 -10.455880464909711 2.653017516366126 0 2.653017516366126 2.8388827021453693 0 0 0 0 -13.670826621375738 -3.4805819160835867 0 -3.4805819160835867 6.0860554618575993 0 0 0 0 11.401424526877236 27.254236167285853 0 27.254236167285853 47.587040673864976 0 0 0 0 0.70735067416092079 3.6530906506967673 0 3.6530906506967673 -0.47608346735345464 0 0 0 0 -10.496574026212329 93.136504183743455 0 93.136504183743455 7.4035965240937003 0 0 0 0 -220.89401163297589 -231.57261013623793 0 -231.57261013623793 -178.67739082611774 0 0 0 0 46.892313529475359 7.929410770548202 0 7.929410770548202 -16.113199934196018 0 0 0 0 -51.340832907721051 16.111614653254946 0 16.111614653254946 47.015720260281341 0 0 0 0 -4.169732356531938 -0.58947956140152802 0 -0.58947956140152802 -0.2939170250153551 0 0 0 0 -13.609974043369675 6.2793278973201367 0 6.2793278973201367 -0.82886920432462041 0 0 0 0 -9.6299521133620374 -123.79216203960175 0 -123.79216203960175 -125.67280629836932 0 0 0 0 -12.646172764958465 -6.0559288339242237 0 -6.0559288339242237 36.729702447803511 0 0 0 0 -13.996436135101249 -3.9100498377463548 0 -3.9100498377463548 51.275196378620443 0 0 0 0 -33.802032556701306 -18.235467791981996 0 -18.235467791981996 55.071047599580709 0 0 0 0 -7.2012534504756331 -12.129446789522959 0 -12.129446789522959 40.647827481569635 0 0 0 0 -15.57636570710747 3.6625818258062282 0 3.6625818258062282 30.220335244162015 0 0 0 0 -3.7322464337222243 -2.1780574547001805 0 -2.1780574547001805 3.4748020739622643 0 0 0 0 8.3016957490035566 7.8169326106217341 0 7.8169326106217341 4.5993465999454202 0 0 0 0 -17.074929266106892 -0.64847258285251996 0 -0.64847258285251996 9.2956714447976765 0 0 0 0 -21.042147008454776 -8.9006661305990633 0 -8.9006661305990633 17.692406876995392 0 0 0 0 -17.344455221347744 15.730370322067756 0 15.730370322067756 58.562870141902749 0 0 0 0 -20.499393279464186 6.0929047090203454 0 6.0929047090203454 14.518386283395794 0 0 0 0 -11.914600982854608 30.368911325622321 0 30.368911325622321 158.48035185414847 0 0 0 0 -11.876171433178513 14.607803406903846 0 14.607803406903846 9.1671738329071442 0 0 0 0 -23.638268871465698 3.0531102350341826 0 3.0531102350341826 45.937791615167953 0 0 0 0 -20.509301488118723 13.74114280016679 0 13.74114280016679 17.113769850124541 0 0 0 0 17.540104494837578 12.159276845548447 0 12.159276845548447 17.348310252018564 0 0 0 0 -18.2202721281501 4.0017413271943951 0 4.0017413271943951 23.941997738033024 0 0 0 0 -5.2210133525368292 -4.0221797028561923 0 -4.0221797028561923 28.581323740470452 0 0 0 0 -26.304899546612432 -6.9889220685479359 0 -6.9889220685479359 56.892450067771733 0 0 0 0 -25.687013599355851 -13.314893609122123 0 -13.314893609122123 19.224455161336664 0 0 0 0 -52.76079387712457 3.4322996149132052 0 3.4322996149132052 25.068124529464114 0 0 0 0 -91.914343727778501 -10.259446106017677 0 -10.259446106017677 55.51439742643776 0 0 0 0 -27.769182781208656 -15.761915314431917 0 -15.761915314431917 12.851859302166758 0 0 0 0 -14.776315278257243 0.15560912758792256 0 0.15560912758792256 44.464204858443509 0 0 0 0 -21.318056775298771 -7.3227977163972486 0 -7.3227977163972486 6.2537547361111976 0 0 0 0 -47.274352432577871 -10.086376401487541 0 -10.086376401487541 64.001947407431089 0 0 0 0 -13.595208675248216 -21.682844016219647 0 -21.682844016219647 0.033121082295380688 0 0 0 0 -23.230721870241155 -3.0261315270715805 0 -3.0261315270715805 17.506906881602383 0 0 0 0 -25.731631843576906 5.9234169049027514 0 5.9234169049027514 65.711823668142188 0 0 0 0 -27.941537242833533 -11.895414324444324 0 -11.895414324444324 3.3552113718844252 0 0 0 0 -38.594389708596282 -17.222986716711603 0 -17.222986716711603 49.025137255812751 0 0 0 0 -33.487136347888736 -22.041947433954192 0 -22.041947433954192 8.522747100951392 0 0 0 0 -5.3673399829222319 -6.4725457134038038 0 -6.4725457134038038 -0.60604163214497309 0 0 0 0 -13.866654426482228 -7.871321148418982 0 -7.871321148418982 6.4857556413184598 0 0 0 0 -16.378588389953649 5.364544097858186 0 5.364544097858186 5.6870912786942656 0 0 0 0 -16.607071940336027 -37.029068552537865 0 -37.029068552537865 -17.081232372179784 0 0 0 0 -22.654787520061525 -37.389404962796291 0 -37.389404962796291 -15.890014992879479 0 0 0 0 -80.665257782489789 -63.475304947862696 0 -63.475304947862696 10.636039223487387 0 0 0 0 -83.154515537806219 -66.783706718912072 0 -66.783706718912072 31.223834536222057 0 0 0 0 -77.253906630400522 -15.684637070254098 0 -15.684637070254098 30.217046435151971 0 0 0 0 -64.596463262594625 -90.51548602764251 0 -90.51548602764251 55.360612036272983 0 0 0 0 -92.845635814410343 -54.696015928413544 0 -54.696015928413544 52.542291912888686 0 0 0 0 -27.656037944641866 -29.484999256984793 0 -29.484999256984793 -16.544112303300608 0 0 0 0 -30.018923743862615 -42.9905836454991 0 -42.9905836454991 -25.58974682866392 0 0 0 0 -127.92285194670694 -1.2841100077821466 0 -1.2841100077821466 113.62314973621505 0 0 0 0 -85.151273335817962 -9.7282390679403896 0 -9.7282390679403896 23.694784297819897 0 0 0 0 -65.714089539156703 240.80984068151952 0 240.80984068151952 277.24249776726901 0 0 0 0 -12.687876926342142 81.548582193383481 0 81.548582193383481 162.63490131970252 0 0 0 0 32.311077763617504 6.4555714261414323 0 6.4555714261414323 142.28731529354764 0 0 0 0 -91.967783369735116 -46.280945626662287 0 -46.280945626662287 22.570917284362622 0 0 0 0 -187.93729955187882 -55.798572601817796 0 -55.798572601817796 102.83016718719114 0 0 0 0 -102.3800066272961 -30.768637375751496 0 -30.768637375751496 101.10491286600882 0 0 0 0 -126.28384627236665 -6.9621110759235307 0 -6.9621110759235307 109.72287446149312 0 0 0 0 -149.28817012257423 -6.2869545895327974 0 -6.2869545895327974 132.83195002019056 0 0 0 0 -220.20850339898607 -4.6062433083916403 0 -4.6062433083916403 136.70706793860381 0 0 0 0 -166.13126797977384 79.050836563128541 0 79.050836563128541 105.64717848491455 0 0 0 0 -374.26945172751402 -132.3836014443682 0 -132.3836014443682 169.81474477161646 0 0 0 0 -120.5283840132397 -127.10647395226761 0 -127.10647395226761 159.64089377051096 0 0 0 0 -287.18922359585849 14.227469500740881 0 14.227469500740881 159.94950694451109 0 0 0 0 -312.60274154620129 15.309904751489739 0 15.309904751489739 172.45433711223995 0 0 0 0 1.3319112498502363 179.78158171695395 0 179.78158171695395 -21.657674682643119 0 0 0 0 -331.44830903736147 175.88524677171881 0 175.88524677171881 99.812464631102557 0 0 0 0 -112.16015654735929 87.92235245438178 0 87.92235245438178 105.70888549240408 0 0 0 0 -13.81786672190799 -34.134288887007536 0 -34.134288887007536 -22.213054278149556 0 0 0 0 91.838166032779554 -212.57089298289975 0 -212.57089298289975 23.541223083240766 0 0 0 0 -59.531923568340062 -365.06368262154774 0 -365.06368262154774 -53.616694838337935 0 0 0 0 92.939501793152886 -92.269714492472303 0 -92.269714492472303 94.691597363967958 0 0 0 0 -49.207388935239578 -32.207734423962847 0 -32.207734423962847 -19.704404476923273 0 0 0 0 451.83948421980313 -346.69335608369056 0 -346.69335608369056 -53.410156947838914 0 0 0 0 -14.236218122055668 -34.818874163832859 0 -34.818874163832859 -24.906343103189414 0 0 0 0 -50.017912995368533 -31.412125358526055 0 -31.412125358526055 -19.787556094384854 0 0 0 0 -41.818261219254055 -24.458493690829073 0 -24.458493690829073 -14.141635147692796 0 0 0 0 -65.225148892870493 -27.242308842585999 0 -27.242308842585999 -13.194451324104193 0 0 0 0 -43.434181498130783 -33.344336553498579 0 -33.344336553498579 -19.735852752091091 0 0 0 0 -50.208210392233013 -41.468077284086121 0 -41.468077284086121 -16.433220494731358 0 0 0 0 -64.479827727052907 -37.591531049811692 0 -37.591531049811692 -16.29907781376042 0 0 0 0 -59.156756060059706 -21.931898195452504 0 -21.931898195452504 -8.9410732007556817 0 0 0 0 -70.050339550103672 -47.285625465967314 0 -47.285625465967314 -25.185588641650611 0 0 0 0 -104.55185517028804 -19.528356846937641 0 -19.528356846937641 -7.2432586931518017 0 0 0 0 -52.486234445299488 -53.267178947065986 0 -53.267178947065986 -74.610206598109016 0 0 0 0 -165.75437472938029 22.995495785535581 0 22.995495785535581 -35.650148098497084 0 0 0 0 -147.90363234867982 -55.895096584839962 0 -55.895096584839962 -23.745600388676394 0 0 0 0 -38.861583377019997 -51.191009315661859 0 -51.191009315661859 -38.288900437495613 0 0 0 0 -31.333812771721568 -11.962067854719862 0 -11.962067854719862 -23.295163518470872 0 0 0 0 -49.344314073903661 10.099895942131184 0 10.099895942131184 -11.823196978103852 0 0 0 0 -51.724795089365216 11.593762826393174 0 11.593762826393174 -11.72135083043031 0 0 0 0 -12.985352298967099 -6.8973154882897063 0 -6.8973154882897063 -19.457878329504645 0 0 0 0 -26.947617220663233 -37.176112768899657 0 -37.176112768899657 -51.461291072313543 0 0 0 0 -62.779411947994959 28.964780539453386 0 28.964780539453386 -160.72353926245933 0 0 0 0 -81.642384767787007 -14.411752139372766 0 -14.411752139372766 -19.935895146605617 0 0 0 0 -81.431057739100652 17.405892478292117 0 17.405892478292117 -18.247489286779455 0 0 0 0 -27.78690670477954 4.041276131581526 0 4.041276131581526 -24.902972379071343 0 0 0 0 1.3593809645474011 -5.3846143611549877 0 -5.3846143611549877 -21.179255639725657 0 0 0 0 20.41259444237221 31.701867451504086 0 31.701867451504086 -18.770486038402055 0 0 0 0 -79.833171052699981 69.24623539175596 0 69.24623539175596 8.9133511699174051 0 0 0 0 -62.57878757994331 -7.8728550693831494 0 -7.8728550693831494 -14.763696569444619 0 0 0 0 -47.565573128722463 -18.574413776887923 0 -18.574413776887923 -18.145925344394527 0 0 0 0 -31.392410487271263 -8.7992903616441254 0 -8.7992903616441254 -16.914848546909752 0 0 0 0 124.99648528658872 5.9993855045007649 0 5.9993855045007649 -120.33732892878515 0 0 0 0 -158.81330447305663 21.252407434008774 0 21.252407434008774 24.334478218494269 0 0 0 0 0.16834352170184674 -5.5656666992133381 0 -5.5656666992133381 -21.884691262423502 0 0 0 0 -1.5202792535238114 -8.5762155210726689 0 -8.5762155210726689 -20.592781756981228 0 0 0 0 -74.222850673017092 34.035696874172118 0 34.035696874172118 -28.063124700657227 0 0 0 0 139.52541952702515 -98.214172040584614 0 -98.214172040584614 -85.590273855711075 0 0 0 0 -29.319862929878582 -14.948874820253877 0 -14.948874820253877 -17.492178869464624 0 0 0 0 -15.027854597494297 -17.346331598393135 0 -17.346331598393135 -21.389163805209137 0 0 0 0 70.938041663019249 -30.175720471876957 0 -30.175720471876957 -112.72556436508421 0 0 0 0 -27.499037558736745 -17.215692953086545 0 -17.215692953086545 -14.398503251126385 0 0 0 0 -14.637220967027758 -19.871602593070172 0 -19.871602593070172 -4.3533725353184218 0 0 0 0 -3.048198713413143 -2.2333356247001923 0 -2.2333356247001923 -8.1422402022457643 0 0 0 0 -0.056724732998835958 -4.5411853060845715 0 -4.5411853060845715 -41.355185607027565 0 0 0 0 -178.10363397378612 -144.78205149796364 0 -144.78205149796364 -139.1309488114598 0 0 0 0 -37.724755463804627 10.827051959703208 0 10.827051959703208 -46.445359847875807 0 0 0 0 135.24642551350371 -94.55376831535591 0 -94.55376831535591 88.122842649519953 0 0 0 0 469.39910782154766 -355.54968974689154 0 -355.54968974689154 111.23819101996469 0 0 0 0 -195.24457013631763 81.07773768695597 0 81.07773768695597 111.71325563084611 0 0 0 0 178.01856859001418 -88.340219613486624 0 -88.340219613486624 -111.86965959117288 0 0 0 0 -382.60898826408084 -139.59905532503399 0 -139.59905532503399 -115.43724519434772 0 0 0 0 -639.62467940052738 -118.67858879955998 0 -118.67858879955998 255.38914906403215 0 0 0 0 -0.70548402275823974 -0.5963459176300745 0 -0.5963459176300745 -18.57155320488074 0 0 0 0 -384.75329133067862 20.343148333075078 0 20.343148333075078 -2.0175385071534038 0 0 0 0 -74.5153915421688 18.388477170306942 0 18.388477170306942 -24.775078123937419 0 0 0 0 -1.4447849385810656 -4.2578089339036325 0 -4.2578089339036325 -8.2250574421835303 0 0 0 0 291.44322975295654 -139.61954763662652 0 -139.61954763662652 -12.004382900366181 0 0 0 0 306.10604543824911 -314.74360910265847 0 -314.74360910265847 20.468156338238259 0 0 0 0 127.11978419930529 -247.69732351554376 0 -247.69732351554376 62.559798122005304 0 0 0 0 15.1855613562293 -48.509950132061931 0 -48.509950132061931 -3.1564381254979708 0 0 0 0 -414.05690534187625 -448.57004368416926 0 -448.57004368416926 -71.713869100538432 0 0 0 0 -334.20339826863619 -420.68637992887443 0 -420.68637992887443 358.95244719712355 0 0 0 0 597.87064112567168 -623.64534117347284 0 -623.64534117347284 -434.61125256110608 0 0 0 0 153.40610641073363 441.49010708213427 0 441.49010708213427 16.956035109593358 0 0 0 0 -42.569778676821443 -28.357565654207974 0 -28.357565654207974 -21.19215154324138 0 0 0 0 -40.527939795164428 -16.589498063524442 0 -16.589498063524442 6.4092039448562756 0 0 0 0 -55.132075644738507 -21.261391040348371 0 -21.261391040348371 -19.379920378065435 0 0 0 0 -26.063595163883292 -17.485550063361643 0 -17.485550063361643 -21.281975094689187 0 0 0 0 -42.539969943958567 -26.056765938034005 0 -26.056765938034005 -19.261799181686001 0 0 0 0 -41.592089314131954 -26.147695932871329 0 -26.147695932871329 -25.448259865818727 0 0 0 0 47.100693480777409 -260.78215424339942 0 -260.78215424339942 104.74040596750456 0 0 0 0 29.639831221535132 -112.68754765055019 0 -112.68754765055019 12.788804636940768 0 0 0 0 -467.40440343407317 309.0146371273222 0 309.0146371273222 -384.97155198389009 0 0 0 0 118.59548632786186 -121.8843698329552 0 -121.8843698329552 -89.153433129831683 0 0 0 0 726.61187798831088 -175.00590253445807 0 -175.00590253445807 -293.81997971929832 0 0 0 0 684.3970034247468 23.496017439080788 0 23.496017439080788 -28.166341054769873 0 0 0 0 -13.875213527336676 -32.440356475463886 0 -32.440356475463886 -25.541107910433993 0 0 0 0 117.38443518746476 -131.8204310469215 0 -131.8204310469215 375.32812530744195 0 0 0 0 -0.65701548730520187 -16.367169389656965 0 -16.367169389656965 -5.7663507159249097 0 0 0 0 -448.99621197926172 -28.024782371372567 0 -28.024782371372567 -50.00961440730498 0 0 0 0 -172.56911810542806 104.58011128737417 0 104.58011128737417 -158.48247920122958 0 0 0 0 -263.51994508697135 284.34652954038029 0 284.34652954038029 -18.778743438200763 0 0 0 0 -308.68639351394631 100.85098723685041 0 100.85098723685041 -76.736421960034932 0 0 0 0 -922.65223020373378 197.16904509858068 0 197.16904509858068 106.70414597418858 0 0 0 0 -725.52557368998532 76.97761549288407 0 76.97761549288407 165.31831922234323 0 0 0 0 -569.4946493903044 -658.31681972645947 0 -658.31681972645947 -412.36650013610597 0 0 0 0 -660.29871364855353 323.64182785075354 0 323.64182785075354 -210.70603701897926 0 0 0 0 -1321.6404148335605 -397.21129120138721 0 -397.21129120138721 67.379613967401383 0 0 0 0 -350.25327870074398 109.91265803542774 0 109.91265803542774 -402.38857841736717 0 0 0 0 -12.022742569994577 0.18765684939948102 0 0.18765684939948102 -1.7641812493073683 0 0 0 0 -554.82081695766828 -647.18312818500726 0 -647.18312818500726 -379.81210605780507 0 0 0 0 496.2433697161905 209.18950399860478 0 209.18950399860478 -1468.8100707884296 0 0 0 0 -121.73660748418479 -381.69648718210374 0 -381.69648718210374 -218.13797392873084 0 0 0 0 -553.96837578234408 -254.49221374256376 0 -254.49221374256376 61.532444410308017 0 0 0 0 -723.21782632394752 -415.11803586183305 0 -415.11803586183305 37.289584837359143 0 0 0 0 -513.69711859230483 -110.63756477778725 0 -110.63756477778725 -10.801661200937815 0 0 0 0 -571.72099457020522 -426.37376571950153 0 -426.37376571950153 -211.01366645413532 0 0 0 0 -627.06917762080775 -120.35307405167259 0 -120.35307405167259 128.72143812631475 0 0 0 0 -506.39583435191162 -180.67225812920879 0 -180.67225812920879 84.897024944274449 0 0 0 0 -21.336030390200904 146.98348475893033 0 146.98348475893033 62.866204459282017 0 0 0 0 -132.75984105423231 -362.47224302486234 0 -362.47224302486234 -216.10315330300728 0 0 0 0 -1.1480661706843946 0.60473166879458518 0 0.60473166879458518 2.8041433309742487 0 0 0 0 -843.46434533648335 -468.15245236844066 0 -468.15245236844066 29.710039075027453 0 0 0 0 -428.01401278579579 -502.62917787748484 0 -502.62917787748484 -208.01748098203188 0 0 0 0 469.86641457372752 91.979750884807345 0 91.979750884807345 -53.677383333342732 0 0 0 0 270.59710616937082 -120.69379277311418 0 -120.69379277311418 -237.63522269042187 0 0 0 0 1199.6911685810701 16.479328268263089 0 16.479328268263089 -55.360824777500966 0 0 0 0 234.3185367846163 -176.93584034852756 0 -176.93584034852756 1731.3604318960506 0 0 0 0 424.89285165895126 425.30874256782772 0 425.30874256782772 381.22487476953995 0 0 0 0 292.57642815449071 266.25118877137538 0 266.25118877137538 31.952137499920809 0 0 0 0 107.30768359122521 111.37510060723707 0 111.37510060723707 72.359971814932578 0 0 0 0 -123.9916221123276 288.03756577390959 0 288.03756577390959 3.1603998791947561 0 0 0 0 -76.835028147104822 91.414710968462032 0 91.414710968462032 -43.344344057401031 0 0 0 0 -118.644035294692 -1.550955817785507 0 -1.550955817785507 -2.5904126131717931 0 0 0 0 103.74923896061591 36.349292785762373 0 36.349292785762373 -50.101677261393888 0 0 0 0 35.584319561181474 -107.67339698867363 0 -107.67339698867363 -105.30024108616635 0 0 0 0 88.751769927926944 -115.45264454248172 0 -115.45264454248172 -111.78913962376464 0 0 0 0 -19.590251082699979 -26.325209919501958 0 -26.325209919501958 -16.049972298864759 0 0 0 0 -17.365130953188782 -8.7799629773962806 0 -8.7799629773962806 -3.1969373888903192 0 0 0 0 -23.831100375598908 8.7561073269534972 0 8.7561073269534972 -43.366721591225541 0 0 0 0 -22.539322799166257 -11.333859631825362 0 -11.333859631825362 3.2424196388719793 0 0 0 0 -20.073920790861393 -21.101657817823138 0 -21.101657817823138 -8.3407670518754458 0 0 0 0 -90.170842453091609 98.116309330291642 0 98.116309330291642 -103.34773676866661 0 0 0 0 -5.5776972560517635 -3.2535589996685914 0 -3.2535589996685914 6.9342590743292405 0 0 0 0 -22.889603685765906 -10.420056212607506 0 -10.420056212607506 -0.72032498361113539 0 0 0 0 -18.340697609186464 -25.544828817066445 0 -25.544828817066445 6.9820508501054519 0 0 0 0 -25.834662318618555 -8.4921589311280616 0 -8.4921589311280616 -0.38307154400280652 0 0 0 0 -8.9158261299406192 0.98175683295479388 0 0.98175683295479388 0.60186855377127202 0 0 0 0 -28.933806847349842 -0.54846369813617457 0 -0.54846369813617457 60.984895309293279 0 0 0 0 -62.770776321753146 -3.6713414018622643 0 -3.6713414018622643 60.722720323656176 0 0 0 0 -30.611426194139312 -7.663346414052512 0 -7.663346414052512 34.920043128558973 0 0 0 0 -22.460514388774754 -40.065564736469696 0 -40.065564736469696 51.930232510436554 0 0 0 0 22.445208968580118 -73.545061546620673 0 -73.545061546620673 96.840984802002481 0 0 0 0 -49.088847885965151 -23.979129783407416 0 -23.979129783407416 90.536500578157757 0 0 0 0 -22.181817885375722 -21.430684261285933 0 -21.430684261285933 5.6393072310038406 0 0 0 0 -23.480678523563256 -33.20862356565658 0 -33.20862356565658 20.530104961461802 0 0 0 0 -32.272873064528525 -10.941396243930264 0 -10.941396243930264 -3.3559702860528979 0 0 0 0 -21.922676122346843 -33.724690464519 0 -33.724690464519 71.17903445151569 0 0 0 0 -47.025830522146862 -36.479839804790117 0 -36.479839804790117 73.097575572146297 0 0 0 0 -4.9035525809131286 -55.313085815338809 0 -55.313085815338809 30.892086281639422 0 0 0 0 -33.707471451819288 -19.076195913022822 0 -19.076195913022822 -0.041653113402853492 0 0 0 0 -39.975806707079755 -84.056053321813124 0 -84.056053321813124 51.5388891123539 0 0 0 0 -31.783710135110596 -35.364150056509061 0 -35.364150056509061 25.839382724891152 0 0 0 0 -32.260333843478293 -25.93916393395557 0 -25.93916393395557 23.484879069793578 0 0 0 0 -30.272105832365014 -19.970624535061233 0 -19.970624535061233 3.4676102017392623 0 0 0 0 -33.253768367700104 -19.93458376212493 0 -19.93458376212493 3.7962660365496959 0 0 0 0 -48.129422615807925 -48.832232323863309 0 -48.832232323863309 30.907418430366306 0 0 0 0 -0.36724398045459594 -13.996264043778623 0 -13.996264043778623 12.562106944712109 0 0 0 0 -26.166222662614018 -31.700895569127169 0 -31.700895569127169 13.071813805353713 0 0 0 0 -7.2896157181231587 -5.3542724268612147 0 -5.3542724268612147 0.11999497955397942 0 0 0 0 -33.183823588769883 -10.6261443528565 0 -10.6261443528565 -10.08237420378282 0 0 0 0 -25.709040661204199 -17.571381095317975 0 -17.571381095317975 -0.37120580194459762 0 0 0 0 -20.493845635326579 -30.568314509933771 0 -30.568314509933771 0.40926170711463783 0 0 0 0 -26.357997118480853 -26.952161402168713 0 -26.952161402168713 30.120615342288147 0 0 0 0 -19.814581632435875 -34.075464111286237 0 -34.075464111286237 18.353060955763794 0 0 0 0 -11.832353689795127 -37.171772654282904 0 -37.171772654282904 1.2906245279227733 0 0 0 0 -10.483019385108491 -37.224112457166484 0 -37.224112457166484 -18.199738248042195 0 0 0 0 84.415093870047713 -354.5478997480227 0 -354.5478997480227 310.34427704531663 0 0 0 0 -22.765112753316785 -22.769300561814511 0 -22.769300561814511 -20.535478055284425 0 0 0 0 -11.409978208270331 -23.591316870670198 0 -23.591316870670198 -11.659000017410108 0 0 0 0 -13.804552258952754 -24.287773488353196 0 -24.287773488353196 -10.275036119812285 0 0 0 0 -11.678146246573306 -24.494081978519716 0 -24.494081978519716 -13.8452415118918 0 0 0 0 -12.4066342881124 -22.989446069482256 0 -22.989446069482256 -15.808528014851618 0 0 0 0 -216.26276383301592 -42.57235649875247 0 -42.57235649875247 589.22644952890596 0 0 0 0 -16.788436143557192 -23.685544256518369 0 -23.685544256518369 -17.051203317460022 0 0 0 0 -13.700276864530679 -24.476474884980462 0 -24.476474884980462 -12.411076630040043 0 0 0 0 -17.340059895112063 -23.189334496471929 0 -23.189334496471929 1.1712147249836562 0 0 0 0 -19.935845912244986 -23.068604029203925 0 -23.068604029203925 -13.436566666905492 0 0 0 0 -16.395324813813204 -21.519659075553136 0 -21.519659075553136 -16.332076234022679 0 0 0 0 -16.361155692255124 -25.057183634628018 0 -25.057183634628018 -12.537331643045945 0 0 0 0 -19.809310564975021 -28.806914376973509 0 -28.806914376973509 -15.759745724941922 0 0 0 0 0.83773441674451021 -7.9540167672871291 0 -7.9540167672871291 -1.3126423886487011 0 0 0 0 565.95168346683931 -425.89828984880978 0 -425.89828984880978 292.18378901138658 0 0 0 0 -24.700224824431643 -27.090954273180614 0 -27.090954273180614 -14.530586809387387 0 0 0 0 -22.586827842875209 -22.532673340017027 0 -22.532673340017027 -16.180316218256849 0 0 0 0 -13.506431465320006 -16.257536308888888 0 -16.257536308888888 -15.843127171994697 0 0 0 0 528.59297855076147 -676.06760659181873 0 -676.06760659181873 -158.89937055007067 0 0 0 0 -0.31286229289157563 -0.028602439467675822 0 -0.028602439467675822 -3.9730069769103373 0 0 0 0 -880.23525194743706 -185.92281966680935 0 -185.92281966680935 101.58920114443981 0 0 0 0 -123.16309706464017 -99.671624336342688 0 -99.671624336342688 202.59490133025702 0 0 0 0 -203.82017402167548 74.967437387948848 0 74.967437387948848 118.8274055261345 0 0 0 0 -294.93118966685142 -381.72379791253024 0 -381.72379791253024 -191.35281321298066 0 0 0 0 815.98820531420643 267.69720934867382 0 267.69720934867382 -2.3677535449714924 0 0 0 0 -311.42608628459493 -89.440279988732186 0 -89.440279988732186 -95.917854525891016 0 0 0 0 -399.13389144276152 134.75966859186519 0 134.75966859186519 -130.78065938422606 0 0 0 0 -667.13883941576933 79.466212898813865 0 79.466212898813865 22.910008680642477 0 0 0 0 -460.64169054742524 -91.146947464477307 0 -91.146947464477307 -133.11042592413014 0 0 0 0 139.31196292478126 -263.23893565840262 0 -263.23893565840262 356.82339365584448 0 0 0 0 -6.7726548751235072 -4.5151565849725586 0 -4.5151565849725586 -0.037896040244765672 0 0 0 0 1127.4416673374944 -614.76397169132179 0 -614.76397169132179 208.05280022709303 0 0 0 0 379.09052044113196 352.75770161424589 0 352.75770161424589 -205.52383932944394 0 0 0 0 -19.201008469273802 -0.064911175779172936 0 -0.064911175779172936 -30.935805246848759 0 0 0 0 -17.970359576749615 -14.287143031448977 0 -14.287143031448977 -19.787641146493115 0 0 0 0 -8.6766538439446492 -13.984117956392538 0 -13.984117956392538 -17.370898595193076 0 0 0 0 -52.022816420096206 -37.506819435023317 0 -37.506819435023317 -14.124650903928853 0 0 0 0 -128.19649110424143 -50.59558068730621 0 -50.59558068730621 -13.167317018787799 0 0 0 0 -51.063534204979078 1.1055937278224519 0 1.1055937278224519 -12.452059737410309 0 0 0 0 -34.525713086462929 -28.980538255560532 0 -28.980538255560532 1.2571119013055068 0 0 0 0 -35.049792072085779 -13.632284960746716 0 -13.632284960746716 -4.9713937214492034 0 0 0 0 -29.695088258486066 -10.76190144361226 0 -10.76190144361226 -17.237074031221709 0 0 0 0 -30.477397566337459 -17.685236529377107 0 -17.685236529377107 -9.6034509689307015 0 0 0 0 -30.864307624993671 -11.817300238854841 0 -11.817300238854841 -4.18436460299381 0 0 0 0 -9.9009382973903541 -10.250238856681975 0 -10.250238856681975 -8.6666496791470991 0 0 0 0 -2107.1677991794022 103.16844436806551 0 103.16844436806551 -9.2865409274098631 0 0 0 0 -39.458673320354137 -73.680200690500214 0 -73.680200690500214 26.002445022063512 0 0 0 0 -20.219180953731872 9.4598107524470123 0 9.4598107524470123 30.973623558455426 0 0 0 0 -176.0210439009461 -64.89100998250774 0 -64.89100998250774 135.1109351527648 0 0 0 0 -40.006100908256485 -105.13513319935282 0 -105.13513319935282 -1.8263606176687972 0 0 0 0 -127.65484418840151 61.294217518833307 0 61.294217518833307 209.48276621196055 0 0 0 0 -14.322880775429674 -20.452858792606023 0 -20.452858792606023 -20.207809219058007 0 0 0 0 -1846.1366676529833 -364.12831164804913 0 -364.12831164804913 -101.5547446398723 0 0 0 0 -94.996257352642715 42.036668686008454 0 42.036668686008454 137.89941059851708 0 0 0 0 -26.64096626979908 3.5702855628881167 0 3.5702855628881167 35.964977088111205 0 0 0 0 -214.00057125090825 32.268403843227844 0 32.268403843227844 145.76899902666321 0 0 0 0 -2.8210141938560334 -2.4525769138234281 0 -2.4525769138234281 -3.5355365492611734 0 0 0 0 227.72391075954511 -136.70376637295013 0 -136.70376637295013 -81.121380536274458 0 0 0 0 -2500.1554994670987 472.50244423942354 0 472.50244423942354 -29.959152314226817 0 0 0 0 -121.26249286954771 -12.287775446911951 0 -12.287775446911951 82.109000527574608 0 0 0 0 -176.48721494482743 -409.53955908240209 0 -409.53955908240209 -231.00857375396899 0 0 0 0 -447.18404759993427 19.793965658966698 0 19.793965658966698 -56.648106981409263 0 0 0 0 -712.83147235657088 -189.18905280169025 0 -189.18905280169025 -203.18231843349812 0 0 0 0 -980.0361900809803 -746.6014019371363 0 -746.6014019371363 -297.59007444046716 0 0 0 0 -2495.5722593766077 -489.31714955863458 0 -489.31714955863458 448.11795219192078 0 0 0 0 -1224.1338183085263 -31.339612703532818 0 -31.339612703532818 70.954817101907224 0 0 0 0 -1763.7032333291063 192.63014354108782 0 192.63014354108782 219.135990762848 0 0 0 0 -5.0578227070164274 -11.539718799450817 0 -11.539718799450817 -3.1131297969245622 0 0 0 0 -1188.1365081352706 95.758888484225253 0 95.758888484225253 204.80590380213562 0 0 0 0 -1579.3931626882404 -343.15312020637316 0 -343.15312020637316 186.96596010467377 0 0 0 0 -1197.9935336214694 297.00969778412235 0 297.00969778412235 51.461235829679282 0 0 0 0 4.547858442820143 -11.945190972044657 0 -11.945190972044657 -15.46797034933843 0 0 0 0 -297.28657209161611 -45.992181245899701 0 -45.992181245899701 172.42303268530395 0 0 0 0 -16.858399920824109 -5.3147029889166788 0 -5.3147029889166788 21.481689463219681 0 0 0 0 -71.359053115198549 -62.585725225674651 0 -62.585725225674651 1.2637108244507544 0 0 0 0 -15.523163865732979 -18.688997517481923 0 -18.688997517481923 23.198148380118248 0 0 0 0 157.74459495112023 25.784771852553536 0 25.784771852553536 -274.39601259070275 0 0 0 0 -109.35156239087155 5.4072846420087899 0 5.4072846420087899 91.995200826937435 0 0 0 0 -342.9914914520923 396.75201492459075 0 396.75201492459075 -0.85725457547621664 0 0 0 0 -168.50124360319751 -170.83616169521588 0 -170.83616169521588 -122.5770104624353 0 0 0 0 -22.227216074540237 8.0779819311273187 0 8.0779819311273187 -9.7970352649125658 0 0 0 0 -2034.6423346029624 -190.98719470066999 0 -190.98719470066999 73.927947067821435 0 0 0 0 -1594.3063991420931 -2.2962337016014089 0 -2.2962337016014089 -185.27208824273839 0 0 0 0 -73.701303904979795 459.96556638930144 0 459.96556638930144 -269.46617398164562 0 0 0 0 -3110.0835120709453 -412.36033189287116 0 -412.36033189287116 145.84294266164216 0 0 0 0 -3.9503853160270239 2.9307231563625464 0 2.9307231563625464 -4.6958951214185412 0 0 0 0 -1429.4335680946242 -421.00038175157823 0 -421.00038175157823 18.877886520895117 0 0 0 0 -1570.3320681061814 -18.879271506588793 0 -18.879271506588793 -399.00653268008568 0 0 0 0 -1707.0362586288502 -548.22986244128083 0 -548.22986244128083 28.879117250200579 0 0 0 0 -2053.6382134069136 37.245270429802531 0 37.245270429802531 208.271998964349 0 0 0 0 -9.8932249455012879 -0.30145253976458264 0 -0.30145253976458264 -0.9717729150782648 0 0 0 0 -731.50782878771497 346.95689191177257 0 346.95689191177257 182.98620019192253 0 0 0 0 -1886.3167925724047 -468.00145594031892 0 -468.00145594031892 -268.45940540641783 0 0 0 0 -2125.5233877551582 -461.52071072684248 0 -461.52071072684248 28.011722922116405 0 0 0 0 -2021.4552449159091 -294.32387238278739 0 -294.32387238278739 242.78097948689401 0 0 0 0 -4440.4199132071371 458.38685458643204 0 458.38685458643204 25.60883476417257 0 0 0 0 -802.5722878784436 214.87738062402468 0 214.87738062402468 -90.008415144789751 0 0 0 0 -608.64227027461311 -207.04108122096977 0 -207.04108122096977 -203.67599236090473 0 0 0 0 137.94092013186309 -22.971914098058733 0 -22.971914098058733 -51.803039773423535 0 0 0 0 67.276401548981084 -28.057521470618212 0 -28.057521470618212 92.905356437787304 0 0 0 0 -0.39623123065757682 240.27918999248107 0 240.27918999248107 -348.22968816866705 0 0 0 0 99.594352273114055 -72.5394168311268 0 -72.5394168311268 32.441241565931705 0 0 0 0 -150.2266785860993 -281.46740443048407 0 -281.46740443048407 -295.8111324756037 0 0 0 0 -36.236135189437846 262.72437008244219 0 262.72437008244219 59.813209479922079 0 0 0 0 -582.43488837088626 31.470422958675726 0 31.470422958675726 218.05745697597376 0 0 0 0 -683.02849487734056 -398.55702890474936 0 -398.55702890474936 -173.09770008687701 0 0 0 0 222.85237142263941 103.06902613605052 0 103.06902613605052 -214.07631246749042 0 0 0 0 2.205204326308646 19.171783584878852 0 19.171783584878852 34.521453906902266 0 0 0 0 207.21768153266021 24.084637091898884 0 24.084637091898884 59.369436557772133 0 0 0 0 60.705999712510675 148.5115364993087 0 148.5115364993087 189.26599442759425 0 0 0 0 -17.712341346843488 5.5272166448758799 0 5.5272166448758799 8.4038089094028798 0 0 0 0 -182.70174021767343 -129.8309826721395 0 -129.8309826721395 202.75937475306637 0 0 0 0 -22.416772976299399 32.952594422195034 0 32.952594422195034 8.7151178375761447 0 0 0 0 -231.25322644133848 92.761290782590549 0 92.761290782590549 89.186584880357259 0 0 0 0 63.700208431739156 -126.98771395674203 0 -126.98771395674203 38.838123283960158 0 0 0 0 2.6892669887321148 1.2064017732580723 0 1.2064017732580723 7.5629572443024173 0 0 0 0 536.77394210036073 149.17309641209704 0 149.17309641209704 -207.77546190309658 0 0 0 0 110.23202932981621 595.93815511651883 0 595.93815511651883 -35.822072331655363 0 0 0 0 47.403893638387672 290.30786756210728 0 290.30786756210728 -87.241804486031469 0 0 0 0 11.944086506264284 55.776070466450619 0 55.776070466450619 140.26981023341386 0 0 0 0 -27.900108255935606 11.938517865896813 0 11.938517865896813 10.722327986836468 0 0 0 0 -332.75598973853266 545.73702479860913 0 545.73702479860913 223.42383492768568 0 0 0 0 -149.28479296842124 655.80990472187113 0 655.80990472187113 -6.7558155971637461 0 0 0 0 887.19453848421108 -127.28892838646425 0 -127.28892838646425 71.8737009147153 0 0 0 0 -581.69802296016132 202.25001496883851 0 202.25001496883851 94.803681823643274 0 0 0 0 -2.5677410467212738 5.6355330859845054 0 5.6355330859845054 3.2149420490117677 0 0 0 0 -194.60225239640567 -83.301656774647199 0 -83.301656774647199 -244.77499309828272 0 0 0 0 -228.68328745928829 79.901174071431683 0 79.901174071431683 -60.048339506636694 0 0 0 0 -958.0411112754382 -39.824174646477218 0 -39.824174646477218 42.210588004736564 0 0 0 0 -399.67425698567968 -14.749863355533307 0 -14.749863355533307 33.17058872598318 0 0 0 0 -28.325302480065147 57.497271746599949 0 57.497271746599949 66.271456971794578 0 0 0 0 4.0399944758471662 34.492906080919198 0 34.492906080919198 40.829374316123051 0 0 0 0 136.59384228677902 42.556723354158272 0 42.556723354158272 66.249323812515286 0 0 0 0 -23.324341088260553 328.35214646027543 0 328.35214646027543 117.8323818313238 0 0 0 0 -40.981032583008698 13.653121243599294 0 13.653121243599294 32.13456299303575 0 0 0 0 -5.7844435785771822 -2.4105325559905211 0 -2.4105325559905211 -1.0425011191907529 0 0 0 0 55.00101911942329 -394.49023012794987 0 -394.49023012794987 122.65956408376405 0 0 0 0 -886.40057106763561 -633.87081028897228 0 -633.87081028897228 64.490825022729496 0 0 0 0 -5.7856073021831094 -4.788045723878203 0 -4.788045723878203 -2.5234355982857029 0 0 0 0 -431.41445648624267 -569.73228064365162 0 -569.73228064365162 -436.32863121782793 0 0 0 0 -149.66535536123774 -178.53734694157811 0 -178.53734694157811 198.64342647574085 0 0 0 0 -362.8478413515877 254.76591787118286 0 254.76591787118286 -616.22905292764153 0 0 0 0 -270.57758167730935 -265.01178595367628 0 -265.01178595367628 -75.180965601542994 0 0 0 0 -861.46439772217127 -596.66736549478264 0 -596.66736549478264 -238.95241867935147 0 0 0 0 -1064.958033079005 103.09142434430032 0 103.09142434430032 -3.4557820866930342 0 0 0 0 -391.6149106563862 8.0378169549148879 0 8.0378169549148879 9.1890414287631756 0 0 0 0 -1.9493556960962408 1.0575815322451732 0 1.0575815322451732 0.50618959211511694 0 0 0 0 -848.35391508872635 -242.67306255146559 0 -242.67306255146559 72.200491735807191 0 0 0 0 -0.014897861123245093 96.35869404542882 0 96.35869404542882 206.4914457322011 0 0 0 0 -262.71360098917648 23.778946796282526 0 23.778946796282526 199.13185332536784 0 0 0 0 -443.21207495113413 -93.17737000948182 0 -93.17737000948182 92.372255691552255 0 0 0 0 -825.36007567273009 -336.04707078792376 0 -336.04707078792376 35.617561285860575 0 0 0 0 -538.90589568563155 -96.490956697677575 0 -96.490956697677575 104.77081085161808 0 0 0 0 -417.46723567021218 -205.57875643522857 0 -205.57875643522857 2.6719128379481845 0 0 0 0 -172.67230245560131 -104.94243640724471 0 -104.94243640724471 23.043611192059416 0 0 0 0 -442.9505260341416 -112.21186183768239 0 -112.21186183768239 59.497749975687839 0 0 0 0 -295.31409701949087 -73.617728296275345 0 -73.617728296275345 39.473548830043001 0 0 0 0 -258.29219085828663 23.774216567351687 0 23.774216567351687 38.94425801061243 0 0 0 0 -20.174967730959906 7.3273511087418228 0 7.3273511087418228 -21.811234454265104 0 0 0 0 -176.63990718340938 -35.268685609399654 0 -35.268685609399654 0.89262483548736782 0 0 0 0 -18.215644456136943 -27.272742606952306 0 -27.272742606952306 -63.12787702816604 0 0 0 0 -18.770290354068237 37.15554537135894 0 37.15554537135894 69.415173936966312 0 0 0 0 -53.101218060960122 16.673867724277212 0 16.673867724277212 22.751971899607511 0 0 0 0 24.129119743733099 95.60464215383081 0 95.60464215383081 43.162085356865646 0 0 0 0 47.922162692029815 55.525494978563984 0 55.525494978563984 -4.9749509449507059 0 0 0 0 -266.47823058313747 -147.82066695504193 0 -147.82066695504193 12.489425386390394 0 0 0 0 -39.965673658371088 -123.29707702803898 0 -123.29707702803898 -64.080595675091217 0 0 0 0 137.55656210305187 309.42917545380328 0 309.42917545380328 -90.985607499324942 0 0 0 0 -48.929877624924814 16.230670427584251 0 16.230670427584251 22.240233799920503 0 0 0 0 59.967649560789141 376.19394349789263 0 376.19394349789263 -10.196724288045644 0 0 0 0 -119.84824709868008 -49.632655028935545 0 -49.632655028935545 218.21625724456953 0 0 0 0 -130.71800012251333 57.866005003150804 0 57.866005003150804 -183.36072393299492 0 0 0 0 -449.63396336866572 77.09565616075173 0 77.09565616075173 307.7487268213747 0 0 0 0 -4.9478981128150039 -5.7665813680326892 0 -5.7665813680326892 -7.6996053822798203 0 0 0 0 -1603.2995082676753 -1228.8237197738017 0 -1228.8237197738017 -237.17172266388616 0 0 0 0 -6058.515683532838 -875.98603135809651 0 -875.98603135809651 702.55893086687729 0 0 0 0 -6032.7366213067435 -1144.3315343401187 0 -1144.3315343401187 -251.59479484748954 0 0 0 0 -3.0792619462218198 -2.38132044208119 0 -2.38132044208119 -3.7912969446939062 0 0 0 0 310.48881728343258 -752.01774611341511 0 -752.01774611341511 -170.06686427450785 0 0 0 0 -108.10195995054528 -110.41081517579505 0 -110.41081517579505 140.31665096413639 0 0 0 0 -7129.608305949514 -230.79106476085872 0 -230.79106476085872 142.96503631341557 0 0 0 0 -1509.4452038827294 -1560.7359980072133 0 -1560.7359980072133 -208.34138806540886 0 0 0 0 -3380.8317309321501 -696.11278545273422 0 -696.11278545273422 440.18684019069269 0 0 0 0 -26.327249346384846 -4.7914835539960308 0 -4.7914835539960308 4.2972355121473713 0 0 0 0 -154.64353191339615 178.92254411377917 0 178.92254411377917 222.25855112600712 0 0 0 0 -49.923746209606179 -86.806555529028671 0 -86.806555529028671 374.12305303621793 0 0 0 0 -83.860819207176974 40.030899468782081 0 40.030899468782081 22.207581638933789 0 0 0 0 -24.127031037449115 -0.60510333198420518 0 -0.60510333198420518 17.952496204922184 0 0 0 0 -10.512852280031893 -31.708341854479841 0 -31.708341854479841 -0.7669358122493577 0 0 0 0 -96.447713029414444 17.400536801806993 0 17.400536801806993 -14.512655573533721 0 0 0 0 -58.150845007752039 19.252534777762069 0 19.252534777762069 17.513724467519239 0 0 0 0 -199.03166615929695 66.402439205555993 0 66.402439205555993 89.190689619218574 0 0 0 0 -50.951420170761565 -31.950142286793934 0 -31.950142286793934 221.60931125971626 0 0 0 0 -13.462205510443674 2.5830656262687164 0 2.5830656262687164 8.6897215367682605 0 0 0 0 -51.071152164446886 -53.93612363495226 0 -53.93612363495226 185.04298876000712 0 0 0 0 -35.542928562357588 16.257266197194433 0 16.257266197194433 0.76805900514362024 0 0 0 0 -3042.0575358724163 -80.378317546178948 0 -80.378317546178948 334.49172324929714 0 0 0 0 -16.95930862321606 -1.9029423202439517 0 -1.9029423202439517 -4.2213167695096168 0 0 0 0 -1704.4962721390875 233.92067517016378 0 233.92067517016378 -143.81811103882166 0 0 0 0 -1708.9460575605026 -1098.4517405025426 0 -1098.4517405025426 9.8074858839352146 0 0 0 0 -1669.0700456768463 -1014.9502865484079 0 -1014.9502865484079 13.755234310479011 0 0 0 0 -1318.0242869785543 -717.79293558166478 0 -717.79293558166478 -125.44107021752149 0 0 0 0 -2220.5625365556771 -600.56624706086347 0 -600.56624706086347 -82.537699676627199 0 0 0 0 -1681.9487394541575 -892.8932949904688 0 -892.8932949904688 165.42601968722983 0 0 0 0 -1483.2395066061581 -998.88868893015945 0 -998.88868893015945 -414.799299119865 0 0 0 0 -2500.1402784835245 -1026.2000530619293 0 -1026.2000530619293 -52.568915447376348 0 0 0 0 -1683.9866216349801 -522.95386738918432 0 -522.95386738918432 218.95723994606345 0 0 0 0 -1049.67406212692 -542.74040360800791 0 -542.74040360800791 61.54967988596718 0 0 0 0 -2496.1564447382439 542.77983042733854 0 542.77983042733854 1266.7377475038131 0 0 0 0 -1263.5903583239924 -790.32764138219204 0 -790.32764138219204 513.58778956035485 0 0 0 0 -1146.6536147289517 -810.41325883905643 0 -810.41325883905643 -44.893110779046992 0 0 0 0 -1692.9739869776386 -1011.455347798637 0 -1011.455347798637 200.56983697473129 0 0 0 0 -2811.276301195925 -1604.4542678307985 0 -1604.4542678307985 85.399490822864209 0 0 0 0 -1924.2793206509523 -701.03499565295965 0 -701.03499565295965 -59.774827510315362 0 0 0 0 -1063.8604878924671 -1386.4291709722365 0 -1386.4291709722365 -838.42661329880957 0 0 0 0 -1485.7403795140453 -675.70299977090485 0 -675.70299977090485 93.682685295504598 0 0 0 0 -422.18610636945232 -268.83574429388318 0 -268.83574429388318 -20.522659354774987 0 0 0 0 -407.16519236711611 -944.55928783273794 0 -944.55928783273794 -341.19523469705564 0 0 0 0 -725.94189088426356 -1417.6827338229896 0 -1417.6827338229896 -212.03308692566225 0 0 0 0 -970.48114979563979 -927.55152296478263 0 -927.55152296478263 -341.01932781537471 0 0 0 0 -1225.2086566574144 -94.329590738060233 0 -94.329590738060233 989.61857440538392 0 0 0 0 -172.81839930297429 445.68827383131702 0 445.68827383131702 343.01735601712744 0 0 0 0 -871.25204798404593 -467.21143792793328 0 -467.21143792793328 -87.357763104868127 0 0 0 0 -603.04391359379952 -141.10232783892661 0 -141.10232783892661 77.723220677255995 0 0 0 0 368.76635580043938 -96.115940372818031 0 -96.115940372818031 -7.4013540513042244 0 0 0 0 376.4053567985502 -802.93423190643546 0 -802.93423190643546 -246.97816111758766 0 0 0 0 -159.38578108311049 77.530890323937456 0 77.530890323937456 184.83193809701061 0 0 0 0 -836.51574533813982 -504.03343587450127 0 -504.03343587450127 0.60779861126138712 0 0 0 0 -156.89598470921919 -419.51832729280613 0 -419.51832729280613 2.5027136379321462 0 0 0 0 101.59665272616257 122.00053658735214 0 122.00053658735214 123.63719404338099 0 0 0 0 -75.536680250148493 42.11195534477838 0 42.11195534477838 196.16355161080173 0 0 0 0 -122.85642131614441 140.12996255822213 0 140.12996255822213 -167.45405827583033 0 0 0 0 -2498.0136922441839 -296.62541390228733 0 -296.62541390228733 15.533640279412454 0 0 0 0 -79.75234332609034 70.740453372348952 0 70.740453372348952 18.770691271099167 0 0 0 0 -7.4056946905466958 1.8039235245975291 0 1.8039235245975291 11.781417107774065 0 0 0 0 203.47092869827793 177.86267919117472 0 177.86267919117472 39.739529159302037 0 0 0 0 -7.7088329117523671 1.9358163312027159 0 1.9358163312027159 -2.3149046959668307 0 0 0 0 -953.67177173743858 236.07025879470618 0 236.07025879470618 624.5316355779637 0 0 0 0 -715.01018735694288 570.80987110526166 0 570.80987110526166 401.26125791962278 0 0 0 0 -492.25367939632315 250.06397074357105 0 250.06397074357105 363.29243776202338 0 0 0 0 -1126.8685010356326 929.88526525336533 0 929.88526525336533 356.42070712979648 0 0 0 0 -2494.1137937515423 480.73983348620158 0 480.73983348620158 773.66483000112589 0 0 0 0 -11.061933533554289 3.5779274272868555 0 3.5779274272868555 0.28893296415749448 0 0 0 0 414.99780360913428 771.0352003350381 0 771.0352003350381 349.42998673193051 0 0 0 0 -2498.3124112500609 -1666.8946604030409 0 -1666.8946604030409 -1038.0925912792413 0 0 0 0 -1720.1399588478871 -1130.898184513281 0 -1130.898184513281 -674.05548884488815 0 0 0 0 -25.236370969805144 11.684046525515644 0 11.684046525515644 1.210499355761208 0 0 0 0 -1711.118372604642 -1052.5961489940703 0 -1052.5961489940703 -419.60971503970705 0 0 0 0 -61.226845258399408 417.6334042154557 0 417.6334042154557 654.25057331146138 0 0 0 0 -481.44083994975426 280.43310466458087 0 280.43310466458087 666.79388124392426 0 0 0 0 -213.91520441903594 -223.68576237384545 0 -223.68576237384545 647.47717076053414 0 0 0 0 -376.10803803271847 19.983779561293204 0 19.983779561293204 542.01890222752172 0 0 0 0 -392.59314560285111 -5.6372328281706245 0 -5.6372328281706245 590.66063324417792 0 0 0 0 -334.94312471329067 -4.3228898695805071 0 -4.3228898695805071 549.02307889485439 0 0 0 0 -60.470715381259893 119.35979393008824 0 119.35979393008824 451.48260014145353 0 0 0 0 -35.320156863710508 -14.065754662082838 0 -14.065754662082838 189.44822803249809 0 0 0 0 127.01360834131629 -195.0067368180039 0 -195.0067368180039 353.85371159013789 0 0 0 0 -44.315343943856078 2.8356397626876984 0 2.8356397626876984 251.9158006712492 0 0 0 0 -531.55768303030709 -135.86869190254129 0 -135.86869190254129 655.83907538792334 0 0 0 0 -187.31519725918952 -204.68340067321441 0 -204.68340067321441 464.15606887911486 0 0 0 0 -618.81021292354944 -341.86567915323945 0 -341.86567915323945 441.38196162595182 0 0 0 0 -823.82124200584076 75.995148490764223 0 75.995148490764223 566.22738009909517 0 0 0 0 -486.08115344714497 17.148523858508611 0 17.148523858508611 76.101830016169629 0 0 0 0 -1120.2736002704796 51.466477274740924 0 51.466477274740924 212.36548019874317 0 0 0 0 -217.00017764807853 -32.69377848775224 0 -32.69377848775224 90.325616675113992 0 0 0 0 -65.042843526007346 -200.33598670196545 0 -200.33598670196545 433.76825613557912 0 0 0 0 -265.1941773048834 -453.5224685524779 0 -453.5224685524779 114.56328209872663 0 0 0 0 87.863106523145689 -160.8388172815649 0 -160.8388172815649 257.24395019186795 0 0 0 0 129.06511220697757 -603.36980356084473 0 -603.36980356084473 385.42116543326216 0 0 0 0 610.28964450092963 -372.04195937259351 0 -372.04195937259351 400.27216070574559 0 0 0 0 200.94925941738984 -487.41394224138799 0 -487.41394224138799 603.18395301482383 0 0 0 0 232.18623217260574 -401.96698779820349 0 -401.96698779820349 394.38692905318862 0 0 0 0 1.1192508161869164 -0.28461309183515304 0 -0.28461309183515304 3.0411937868855059 0 0 0 0 -277.3421472379523 -394.53398720342852 0 -394.53398720342852 872.35307349956224 0 0 0 0 -284.44244682349563 190.54438577337567 0 190.54438577337567 178.29211196306369 0 0 0 0 302.45514814687522 -694.5353998154053 0 -694.5353998154053 596.00738418255082 0 0 0 0 -8.9749088248401243 -5.1999598797728286 0 -5.1999598797728286 11.227903597011979 0 0 0 0 -338.61952337960611 2.3506336071832266 0 2.3506336071832266 35.165562539741131 0 0 0 0 1.5565860743408848 -39.686935876183043 0 -39.686935876183043 -149.43002963265371 0 0 0 0 -458.68999797712422 -7.8935368807995019 0 -7.8935368807995019 95.965677738176964 0 0 0 0 -410.01948211976196 0.40348058517201935 0 0.40348058517201935 91.976018218755598 0 0 0 0 -334.95200089641367 -21.672032020568622 0 -21.672032020568622 55.898445830164746 0 0 0 0 -416.85306734630831 -63.949426848612802 0 -63.949426848612802 46.487602342767786 0 0 0 0 191.26687449662495 -534.35848180482299 0 -534.35848180482299 565.60085934015069 0 0 0 0 -9.4798506576823662 -5.1099021227203565 0 -5.1099021227203565 8.5695966850985634 0 0 0 0 -826.47473800001444 221.77575019724736 0 221.77575019724736 44.206924478179644 0 0 0 0 -664.30922829310657 -41.205729128049938 0 -41.205729128049938 179.15812508671206 0 0 0 0 -572.78519977629912 -105.72534728444816 0 -105.72534728444816 107.50604764274976 0 0 0 0 -562.8687631741941 -156.776727188525 0 -156.776727188525 263.00889763466967 0 0 0 0 -440.56610236434426 35.342465946718676 0 35.342465946718676 175.38604651040464 0 0 0 0 -365.82080954090543 -130.33210275027909 0 -130.33210275027909 532.85508531814412 0 0 0 0 -410.16059051795446 237.72312870108811 0 237.72312870108811 -343.70073671182308 0 0 0 0 -506.39985251997678 -71.200414772935005 0 -71.200414772935005 -109.3523068568843 0 0 0 0 -2.7183106733795377 -1.743196838402735 0 -1.743196838402735 2.2886873331434341 0 0 0 0 -975.44995952536192 368.44346228118638 0 368.44346228118638 -133.35896144441631 0 0 0 0 -1663.6179899211929 576.17830237628868 0 576.17830237628868 110.29536774696851 0 0 0 0 -341.29467824490348 -537.13933739432002 0 -537.13933739432002 895.79307652350076 0 0 0 0 901.735059236908 -1233.2260293369195 0 -1233.2260293369195 655.68679468526602 0 0 0 0 -483.6123889075534 -128.09252519152369 0 -128.09252519152369 454.05798999857052 0 0 0 0 -406.65154358389555 -291.27548641079466 0 -291.27548641079466 243.35104008556618 0 0 0 0 -538.9961528152453 -233.57495411072205 0 -233.57495411072205 613.7564260930892 0 0 0 0 -1455.4507242563977 14.4028774297974 0 14.4028774297974 227.77792180971664 0 0 0 0 -71.161142966949853 -18.181417382909011 0 -18.181417382909011 -2.1949455681344912 0 0 0 0 -23.112198115810315 -64.502022854156053 0 -64.502022854156053 31.134833308780856 0 0 0 0 -29.571145335830806 -113.55567423415255 0 -113.55567423415255 49.868759944056819 0 0 0 0 -277.81005529045433 141.46229037955857 0 141.46229037955857 570.95728663448244 0 0 0 0 -178.33473101600794 -89.493162431916744 0 -89.493162431916744 265.03849300228012 0 0 0 0 -10.937757235060836 -8.173419095377497 0 -8.173419095377497 3.9457277252525764 0 0 0 0 -419.04917233301967 -110.03580909881561 0 -110.03580909881561 369.22420497670134 0 0 0 0 -529.54241325783187 -219.13754732391507 0 -219.13754732391507 359.12608390378614 0 0 0 0 -115.08330218475999 -308.07547412446308 0 -308.07547412446308 -105.73858721729079 0 0 0 0 -450.67183615779504 -162.1077397867856 0 -162.1077397867856 -169.22835124599254 0 0 0 0 -496.52849023825547 -455.39914285987157 0 -455.39914285987157 3.0084853045530053 0 0 0 0 -6.8503000882508331 9.4070120257453276 0 9.4070120257453276 6.597233724310807 0 0 0 0 -89.437312483163623 -21.688042206785212 0 -21.688042206785212 13.342420390275947 0 0 0 0 -53.073293989951125 8.7623454865086856 0 8.7623454865086856 17.523891704111008 0 0 0 0 -145.80219041008604 -298.67544381398193 0 -298.67544381398193 -120.22918665981149 0 0 0 0 -89.040342785485336 -13.983350313343635 0 -13.983350313343635 12.540959791149078 0 0 0 0 -76.114513069483564 -16.526036765041681 0 -16.526036765041681 -0.93426139328767022 0 0 0 0 -87.985840350392209 -20.813081809203595 0 -20.813081809203595 14.929768280288954 0 0 0 0 -89.487015126411734 -15.646066276410238 0 -15.646066276410238 10.36485944828928 0 0 0 0 -90.870649154104512 -17.256399463755997 0 -17.256399463755997 11.866831231589458 0 0 0 0 -84.29049755376127 -26.386657168689226 0 -26.386657168689226 32.751468962112085 0 0 0 0 -86.899326092771844 -18.635823645547134 0 -18.635823645547134 10.677952545109576 0 0 0 0 -90.742195249720794 -16.009002482691244 0 -16.009002482691244 32.912553566312454 0 0 0 0 -91.011935552960381 -16.850806486295824 0 -16.850806486295824 31.792515470800026 0 0 0 0 -110.8541118557464 -0.94168136370444699 0 -0.94168136370444699 68.925960410631205 0 0 0 0 -90.613314146898574 -14.888970706503187 0 -14.888970706503187 29.680688304686555 0 0 0 0 -41.743661178114735 -15.783831174981515 0 -15.783831174981515 12.094269350738614 0 0 0 0 -45.143291853982504 8.083404930956835 0 8.083404930956835 20.730015760562793 0 0 0 0 -70.630091044251913 7.8568435556742315 0 7.8568435556742315 24.58459103680525 0 0 0 0 -125.49520084980918 28.976937772380097 0 28.976937772380097 26.484547979951458 0 0 0 0 -8.0222771433242919 2.3122347017229625 0 2.3122347017229625 6.0009278846408289 0 0 0 0 -38.190364441317996 8.9807599082866929 0 8.9807599082866929 20.188062466939016 0 0 0 0 -72.231865071005814 141.00270890747947 0 141.00270890747947 35.213445928380679 0 0 0 0 -15.915024667331867 -0.89213674184175318 0 -0.89213674184175318 4.1244750756853499 0 0 0 0 -155.58187171131431 -195.58509713621766 0 -195.58509713621766 -72.090027897856089 0 0 0 0 -148.73379085067518 -123.8198892765941 0 -123.8198892765941 -397.32622030133552 0 0 0 0 -184.85756923959639 -117.85036936586252 0 -117.85036936586252 -396.39579244258834 0 0 0 0 -218.81314460292197 -221.3929746803496 0 -221.3929746803496 -240.35770904828797 0 0 0 0 -52.049754310799472 -12.244140632435631 0 -12.244140632435631 -413.18842015136875 0 0 0 0 -38.30541927563354 -72.776391829097861 0 -72.776391829097861 -217.29718623527833 0 0 0 0 -195.9854313766632 -142.63423772678496 0 -142.63423772678496 -248.10144307854262 0 0 0 0 -26.810728789901304 -97.40450211275197 0 -97.40450211275197 -161.82093391521244 0 0 0 0 38.915526137310735 -323.59050821073356 0 -323.59050821073356 -149.64605560544399 0 0 0 0 231.55093722687707 -543.7476791860239 0 -543.7476791860239 160.25441215105798 0 0 0 0 -124.92527261486703 -243.4389777582816 0 -243.4389777582816 91.468234291305635 0 0 0 0 -78.224459616831155 -380.20409073033932 0 -380.20409073033932 5.461339897366102 0 0 0 0 -556.07183360827457 -362.6585578591712 0 -362.6585578591712 -221.11776783196484 0 0 0 0 -414.94055716776165 -76.383027352095496 0 -76.383027352095496 -208.97602540294335 0 0 0 0 -1645.1770942758835 -714.37749062397336 0 -714.37749062397336 -98.131171541875659 0 0 0 0 -5.1124617992348167 2.8302522521311335 0 2.8302522521311335 -0.034943616038750402 0 0 0 0 -1034.0233045604937 -341.56806100676022 0 -341.56806100676022 -247.08079561742136 0 0 0 0 -339.81120786636347 -342.85747463466123 0 -342.85747463466123 -339.32642745035628 0 0 0 0 -862.68053989829423 -453.67501141749375 0 -453.67501141749375 -276.53337772445445 0 0 0 0 -397.63101391436703 -303.92940281007418 0 -303.92940281007418 -251.01563334978846 0 0 0 0 -20.054629245880051 -73.565142839449862 0 -73.565142839449862 -239.12241423221167 0 0 0 0 -113.74692863615655 73.318785015758522 0 73.318785015758522 36.324347313112867 0 0 0 0 -196.76411007157185 -133.98137927136577 0 -133.98137927136577 -21.022428286652939 0 0 0 0 271.44899443806707 -50.05763375076333 0 -50.05763375076333 -284.86911103823923 0 0 0 0 -51.783713886426995 -149.7770168574591 0 -149.7770168574591 -601.37068453726806 0 0 0 0 -260.08204943660394 -530.90849838157305 0 -530.90849838157305 -698.80818726101143 0 0 0 0 -660.00389321910734 -419.7236940306193 0 -419.7236940306193 -304.00994622818826 0 0 0 0 -922.2548855925163 -930.31073525164584 0 -930.31073525164584 -643.48961633045201 0 0 0 0 -1826.7900769954808 -282.79739869628963 0 -282.79739869628963 -118.162824091826 0 0 0 0 -1126.1514267526406 -1400.0238670152089 0 -1400.0238670152089 -843.44684682913635 0 0 0 0 -2568.1469347720163 -863.19991758568938 0 -863.19991758568938 -181.15987613674179 0 0 0 0 -1.4184551638549012 -1.7378678696170675 0 -1.7378678696170675 -10.824998756795647 0 0 0 0 -1574.902810481778 -381.94425529181035 0 -381.94425529181035 -73.342895645892213 0 0 0 0 -2499.6536786638276 -1013.1599171000912 0 -1013.1599171000912 -297.60724853768062 0 0 0 0 -792.77355104806963 -335.93083566815449 0 -335.93083566815449 -762.56037480279019 0 0 0 0 -1569.6930001748237 -303.77767495216534 0 -303.77767495216534 -630.79281512816681 0 0 0 0 -6.2746165406621426 2.7402858306122511 0 2.7402858306122511 -2.7900315718512374 0 0 0 0 -2500.269648272445 -1012.9832912241253 0 -1012.9832912241253 -297.18826223801142 0 0 0 0 -1497.942850244262 -296.91998989519567 0 -296.91998989519567 195.12518927985815 0 0 0 0 -1155.9585598671633 -411.30083762992956 0 -411.30083762992956 -145.3859501979646 0 0 0 0 -10.180146924554613 6.535625789973162 0 6.535625789973162 -2.1454521903749821 0 0 0 0 -2499.649659066783 -358.33509965674148 0 -358.33509965674148 455.75916042258245 0 0 0 0 1.9782179006097262 3.5819488503991792 0 3.5819488503991792 10.662620117702147 0 0 0 0 515.74287991122037 -600.23401167697011 0 -600.23401167697011 604.36608091671133 0 0 0 0 -1.4383554095729778 304.06976966123671 0 304.06976966123671 411.14179019908534 0 0 0 0 -9.6816341862722766 -139.85604103831611 0 -139.85604103831611 1255.9737838237688 0 0 0 0 -339.02503607879407 -116.84527507286657 0 -116.84527507286657 527.57174346124157 0 0 0 0 -407.08743575933477 89.374480034675798 0 89.374480034675798 1105.9219855273204 0 0 0 0 -5.6143159004896006 -5.8279927475100521 0 -5.8279927475100521 52.05939196157351 0 0 0 0 -40.81864154280629 -56.609201104613021 0 -56.609201104613021 12.079052502154354 0 0 0 0 338.52843919734369 -332.46369854644763 0 -332.46369854644763 243.04879407224144 0 0 0 0 84.413753666900448 -111.92361611574961 0 -111.92361611574961 90.117434007698648 0 0 0 0 95.388003753483645 -258.68758596066255 0 -258.68758596066255 319.95849272362102 0 0 0 0 36.19597680271545 -188.89087378954719 0 -188.89087378954719 241.92008224618621 0 0 0 0 -31.961182162951445 -259.69680472865366 0 -259.69680472865366 470.42731676886615 0 0 0 0 -72.353063089001807 -133.93043192879304 0 -133.93043192879304 404.15826341838147 0 0 0 0 -97.138418542534055 -158.03734406854437 0 -158.03734406854437 487.65299270482319 0 0 0 0 -100.11578087017551 -178.59868974622077 0 -178.59868974622077 376.5225134799748 0 0 0 0 -134.91944005218102 -207.72271775388435 0 -207.72271775388435 466.44813150494338 0 0 0 0 -152.14359248551955 -175.67214006315839 0 -175.67214006315839 423.38166160630135 0 0 0 0 -112.23207137167628 -199.04210981425331 0 -199.04210981425331 431.75396604785419 0 0 0 0 -102.97384410347877 -213.59615394799948 0 -213.59615394799948 433.777099086823 0 0 0 0 -161.76596057963616 -225.76057981588929 0 -225.76057981588929 431.43578090931078 0 0 0 0 -107.5535366219483 -234.34677213332998 0 -234.34677213332998 391.97783891227664 0 0 0 0 -84.649286539512104 -307.26914652297546 0 -307.26914652297546 789.53968736003117 0 0 0 0 -121.13592086186691 -235.93715112044811 0 -235.93715112044811 474.87806329397608 0 0 0 0 -105.66883736747695 -211.73575535263444 0 -211.73575535263444 429.10793317621392 0 0 0 0 -19.993368318151624 -38.725265848546769 0 -38.725265848546769 455.66616875220825 0 0 0 0 144.71353825789993 203.27484177710357 0 203.27484177710357 -161.75051764992259 0 0 0 0 200.91127999736636 99.551959421440188 0 99.551959421440188 -132.65157481724418 0 0 0 0 -113.74187957022514 -135.37238504471861 0 -135.37238504471861 363.02483235190084 0 0 0 0 -51.217923060332396 48.491682100991056 0 48.491682100991056 -18.555034437835275 0 0 0 0 -5.414430741344944 -2.571067553783859 0 -2.571067553783859 -2.0759732185128001 0 0 0 0 -203.10944931981794 -13.20587680972676 0 -13.20587680972676 369.74784119204776 0 0 0 0 -58.083058085932862 62.144659239722387 0 62.144659239722387 17.958052891285206 0 0 0 0 -20.733048406782473 -46.315968680119568 0 -46.315968680119568 43.760082726235851 0 0 0 0 -19.955031130870339 -40.40104359853558 0 -40.40104359853558 16.718667467150226 0 0 0 0 -10.566477166350523 -37.116927223544735 0 -37.116927223544735 14.077654859494942 0 0 0 0 -16.03155698643269 -11.954565055888423 0 -11.954565055888423 -4.0473733800629432 0 0 0 0 -20.703124042076524 -42.822416910697029 0 -42.822416910697029 23.280781425899477 0 0 0 0 60.217412305326434 193.01914303276135 0 193.01914303276135 -162.54163412178241 0 0 0 0 11.965199517180736 125.53488527416266 0 125.53488527416266 -114.28971336863106 0 0 0 0 -187.34549109844374 -112.10255250021874 0 -112.10255250021874 -375.71371753069616 0 0 0 0 -10.838823424754082 -19.231918217603379 0 -19.231918217603379 -3.8140812686579011 0 0 0 0 1.3896586117794172 -31.787373471124027 0 -31.787373471124027 7.8493808015028392 0 0 0 0 -16.264212861738187 -21.658379066158702 0 -21.658379066158702 3.3607924186374021 0 0 0 0 -9.7772351749805182 -29.481082908111446 0 -29.481082908111446 16.450640762068879 0 0 0 0 -279.3990121610168 -401.31982355376454 0 -401.31982355376454 163.69537738597501 0 0 0 0 129.41335094494571 -51.51589336687357 0 -51.51589336687357 133.86053933445328 0 0 0 0 -2.3235268426433322 91.30361011691366 0 91.30361011691366 60.220238833058829 0 0 0 0 777.80157227268137 -558.87182909203784 0 -558.87182909203784 41.471861515143246 0 0 0 0 465.32096917326271 345.48669454329138 0 345.48669454329138 514.40899903750687 0 0 0 0 -0.057830131599125423 -0.66542345081973764 0 -0.66542345081973764 -5.4841550679135622 0 0 0 0 -98.848244722932577 -103.83936593533508 0 -103.83936593533508 476.89352167943616 0 0 0 0 186.46916425533345 -80.428908497988232 0 -80.428908497988232 -60.054358180681447 0 0 0 0 19.80428439124848 -28.291906120309946 0 -28.291906120309946 22.168679430326563 0 0 0 0 -6.9534047073830152 -28.382208301324908 0 -28.382208301324908 46.309896073408709 0 0 0 0 -45.307373882391403 -93.779581199888526 0 -93.779581199888526 20.15456329515564 0 0 0 0 -56.223543566238732 -48.324672389714294 0 -48.324672389714294 31.001077330955013 0 0 0 0 -33.614442801897894 -28.391028579616886 0 -28.391028579616886 65.57386932440113 0 0 0 0 315.59941953192538 -270.42133592586515 0 -270.42133592586515 -140.59476563109956 0 0 0 0 -56.39021446100196 -23.584728989953248 0 -23.584728989953248 4.8626322552918282 0 0 0 0 -76.899879562268325 -136.77044040054443 0 -136.77044040054443 -50.84653180901887 0 0 0 0 13.686412638383842 -16.006385540671047 0 -16.006385540671047 16.514030106764828 0 0 0 0 -125.15630263289495 -50.719012027686404 0 -50.719012027686404 508.4915649920531 0 0 0 0 -30.3790314921971 -132.76864504386776 0 -132.76864504386776 165.36822043418283 0 0 0 0 -125.65393434624821 -99.847884652689572 0 -99.847884652689572 159.25166378067479 0 0 0 0 78.986662967643497 -113.63980427321803 0 -113.63980427321803 52.331910474733206 0 0 0 0 -2.9923946120406981 -195.93612432481791 0 -195.93612432481791 283.79282793382481 0 0 0 0 -24.081223394881818 -364.64235294060381 0 -364.64235294060381 207.75619836337432 0 0 0 0 -110.66306184975474 -495.4148837081043 0 -495.4148837081043 712.4099188364014 0 0 0 0 -82.517177446010464 -126.11120729885533 0 -126.11120729885533 -45.173467488860297 0 0 0 0 0.44316151277836724 1.1819652559270777 0 1.1819652559270777 1.5955170010810136 0 0 0 0 226.75840406736461 -608.64228143155151 0 -608.64228143155151 441.32972517153667 0 0 0 0 839.17397190929478 474.00381450171062 0 474.00381450171062 778.8673712366367 0 0 0 0 -2.5698411897510454 2.3368955187688201 0 2.3368955187688201 3.8781568468442575 0 0 0 0 4.1108549787149968 223.36178285483811 0 223.36178285483811 -183.55935768769314 0 0 0 0 1.9031961533259221 1.2795890953918452 0 1.2795890953918452 1.1649143898558334 0 0 0 0 -204.89651034983399 223.08901405789948 0 223.08901405789948 558.60176331355797 0 0 0 0 91.803593148575601 -249.89979710200123 0 -249.89979710200123 32.383671196017076 0 0 0 0 -85.984573312613975 303.3903780275931 0 303.3903780275931 105.05089891929674 0 0 0 0 -278.73993697522747 170.27990239077644 0 170.27990239077644 478.04459898118671 0 0 0 0 -36.594926637866593 -99.529508307717151 0 -99.529508307717151 466.20538115320187 0 0 0 0 -176.20018944678668 -10.470648541669107 0 -10.470648541669107 488.68625954209892 0 0 0 0 2.9456417719724257 -5.7707231980458893 0 -5.7707231980458893 7.9106623653245585 0 0 0 0 152.27476550819119 266.55459829553001 0 266.55459829553001 984.18453026815041 0 0 0 0 -296.99924723212462 585.70624828080963 0 585.70624828080963 1906.5243652035006 0 0 0 0 -684.92660274889204 -345.55879350978375 0 -345.55879350978375 1806.6723056097828 0 0 0 0 -191.17806834992007 -615.81436661667067 0 -615.81436661667067 516.72327912669743 0 0 0 0 -12.99678387069936 -4.1583474754377061 0 -4.1583474754377061 -0.51839307918387334 0 0 0 0 -72.623778420107556 65.928367144112599 0 65.928367144112599 34.942243197345306 0 0 0 0 -139.31109704889968 -66.042418933291628 0 -66.042418933291628 112.08717669728117 0 0 0 0 -40.562125593078235 -93.22929069186489 0 -93.22929069186489 463.30524381721841 0 0 0 0 10.342206692275795 -97.43457550473147 0 -97.43457550473147 -16.635410016038691 0 0 0 0 -35.768500610336559 -45.477500725887012 0 -45.477500725887012 65.141167544764357 0 0 0 0 -57.325548407741735 -6.0242545231703843 0 -6.0242545231703843 63.210869485031481 0 0 0 0 -11.269088172439751 -69.030116061539161 0 -69.030116061539161 95.342278743310999 0 0 0 0 -29.010530413683682 -6.915418535837432 0 -6.915418535837432 38.589803516298161 0 0 0 0 -178.8285362115621 -42.58374541133503 0 -42.58374541133503 72.254552572046123 0 0 0 0 -82.058360019302199 22.53636673327037 0 22.53636673327037 22.323322113593576 0 0 0 0 -288.57814531923123 275.84395918108817 0 275.84395918108817 103.29564429651737 0 0 0 0 -63.663757215148507 -60.396879737223117 0 -60.396879737223117 94.577899184218836 0 0 0 0 -44.102131673911572 -128.83526883429784 0 -128.83526883429784 157.8027144835919 0 0 0 0 -58.041280412835476 7.3918096516438254 0 7.3918096516438254 -70.87582140853641 0 0 0 0 107.84541855988209 -3.8023551381884317 0 -3.8023551381884317 77.081036414585924 0 0 0 0 -168.46837683807826 -23.876335412302296 0 -23.876335412302296 73.750928289952071 0 0 0 0 -61.812301180023496 -25.074224824063094 0 -25.074224824063094 -11.325487032210276 0 0 0 0 -7.7680213419375193 3.8207051891503525 0 3.8207051891503525 8.5963599997814857 0 0 0 0 -67.992385132248188 -23.995198870751018 0 -23.995198870751018 -5.1502056368400879 0 0 0 0 -74.388299853890203 -24.786103646451693 0 -24.786103646451693 15.387951528228768 0 0 0 0 -70.230921039301393 -30.399037776355271 0 -30.399037776355271 2.4155134735974571 0 0 0 0 -89.696619007047957 -29.170010971828333 0 -29.170010971828333 77.740043796748068 0 0 0 0 -61.569111354945107 -38.21537576928722 0 -38.21537576928722 15.743744784043884 0 0 0 0 -72.846276883714381 -44.465852751862258 0 -44.465852751862258 4.9726688008322526 0 0 0 0 -68.140567261223396 -26.843898453770407 0 -26.843898453770407 27.131029315325577 0 0 0 0 -74.076101966781607 -62.435564700487248 0 -62.435564700487248 61.130938879785845 0 0 0 0 -85.040939175099652 -33.694015417875448 0 -33.694015417875448 88.828100399933646 0 0 0 0 -69.86219206710507 -167.62501407438822 0 -167.62501407438822 225.79252079401931 0 0 0 0 -67.370465999747466 -68.958785322723088 0 -68.958785322723088 105.68416002972299 0 0 0 0 -40.864847560602357 -150.6991446341799 0 -150.6991446341799 -29.809483561778734 0 0 0 0 35.806017046250417 -27.349684048689255 0 -27.349684048689255 -103.13688283230613 0 0 0 0 -1.0347544812331506 -5.2049605997069026 0 -5.2049605997069026 -0.9561752867241049 0 0 0 0 -21.4584490310408 -123.59110072835347 0 -123.59110072835347 -17.280417867869119 0 0 0 0 -45.620547722297765 -26.325000446772268 0 -26.325000446772268 -3.6821060467485118 0 0 0 0 -97.043673586861587 -20.996086718368588 0 -20.996086718368588 12.205776330714798 0 0 0 0 -68.683590666654709 -42.184546504123318 0 -42.184546504123318 8.8528768352749694 0 0 0 0 1.2491480346475536 -12.569453162941398 0 -12.569453162941398 6.835667976474566 0 0 0 0 -77.800524815649354 -123.01474082193812 0 -123.01474082193812 -24.86080213368632 0 0 0 0 -54.572885849473437 -39.139642854431941 0 -39.139642854431941 -5.5880273503621538 0 0 0 0 479.36502130124609 64.944502413585724 0 64.944502413585724 700.36917687083405 0 0 0 0 -77.840235066644254 29.537527028804107 0 29.537527028804107 132.21800346962027 0 0 0 0 -36.978014779879423 -30.867275961461303 0 -30.867275961461303 -3.1667535331349406 0 0 0 0 595.4115419301861 -369.57978765762664 0 -369.57978765762664 867.98817053357197 0 0 0 0 -52.781302795543525 199.22378543876403 0 199.22378543876403 140.38497801937046 0 0 0 0 -7.6957056624242526 -3.0059669461191616 0 -3.0059669461191616 8.517054843381338 0 0 0 0 -108.1021992509651 -117.29140443437967 0 -117.29140443437967 196.11024330911096 0 0 0 0 -21.332749541990779 -102.36959874911372 0 -102.36959874911372 90.343030229326132 0 0 0 0 -75.655295394006316 -87.142669620465313 0 -87.142669620465313 220.90071514496412 0 0 0 0 -38.621975737965798 -11.159294078611815 0 -11.159294078611815 22.361326592010208 0 0 0 0 -108.86115157221502 -138.96365608788437 0 -138.96365608788437 574.96253966668155 0 0 0 0 -56.047839248918535 -52.685394798124435 0 -52.685394798124435 97.597276627847123 0 0 0 0 0.42588070371013131 -5.2689948652404794 0 -5.2689948652404794 -25.95427408165672 0 0 0 0 -15.356402824187882 -20.012986932507737 0 -20.012986932507737 24.401212232876247 0 0 0 0 8.3625523245354998 -35.141115825980705 0 -35.141115825980705 28.289127690454507 0 0 0 0 51.906078970897624 -79.490052517684148 0 -79.490052517684148 -11.133103666626994 0 0 0 0 87.481353150011273 98.370299765970231 0 98.370299765970231 -0.70769849395219353 0 0 0 0 -363.41010118555278 -66.557797036882221 0 -66.557797036882221 122.81384270649312 0 0 0 0 99.080645461348468 -49.113805126158695 0 -49.113805126158695 -193.73055260718581 0 0 0 0 85.265738397540758 22.443435829507635 0 22.443435829507635 -184.61634143255833 0 0 0 0 -112.04577015578434 -141.93820946615813 0 -141.93820946615813 -29.935200075199646 0 0 0 0 47.996547116825241 -51.730312293042516 0 -51.730312293042516 50.226855583577162 0 0 0 0 3.0781707482892671 -45.609256212976106 0 -45.609256212976106 49.550420583767846 0 0 0 0 13.363292991805793 -50.45051416968181 0 -50.45051416968181 34.174759265401008 0 0 0 0 -16.819020434554719 -7.253980448248555 0 -7.253980448248555 27.920792325454602 0 0 0 0 15.606406618324399 -56.473895181287844 0 -56.473895181287844 10.854824889231622 0 0 0 0 -24.296978752428913 -4.6184636416110152 0 -4.6184636416110152 33.376163792374427 0 0 0 0 29.679112921410706 -78.050636740646951 0 -78.050636740646951 31.403337628647023 0 0 0 0 -20.480695171708248 -16.257762611802576 0 -16.257762611802576 56.469754405659842 0 0 0 0 -23.813587980373995 -82.995716761329277 0 -82.995716761329277 70.360564618245917 0 0 0 0 -117.4400157299533 8.8354552400714965 0 8.8354552400714965 59.412840789847905 0 0 0 0 72.84126406480209 -147.67422152815379 0 -147.67422152815379 113.63971447188669 0 0 0 0 -11.324213095035262 7.020582161240104 0 7.020582161240104 7.6573398321005417 0 0 0 0 72.841264064860297 -147.67422152822837 0 -147.67422152822837 113.63971447186486 0 0 0 0 72.84126406480209 -147.67422152824292 0 -147.67422152824292 113.63971447186759 0 0 0 0 -135.75691788884888 -39.749339830540691 0 -39.749339830540691 63.897586110258999 0 0 0 0 -25.954679813468829 0.31889808920959695 0 0.31889808920959695 19.258513191804866 0 0 0 0 -10.914643565395512 3.8116965090430526 0 3.8116965090430526 31.041129975593861 0 0 0 0 -44.133953428918176 -55.742776297635828 0 -55.742776297635828 155.36036326186331 0 0 0 0 -53.104150918224093 -12.409345293128348 0 -12.409345293128348 17.976794726561842 0 0 0 0 -65.743978860293282 -56.557850940690059 0 -56.557850940690059 52.589440461022605 0 0 0 0 -84.305078300254536 -79.433516111327435 0 -79.433516111327435 106.84745375306829 0 0 0 0 -31.666570033082962 -15.35687308301522 0 -15.35687308301522 -4.4707130037529437 0 0 0 0 -30.602325117433793 -74.200906252291134 0 -74.200906252291134 397.00044455966236 0 0 0 0 -98.124351273226068 32.371413605669701 0 32.371413605669701 217.37309977611585 0 0 0 0 -98.458495640064939 -33.569163199907052 0 -33.569163199907052 328.36254943290623 0 0 0 0 -49.990847093082266 -123.18969077932888 0 -123.18969077932888 333.98016905876648 0 0 0 0 -44.42769132525018 -59.482321369295278 0 -59.482321369295278 222.78717074641099 0 0 0 0 26.126002869656077 -81.857293783844398 0 -81.857293783844398 109.19508375809528 0 0 0 0 -36.204632747974955 -6.4421874566178978 0 -6.4421874566178978 7.9848126123125311 0 0 0 0 -50.285119827487506 -71.263446794422634 0 -71.263446794422634 248.83288756891579 0 0 0 0 22.863036954120616 -17.851368267674843 0 -17.851368267674843 55.874920116204066 0 0 0 0 -43.117863522660627 15.344537245426181 0 15.344537245426181 103.09831226585231 0 0 0 0 -23.797357515970361 59.883779743704508 0 59.883779743704508 55.933681034675828 0 0 0 0 -11.472561035756371 -13.009144873812147 0 -13.009144873812147 11.794142376271338 0 0 0 0 -8.8098183457526744 -4.2047649758997778 0 -4.2047649758997778 1.4405992189498349 0 0 0 0 -159.09611090692488 -141.6907923597264 0 -141.6907923597264 -100.78114646813992 0 0 0 0 182.0942847706101 42.723178666456079 0 42.723178666456079 -168.26748115869123 0 0 0 0 -3.0756460982799325 -1.0951548995840596 0 -1.0951548995840596 1.8594518473729913 0 0 0 0 -157.1056438008236 -140.681510323579 0 -140.681510323579 -119.39439236768521 0 0 0 0 -155.9698144371614 -148.51920740525475 0 -148.51920740525475 -163.96354330514805 0 0 0 0 -168.70379973946183 -179.05395146350975 0 -179.05395146350975 -117.6962137287428 0 0 0 0 -171.58070400104043 -172.97806940339615 0 -172.97806940339615 -130.13748334823003 0 0 0 0 -154.66687102710057 -152.26185648656929 0 -152.26185648656929 -108.09229768084879 0 0 0 0 -190.08355761941493 -173.76144100633337 0 -173.76144100633337 -84.64483176594149 0 0 0 0 -186.35548374271457 -198.46712422643594 0 -198.46712422643594 -126.8203679996459 0 0 0 0 -96.770944358722772 -38.885843699963516 0 -38.885843699963516 -25.805571660740497 0 0 0 0 -215.71012466623733 -117.36673469659752 0 -117.36673469659752 -70.833936326551338 0 0 0 0 -145.33614695976939 -160.59625068751575 0 -160.59625068751575 -109.72733470340654 0 0 0 0 -191.56767737965856 -125.80386816123928 0 -125.80386816123928 -95.68315590603379 0 0 0 0 -230.44321569488966 -225.65875008868261 0 -225.65875008868261 -102.8079747501215 0 0 0 0 -225.55460744103766 -189.48130697214174 0 -189.48130697214174 -91.168605555223621 0 0 0 0 -218.07715293805086 -197.97879723817368 0 -197.97879723817368 -81.68858185650879 0 0 0 0 -155.15977085335908 -258.71537189511355 0 -258.71537189511355 -146.58108073093717 0 0 0 0 -129.66651868052941 -207.59650852159803 0 -207.59650852159803 -128.7357212589759 0 0 0 0 -182.7408369998011 -216.07048316212513 0 -216.07048316212513 -105.69956169171292 0 0 0 0 -178.72854423635727 -224.5855841529401 0 -224.5855841529401 -123.95276418922185 0 0 0 0 -177.02819317818648 -177.55636040743684 0 -177.55636040743684 -23.734680123878661 0 0 0 0 -202.81968259397036 -231.83807239113094 0 -231.83807239113094 -111.89753944743643 0 0 0 0 -160.97777462985323 -233.38762172958195 0 -233.38762172958195 -170.64933400850168 0 0 0 0 -156.80477356881602 -188.6379814253396 0 -188.6379814253396 -176.80318410984455 0 0 0 0 -159.65777577994595 -182.41015555068043 0 -182.41015555068043 -140.8582022878727 0 0 0 0 -1375.5444587264501 -588.28505642708024 0 -588.28505642708024 63.48730399301985 0 0 0 0 -206.72312765510515 -121.25657532923842 0 -121.25657532923842 64.749074247710269 0 0 0 0 -337.90802025718949 -268.9484382303981 0 -268.9484382303981 -93.125240074193243 0 0 0 0 -161.46704686083649 127.48275411462555 0 127.48275411462555 126.66460018632642 0 0 0 0 -11.211155499323951 7.3354880223039061 0 7.3354880223039061 27.551544946248566 0 0 0 0 -1448.5450780658484 -524.35159186193778 0 -524.35159186193778 15.169034051992639 0 0 0 0 -9.4180208864022461 5.9344147234309474 0 5.9344147234309474 13.064011132098436 0 0 0 0 -375.41072490026272 -641.21594138033242 0 -641.21594138033242 -809.04936718573663 0 0 0 0 -699.24039907706174 -264.20541765530743 0 -264.20541765530743 108.65773690943365 0 0 0 0 -407.72893277342519 -178.34988736505602 0 -178.34988736505602 556.8913720592991 0 0 0 0 130.98196634920168 219.22553395198383 0 219.22553395198383 -152.77676711844742 0 0 0 0 -1179.4640991887645 -172.57146530473892 0 -172.57146530473892 369.92902303774827 0 0 0 0 -146.67885512726571 -168.29953610551638 0 -168.29953610551638 -189.95659885372788 0 0 0 0 -139.11392934734249 -179.74479982263165 0 -179.74479982263165 -172.68494410137191 0 0 0 0 -136.12424816351995 -195.45407332128434 0 -195.45407332128434 -293.97788455521277 0 0 0 0 -88.501202606203151 -30.694086869054445 0 -30.694086869054445 614.12507727186539 0 0 0 0 -8.1691067810195932 -4.1871420601931675 0 -4.1871420601931675 0.30490729402282901 0 0 0 0 -195.49315847544312 -206.65837333564878 0 -206.65837333564878 -170.45284319279745 0 0 0 0 -12.959724562118936 -96.338600376786417 0 -96.338600376786417 394.64574873381389 0 0 0 0 -23.221798015975537 -6.3277562403628167 0 -6.3277562403628167 -0.31051990253210215 0 0 0 0 49.214048331981758 -80.128077817418671 0 -80.128077817418671 328.91737180012387 0 0 0 0 -0.047542825301206904 -79.429815607553792 0 -79.429815607553792 335.20915422428789 0 0 0 0 198.94880053369343 -75.399784520427602 0 -75.399784520427602 391.29521088035472 0 0 0 0 6.0120828946419351 -7.9770961671092664 0 -7.9770961671092664 598.70148179253192 0 0 0 0 34.316094435140258 -310.28113154851417 0 -310.28113154851417 96.585520148888463 0 0 0 0 33.289881699420221 -453.62229049858433 0 -453.62229049858433 497.68189026159325 0 0 0 0 -139.06321413528713 -199.97902025326266 0 -199.97902025326266 727.22561881734873 0 0 0 0 521.70165013743099 -91.025524398452035 0 -91.025524398452035 -509.81980460604609 0 0 0 0 1.1449787575879178 1.0733924810267439 0 1.0733924810267439 4.2196957645384572 0 0 0 0 -249.58623669237932 93.301120233859365 0 93.301120233859365 288.45094493791657 0 0 0 0 -119.69263787140517 -67.966663065395551 0 -67.966663065395551 485.30808417464141 0 0 0 0 -46.02373802272632 -96.180777360177672 0 -96.180777360177672 440.46179062818919 0 0 0 0 50.098423676208768 -221.95565814964903 0 -221.95565814964903 509.75275528428642 0 0 0 0 -752.12088330284132 -636.23155037020206 0 -636.23155037020206 451.94407447119193 0 0 0 0 113.33515883452492 -508.09490064477995 0 -508.09490064477995 429.97204823340019 0 0 0 0 -5.8875793465682023 -4.1389295289646384 0 -4.1389295289646384 -2.3260460726503425 0 0 0 0 -1331.7169040525878 554.9523338258623 0 554.9523338258623 -173.27909824974722 0 0 0 0 -47.330013999828225 -109.12144693737719 0 -109.12144693737719 410.70790816253611 0 0 0 0 -53.72343587263822 -1.0207533858397255 0 -1.0207533858397255 238.85785311022846 0 0 0 0 -14.915237256384771 -12.050380799153366 0 -12.050380799153366 -8.8180840603854165 0 0 0 0 -725.61713470928771 271.07308572337377 0 271.07308572337377 -108.00287862828372 0 0 0 0 -699.82991221396514 132.74417092326496 0 132.74417092326496 58.126234192677657 0 0 0 0 -828.75846087459649 79.220191770161819 0 79.220191770161819 42.992612281955189 0 0 0 0 -600.65740576678218 9.9569644552661885 0 9.9569644552661885 53.441941599177881 0 0 0 0 -344.38387874204636 151.75483623258788 0 151.75483623258788 -79.062458187230732 0 0 0 0 -563.72862459982571 116.69667753128215 0 116.69667753128215 9.5310097102419604 0 0 0 0 -325.36020265626576 53.052939807833354 0 53.052939807833354 -41.505196671446811 0 0 0 0 -131.14081538294067 -110.16691105305233 0 -110.16691105305233 51.979157572779513 0 0 0 0 -22.093375575503529 -21.860669342469663 0 -21.860669342469663 -11.148031255376154 0 0 0 0 -10.05403572797165 -4.2641715386107037 0 -4.2641715386107037 15.177304689188901 0 0 0 0 60.574903954096953 -95.390279140048733 0 -95.390279140048733 54.147353048807418 0 0 0 0 0.050670862896367908 -37.915525888601223 0 -37.915525888601223 7.1618868815694441 0 0 0 0 -152.08778935520968 31.05270570918583 0 31.05270570918583 438.03670595947915 0 0 0 0 50.045015217285254 29.57422875287557 0 29.57422875287557 -103.71875522370283 0 0 0 0 67.03817551285465 -101.45162236793294 0 -101.45162236793294 209.56466136790641 0 0 0 0 -773.32506803848082 -98.653417594986422 0 -98.653417594986422 39.421179735695659 0 0 0 0 -761.09047684751567 -213.1048872360152 0 -213.1048872360152 0.7413568474648855 0 0 0 0 -565.68034657761791 -125.57474207405491 0 -125.57474207405491 20.08380866499283 0 0 0 0 -803.20116741304082 -73.006202749301337 0 -73.006202749301337 86.197125978736949 0 0 0 0 -767.92375130292203 -129.97267830206147 0 -129.97267830206147 62.880155631867638 0 0 0 0 -805.02794758864138 -88.334616224492947 0 -88.334616224492947 67.401354698582509 0 0 0 0 -840.13533361172449 -89.326989987078377 0 -89.326989987078377 74.819574451552398 0 0 0 0 -807.04936299691508 -155.68666021444324 0 -155.68666021444324 -15.743503560854151 0 0 0 0 -1117.429166400163 81.44544542118274 0 81.44544542118274 362.25173093160447 0 0 0 0 -3.7549649050238472 2.0848425930861509 0 2.0848425930861509 2.7599159879861759 0 0 0 0 623.06147772513941 143.89940501048932 0 143.89940501048932 -376.73608210484963 0 0 0 0 -1982.8076030286229 -696.3320349049759 0 -696.3320349049759 -108.8196298199764 0 0 0 0 -1614.0420575200224 -173.12837351121198 0 -173.12837351121198 -46.672190776533171 0 0 0 0 -784.24534733533437 -273.51635424453889 0 -273.51635424453889 -295.79570790915204 0 0 0 0 -901.02059546040618 -18.804797284211418 0 -18.804797284211418 -87.581398140258898 0 0 0 0 -485.54902052920079 -146.2216033454315 0 -146.2216033454315 -98.848489920652355 0 0 0 0 -742.64670263241896 -324.97591144816533 0 -324.97591144816533 -179.3681764122739 0 0 0 0 -669.15936043904367 -82.539408564734003 0 -82.539408564734003 -130.05907676123775 0 0 0 0 -335.01408815784816 -165.48075755049194 0 -165.48075755049194 -270.50020604912424 0 0 0 0 -1143.9733523364484 -200.64887254769747 0 -200.64887254769747 -149.59807078406175 0 0 0 0 -585.85783361290305 -237.81173008212841 0 -237.81173008212841 -251.34661420803786 0 0 0 0 -849.9841488947277 -137.31201381234496 0 -137.31201381234496 -80.417928685445077 0 0 0 0 -210.18948095390806 -6.560401458735214 0 -6.560401458735214 -163.79782494645542 0 0 0 0 -627.83200741962719 -123.87506032920851 0 -123.87506032920851 -80.139467135497398 0 0 0 0 -1393.1092345316647 -362.1523963981308 0 -362.1523963981308 -114.81090920631141 0 0 0 0 -1199.4746616346893 -484.77323478512062 0 -484.77323478512062 -334.70411414603404 0 0 0 0 -913.03250516145999 -453.69964157174491 0 -453.69964157174491 -249.06869648737666 0 0 0 0 -1548.3315571876337 -665.66431465979349 0 -665.66431465979349 -170.45383843659511 0 0 0 0 -1230.556766277301 -429.66437137772709 0 -429.66437137772709 -53.746741446995657 0 0 0 0 -1199.7705703574684 -419.71388951495373 0 -419.71388951495373 -282.87171143066143 0 0 0 0 -642.35621550900396 -513.288233710432 0 -513.288233710432 -122.78384211824959 0 0 0 0 -1283.8480194953045 -707.6812443497779 0 -707.6812443497779 -149.23159554295125 0 0 0 0 -886.2407700639742 -342.80381964952539 0 -342.80381964952539 -128.84361430104582 0 0 0 0 -457.96032836462109 -14.09130064218607 0 -14.09130064218607 -103.94958127527285 0 0 0 0 -601.86121791670303 -267.42732117652213 0 -267.42732117652213 -100.70105705769311 0 0 0 0 -250.55266519054203 -168.33768422418507 0 -168.33768422418507 -21.556743547986116 0 0 0 0 -55.028002467308511 48.747266041251414 0 48.747266041251414 -40.851340190246113 0 0 0 0 -37.973507636308568 467.20917762344806 0 467.20917762344806 143.38874400009493 0 0 0 0 50.993321067171564 252.1754881532122 0 252.1754881532122 19.537238453638565 0 0 0 0 -216.78566521468747 -42.12011299349615 0 -42.12011299349615 -4.1068560614767193 0 0 0 0 -0.080069025783814141 103.11588930687029 0 103.11588930687029 224.90262330907694 0 0 0 0 -215.5002171554811 62.466654225859742 0 62.466654225859742 218.30990347332568 0 0 0 0 -4.2718312351861414 2.2501895726598367 0 2.2501895726598367 -0.81699541621185157 0 0 0 0 -102.25709630726305 -38.277006554409752 0 -38.277006554409752 186.3596268586254 0 0 0 0 -50.907631511022601 100.46216841349545 0 100.46216841349545 318.16875085789144 0 0 0 0 -11.918615173097756 5.0507920030436431 0 5.0507920030436431 -1.1949771444030881 0 0 0 0 1.9103008066849725 250.75183790227618 0 250.75183790227618 361.92807419437668 0 0 0 0 -43.432725156631932 19.646592126086318 0 19.646592126086318 219.30019345813037 0 0 0 0 -21.271618474702336 -0.14814588773516846 0 -0.14814588773516846 166.58047223824587 0 0 0 0 19.413805382087958 6.4922578027206441 0 6.4922578027206441 150.29431331822767 0 0 0 0 -186.2667848013316 -142.43310594432529 0 -142.43310594432529 133.65028995665136 0 0 0 0 -25.528222987377376 184.16902906475019 0 184.16902906475019 -148.56316707246947 0 0 0 0 -228.37991473220632 164.82801028820495 0 164.82801028820495 126.73018491566131 0 0 0 0 46.022275395152974 190.12930475325084 0 190.12930475325084 58.440603921259026 0 0 0 0 -51.471393534103662 43.863304825153961 0 43.863304825153961 -36.193599410206033 0 0 0 0 178.4840198488746 -245.42595487470328 0 -245.42595487470328 -26.383203799335433 0 0 0 0 -261.678719423031 365.48527334912029 0 365.48527334912029 -149.69765669336937 0 0 0 0 -1.9680489714720224 1.8083906463404773 0 1.8083906463404773 -1.8649637088718192 0 0 0 0 66.689467065698409 34.010611433410304 0 34.010611433410304 -60.729776668971681 0 0 0 0 91.861875912996766 159.2886867954744 0 159.2886867954744 -19.970681759226864 0 0 0 0 -139.91869884505286 -49.947217677835397 0 -49.947217677835397 -86.18754996340499 0 0 0 0 -22.187977903427964 56.689527762465332 0 56.689527762465332 58.604992104485063 0 0 0 0 -0.49888889159774408 81.715902810215994 0 81.715902810215994 -58.923903872647315 0 0 0 0 -330.82324079696468 -48.331113757305616 0 -48.331113757305616 -52.352096008482476 0 0 0 0 -142.29329534234421 -87.185624100627138 0 -87.185624100627138 -123.66445086489693 0 0 0 0 87.100844112748746 84.690495455480232 0 84.690495455480232 -125.43766491633869 0 0 0 0 -54.3769461244935 48.031557580789325 0 48.031557580789325 -40.402926295023228 0 0 0 0 64.268681089153688 249.80437671139862 0 249.80437671139862 70.975468566557538 0 0 0 0 -1174.1433464456568 -346.00808795271018 0 -346.00808795271018 286.28635004565587 0 0 0 0 -1249.4651143464216 50.401156306756548 0 50.401156306756548 -683.4813930687701 0 0 0 0 -1528.5169317279124 35.448247103270489 0 35.448247103270489 285.69752009975673 0 0 0 0 -1016.7074556733478 -45.04209123910266 0 -45.04209123910266 204.9812483159958 0 0 0 0 -1110.0017318719856 -92.105615362056881 0 -92.105615362056881 277.09167533166351 0 0 0 0 -22.450634505785274 -15.746081689226685 0 -15.746081689226685 106.88574354909929 0 0 0 0 -818.48634183759623 -453.43150079221004 0 -453.43150079221004 213.48682292053832 0 0 0 0 -392.08135484662125 575.97652260727853 0 575.97652260727853 -112.44758320092751 0 0 0 0 -7.6529933939642518 2.3703838519660092 0 2.3703838519660092 -0.47297839107299422 0 0 0 0 1.0997416004429397 164.25338979845969 0 164.25338979845969 355.88719336326614 0 0 0 0 -15.062215339323309 5.4854475551290367 0 5.4854475551290367 -0.90399885029924643 0 0 0 0 -168.7155322589806 291.14376483209821 0 291.14376483209821 565.40361443653751 0 0 0 0 -103.12282541207151 -29.877508209244183 0 -29.877508209244183 295.99933512488712 0 0 0 0 50.638742499237196 117.22468661490126 0 117.22468661490126 118.21147493319108 0 0 0 0 102.66550622968498 41.728028207723639 0 41.728028207723639 -124.22499728160938 0 0 0 0 32.119017624059779 60.605653092859598 0 60.605653092859598 110.01367784299249 0 0 0 0 -0.49513425693658064 -23.721251660942698 0 -23.721251660942698 -137.99144706444872 0 0 0 0 34.871431589253916 59.333989270711186 0 59.333989270711186 34.59135527199669 0 0 0 0 94.72701480993419 90.88294732924453 0 90.88294732924453 -212.61104030420336 0 0 0 0 99.445375483567659 70.247109397603012 0 70.247109397603012 -133.17651777624587 0 0 0 0 156.01102736873145 119.92125080900092 0 119.92125080900092 -95.347684406738495 0 0 0 0 -6.1896124807617525 -100.9499166404276 0 -100.9499166404276 37.34505035845973 0 0 0 0 125.38300887200967 9.8084164178290507 0 9.8084164178290507 -158.40303116687414 0 0 0 0 48.657674371761459 -20.017468829856966 0 -20.017468829856966 168.62714742368962 0 0 0 0 -333.52875412487629 80.259920207116238 0 80.259920207116238 12.097709274013141 0 0 0 0 26.721908196457662 332.84485990166161 0 332.84485990166161 -148.28416068878141 0 0 0 0 -639.89731467930687 454.81945971493576 0 454.81945971493576 -61.375649658277325 0 0 0 0 -237.98203421787002 156.81807509971321 0 156.81807509971321 -43.771347896725729 0 0 0 0 -704.59429882869335 -97.004160182769397 0 -97.004160182769397 11.423324855934425 0 0 0 0 -1466.589060920699 64.109523340780271 0 64.109523340780271 165.07634410782941 0 0 0 0 -4.3675587780749936 -6.3646569016489742 0 -6.3646569016489742 10.479698940447619 0 0 0 0 -967.61003159425309 366.8226783749127 0 366.8226783749127 170.11567875320679 0 0 0 0 -734.30877526613676 377.5739281806292 0 377.5739281806292 140.05369565256819 0 0 0 0 -1595.7770390319893 497.98716564211361 0 497.98716564211361 145.25508427045708 0 0 0 0 -1.7728970748300501 -1.3735326598187392 0 -1.3735326598187392 4.6022937693722028 0 0 0 0 -1661.918788252613 301.26500036281811 0 301.26500036281811 329.96916700433576 0 0 0 0 -125.26706988051581 -295.5532644258825 0 -295.5532644258825 295.96811930207332 0 0 0 0 455.7718399109508 -222.97187342314589 0 -222.97187342314589 8.0261838265777214 0 0 0 0 -635.43471423075971 98.971878567000232 0 98.971878567000232 -275.59103745037845 0 0 0 0 -1082.0127600688684 479.52914502103215 0 479.52914502103215 -85.49200344558713 0 0 0 0 -527.81695268998737 245.08367503341705 0 245.08367503341705 -86.385922343739779 0 0 0 0 -500.74448404441682 150.16282356997809 0 150.16282356997809 71.476198805754677 0 0 0 0 -578.305909701372 -24.394671296379045 0 -24.394671296379045 63.259097714274503 0 0 0 0 -1239.0895514987478 -89.382500615173626 0 -89.382500615173626 221.78689881269656 0 0 0 0 -1014.3225585758919 169.58292142370078 0 169.58292142370078 110.00813226460781 0 0 0 0 -467.63156809433349 -240.68387329146276 0 -240.68387329146276 99.430418312143956 0 0 0 0 62.982059279547684 3.1062085933683505 0 3.1062085933683505 -157.62843080047935 0 0 0 0 9.8681332819634733 0.20601302200227423 0 0.20601302200227423 -9.176112023310516 0 0 0 0 17.087994738220004 -4.2078677902131858 0 -4.2078677902131858 10.597592845966901 0 0 0 0 -6.2099408185393088 8.5995425989720218 0 8.5995425989720218 -6.1690668360263308 0 0 0 0 0.95558059791801497 17.619556808232119 0 17.619556808232119 -13.642908978323248 0 0 0 0 -27.035052489533705 19.122944886418445 0 19.122944886418445 -1.6571496953566784 0 0 0 0 28.059157315594348 252.75190430803175 0 252.75190430803175 33.539494741246017 0 0 0 0 -4.445806168655146 3.3999372623915818 0 3.3999372623915818 1.4684541253584875 0 0 0 0 385.16898693492476 12.103698897257686 0 12.103698897257686 -143.71601354328095 0 0 0 0 -112.7076725948682 156.4014818004093 0 156.4014818004093 -124.07465555099998 0 0 0 0 -23.985051360949001 267.78692820184364 0 267.78692820184364 -5.3742416285425421 0 0 0 0 -343.18332025383825 -23.565644987880887 0 -23.565644987880887 25.480204673973049 0 0 0 0 -61.190434905543952 -10.432066747519116 0 -10.432066747519116 116.27941933759266 0 0 0 0 -39.363709070126802 38.124180769935123 0 38.124180769935123 -30.503918142636259 0 0 0 0 0.51963022274640025 73.83018163016672 0 73.83018163016672 25.594142322508162 0 0 0 0 47.414890598818602 110.68911164839119 0 110.68911164839119 -24.353320165333571 0 0 0 0 -7.2672055296073239 6.3149424872720985 0 6.3149424872720985 -5.0263577965210349 0 0 0 0 -180.45995626836884 105.99972299591764 0 105.99972299591764 66.768450825291893 0 0 0 0 -23.923741604519819 21.908417555882323 0 21.908417555882323 22.12683662586528 0 0 0 0 17.002927021043433 69.411334487704153 0 69.411334487704153 -4.7891444880824565 0 0 0 0 25.972605379778543 103.63960821796718 0 103.63960821796718 -11.510442336693814 0 0 0 0 36.210282248342992 46.794658905116194 0 46.794658905116194 -40.783566160964256 0 0 0 0 39.187664273093105 79.483729906123699 0 79.483729906123699 -39.879951691524184 0 0 0 0 27.0886616038988 73.278148345612863 0 73.278148345612863 7.1701423815811722 0 0 0 0 -3.503274011490106 28.152623530100662 0 28.152623530100662 -31.986861485626736 0 0 0 0 38.699584929774574 32.685638700994332 0 32.685638700994332 -101.73938010167694 0 0 0 0 31.045677796595555 33.840523456484334 0 33.840523456484334 -44.444981135879061 0 0 0 0 9.5298289393067819 1.7624123234050728 0 1.7624123234050728 -6.173524377489386 0 0 0 0 98.929253741487628 27.465748474219254 0 27.465748474219254 -43.854564838115039 0 0 0 0 -6.7565511482782554 4.4756875850187896 0 4.4756875850187896 10.337699191519235 0 0 0 0 -56.659056405467709 77.325672267223581 0 77.325672267223581 0.17214489321418114 0 0 0 0 -47.722448717599036 69.224243463508174 0 69.224243463508174 87.050483776749388 0 0 0 0 22.531855093693594 246.665948996731 0 246.665948996731 -123.77773991827985 0 0 0 0 -27.326528452801206 32.528548120515623 0 32.528548120515623 -28.534842079717937 0 0 0 0 -8.541682838208601 42.145948236317153 0 42.145948236317153 -232.25271558726081 0 0 0 0 55.058548753229843 -58.40226444086511 0 -58.40226444086511 -77.617723966167432 0 0 0 0 93.682177478323865 -16.913966981614294 0 -16.913966981614294 -36.906433866224461 0 0 0 0 -6.1477868729562033 -36.735189740134047 0 -36.735189740134047 -30.147296342211348 0 0 0 0 -13.716435576447111 22.019386685442441 0 22.019386685442441 11.603838740817991 0 0 0 0 -4.2070092388262026 2.7801753176227635 0 2.7801753176227635 -1.9149754592693533 0 0 0 0 -33.381424033196708 -36.24557431654398 0 -36.24557431654398 -159.52531014459328 0 0 0 0 -1021.6033128657291 -166.95192308148989 0 -166.95192308148989 89.82118274644688 0 0 0 0 -1040.4413060413508 -120.0107441348913 0 -120.0107441348913 209.89762649856721 0 0 0 0 -184.90518992192665 248.29124793133496 0 248.29124793133496 -226.57885344241021 0 0 0 0 -172.5872525507657 -171.49470457835332 0 -171.49470457835332 -0.075107863671291852 0 0 0 0 -765.13484140345645 -40.076697175428308 0 -40.076697175428308 13.219641376428626 0 0 0 0 -287.32173594374763 -127.69048343412862 0 -127.69048343412862 -48.925387661382956 0 0 0 0 -467.60034256023937 -343.24267668187576 0 -343.24267668187576 -226.28420455274136 0 0 0 0 -320.75449719345124 -135.95698530946129 0 -135.95698530946129 -4.9677772452721456 0 0 0 0 -306.96498150341358 66.642178529425109 0 66.642178529425109 213.09027104669894 0 0 0 0 -153.85323988517484 41.538735328942948 0 41.538735328942948 -414.14247473635317 0 0 0 0 -202.42631854394858 -13.82485595453727 0 -13.82485595453727 -75.551815566042933 0 0 0 0 -190.21554028526589 -16.367152231319778 0 -16.367152231319778 -58.758671560553466 0 0 0 0 -181.87805365939857 -59.36570553864658 0 -59.36570553864658 -120.38666661822754 0 0 0 0 -484.71804392043202 -115.82381533565324 0 -115.82381533565324 -34.219347251008003 0 0 0 0 -288.50935674808352 -171.90782134814435 0 -171.90782134814435 -178.69341210781749 0 0 0 0 -163.48346851554743 -3.5819871002267973 0 -3.5819871002267973 -169.36841458340496 0 0 0 0 -45.616591555502964 -1.1409036482054944 0 -1.1409036482054944 -120.91772820482947 0 0 0 0 -50.603342306567356 79.861476066605064 0 79.861476066605064 -39.997136199719534 0 0 0 0 -172.81178527928205 -39.665899732788603 0 -39.665899732788603 -82.854235668975889 0 0 0 0 16.203335667414649 49.772239444913794 0 49.772239444913794 -17.844761179971101 0 0 0 0 -12.599858950590715 85.56969154053786 0 85.56969154053786 -61.030403782395297 0 0 0 0 50.478844250828843 51.10176469498947 0 51.10176469498947 58.863447271778895 0 0 0 0 17.898636830435407 113.44549092464226 0 113.44549092464226 -28.251120938373788 0 0 0 0 53.147328041741275 61.531539383986456 0 61.531539383986456 -42.733711372356993 0 0 0 0 -5.0445637830125634 75.271454503559653 0 75.271454503559653 -41.434795829234645 0 0 0 0 -25.063503694887913 57.587943408691899 0 57.587943408691899 -48.301175427804083 0 0 0 0 34.7628249207919 64.032499675489817 0 64.032499675489817 -57.541757693703403 0 0 0 0 -68.375527383024746 28.139682127190099 0 28.139682127190099 -79.943802686873823 0 0 0 0 -60.841338834034104 17.072054501746607 0 17.072054501746607 -65.525323577070935 0 0 0 0 8.4726323934119137 59.889667258281406 0 59.889667258281406 -74.735673709055845 0 0 0 0 -44.930354206735501 16.019578154520786 0 16.019578154520786 -75.028015921590011 0 0 0 0 -88.027397656962421 41.5236811499949 0 41.5236811499949 -59.45111602741963 0 0 0 0 -199.61802215334683 -28.809591396521228 0 -28.809591396521228 -57.448977060294055 0 0 0 0 -3.6353460622558487 17.897853496784592 0 17.897853496784592 -74.898515509124536 0 0 0 0 21.494458789929922 66.791321446110032 0 66.791321446110032 -64.006715410154357 0 0 0 0 -81.107930495203618 73.514808476615144 0 73.514808476615144 -27.474057346154041 0 0 0 0 -419.56299207072152 -25.931946277414681 0 -25.931946277414681 4.1573013362703932 0 0 0 0 -211.04199550152589 -7.9825079246902533 0 -7.9825079246902533 -62.040115597459589 0 0 0 0 -359.82641720220272 -61.581135100652318 0 -61.581135100652318 -39.715865622383717 0 0 0 0 -358.77937774323436 -105.178265407254 0 -105.178265407254 -84.019217841356294 0 0 0 0 -566.69896703292534 -114.35528250996009 0 -114.35528250996009 13.162280015094439 0 0 0 0 -412.54793884635728 -53.458894107237938 0 -53.458894107237938 3.890539786676527 0 0 0 0 -593.02532538292508 -78.876926500528953 0 -78.876926500528953 30.746184868574346 0 0 0 0 -339.22148948819085 103.53968986912741 0 103.53968986912741 -109.8893651386752 0 0 0 0 -380.01441520911612 -0.14926646043568326 0 -0.14926646043568326 -25.171892787755951 0 0 0 0 -466.9513743310381 36.631793886382184 0 36.631793886382184 2.7024698921304662 0 0 0 0 -279.17440823157631 -34.704542520310042 0 -34.704542520310042 -30.368984935264962 0 0 0 0 -48.847492313256225 -5.9533258178785218 0 -5.9533258178785218 -60.473862486891221 0 0 0 0 -227.43344773765784 60.207252448643203 0 60.207252448643203 2.4620149629909065 0 0 0 0 -28.446074718256568 42.970104032836161 0 42.970104032836161 24.490283397974054 0 0 0 0 -60.538145212558447 -89.376939382195587 0 -89.376939382195587 195.24239915787075 0 0 0 0 -61.594786328423652 -59.370055281004625 0 -59.370055281004625 -140.63398446457086 0 0 0 0 -146.04107937640219 -57.598595646927606 0 -57.598595646927606 -8.5273775084459658 0 0 0 0 -7.4205572349674185 -84.315976114617115 0 -84.315976114617115 -130.20378040589503 0 0 0 0 36.048038043702036 47.859287143252118 0 47.859287143252118 -166.64823221213555 0 0 0 0 71.145476547472867 -41.593994635971541 0 -41.593994635971541 -489.46531611654427 0 0 0 0 71.842130244506563 -69.175046562043235 0 -69.175046562043235 -139.17136082350498 0 0 0 0 220.10158844180842 20.618886220682271 0 20.618886220682271 -262.79945295323068 0 0 0 0 205.65999101162015 26.708630343555114 0 26.708630343555114 69.260639574513334 0 0 0 0 -1.8522591552113141 1.9283342118168889 0 1.9283342118168889 -1.9122337470850574 0 0 0 0 633.72504385153297 328.60277400182963 0 328.60277400182963 -147.9583499982252 0 0 0 0 -1777.8577993294311 -129.06091647083031 0 -129.06091647083031 -62.896890000029089 0 0 0 0 -924.44319996048944 76.683375818355671 0 76.683375818355671 -178.35831699905657 0 0 0 0 -636.9298420762043 -77.858590330423681 0 -77.858590330423681 -100.11044420386679 0 0 0 0 -729.86017439009447 47.928947866369526 0 47.928947866369526 49.368685929657659 0 0 0 0 -320.74570121589932 316.38359865989719 0 316.38359865989719 -145.09324928490605 0 0 0 0 -1019.2838715724047 -518.8054033012952 0 -518.8054033012952 -209.01615485039201 0 0 0 0 -7.0733307410841633 6.6667926939160083 0 6.6667926939160083 -8.2515698256292858 0 0 0 0 -597.73003509430055 -403.21768624557535 0 -403.21768624557535 -256.94327251729851 0 0 0 0 -337.74483858862914 -181.08689316985226 0 -181.08689316985226 -71.206961487690933 0 0 0 0 -513.66796584900294 -138.33834032539244 0 -138.33834032539244 1.5609596135294623 0 0 0 0 -364.45160323615914 -61.243507028972999 0 -61.243507028972999 77.101681190025374 0 0 0 0 -22.462470552307273 19.881670362479245 0 19.881670362479245 -18.603474878736879 0 0 0 0 144.03501959688947 5.7577636291212002 0 5.7577636291212002 -147.67663668648288 0 0 0 0 -55.515853726850764 292.37053045850098 0 292.37053045850098 28.815356142444671 0 0 0 0 -71.384176148712527 -17.931773894827487 0 -17.931773894827487 71.060444726988862 0 0 0 0 158.1873271564109 20.500278590322978 0 20.500278590322978 -29.127961656761272 0 0 0 0 -0.14896381862382668 -2.2535326794944623 0 -2.2535326794944623 4.4927623059534518 0 0 0 0 -77.091825647738006 -59.126651910085457 0 -59.126651910085457 163.64715633909691 0 0 0 0 55.976036614896088 31.612571072757341 0 31.612571072757341 -596.92700288183005 0 0 0 0 47.693506001633068 -280.43565204931201 0 -280.43565204931201 -173.16775879863917 0 0 0 0 -359.99596748658223 17.433883228328568 0 17.433883228328568 -171.09852370794079 0 0 0 0 -691.32553419706892 516.66821229529091 0 516.66821229529091 -484.21881533286825 0 0 0 0 -4.0290954653830582 4.849477075488025 0 4.849477075488025 -4.8788082102449195 0 0 0 0 -1510.2149211627711 -371.05681949361667 0 -371.05681949361667 -121.63757144318151 0 0 0 0 -651.51861644811652 74.955390147157232 0 74.955390147157232 149.71017050714369 0 0 0 0 -57.19354127115912 796.37837981648954 0 796.37837981648954 -250.1642870691021 0 0 0 0 490.79121328738984 303.03212542805113 0 303.03212542805113 -594.12975228356936 0 0 0 0 1153.024952294687 811.79786996718474 0 811.79786996718474 -362.28242981716829 0 0 0 0 732.36179460686617 105.84228107206684 0 105.84228107206684 181.06603716169161 0 0 0 0 320.81566755446693 601.42359290037166 0 601.42359290037166 -380.50008814146531 0 0 0 0 -237.67757911626541 154.91890937571179 0 154.91890937571179 109.67132267431293 0 0 0 0 218.38793965870718 302.70608255639763 0 302.70608255639763 -788.06386166170978 0 0 0 0 122.19880239183112 279.14547756157117 0 279.14547756157117 -290.27267210920445 0 0 0 0 169.11164138705863 -58.444296631128964 0 -58.444296631128964 -924.9572639144908 0 0 0 0 181.08079212677512 440.56496551015925 0 440.56496551015925 494.67913373376041 0 0 0 0 146.01132430548023 353.7636890351323 0 353.7636890351323 512.87059621920139 0 0 0 0 580.1296400659121 322.55317934181789 0 322.55317934181789 341.17366732200549 0 0 0 0 858.81511257439524 911.80366539806403 0 911.80366539806403 337.65953854259965 0 0 0 0 26.372076995930911 522.40160640616261 0 522.40160640616261 410.80325635556983 0 0 0 0 235.8128470394023 756.04145930299251 0 756.04145930299251 568.01789325758659 0 0 0 0 -175.91965387035452 476.22909610173292 0 476.22909610173292 179.49415589029104 0 0 0 0 205.61884768268646 306.43970672062505 0 306.43970672062505 229.11240550937532 0 0 0 0 -13.518865489673715 13.843293922221612 0 13.843293922221612 -7.0495009673114906 0 0 0 0 -786.01988571176844 -292.40902131922655 0 -292.40902131922655 38.938838129456599 0 0 0 0 -764.84837331502058 -316.13443048023896 0 -316.13443048023896 39.376287777955611 0 0 0 0 -523.92739619440545 -139.41233700252087 0 -139.41233700252087 -77.017402340510671 0 0 0 0 -608.64941873130374 -85.081431408059643 0 -85.081431408059643 -78.250717221954346 0 0 0 0 -260.37074141168159 272.025355707188 0 272.025355707188 -27.112056031320208 0 0 0 0 -177.01746666984764 105.95840177149057 0 105.95840177149057 165.68087771259775 0 0 0 0 -5.6535806901611068 135.72988271310857 0 135.72988271310857 170.85152192355804 0 0 0 0 -255.24144590909418 9.1578627693688759 0 9.1578627693688759 718.73875526711663 0 0 0 0 -438.60101289248632 -316.49819761194834 0 -316.49819761194834 -260.18773021542006 0 0 0 0 -116.85461831710199 128.12043559491099 0 128.12043559491099 31.212756112984607 0 0 0 0 -743.6858820576017 -743.21435205390219 0 -743.21435205390219 461.91642171674084 0 0 0 0 -21.940900858648092 253.67437667803051 0 253.67437667803051 62.142915677021961 0 0 0 0 -10.201567440175452 0.030559952298760074 0 0.030559952298760074 0.34693829650085917 0 0 0 0 -588.11332839336683 562.21901560288779 0 562.21901560288779 -668.45715098695064 0 0 0 0 -667.40252562569367 -717.64480674732363 0 -717.64480674732363 454.02064633240161 0 0 0 0 -372.72801038410398 -727.65510363789099 0 -727.65510363789099 370.64376740812259 0 0 0 0 -625.23969501254032 -798.57730905275957 0 -798.57730905275957 350.8543026889165 0 0 0 0 -2.2741789277757078 8.1964394631083444 0 8.1964394631083444 -1.3125546715499921 0 0 0 0 -19.558620415581821 17.030079024748048 0 17.030079024748048 -3.636850523949605 0 0 0 0 326.33239932829247 463.77772958728008 0 463.77772958728008 390.00444735175665 0 0 0 0 -276.00298162215404 186.94869775982136 0 186.94869775982136 -89.832416807272693 0 0 0 0 -5.9195899152360099 7.7690114604250056 0 7.7690114604250056 -2.6110730258897608 0 0 0 0 -1233.8421663675981 -353.97502228497547 0 -353.97502228497547 -121.44497907286376 0 0 0 0 -813.94931236704724 -224.76653790498062 0 -224.76653790498062 -167.11895260990127 0 0 0 0 -995.92330723802297 -232.20101249611662 0 -232.20101249611662 -186.31606699905547 0 0 0 0 -992.70239679996666 -138.70409887734002 0 -138.70409887734002 -142.98451999958797 0 0 0 0 512.73925782666265 384.06587083309842 0 384.06587083309842 82.124146505409499 0 0 0 0 -19.292867056592513 139.80591409492354 0 139.80591409492354 70.228212458926464 0 0 0 0 -24.758431812751951 50.141748973120912 0 50.141748973120912 -281.02807999671563 0 0 0 0 33.263008460751735 118.68880474382615 0 118.68880474382615 0.87279540775648456 0 0 0 0 317.62188808816791 107.30874027889524 0 107.30874027889524 -47.893007782066888 0 0 0 0 50.885097779195348 212.57431358292092 0 212.57431358292092 146.7634957395444 0 0 0 0 311.9504428911896 280.09660952312038 0 280.09660952312038 68.712095086970407 0 0 0 0 -8.9345058397159818 12.232703598553201 0 12.232703598553201 -1.9540403015432171 0 0 0 0 -33.544170865425258 259.60888980348909 0 259.60888980348909 98.793661692553655 0 0 0 0 65.906599036828993 165.26092126569426 0 165.26092126569426 123.91012684326074 0 0 0 0 34.435578807464481 133.3117244893732 0 133.3117244893732 123.60406376349738 0 0 0 0 -14.072587245124872 15.562569328734185 0 15.562569328734185 -1.9849428157979219 0 0 0 0 -916.08341372907671 -204.55115265083487 0 -204.55115265083487 -61.533456398805811 0 0 0 0 -831.90940860602132 -357.32436087059261 0 -357.32436087059261 215.43474512675027 0 0 0 0 -852.72326357045677 -263.88943714619199 0 -263.88943714619199 -149.48719836276058 0 0 0 0 -1088.494471195856 -368.35304007894689 0 -368.35304007894689 -13.879826945529203 0 0 0 0 -575.73496721014089 -247.86598009880549 0 -247.86598009880549 -64.461724091983911 0 0 0 0 -901.0618665059319 -145.46606187993916 0 -145.46606187993916 -68.579414012911911 0 0 0 0 -672.7999127406747 -135.43745333389057 0 -135.43745333389057 14.695304948522335 0 0 0 0 -165.45221370598301 54.71542971283202 0 54.71542971283202 -26.731634639305184 0 0 0 0 -442.10638900585036 -51.506225973881783 0 -51.506225973881783 -52.806955280318448 0 0 0 0 -569.99861190639058 38.499576756338001 0 38.499576756338001 -112.75065058845621 0 0 0 0 -723.37445149675113 27.428315168558129 0 27.428315168558129 -156.73561835869077 0 0 0 0 -572.44655187879835 -64.30840114562352 0 -64.30840114562352 -141.91278018349374 0 0 0 0 -502.99078384144559 107.33668718709237 0 107.33668718709237 -148.05392326146921 0 0 0 0 -658.43324060554369 31.042457655408953 0 31.042457655408953 -119.93196674065211 0 0 0 0 -664.27173797576688 -75.82124107065988 0 -75.82124107065988 -214.91973809848878 0 0 0 0 -574.98791463937232 62.205872670780536 0 62.205872670780536 -98.149642715095524 0 0 0 0 -573.06220848874364 33.225224769083752 0 33.225224769083752 -179.36041274760692 0 0 0 0 -583.70693444167409 87.949547143926566 0 87.949547143926566 -62.605330638356008 0 0 0 0 -527.73442858923954 127.74032211247686 0 127.74032211247686 -117.83939782460834 0 0 0 0 -556.51453767625571 174.19822802157756 0 174.19822802157756 21.5155821510848 0 0 0 0 -543.94035406382682 118.206453825116 0 118.206453825116 -111.44830689388891 0 0 0 0 -300.92623819098662 199.08939538835875 0 199.08939538835875 -105.49663932598105 0 0 0 0 -455.04794691961069 234.34889517990678 0 234.34889517990678 -15.886432847058245 0 0 0 0 -422.27753290754208 334.33511937319474 0 334.33511937319474 24.732380928740895 0 0 0 0 -794.17704115335073 500.53470401941308 0 500.53470401941308 185.78306429276063 0 0 0 0 -1249.8761766390089 -5.5587753506678723 0 -5.5587753506678723 136.10805879351551 0 0 0 0 -736.34031706315 127.53783692956699 0 127.53783692956699 157.0986612903946 0 0 0 0 -663.99906587538862 120.27648486358862 0 120.27648486358862 148.7580862042023 0 0 0 0 -695.85143183646142 237.03711154467487 0 237.03711154467487 -5.0655139797822812 0 0 0 0 -466.77592078042653 -247.71069005566846 0 -247.71069005566846 -38.875673953613614 0 0 0 0 -568.89195585517155 -238.68863872082397 0 -238.68863872082397 122.02145665551083 0 0 0 0 -849.86797524953909 -199.74029610103804 0 -199.74029610103804 85.778555216727909 0 0 0 0 -551.78227723263262 -207.79901827856838 0 -207.79901827856838 25.702943939486318 0 0 0 0 -312.51858053301112 -97.688745863930308 0 -97.688745863930308 47.37261370846295 0 0 0 0 -803.86800002124801 10.818806075019211 0 10.818806075019211 -94.511494141232106 0 0 0 0 -1.4328387882017211 -1.0561128369561601 0 -1.0561128369561601 1.6982675371542193 0 0 0 0 -737.5056100356087 -141.58127377292635 0 -141.58127377292635 -271.77461627319099 0 0 0 0 -653.54170751997844 66.570502245295643 0 66.570502245295643 -106.45781212290694 0 0 0 0 -372.37017047262634 35.127478046265878 0 35.127478046265878 67.361559547816796 0 0 0 0 -294.45737793707667 -265.90965029699305 0 -265.90965029699305 -263.74247745444541 0 0 0 0 -795.93489267109544 -246.71944031892281 0 -246.71944031892281 121.89179998909083 0 0 0 0 -718.14161790611251 68.325732691335133 0 68.325732691335133 -69.155579914505324 0 0 0 0 -110.70937977734138 59.769029881666938 0 59.769029881666938 -72.339849560029563 0 0 0 0 -537.66626714805534 47.121180298843228 0 47.121180298843228 251.52818061877019 0 0 0 0 -2.0540356811379965 -1.6918571774214684 0 -1.6918571774214684 3.510713502802659 0 0 0 0 -256.76766610165214 -361.39776046543966 0 -361.39776046543966 268.05063024230458 0 0 0 0 -387.41139832394038 101.87540565941254 0 101.87540565941254 294.86054554967177 0 0 0 0 -600.07144810402315 99.32142176014429 0 99.32142176014429 46.488137597995774 0 0 0 0 -595.01472867212578 86.612226006766377 0 86.612226006766377 49.224929212032066 0 0 0 0 -534.0277227463157 65.695548816951941 0 65.695548816951941 -10.027701852307928 0 0 0 0 -587.97315174870891 79.188741590422978 0 79.188741590422978 -19.797992050195944 0 0 0 0 -602.3547137968344 114.0162669739766 0 114.0162669739766 -41.443151520970787 0 0 0 0 -594.55902711927365 66.104354571272097 0 66.104354571272097 -34.552932569181394 0 0 0 0 -596.20461415125169 92.360630611338209 0 92.360630611338209 -19.534390591859847 0 0 0 0 -669.24564899859979 104.31212773315065 0 104.31212773315065 23.429159444785455 0 0 0 0 -1.5040460744983193 -1.4592227101223187 0 -1.4592227101223187 2.218791625848727 0 0 0 0 -619.76321422540786 32.498140458672879 0 32.498140458672879 11.34701648218379 0 0 0 0 -654.76224690145318 69.634458816319238 0 69.634458816319238 95.456384275413257 0 0 0 0 -0.33702044841445122 -0.33181163443632045 0 -0.33181163443632045 5.1747708979689495 0 0 0 0 -137.31385091108677 38.995000943960235 0 38.995000943960235 -112.39927770369468 0 0 0 0 -23.707768719854357 -93.275451955426433 0 -93.275451955426433 -26.488747722305106 0 0 0 0 -326.26836091482073 -47.295685343346747 0 -47.295685343346747 -45.943611576150033 0 0 0 0 -234.1517186331148 -96.480971430267118 0 -96.480971430267118 26.200304561331905 0 0 0 0 -237.34839678075878 -107.61133372548079 0 -107.61133372548079 94.006299670167209 0 0 0 0 0.48848994806395218 1.3888323573273595 0 1.3888323573273595 15.690027042437976 0 0 0 0 -280.28028965643898 66.518013947653003 0 66.518013947653003 116.30490961221835 0 0 0 0 -205.73871667098865 -47.125880090625287 0 -47.125880090625287 87.892134978110334 0 0 0 0 -238.34094656886555 102.34113597518706 0 102.34113597518706 -7.9269873007888236 0 0 0 0 179.23669778131989 -82.24996641137048 0 -82.24996641137048 -77.084597602879967 0 0 0 0 -178.28498460287847 129.03254405364103 0 129.03254405364103 124.18359609424124 0 0 0 0 -303.48868046774442 29.808850045649251 0 29.808850045649251 41.11078921117587 0 0 0 0 -315.10613477554398 -46.779902898773059 0 -46.779902898773059 157.28083449363658 0 0 0 0 -309.22353801379359 101.2418305126921 0 101.2418305126921 -22.842597881169695 0 0 0 0 -351.88993285426841 35.393006043794685 0 35.393006043794685 15.272546329306351 0 0 0 0 -21.168018301163102 -34.591149753378886 0 -34.591149753378886 9.6378200750041287 0 0 0 0 -177.42533596634166 -103.88490679511051 0 -103.88490679511051 120.94989925502841 0 0 0 0 -26.728627653609266 -28.739347534221999 0 -28.739347534221999 -19.151327389307578 0 0 0 0 -10.046365449510519 -2.3590128337508958 0 -2.3590128337508958 25.921605415733861 0 0 0 0 -223.31860767670332 37.311567646337835 0 37.311567646337835 1.8325797408360813 0 0 0 0 -634.92919406401779 -46.620904572112067 0 -46.620904572112067 128.80503953731386 0 0 0 0 -454.99641105961655 -23.797588773943403 0 -23.797588773943403 56.853244376670773 0 0 0 0 -439.1554783599895 64.538318647885717 0 64.538318647885717 67.391713568707019 0 0 0 0 -658.59500168232626 26.778844254367868 0 26.778844254367868 75.995403159446596 0 0 0 0 -734.29745640963301 -67.393123949820847 0 -67.393123949820847 98.544642063621723 0 0 0 0 -726.90727075411633 -69.462943637587387 0 -69.462943637587387 78.726802972473706 0 0 0 0 -700.43080491738147 -52.659493877440582 0 -52.659493877440582 22.360131491582706 0 0 0 0 -671.8936535200919 -2.7991168352741624 0 -2.7991168352741624 103.72085864959911 0 0 0 0 -743.57423699905485 -73.393502571666431 0 -73.393502571666431 81.587290624502202 0 0 0 0 -733.63500200577619 -115.07683253958703 0 -115.07683253958703 66.8061544531447 0 0 0 0 -740.45279615925574 -102.86917353293748 0 -102.86917353293748 55.471370739807753 0 0 0 0 -593.1793286046468 -78.925809472205628 0 -78.925809472205628 32.176065549585473 0 0 0 0 -729.69873696963623 -126.55895119150637 0 -126.55895119150637 59.131841560354587 0 0 0 0 -760.15904630644218 -72.29570567711653 0 -72.29570567711653 47.983718095870699 0 0 0 0 -719.4873393709895 -133.41985772503813 0 -133.41985772503813 -7.0612508746594358 0 0 0 0 -699.47841933983727 -73.285485157904077 0 -73.285485157904077 -53.238229577733136 0 0 0 0 -718.02458158693116 -131.18621918862141 0 -131.18621918862141 -193.43938550058283 0 0 0 0 -938.66114820217717 68.872678924110801 0 68.872678924110801 -223.29996869777551 0 0 0 0 -615.3836201411541 16.427985699303008 0 16.427985699303008 -51.702933472907716 0 0 0 0 -604.57069664655137 4.5500781236582952 0 4.5500781236582952 -157.48845874280914 0 0 0 0 -616.28032658311486 12.01444568582076 0 12.01444568582076 -55.933863444514827 0 0 0 0 -682.62148523268843 -78.276026960825675 0 -78.276026960825675 -90.358887723307816 0 0 0 0 -659.63581823497225 -25.542827466012113 0 -25.542827466012113 30.505094454786331 0 0 0 0 
</DataArray>
<DataArray type="Float64" Name="cross_section_updated" format="ascii">
1 1 1 1 1 0.0091640039908674389 1 1 1 1 0.0097370710192966892 1 1 1 1 1 1 0.009092411607765841 1 0.0092582736366010349 1 1 1 1 1 1 1 1 1 1 1 1 1 1 1 1 0.010122055189076754 1 1 1 1 1 1 1 1 0.010333876224367065 1 1 1 1 1 1 1 1 1 1 0.0096316174005136781 1 1 1 1 1 1 1 1 1 1 1 1 1 1 1 1 0.0097970503930957329 0.0095222609291399068 1 1 1 1 1 0.0094122638675546797 1 0.0094721712324769523 1 1 1 1 1 0.0091633111425958851 1 1 1 0.0099261126541491732 1 1 0.0072841187740910127 1 1 1 0.010009289124679962 1 0.0069847482957866788 1 1 1 1 0.010066720153629354 1 1 0.0077945529917645019 1 1 1 1 1 1 1 1 1 1 0.00058791836616733928 1 1 0.00016448499894056688 1 1 1 1 1.0580684262767592e-08 1 1 1 1 0.0099715268942705618 1 1 1 1 0.008898864225208027 1 1 0.0074477552948486493 1 1 0.0022536050866954118 1 1 1 0.0099858158462618439 1 1 1 1 1 1 -5.5785991000256718e-09 1 1 1 1 1 1 0.010042494742320838 1 1 1 1 1 1 1 1 1 0.006948247489918194 1 0.0089977352609221396 1 1 1 1 1 1 1 0.0086421996939203636 1 1 1 1 0.0098049786482222283 1 1 1 1 0.0088422771418977374 0.0095312674422292701 1 1 1 1 1 1 1 1 0.0095372540287502749 1 1 1 1 0.010073710270292328 1 0.0098536729516967864 1 1 1 1 1 0.0098722114609928677 1 1 1 1 1 1 1 1 1 1 1 1 1 1 1 1 1 1 1 1 0.0077663930472761447 1 1 1 1 1 0.0070879014149139268 1 1 1 1 1 1 1 1 1 1 1 1 1 0.0097921590936238083 1 1 1 0.010338345815009416 1 0.011123729978898652 1 1 1 0.0064889065684270789 1 1 1 1 1 1 1 1 0.010405727026821122 0.0079777071761144725 1 1 1 1 1 1 1 1 1 1 1 1 0.0081217293092211776 1 0.011881855950652623 1 1 1 1 1 1 1 1 0.0074923842698755468 1 1 0.0083750605120673522 1 1 1 1 0.0093982662706074693 1 1 1 0.009632179839526845 1 1 1 0.0088217021877549529 1 1 0.0078849436628065078 1 1 1 1 0.0057750773260939539 1 1 1 1 1 1 1 1 0.0083414321631414025 1 1 1 0.0042953147255451046 1 0.010550871541018124 1 1 0.0021852945622923021 1 1 1 0.0097623416492731898 1 1 0.0012783316088039003 1 1 1 1 1 1 1 1 1 1 1 1 1 1 1 1 1 0.0058698727952321821 1 1 1 1 0.01000105917444594 1 1 0.0099979808255235766 1 1 1 1 1 1 1 1 1 0.0066776205399449486 1 1 1 0.0076668774869275216 1 1 1 1 1 1 1 1 1 1 1 1 1 1 1 1 1 1 1 1 1 1 1 1 1 1 1 1 1 1 1 0.0091086609358952391 1 1 1 1 1 1 1 0.0092579396535697397 1 1 1 1 0.0085732900256657689 1 1 1 1 1 1 1 0.010229373574735528 1 1 1 1 1 1 1 1 1 1 1 1 1 1 1 1 1 1 1 1 0.0088623339493403286 1 0.011006901353295375 1 1 1 1 1 1 1 1 0.0095053130843287224 1 0.0099567906924101328 1 1 1 1 0.0099071477554087753 1 0.010082324682071986 1 1 0.0091503941732340808 0.0087590404422100924 1 1 0.0095343108777620703 0.0062109320360380846 1 1 1 1 1 1 1 1 1 1 0.0083379184750335886 1 1 1 1 1 1 1 1 1 1 1 1 1 0.009351564659556541 1 0.009846746427440033 1 1 1 1 1 1 1 0.0084567584912876963 1 1 1 1 1 1 1 1 1 1 1 1 0.011112174677028276 1 0.010177530150531581 1 1 1 1 0.010783553756564923 1 1 0.010050089828497189 1 1 1 1 1 1 1 1 1 1 0.0090834842010948345 1 1 1 1 1 0.010056479697393029 1 0.0075493746936909226 1 1 0.010164860844448537 0.010434775644647601 1 1 1 0.0078880486634584981 0.010959775913632565 1 1 1 1 0.010097813068566998 1 1 0.0086989724018997662 1 1 0.01013147035731754 0.0083793302099792084 0.0091504666520232161 0.01001969228335807 0.0063304802706925685 1 0.0080496014364910759 1 0.010502115754663002 1 1 0.0077968053732165405 1 0.011118827540731355 1 1 0.0078843382190141587 0.007473591450643453 1 1 1 1 0.0060308576141802949 1 0.0099797682879650528 0.013019878461664912 1 1 1 0.0052140111075344199 1 1 1 1 1 0.010023811776463373 1 1 1 1 1 1 1 1 1 1 1 0.0099674457539918899 1 0.010130102164074048 1 0.010306615556387295 1 1 1 1 1 0.0096898994398073798 1 1 1 1 1 1 0.0098808556421430566 1 1 1 1 1 0.0095961939922924733 1 1 1 1 1 1 1 1 1 1 1 0.010114290455103443 1 1 1 1 1 1 1 0.010131078731922778 0.0095030199175585306 1 1 1 1 1 1 1 1 1 1 1 1 0.0097951636138969549 1 1 1 0.0097545188683984142 1 1 1 1 1 1 1 1 1 1 1 1 1 1 1 1 1 1 1 1 1 1 1 1 0.0093772439212730825 0.0065285854740467393 1 1 1 1 1 1 0.0055597175256886511 1 1 1 1 1 1 1 1 1 1 1 1 1 1 1 1 1 1 1 1 1 1 1 1 0.010517991633678496 1 0.011155134575734778 1 1 1 1 1 1 0.0093368271651222343 1 1 1 1 1 1 1 1 1 1 0.0086149138609798188 1 1 1 1 1 0.010126462160927188 1 1 0.0090683849247106436 1 1 1 1 1 1 1 1 1 1 1 0.0069659854884043474 1 1 1 1 1 0.010366539231411991 1 1 1 0.010524145072985156 1 1 1 0.0068554485266178085 1 1 1 1 1 1 1 1 1 1 0.0086557412213813974 1 1 1 1 1 1 1 1 1 1 1 1 1 1 1 1 0.008775795239294247 1 1 1 0.0025953026748857877 1 1 1 1 1 0.0098151073460190259 1 1 1 1 1 1 1 1 1 1 1 0.01272747816776114 1 1 1 1 1 1 1 1 0.0078695735786590577 1 1 1 1 1 1 1 1 1 1 1 1 1 1 1 1 1 1 1 0.010951938862264678 1 1 1 1 1 1 0.010304951803039048 1 1 1 1 1 1 1 1 1 1 1 1 1 1 1 1 1 1 1 1 1 1 1 1 1 0.010351793935164291 1 1 1 1 1 1 1 1 1 1 1 1 1 1 1 1 1 0.010514388183852004 1 0.01170962859718855 1 1 1 1 1 0.010106919731475001 0.010269837731843695 1 1 1 1 1 1 1 1 0.0045991372305568172 1 1 1 1 1 1 0.0057568075024455878 1 1 1 1 1 1 1 1 1 1 1 1 1 1 1 1 1 1 1 1 0.009059953702419625 1 1 1 1 1 1 0.0048147747972113897 1 1 0.0091340101792191878 1 1 1 1 1 1 1 1 0.0093645932871850683 1 0.008538892843615746 1 1 0.013138547649544504 1 1 1 0.0080897133507409815 1 1 1 1 1 1 1 1 1 1 1 1 1 1 1 1 1 1 1 1 1 1 1 1 1 1 1 1 1 1 1 1 1 1 0.010171698516119489 1 1 1 0.0078591704298053809 1 1 1 1 0.0070633869300046484 1 1 1 1 1 1 0.0062940736167420974 1 1 1 1 0.0089571324897031613 1 1 1 1 0.010089006782694506 1 1 1 1 0.0070698954552676869 1 1 0.010139179519235677 1 1 1 1 1 1 0.010869890538251104 1 0.010574723486256443 1 1 0.0081668936625145325 1 1 1 0.0055704579428821517 1 1 1 1 1 1 1 1 1 0.0092358308719551665 1 1 1 1 1 1 1 1 0.0085017686491606799 1 1 1 1 1 1 1 1 1 1 1 1 1 1 1 1 1 1 1 1 1 1 1 1 1 1 1 1 1 1 1 1 1 1 0.0099992501370707761 1 1 1 1 0.010014306386815865 1 1 1 1 1 1 1 1 1 1 1 1 1 1 1 1 0.01001369339894107 1 1 0.0099849437502549133 0.010848961119624389 1 1 1 1 1 0.0095719675804396467 1 1 1 0.0078336828985517814 0.0064737079307496956 0.0079632841969582615 1 0.0091968478175173847 1 0.0090373942880698742 0.0070056659472804809 1 1 1 1 0.01000243299507398 1 1 1 1 1 1 1 1 1 1 0.0073859365272095278 1 1 1 1 0.009798643863194078 1 1 0.0095695000492143252 1 1 1 1 0.0088056995379413167 1 1 1 1 1 1 1 1 1 1 1 1 0.0098948545808955572 1 1 1 1 1 1 1 1 1 1 1 1 0.0097900165117977122 1 1 1 1 1 1 1 1 1 0.010236448836190643 1 0.01042719811765168 1 0.0098251175310046322 1 1 1 1 1 1 1 1 1 1 1 1 1 1 1 1 1 1 1 1 1 1 1 1 1 0.0098159283369452337 1 1 1 0.0099210737560496767 1 1 1 1 1 1 1 1 0.00096470581473586357 1 1 1 1 1 1 1 0.0023949253235378415 1 0.0048365936374259299 1 1 1 1 1 1 1 1 1 0.006369253218510864 1 1 0.0089867758781949081 0.013157488145512755 1 1 1 1 1 1 1 1 1 1 0.0092249332202691235 1 1 1 1 1 1 1 1 1 1 1 1 1 1 1 1 0.0081916329854304012 1 1 1 0.011115588583887516 1 1 0.013279496805178603 1 0.0074705469291491116 1 0.0060998924531197648 1 1 1 1 1 1 1 1 0.0073339793719164473 1 1 1 1 0.0099985737530633879 0.012273640313302794 1 1 1 1 0.0098708931664545571 1 1 1 1 1 1 1 1 1 1 1 1 1 1 1 1 1 1 1 1 1 1 1 1 1 1 1 1 0.0095987301573423646 1 0.0073283054255780878 1 1 1 1 0.010222618883823958 1 1 1 1 1 1 1 1 1 1 1 1 0.0043096839860432739 0.0078068251741591254 1 1 1 1 1 1 1 1 1 1 1 1 1 0.003661480514040763 1 1 1 1 1 1 1 1 1 1 0.009029498870610048 1 1 1 1 1 1 1 1 1 1 0.0091222129426310992 1 1 1 1 0.0039543845507631226 1 1 1 1 1 1 1 1 1 0.0091240726909538779 1 1 1 0.010193244677219142 1 1 1 1 1 1 1 1 1 1 1 1 1 1 1 1 1 1 1 1 1 1 1 1 1 1 1 1 1 1 1 1 0.00026268727881830628 1 1 1 1 1 1 1 1 1 0.0090968384461617979 1 1 1 0.0098883075429134597 0.0063335368258791132 1 0.0090446055562773617 1 1 0.010033541756673359 1 1 1 1 1 1 1 1 0.0079713366458748717 1 1 0.0090990406639891077 0.0095901338232925876 0.0069156300742388502 0.010029529543719428 1 1 1 1 0.011974634820170893 0.01121568483791212 0.0085275294843341187 1 1 1 0.011410451781294734 1 1 1 1 1 0.0015460018187730606 1 1 1 1 1 1 1 1 0.010189476535861969 1 0.010046341553381079 1 1 1 1 1 1 1 1 1 1 0.0087228774026781725 1 0.010795108324586879 1 1 1 1 1 1 1 1 1 1 1 1 1 1 1 1 1 0.0089235865453968326 1 1 1 1 1 1 1 1 1 1 1 1 1 1 1 1 0.0096500449877958885 1 1 1 1 1 1 1 1 0.0094814896878156144 1 1 1 0.0089121757626450873 1 1 1 1 0.0090023720031012326 1 1 1 1 1 1 1 1 1 0.0088569437452184537 1 1 1 0.0084820743286384628 1 1 0.0072838400738123891 1 1 1 1 1 1 1 0.0096843767842069075 1 1 1 1 1 1 1 1 1 1 1 1 1 0.0095693471737826104 1 1 1 1 1 1 1 1 1 0.0061889157526781409 1 1 0.0065465623380839884 1 1 1 1 1 1 1 1 1 0.0087436975523034789 1 1 1 0.0069364454118339986 1 1 1 1 1 0.0087546329282597139 1 1 0.0098028925591732031 1 1 0.0098966053571853119 1 1 0.0065386456955750022 1 1 1 1 1 1 1 1 1 1 1 1 1 1 1 1 1 1 1 1 1 1 1 0.0098738793743565999 1 1 1 1 1 1 1 1 1 1 0.0096067230880900432 1 1 0.0063252242967048525 1 0.010084873792207776 1 1 1 1 1 1 0.005016737216043227 1 0.006497498485450638 1 1 1 1 1 1 1 1 1 1 1 1 1 1 1 1 1 0.0085377375762122169 1 1 1 1 1 1 0.0090850298311898059 1 1 1 0.0096883613884783462 1 1 1 1 1 1 1 1 0.0082456442176062784 1 1 1 1 1 1 1 1 0.0097580751187025822 1 1 1 1 1 1 1 1 1 1 1 0.0063574897568389917 1 1 1 0.0096217543330212821 1 1 1 1 0.0090143922028080095 1 1 1 1 1 1 1 1 0.0090917700113228531 1 1 1 0.0086414821169458443 1 1 1 0.0098459230286134757 1 1 1 1 1 1 1 1 1 1 0.0096661087270310843 1 0.0096714342506526614 1 1 0.010230499541853398 1 1 1 1 1 1 1 1 1 0.0099837744388551666 1 0.010024803533715874 1 1 1 0.0091634309442809175 0.0086792309688533895 1 1 1 0.0089080351937248694 1 1 1 1 1 1 1 1 1 1 1 1 0.0051739495761730092 1 1 1 0.0095632531514815572 1 1 1 1 1 1 0.0090705744522572053 1 1 1 1 1 1 1 1 1 1 0.0071315585544849004 1 0.0089719154165608574 1 1 1 1 1 1 0.0090138877974627555 1 1 1 1 1 1 1 0.0079872209629930392 1 1 1 1 1 1 1 0.0079660254039273914 1 1 1 0.0098792472528603931 1 1 0.0077162830000044088 1 1 1 1 1 1 0.0086641034707716832 1 1 1 1 1 0.009431183175009997 1 1 1 1 1 1 0.008517102046657829 1 1 1 1 1 1 1 1 0.0062120138436868129 1 0.010005294507561137 1 1 1 1 1 1 1 0.005812062883562617 1 1 1 0.0054830548755152829 1 1 1 1 1 1 1 1 1 1 1 1 1 1 1 1 1 1 1 1 1 1 1 1 1 1 1 1 1 1 1 0.010345820760696105 1 0.010982559540685399 1 1 1 1 1 1 1 1 1 1 1 1 1 1 0.0099717296806363966 1 1 1 1 1 1 1 1 1 1 1 1 1 1 1 0.0066843035039026617 1 1 0.0087210440989022985 1 1 1 1 1 1 1 1 1 1 1 1 0.0076022295889494433 1 1 1 1 1 1 1 1 1 1 1 1 1 1 1 1 1 1 1 0.008640786053665743 1 1 1 1 1 1 1 1 1 1 1 1 1 1 1 1 1 1 1 1 1 1 1 1 1 1 1 1 1 1 1 1 1 1 1 1 1 1 1 1 1 1 1 1 1 1 1 1 1 1 1 1 1 1 0.010169675378891945 1 1 1 1 1 1 1 1 1 1 0.010539310433104359 1 1 0.0099677900639037354 1 1 0.0087011674800483337 1 1 1 1 1 1 1 0.0087432732896264801 1 1 0.007247386622023011 1 1 1 1 1 1 1 1 1 0.009273801669221423 1 0.0097440246853065411 1 1 1 1 1 1 1 0.0098851534321037753 1 1 0.010624141927284898 1 1 1 0.012047693985692005 1 1 1 1 0.0028637984994604373 0.0046337319531187509 1 1 1 3.7106209077597541e-10 1 1 1 0.010865206724598574 -7.9371639816194772e-10 1 1 1 0.0087364695599827704 1 -2.3484874114854115e-10 1 0.0099446997297570287 1 1 1 1 1 1 0.009161552683334552 1 1 1 1 1 1 1 1 1 1 1 1 1 1 1 1 1 1 1 0.0097166093580808126 1 1 1 0.009307074490010718 1 1 1 1 1 1 1 1 1 1 1 1 -2.3974847107588459e-10 1 1 1 1 4.2693816081837421e-05 1 0.009113991393616367 1 1 1 1 1 1 0.0098527036508019132 0.0099116896304722469 1 1 1 1 1 1 1 1 1 1 1 0.010037823745300253 1 1 1 1 0.010003874290779879 1 1 0.009986207998788162 1 1 1 1 1 1 1 1 0.010075679514178046 1 1 0.010034156305730573 1 1 1 1 1 1 1 1 1 1 1 1 1 1 1 1 1 1 1 1 1 1 1 1 0.010207558537571352 1 1 1 1 1 1 1 1 1 1 1 1 1 0.0081397712931764853 1 1 0.0038154796944094606 1 1 1 0.008944119348078268 1 1 1 -1.2034583139058919e-09 0.0069380714414207616 1 1 1 1 1 1 0.00084288496116013273 1 1 1 1 0.00072741532841323966 0.0027900783981893509 0.013415129650221451 0.010186838691724761 1 1 1 0.00041290735777923734 1 1 0.003737288811677935 1 1 1 0.013114928557059907 1 1 1 1 1 1 1 1 0.00010198399860983018 1 1 0.0095892331974099174 1 1 1 1 1 1 0.011536197850383137 1 1 1 1 1 0.010451909679926307 1 1 1 1 1 1 1 1 1 1 1 1 1 1 1 1 1 0.010026150654260959 1 1 1 1 1 1 1 0.0089120091035768696 1 1 1 1 1 1 1 1 1 1 1 1 1 0.01069371856825355 1 1 1 1 1 1 1 1 1 1 0.0092620720159260223 1 1 0.0099657996203392531 1 1 1 0.010020583003123106 1 0.0096620381038041471 1 0.011363651475675713 1 1 1 1 1 1 1 0.0072950739187080602 1 0.034821995792525304 1 0.0069861588420783091 1 1 0.0095708590757388069 1 0.0086301243051198698 1 1 0.010004987202047892 0.011499153965582974 1 1 0.0086808796464297733 0.0096099859463136001 1 1 1 1 1 1 1 1 1 1 1 1 1 1 1 0.010024215368223875 0.0099931393115855818 1 1 1 0.010000038765718504 0.0099888767491174459 0.010264809489674922 1 1 1 1 1 1 0.0115906230687916 1 0.0099964045435906746 0.0058932069709846709 1 1 1 1 0.01003827545373945 1 1 1 0.0057426334243365334 1 1 1 0.0084490768080165406 1 0.010792648661135752 1 1 1 0.010006898167011462 1 1 1 1 1 1 1 1 1 1 1 1 1 1 1 0.0098638889412735031 0.0071384338513250517 1 1 1 1 0.0093433197086680644 1 1 0.008433825616516304 1 1 0.0090560120846146872 1 1 1 1 1 1 0.0054911438787844224 1 1 1 0.0052739887586941286 1 0.005505883741651299 1 1 0.0053611209543084539 1 1 1 1 0.009689055236647242 1 1 0.0095600216569410815 0.01026626413424447 1 1 1 1 1 1 1 1 1 0.010976309354635325 1 1 1 1 1 1 1 0.0053776785049827833 0.0084850115106738476 1 1 0.009213989665886109 1 1 1 1 0.0096854777161250842 1 1 1 1 1 0.0066322452386990451 1 1 1 1 0.0078925872251384178 1 1 1 0.0095016061413394186 1 1 1 1 1 1 1 0.010047847776459886 1 1 1 1 0.0098886881200089191 1 1 1 1 0.0096508569509061275 1 1 1 1 1 1 1 1 1 1 1 1 1 1 1 1 1 1 0.0081756542099050856 1 0.010127984027522217 1 1 1 1 1 1 1 1 1 1 1 0.0092581651014007321 1 1 1 1 1 1 1 1 1 1 1 1 1 1 1 1 0.0099996832346685074 1 0.01005954932406534 1 1 0.0079593722442454964 0.00987095672935317 1 1 1 1 1 1 1 0.0083170705812992355 1 0.0095440200683709186 0.0094652674137381924 1 0.0094983153398661788 1 1 1 1 0.0096115093896461338 1 0.0096629740382091888 1 0.0098100066953987364 0.0098979716490338685 0.0096973327481203204 1 1 0.0098765465933209045 1 1 1 0.010028492536837038 1 1 1 1 1 1 1 1 1 1 1 1 0.009913683603957205 1 1 1 1 1 1 1 1 1 1 1 1 1 1 1 1 0.0088267554933000626 1 0.0097579309406253343 0.009850287187823048 1 1 1 1 0.0093141792888943881 1 1 1 1 1 1 1 1 1 1 1 1 1 1 1 1 1 1 1 1 1 1 1 1 1 1 1 1 1 1 1 1 1 1 1 1 1 1 1 1 1 1 1 1 0.00018669430758617295 1 1 1 1 1 0.0070006225695257752 1 0.0024258599551259322 1 1 1 0.00092381628520112058 1 1 1 1 1 0.008814773736931068 1 1 1 1 1 0.010695986316114216 1 0.0098140151874224844 1 1 0.01120292017679916 1 1 0.01000209017218304 1 1 1 1 1 1 1 1 1 1 1 1 1 1 9.501619189858021e-05 1 -8.3029559651282003e-09 1 1 1 1 1 1 1 1 1 1 0.00017493553412872669 1 1 1 1 1 1 1 1 1 1 1 1 1 1 1 1 1 1 1 1 1 1 1 1 1 1 1 1 1 1 1 1 1 1 1 1 1 1 1 1 1 1 1 1 1 1 1 1 1 1 1 1 1 1 1 1 1 1 1 1 1 1 1 1 1 1 1 1 1 1 1 1 0.0099217304025181509 0.0099631514154230171 0.0085719523435947749 1 0.0060293381130737886 1 1 1 1 0.010121070245036945 1 1 1 1 1 1 0.0038034222869204135 1 1 1 1 1 1 1 0.0018966184610981554 1 1 1 1 0.010133239555824803 1 0.010419097432980928 1 1 1 1 1 1 1 1 1 1 1 1 1 1 1 1 1 1 1 1 0.0039483497623003412 1 0.010121555970092814 1 -3.5219502488026411e-10 1 1 1 0.0089797813139668586 1 0.0089342680090395612 1 1 1 1 2.8120238082518512e-09 1 1 1 0.01206601630303902 1 1 1 1 1 1 0.010669404580331806 1 1 1 1 1 1 1 1 1 1 1 1 0.009644620368341416 1 1 0.0090325688005137798 1 1 0.010859200263026765 1 1 1 1 0.00055047355210933145 1 1 0.010028654707634047 1 1 0.010111378725005123 1 0.0079467929067360034 1 1 1 0.004486608281950126 1 0.010000505341536212 1 1 0.008336526099185549 0.011313254619333989 1 1 0.0085214158757942957 1 1 0.0093797312473623343 0.010896976943316636 1 1 0.009998570965513506 1 0.0079320718852829188 1 1 1 0.0049331521534552655 1 0.012480409086056434 1 1 0.010102860427167844 1 1 1 1 1 1 1 1 1 1 1 1 1 1 1 1 1 1 1 1 1 0.0099389519337628827 1 1 1 1 1 1 1 0.010528999684096766 1 1 1 1 1 1 1 1 1 1 1 1 1 1 1 1 1 1 1 1 1 0.0099032984701270064 1 1 0.011777596873157971 1 1 1 1 1 1 1 1 0.0085582470417416845 1 1 1 1 0.0083378624404059944 0.009142679741442953 1 1 0.0091920024511170616 1 0.013138687592489633 1 1 1 1 0.0076734715069839013 1 1 1 0.0099992811978011024 1 1 1 1 0.0063968895364549336 1 1 1 1 1 0.0036233478628184736 0.0091378702849949315 1 0.012393127904504433 0.0052687007682430944 1 1 0.0090439633058883827 1 0.0085962080496733047 1 1 1 1 1 0.0099335009027122813 1 1 1 1 1 0.00735217827056198 1 0.0099962802835082288 1 0.0066095001911602768 1 1 0.005335280544626426 1 0.0071753000396440163 1 1 1 1 0.0078859183846542308 1 1 1 1 1 0.0098360910688047726 1 0.0096499908250176885 1 1 1 1 1 1 1 1 1 1 1 0.009793833014574746 1 0.011214181008779425 1 1 1 1 1 1 1 1 1 0.0088513714229194775 1 1 1 1 1 0.0088756655423576879 1 1 1 1 0.008937513608214754 1 1 0.007896671896115072 0.0051157148061391905 1 1 -2.22003625899303e-09 1 1 1 1 1 1 1 1 1 1 1 0.010046651460333034 1 1 1 1 1 1 1 1 1 1 1 1 0.0084347625698023669 1 1 1 1 1 0.0084348315042924032 1 1 1 1 1 1 1 0.0091406688209920966 1 1 1 1 1 1 1 1 0.008426976446666427 1 1 1 1 0.0095001705683429444 1 1 1 1 1 1 0.0091771924401777942 1 1 1 1 0.010569231662298771 1 1 1 0.0058072244569386221 0.0075043579748840048 0.0089323918374471581 1 1 1 1 1 1 1 1 1 1 0.0095883158444345536 1 0.0076963398506645596 1 1 0.0096737376565893037 1 1 1 1 1 1 1 0.010051281787947211 1 1 0.010309818683963535 1 0.0096195928107583092 1 1 1 1 1 1 1 0.0083831238005274613 1 1 1 0.0096312686745387496 1 1 1 1 1 1 1 1 1 1 1 1 0.010446923260410546 1 1 1 1 1 1 1 1 1 1 1 1 1 1 1 1 1 1 1 1 1 1 1 1 1 1 1 0.0058155079095336612 0.0088620206688754827 1 1 0.013200734029268935 1 1 1 1 1 0.011679663802765861 1 1 1 0.0094615636953670618 1 1 1 1 1 1 1 1 1 0.0076260394613263394 1 1 1 1 1 1 1 1 1 1 1 1 1 1 0.0094613889430947909 1 1 1 1 1 1 1 1 1 1 1 1 0.0078860223811185182 1 1 1 1 1 1 1 0.0091671560629523752 1 1 1 1 1 1 1 1 1 1 1 1 1 1 1 1 1 1 1 1 1 1 1 1 1 1 1 1 1 1 1 1 1 1 1 1 1 1 1 1 1 1 1 1 1 1 1 1 1 1 0.010010281926768243 1 1 1 0.0091354567970425189 1 0.010208366424749062 1 1 1 1 1 1 1 1 0.010030637045983667 1 1 1 1 1 1 1 1 0.0087301274297975403 0.009303442932702773 1 1 1 1 1 1 1 1 1 1 0.0096868212316417127 0.010000073385893671 0.0088384771470943462 1 1 1 0.010241968682030447 1 1 1 1 0.0085099287553651974 1 1 1 1 1 1 1 1 1 1 1 1 0.01008945090104559 1 1 1 1 1 1 1 1 0.0099777119661813834 0.0098443713018983824 1 1 0.0097827282339959763 1 1 1 1 1 1 1 1 1 1 1 1 1 0.010160591353629712 1 1 1 1 1 0.0099626764937993263 1 1 1 1 0.0086158078789580067 1 1 1 1 0.0093083619314615548 1 1 0.014046968533273264 1 1 1 0.0093189304683273192 1 1 1 1 1 1 1 1 0.0095979125646065734 1 1 1 0.010628839765174794 1 1 1 0.0087686492174977679 0.0095945964231848695 1 1 0.010246427833491237 1 1 0.011410230042261136 1 1 0.010001926862933523 1 0.0075179550447211103 1 1 1 1 1 1 1 1 1 1 1 1 0.011700213855323785 1 1 1 1 1 1 1 1 1.852256827084009e-09 1 1 0.0095289569678797103 1 1 1 1 0.0016821639940467394 1 1 1 1 1 1 1 1 1 0.0098122150849606141 1 1 1 1 1 1 1 1 0.0094432257493936734 1 1 1 0.0073566613204605127 1 1 1 0.009651319403861441 1 1 1 0.0090371460418049478 1 1 1 1 1 1 1 1 1 1 1 0.0096674910921891524 1 1 1 0.008513659359483736 1 1 1 1 1 1 1 0.0093636357713443481 1 1 1 1 1 0.0022194263101523127 1 1 1 0.0020261510711291949 1 1 1 1 1 1 1 1 1 1 1 1 0.010338717904256367 1 1 0.0093613451595922371 1 0.0056591134630644101 1 1 1 1 1 1 1 1 1 1 0.0050296091436116529 0.0060173517350351098 1 1 1 1 1 0.0051059568127129369 1 0.0060689024837223965 0.010814851832821836 1 0.0035233464710206566 1 0.0099977457433749091 1 1 1 1 1 1 1 1 1 1 1 1 1 1 1 1 1 1 1 1 1 1 0.008966654630755605 1 1 1 1 1 1 1 1 0.010105234066645546 1 1 1 1 0.0078058002935262241 1 1 1 1 1 1 1 1 1 0.010284999965845022 1 0.0081329661405148326 1 1 1 1 1 1 1 1 1 1 1 1 0.008729865683768389 1 1 1 1 1 1 1 1 1 0.0069612614315208588 1 0.0053387154169917215 1 1 0.011866729150133804 1 1 0.0099265792131043949 1 1 0.010567601971776737 1 1 1 1 0.0099816748483877067 1 1 1 1 1 1 1 1 1 1 1 1 1 1 1 1 1 1 1 1 1 0.010032929237002372 1 1 0.0059426751314526384 1 1 0.010249956161328259 0.0067115804264146744 1 1 1 1 0.0096511083982500877 1 1 0.0078216402663589084 1 1 1 1 1 1 1 0.0092046281669954048 1 1 1 1 1 1 0.0099573061136683984 1 1 1 0.0097332088143788163 1 0.0071031834364751797 0.010242187715438921 1 1 1 1 1 1 1 0.0088936571485829213 1 1 1 1 1 1 1 0.009947228168779864 1 1 1 1 1 1 1 1 1 1 1 1 1 1 1 1 0.0092413908520801794 1 1 1 1 0.008785682402406958 1 1 1 1 1 1 1 1 1 1 1 1 1 1 1 1 1 1 0.0092924508622266241 0.012354200917431111 0.0062582959080480401 1 0.0071014362051519571 1 0.0076742080332642074 1 1 1 1 0.012123837542004957 1 1 1 1 1 1 1 0.010551076873187086 1 1 1 1 1 1 1 0.0088991851264477971 1 1 0.0093964449746201141 1 1 1 1 1 1 1 1 0.009649284917975065 1 1 1 0.0067286180928034685 1 1 1 1 1 0.0063508965678392929 1 1 0.0097466475216952744 1 1 1 1 0.0059111810677559013 1 1 0.0096466257406058083 1 0.0033912483774336099 1 1 1 1 1 1 1 1 1 1 1 1 0.0098889920736661002 1 1 1 1 1 0.003973355003300599 1 1 1 1 1 1 1 0.0033633782984296267 1 1 1 0.009565630400920672 1 1 1 1 0.0090776513263446656 1 1 1 0.0094419790477137978 1 1 1 1 1 0.011025036546916958 1 1 1 1 1 1 1 1 1 1 1 1 0.010322281284853591 1 1 1 1 1 1 0.0047675131821007122 1 1 0.011822238754647951 1 0.009813566150211785 1 1 0.0099005163521956614 1 1 1 1 1 1 1 1 1 1 1 1 1 1 0.008063619428773719 1 1 0.0063994803163943837 1 0.010862072099284845 1 1 1 1 1 0.010467651917532893 1 1 1 1 1 1 1 1 1 1 1 1 1 1 1 1 1 1 1 1 1 1 0.0071332525323103196 0.0075323579387524247 1 1 1 1 1 1 0.0080024931049866022 1 1 0.0086755158437142946 1 1 1 1 0.0047416777203834479 1 0.0087053331499386162 1 0.0091425026844315586 0.0049975949537853902 1 1 1 1 1 0.01006497466655216 1 1 0.0062618539165701119 1 1 1 1 1 0.0095615015406083585 1 0.004145105615094638 1 1 0.010463419394056248 1 0.010006821487080517 1 1 1 1 1 1 1 1 1 1 1 1 1 1 1 1 1 1 1 1 1 1 1 1 1 1 1 1 1 1 1 1 1 1 1 1 1 0.010415043493951393 1 0.0099778225846711231 1 0.006357023121304599 1 1 1 0.0085486755618567854 1 1 1 1 1 1 0.0025829007468639743 1 1 1 1 1 1 1 1 1 1 1 1 1 1 1 1 1 1 1 1 0.0092012540663926334 1 1 1 1 1 1 1 1 1 1 1 1 1 0.010002070795336906 0.0099814607022128549 1 1 1 1 1 1 1 1 1 1 1 0.0080670698680851312 1 1 1 0.0051065291720561483 1 1 1 1 1 1 1 1 1 1 1 1 1 1 1 1 1 1 1 0.010260710637216916 1 0.010352919599903799 1 1 1 1 1 1 1 1 1 1 1 1 1 0.010103202524374147 1 1 1 1 1 1 1 1 1 1 0.0095641488017070356 1 1 0.0098036161921900757 1 1 1 1 1 1 1 1 1 1 1 1 1 1 1 1 1 1 1 1 1 1 1 1 0.0094297769305685657 1 1 1 1 1 1 1 1 1 1 1 1 1 1 1 1 1 1 1 1 1 1 1 1 1 0.0085488198967470092 1 1 1 1 0.0080742719607158134 1 1 1 1 1 1 0.0098915394300165011 1 1 1 1 1 1 1 1 1 1 0.0098429261581176875 1 1 1 1 1 0.0096374133526167926 1 1 0.010199050477092211 1 1 1 1 1 1 1 1 1 1 1 1 1 1 0.010002036014416429 1 1 1 1 0.010006396647318856 1 0.008310903760940385 1 1 0.0092409738959207417 0.01000062244256777 1 1 0.0098028533360937711 1 1 0.0099579931384285048 1 1 1 1 1 1 1 1 1 1 1 1 1 1 1 1 0.009824956656651394 1 1 1 1 0.0099171101520947307 1 1 1 0.010140688325917212 1 1 1 0.0099836929254598361 1 1 1 1 1 1 1 0.0078476851788398267 1 1 1 0.010604433117500686 1 1 1 1 1 1 1 1 1 1 1 1 1 1 1 1 1 1 1 1 1 1 1 1 1 1 1 1 0.0093553213683787734 1 1 1 1 1 1 1 1 1 1 1 0.0099232521793074582 1 1 1 1 0.0097681543535159954 1 1 1 1 1 1 1 1 1 1 1 0.0099804732201400678 1 1 1 1 1 1 1 1 1 1 1 1 1 1 1 1 1 1 1 1 1 1 1 1 1 1 1 1 1 1 1 1 1 1 1 1 1 1 1 0.0080702012637454846 1 0.010044192460277124 1 1 1 1 1 0.0099720037352633295 1 1 1 0.0094809937672932498 1 1 1 1 1 0.0082987036211013866 1 1 1 1 1 1 1 1 1 0.0081393774331394737 1 1 1 0.0091612679185365479 1 1 1 1 1 1 1 1 1 1 1 1 1 1 1 1 1 1 1 1 1 1 1 1 1 1 1 1 1 1 1 1 1 1 1 1 0.0097821611001741148 1 1 1 1 1 1 1 1 0.010167310615862896 1 1 1 1 1 1 1 1 1 1 1 1 1 0.0095374758162143393 1 1 1 1 1 1 0.0099647977301562229 1 1 1 1 1 1 1 1 1 1 1 1 1 0.0091606143864164744 1 1 1 1 1 1 1 1 1 1 1 1 1 1 1 1 1 1 1 1 1 1 0.0099232790562333393 1 1 1 1 1 1 1 1 1 1 0.009792111595847728 0.0098688325396143906 1 1 1 1 1 1 1 1 1 1 1 1 1 1 1 1 1 0.011021864931568513 0.010544687614999384 1 1 1 1 1 1 0.010600028524273901 1 1 1 1 1 1 1 1 1 1 1 1 1 0.010166345212009655 1 1 1 1 1 1 1 1 1 1 1 1 1 1 1 1 1 1 1 1 1 1 1 1 1 1 1 0.0083129004047214627 1 1 0.0093946262130833041 1 1 1 1 1 1 1 1 1 1 1 1 1 1 1 1 1 0.008501980022380555 1 0.00553770099923513 1 1 1 1 1 1 1 1 1 1 1 0.0053081423453699393 0.0094582543998752572 1 1 1 0.01056930246050655 0.010140676639366283 1 1 1 1 0.010724076733905919 1 1 0.010207029593230577 1 1 1 1 1 1 1 1 1 1 1 1 1 1 1 1 1 1 1 1 1 1 1 1 1 1 1 1 1 1 1 1 1 1 1 1 1 1 1 1 1 1 1 1 1 1 1 1 1 1 1 1 1 1 1 1 1 1 0.0099289163531714152 1 1 1 1 1 1 1 1 1 1 1 1 0.0098397620025123308 1 1 0.0099640013741710345 1 1 0.0095865016019444846 1 1 1 1 1 0.0096957701952719629 1 1 1 1 0.0097246651509837953 1 1 1 1 1 1 1 1 1 1 1 1 1 1 0.009801704616947857 1 1 1 1 1 0.0096381183968516203 0.0099805048378532046 1 1 1 1 0.0097951386828414554 1 1 1 1 1 0.0097605326095169601 1 1 1 1 1 1 1 1 1 1 1 1 1 1 1 1 1 1 1 1 1 1 1 1 1 1 1 1 1 1 1 1 1 1 1 1 1 1 1 1 1 1 1 1 1 1 1 1 1 1 1 1 1 1 1 1 1 1 1 0.0096432311500778047 1 1 1 1 1 1 1 1 1 1 1 1 1 1 1 1 1 1 1 0.0060036926029565429 1 1 1 1 0.0098463266616903144 1 1 0.0071819676056371932 0.0088885985887097244 1 1 1 1 1 1 1 1 1 1 1 1 1 1 1 1 1 1 1 1 1 1 1 0.0097929241122101177 1 0.0098608086648495127 1 1 1 1 1 1 1 1 1 1 1 1 1 1 1 0.0098993056476713252 1 1 1 1 1 1 1 1 1 1 1 0.009732746019099377 1 1 1 1 1 1 1 1 1 1 1 1 1 1 1 1 0.0099321154473606052 1 1 0.010087856367219976 1 1 1 1 1 0.0099809453800045831 1 1 1 0.010354478779633008 1 1 0.0097183636380337984 1 1 1 1 1 1 1 1 1 1 1 1 1 1 1 1 1 1 1 1 0.0037300988333110211 1 1 1 1 1 0.0037268542297098379 1 1 1 0.0099956679811212274 1 1 1 1 0.0096700364918801268 0.0066605037697385306 0.0093833119792730221 1 1 1 1 1 0.0062841476082340026 1 0.0091184400745934306 1 1 1 0.010770536294476704 0.010703110156615162 1 1 1 0.010199949898726399 1 1 1 0.010741427639119706 1 0.0099834211472520917 1 1 1 1 1 1 1 1 1 1 1 1 1 1 1 1 1 1 1 1 1 1 1 0.010792798917737458 1 0.0099373099243649562 1 1 1 1 1 1 1 1 1 1 1 1 1 1 1 1 1 1 1 1 1 1 1 1 1 1 1 1 1 1 1 1 1 0.010583704185724404 1 0.010763349735830884 1 1 1 1 1 1 1 1 1 1 1 1 1 1 1 1 1 1 1 1 1 1 0.010616841397592888 1 1 1 1 1 1 0.010394016269762114 1 1 1 1 1 1 1 1 0.010203740252137477 1 1 1 1 1 1 1 1 1 1 1 1 1 1 0.010792265629768923 1 1 1 1 0.010250946534373254 1 1 1 1 1 1 1 1 1 1 1 1 1 1 0.010446943029038459 1 1 1 1 1 1 1 1 1 0.0097809564613288141 1 1 1 1 1 0.0099973226709943117 1 1 1 1 1 1 1 1 1 1 0.0086186527796979391 1 0.0094359871545010507 1 1 1 1 0.0082758526027937873 1 1 1 1 1 1 1 1 1 1 1 1 1 1 1 1 1 1 0.0082747144549449765 1 1 1 0.007235094927079991 1 1 1 1 1 0.0061738316419769328 0.0085370449462345687 1 1 0.0089854362172271801 1 1 1 1 1 0.0096678573771276435 1 1 1 1 1 0.0070218794497991649 1 1 1 1 1 1 1 1 1 1 1 1 1 1 1 1 1 1 0.008419148424630523 1 1 1 1 1 1 0.0083620956516948924 1 1 1 1 1 1 1 1 1 1 1 1 1 1 1 1 1 1 1 1 1 1 1 1 1 1 1 1 1 1 1 0.0099053531795862525 1 1 1 1 1 1 1 1 1 1 1 1 1 1 1 1 1 1 0.0087861679600465068 1 1 1 1 1 1 1 1 1 1 1 1 1 1 0.010043248545672434 1 1 1 1 1 1 1 1 1 1 0.0074867787734734133 1 1 0.0099965787390444878 0.0092046328046442236 1 1 0.0083337284832514773 1 1 1 1 1 1 0.0089653311539217989 1 1 1 1 0.0089238024060238445 1 1 1 0.0097972510426778906 0.010070411586203769 1 1 1 0.0085876971197053741 0.0097942801809962187 1 1 0.0079732533031375633 0.0083679143443518532 1 0.0092308597153645897 1 1 0.0083118033968968587 1 1 0.010154076869337152 1 1 0.0092166386020964136 1 1 0.010237748292931061 1 1 1 1 0.010280999976159669 0.0094147690245126488 1 1 1 1 1 0.0099996410127460612 1 1 1 0.0099204280832519282 1 0.0098130965796905407 1 1 0.0090454044563904289 0.0098506690342503242 1 1 1 1 1 1 1 0.0094449607073591162 1 1 1 1 1 1 1 1 1 1 1 1 1 1 0.0095032924269066003 1 1 1 1 0.0087334218439928044 1 1 1 1 0.0099514975317556501 1 1 1 1 0.0085469140847357385 1 1 1 1 1 1 1 0.010153109993407468 1 1 1 0.0097025440067760472 1 1 1 0.0072254022634935175 1 1 1 1 1 1 1 0.0095782312951578977 1 1 0.0088083240796523465 1 1 0.0071770416312880387 1 1 1 1 1 1 1 1 0.0095016376271534978 1 0.009754389220203899 1 1 1 0.010799585395962487 1 1 1 1 1 1 1 1 1 0.0064571345525979134 1 1 1 0.010279676924429215 1 1 1 0.0067932034291118392 1 1 0.0095479544894923087 1 1 1 1 1 0.01008247326443748 1 1 1 1 1 1 1 1 1 1 1 1 1 1 1 1 1 1 1 1 1 0.0099701903497692 1 1 1 1 0.010247631034649745 1 0.0098554121026147544 1 0.009968586892469336 1 1 1 1 1 1 1 1 1 1 1 1 1 1 1 1 1 1 1 1 1 1 1 1 1 1 1 1 1 1 1 1 0.0094532239873905445 1 1 1 1 1 1 1 1 1 1 1 0.0091490063189415896 1 1 1 1 1 1 1 1 1 1 1 0.0095275920138106415 1 1 1 1 1 1 1 1 1 1 1 1 1 1 1 0.0097253307784770267 1 1 1 1 1 0.0093008952927986603 1 1 0.0074022574605834279 1 1 1 1 1 1 1 1 1 1 1 1 1 1 1 1 1 1 1 1 1 1 1 1 1 1 1 1 1 1 1 1 1 1 1 1 1 1 1 1 1 1 1 1 1 1 1 0.0095012791045412937 1 1 1 1 1 1 1 1 1 1 1 1 1 1 1 1 1 1 1 1 1 1 1 0.0096788537261859407 1 1 1 1 1 1 1 0.0097275473952175874 1 1 1 1 1 1 1 1 0.0097836337903344974 1 1 1 1 1 1 1 0.0093606852370623564 1 1 0.008126810931634738 1 1 1 1 1 0.0090218289546270397 1 1 1 1 1 1 1 1 1 0.0089955160453576901 1 1 1 1 1 1 1 1 1 1 1 1 1 1 1 1 1 1 1 1 1 1 1 1 1 1 1 1 1 1 1 0.0091476884681598765 1 1 0.010668138733469591 1 1 0.01161368016863051 1 0.0079846897382280287 1 1 0.0080185344095710966 1 1 1 0.0064617169570770046 1 1 0.010498685683948614 1 1 1 0.010045421447762961 1 1 1 1 1 1 1 1 1 1 1 1 1 1 0.0094780574797150002 1 0.007742614749794284 1 1 1 1 1 1 1 1 1 1 1 1 1 0.0084706049614600206 1 1 1 1 1 1 0.0058609680748590463 1 1 1 1 1 1 1 1 1 1 1 1 1 1 1 1 1 0.0052366661571101106 1 1 1 0.0085607775124301802 1 1 1 1 1 1 1 1 1 1 1 1 1 1 1 1 1 1 1 1 1 1 1 1 1 1 0.0092867372788598378 1 1 1 1 1 0.010113429536427625 1 0.0099882302926982136 1 1 0.0094438991531982236 1 1 1 0.0091868021085643493 1 0.0083552176440913409 1 1 0.0077013905044809932 1 1 1 1 0.0081366550601092002 1 1 1 0.0078163915510691823 1 0.0098890398255755806 1 1 1 0.0099136541808858298 1 0.0094165049949299674 1 1 1 1 0.007794342000367346 1 1 0.0061434359191510947 1 0.0053341452406082384 1 1 0.0098363472628821939 1 1 1 0.0094763334547247474 0.010338471991232105 1 1 1 1 1 0.0078084400565440592 0.0099052321040463739 1 1 1 1 1 0.010963011450986531 0.0084123801959367344 0.0088608488459573833 1 1 0.0081270616247707574 1 1 1 0.0082374223359221749 1 1 1 1 0.0099765621520241515 1 1 0.009812506407242504 1 1 1 1 1 1 1 1 0.0076974255006220325 1 0.0083559354004028967 1 1 1 1 1 1 1 1 1 1 1 1 0.0099690125873050841 1 1 1 1 1 1 1 1 1 1 1 1 1 1 1 1 1 1 1 1 1 1 1 1 1 1 1 0.0081042876626028007 0.010043214073494748 1 1 0.0083687975713930066 0.01000514117528303 0.0081203429657277903 1 1 1 1 1 0.0081969807289405984 1 0.0093333522939754165 1 1 1 1 1 0.0097435193886746575 1 1 1 1 1 1 1 1 0.0073395153275320219 1 1 1 1 1 1 1 1 1 1 0.0098780888133879786 1 1 0.0099512430628150919 1 1 1 1 1 1 0.0085952973036613339 1 1 1 0.010043963445136868 1 1 0.011198889772922738 1 1 0.006264744777682899 0.0099709551693854814 1 1 0.0072770593789461069 1 1 1 1 1 1 1 1 1 1 1 1 1 1 1 1 1 0.0078465931778815348 1 1 1 1 1 1 0.0099156537418782741 1 1 0.0099131193795479362 1 1 0.0099685079848634301 1 1 1 1 1 1 1 1 1 1 1 1 1 1 1 1 1 0.007097229117498171 0.0099788138381189627 1 1 1 1 0.0071400485475120535 1 1 1 1 0.0073647465650219356 1 1 1 1 0.0097648269788613677 1 1 1 1 1 1 1 0.0099348256655417376 1 0.0099425861665014548 1 1 0.010011930602451476 1 1 0.0063756924064670966 1 1 1 1 1 1 1 1 1 1 1 1 1 1 1 1 1 1 1 1 1 1 1 1 0.0092333752571186582 1 1 1 1 1 1 1 0.0047652774435279818 1 1 0.0099522790395251103 1 0.010308919408797697 1 0.0095368344269119339 1 1 1 1 1 1 1 1 1 1 1 1 1 1 1 1 1 1 1 1 1 1 1 1 0.005036405309944661 1 1 1 1 1 1 1 1 1 1 1 1 1 0.010774782716614476 1 0.0099749801183129459 1 1 1 1 1 1 1 1 1 1 1 1 1 1 1 1 1 1 1 0.0041750059868008015 1 0.0038990090830504955 0.0067333437574572212 1 1 1 0.0053857522146377604 1 1 1 0.0077846112200087737 1 1 1 0.0085556216642891751 1 1 1 1 1 1 1 1 1 1 1 1 0.0099980071806341428 0.010300533607785526 0.0090561231093285142 1 1 1 1 1 1 1 0.0085006804745800454 1 1 1 1 1 1 0.0085186191522554841 1 1 1 1 1 1 1 0.0097982341898822239 1 1 1 1 0.0096324081640495329 1 1 1 1 1 1 1 0.0076901990511108898 0.0098030462483666356 1 1 1 1 1 1 0.0089211245720059087 1 1 1 1 1 1 1 1 1 1 0.0079253591057925309 1 1 1 1 1 1 0.0050952462220515754 1 1 1 1 1 1 1 1 1 1 1 1 1 1 1 1 1 1 1 1 1 1 0.0095989616517219833 1 1 1 1 0.0093137095110521258 0.0088966179223986062 1 1 1 0.0082883314918889197 1 1 0.0077669980164581098 1 1 1 1 1 1 1 1 1 1 1 1 1 1 1 1 1 1 1 1 1 1 0.0079938001335870257 1 1 1 1 0.0091983512587597675 1 1 1 1 1 1 1 0.0085274444670947348 1 1 1 1 1 1 1 0.0089735609326227917 1 1 1 0.0096243827592972092 1 1 1 1 1 1 1 1 1 1 1 1 1 1 1 1 1 1 1 1 1 1 0.010498559293482567 0.010104949501714562 1 1 1 0.010052207767197178 0.010282042318353137 1 1 0.010584289361870194 0.009207720601932411 0.0091133721213496853 1 1 1 1 1 1 1 1 1 1 1 1 1 1 1 1 1 1 1 1 0.010060948299727 0.010172099859985816 1 1 0.010015344271265806 1 1 0.0098472206522694245 1 1 1 1 1 1 1 0.009514484088556428 1 1 1 1 1 1 1 1 1 1 1 1 1 1 1 1 1 1 1 1 1 1 0.0099583772145896594 1 1 1 0.0097563461049199798 1 1 1 0.0099216081052280452 1 1 1 0.0090672767590373043 1 1 1 1 1 1 1 1 1 1 1 1 1 1 1 1 1 1 1 1 1 0.0097629519803874697 1 1 1 1 1 1 1 1 1 0.011151606487181272 1 0.00999174801489708 1 0.010305320099382086 1 1 1 1 1 1 1 1 1 1 1 0.0093616992761681832 1 1 1 1 0.0092406498608760632 1 0.0096090319708787234 1 0.0091109439169925095 1 1 1 0.0090370472447316337 1 1 1 0.0077192133823535481 1 1 1 1 1 0.0079029341272959606 1 1 1 1 0.009926622387573367 1 1 1 1 1 1 1 0.0099544687220283288 1 0.0097757153674939389 1 1 1 1 0.009869112759735451 1 1 1 1 0.0096427569449659585 1 1 1 1 1 1 1 1 1 0.0077055707995656395 1 1 1 1 0.0084080778823238441 1 1 1 1 1 0.0095992438717471887 0.0097598975520467 0.0073200248673321797 1 1 1 1 1 0.009518257744412487 1 0.0079979809147052352 1 1 1 1 1 0.0099702708131398192 1 0.0099081863684800861 1 1 1 0.0083523223042187584 1 1 1 0.0093754463348326572 1 1 1 0.0100066546083374 1 0.0091180823551779613 1 1 0.0089656333924853712 1 0.0076293253833844554 1 1 1 1 1 1 0.0075141614829642624 1 1 1 1 0.0092548309198954171 1 1 1 1 1 1 0.009554818297703032 1 0.0077915713240390462 1 1 0.0099146429286188775 1 1 1 1 1 1 1 1 0.0076854621606934122 1 1 0.0043918696677668033 1 1 1 1 1 0.0049077602557305016 1 1 1 1 1 1 1 1 1 1 1 1 1 1 0.0099720585303154294 1 0.010007749546727996 1 1 0.010018228626989535 1 1 1 1 1 1 1 0.010010477057571819 1 1 1 1 0.010019920716847626 1 1 1 1 1 1 1 1 1 1 0.0099772154088542033 1 1 1 0.0098917905374924925 1 1 1 1 1 1 1 3.645643169584642e-05 1 7.2667865259012226e-05 1 1 1 1 1 1 0.010137555398954997 1 0.0099948109728523263 1 1 1 1 0.00025152645607570343 1 1 0.010186944825260171 1 1 1 1 1 1 1 0.0096912072925673179 1 1 1 1 1 0.0097704240984117334 1 0.0096089545564569598 1 1 1 1 1 1 1 1 1 1 1 1 1 1 1 1 1 1 1 1 1 1 0.0093766496405161964 0.0045534455842780042 0.0091903971962021581 1 0.0044958054200936876 1 1 0.0091325400253481279 1 1 0.0080436356912639128 1 1 1 1 1 1 1 0.0093068593713039431 1 1 1 1 1 1 1 1 1 1 1 0.010070144180358571 1 1 0.00010332647127303529 0.010325946171503932 1 1 1 0.0096911014408898825 1 1 1 1 1 1 1 0.0097409385569945887 1 1 1 1 1 1 1 1 1 1 1 1 1 1 1 1 1 1 1 1 1 1 1 1 1 1 1 1 1 1 1 1 1 1 1 1 1 1 1 1 1 1 0.010010883657262033 1 1 1 1 0.010011117555361571 1 1 1 1 1 1 1 1 1 1 1 1 1 1 1 1 1 1 1 0.0055331308259709104 1 0.0096007649877220338 1 1 0.0041190080493414029 1 1 1 1 1 1 1 0.0081967775787632029 1 1 1 1 1 1 1 1 1 0.010621651826840968 0.0059704559559738708 1 1 0.011110216350391805 1 0.012197374799711844 1 1 1 1 1 1 1 1 1 1 0.0058456028553800811 1 1 1 1 1 1 1 1 1 1 1 1 1 1 1 1 1 1 1 1 0.0095729709989308548 1 1 1 1 1 1 0.0096915738139943981 1 1 1 0.0069641265117818315 1 1 1 1 1 1 1 1 1 0.010001930252637388 0.0059544245368686709 1 1 1 1 1 1 1 0.0093578546977418908 1 1 1 0.001011777070836278 1 0.012191643298991915 1 1 1 1 1 1 1 1 1 1 1 1 1 1 1 0.011919209242816614 1 1 1 -9.935336518773763e-09 1 1 1 1 1 1 1 1 1 1 1 1 1 0.00025700979569898835 1 0.0099975422563027133 1 1 1 1 1 1 1 1 1 1 1 1 1 1 1 1 1 0.010952139664377109 1 1 1 1 1 1 1 1 1 1 1 1 1 1 1 1 1 1 1 1 1 1 1 1 1 1 1 1 1 1 1 1 1 1 1 1 1 1 1 1 1 1 1 1 1 1 1 1 1 1 1 1 1 1 1 1 1 1 1 1 1 0.0080063245767872208 1 1 0.0098277784443284583 1 1 1 1 1 1 1 0.0075312252439924884 1 1 1 1 1 1 1 1 1 1 1 1 1 1 1 1 1 1 0.0072450195458208288 1 1 1 1 1 1 1 0.0098322765813091198 1 1 1 1 1 1 0.010307445934296514 1 1 1 1 0.0071075102878953109 1 1 0.0099093594905023986 0.0084154136148091186 1 1 1 1 1 1 1 1 1 1 1 0.010645076427148537 1 1 1 1 1 1 1 1 0.0060645527037093364 1 1 1 1 1 1 1 1 1 0.0078782723662089785 1 1 1 1 1 1 1 0.0081251790417793558 1 1 1 1 0.0085015680113054506 1 1 1 1 0.0083870100911171575 1 1 0.010000222293188565 0.0085641531806671511 1 1 1 1 1 0.0038734819408682043 1 1 1 0.012141941516733291 1 1 1 1 1 0.0069943841371345912 1 0.0097122964932339663 1 1 1 1 1 1 0.0086892316911623916 1 1 1 0.0090768350178644461 1 1 1 0.0062300195061210564 1 1 1 1 1 1 1 0.010024582419602791 1 1 1 0.0099610363499863987 1 1 1 1 1 1 1 1 1 1 1 1 1 1 1 1 0.010071328456713609 1 1 1 1 0.010429178182858663 1 1 1 0.010933678755281668 1 0.010292528860571599 1 0.010165190852936557 1 0.012913929422674001 1 1 0.0074170974251665739 1 0.0073945835975553556 1 0.0078324559809323929 1 1 1 1 1 1 1 1 1 1 1 1 1 1 1 1 1 1 1 1 1 1 1 1 1 1 1 0.0097920723383960115 1 0.0050158916055696202 1 1 1 0.0086720441472007866 1 1 1 1 1 1 1 1 1 0.0081804735833341125 0.0092785859726282408 0.0093908902718311815 1 1 0.0099991201191711315 1 1 0.0078861051975395897 1 0.010139627739585919 1 1 1 1 1 1 1 0.0096796610565714012 1 1 1 1 1 1 0.0077469149854380512 0.010096420115875689 1 1 0.0067769300344223231 1 1 0.0087098569510371954 1 0.0099886725247723563 1 0.0099967953450248899 0.0098832005478740464 1 1 1 1 1 0.0092025362775276943 0.0099994421837526389 1 1 1 0.0075247707744935822 1 1 1 1 1 0.0081536396929006438 1 1 1 1 1 1 1 1 1 1 1 1 1 1 0.0077654931898246543 1 1 0.0099619913026018723 1 1 0.0069629815342038392 1 1 0.0081964637664798615 1 1 1 1 1 0.0099416823067804312 1 1 1 0.0086706047339913626 1 1 1 0.0083369136787090539 1 1 1 0.0096493931029175729 0.0085675358377019818 1 1 0.0096077340291654285 1 1 1 1 1 1 0.009846501190115254 1 1 1 1 1 0.0054268630279138749 1 1 1 1 1 1 1 1 1 1 1 1 1 1 1 1 1 1 1 1 1 0.0090700667761086217 1 1 1 1 1 1 0.0096203336141050828 0.0073048192883261691 0.006659502318994686 1 0.0091331822195115375 1 0.0073241152890213268 1 1 1 1 1 1 1 1 1 0.0087300322374277706 1 1 1 1 1 0.0079962198527096205 1 1 1 0.0060259790899324338 1 1 1 1 0.0054498991985963505 1 1 0.0099721112730968668 1 1 1 1 1 1 1 1 1 1 1 1 1 1 1 1 1 1 1 1 1 1 1 1 1 1 1 1 1 1 1 1 1 0.0053559874686208552 0.0094823381769670034 0.0074569043753821146 1 0.00706812928220504 1 1 1 0.0068116915112795169 1 1 1 1 1 1 1 0.010016789874147475 1 1 1 1 1 1 1 1 1 1 1 1 1 1 1 1 1 1 1 1 1 1 1 1 1 1 1 1 1 1 1 1 1 1 1 0.0098674649867400571 1 1 1 0.0095911436534492477 1 1 1 1 1 1 1 1 1 1 1 1 0.0090537873734299022 1 1 1 1 0.0092968677682757923 1 1 1 1 1 0.009959939181632179 1 1 1 1 1 0.0084744247860304607 1 1 1 0.0098927884978105961 1 0.010012730211935151 1 1 1 0.0089032746774646964 0.01007947568335526 1 0.0066705509258867344 0.0098760799688198831 1 0.010733287594216601 1 1 1 1 1 0.0097928174241682028 1 0.009832725474481727 1 1 1 1 1 1 0.0056519362746544378 1 1 1 1 0.0072839896613489802 1 1 1 0.010028372070676356 1 1 1 1 1 0.012119519484822979 1 1 1 0.0098032752673767876 1 1 1 1 1 0.013117847419575697 1 1 1 1 1 0.01390762840188858 1 1 1 1 1 1 1 1 1 1 0.0057168967540388469 0.0099271952985569064 1 1 1 1 1 1 1 1 1 0.010053036594564656 1 1 1 1 1 1 1 1 1 1 1 1 1 0.010231503685767144 1 0.010088273199488901 1 1 1 1 1 1 1 1 1 1 1 1 1 1 0.0091694146511087822 1 1 1 1 1 0.0096803463900889189 1 1 1 1 1 1 1 1 1 1 1 1 1 1 1 1 1 0.0094890682610198635 1 1 1 1 1 1 1 1 1 1 1 0.0098347426704573186 1 1 1 1 1 1 0.0099416370405976083 1 1 0.0096229884962935833 1 1 1 1 1 1 1 1 1 1 1 0.0097815858831648735 1 1 1 1 1 0.0097811114105616163 1 1 1 1 1 1 1 1 1 1 1 1 1 1 1 1 1 1 1 1 1 1 1 1 1 1 1 1 1 1 1 1 1 1 1 1 1 1 1 1 1 1 1 1 1 1 1 1 1 1 1 1 1 1 1 1 1 1 1 1 1 1 1 1 1 1 1 1 1 1 1 1 1 0.0099197353617807571 1 1 0.010904534228322632 1 1 1 0.010309480429672748 1 1 1 1 1 1 1 1 1 1 1 1 1 1 1 1 1 1 0.0040877157108679882 1 0.0053550150270280875 1 0.011460042073151303 1 1 1 0.013367601357429326 1 1 1 0.011605105084981122 1 0.0040981780235949065 0.0055950651094040064 1 1 1 0.006409634835596794 1 1 0.010743561516166646 1 1 1 1 1 1 1 1 1 1 0.011139915958858659 1 1 1 1 1 1 1 1 1 1 1 1 0.008783021740712214 1 1 0.0032023190378731598 1 1 1 1 1 1 1 1 0.0035695360598275456 1 1 1 1 1 1 1 0.0052105741385062212 1 1 0.0080988844037011738 1 1 1 1 1 1 1 1 1 1 1 1 1 1 0.0078008796203297547 1 1 1 1 1 1 1 1 0.010263375673320731 1 1 1 1 1 1 0.010003014711882764 1 1 1 0.0068404720356556956 1 1 1 1 1 1 0.0076094545687633419 1 1 1 1 1 1 1 1 0.010409632226180575 1 1 1 1 1 1 1 1 1 1 1 1 1 1 1 1 1 0.0096606195388586179 1 1 0.0097569495293970999 1 1 1 1 1 1 1 1 0.0082134363225277087 1 1 1 1 0.0055606111522522733 1 1 1 1 1 0.0051480544500543228 1 1 1 1 1 1 1 1 1 1 1 1 0.008805439985749848 1 1 1 1 1 1 1 1 1 0.0099303209564490548 1 1 1 1 1 1 1 1 1 1 1 1 1 1 1 1 1 1 1 1 1 1 1 1 1 1 1 1 1 0.0083790094387797154 1 1 1 1 1 1 0.007184449424529565 0.0060415062206703868 0.010161413242633303 1 1 1 1 0.0084149672268386717 1 1 1 0.01022117679060916 1 1 1 1 1 1 1 1 1 1 1 1 1 1 1 1 1 1 1 1 1 1 1 0.0093566156304118082 1 1 1 0.009440787073320165 1 1 1 1 1 1 1 1 1 1 1 1 1 1 0.01009708944360606 1 1 1 1 1 1 0.010012668896411992 1 0.0082469241150999947 1 1 1 1 0.0099000978559810986 1 1 0.0096932726797395435 1 1 0.009756363841771443 1 1 1 1 1 1 1 1 0.0095620397807379513 1 0.011121959875771413 0.010408567174772506 1 1 1 1 1 1 1 1 1 1 1 0.010056021333387902 1 1 1 1 1 1 1 1 1 1 1 1 0.0089920099996453878 1 1 1 0.0095512229263252472 1 1 1 1 1 1 1 1 1 1 1 1 1 1 1 1 1 1 0.0096640534763823057 1 1 1 1 0.010120681145087242 0.0091034973203628911 0.010175520545275122 1 1 1 1 1 1 1 0.0090985167124488734 1 1 1 1 1 1 1 1 1 1 1 1 1 0.0098421736933113832 1 1 1 1 1 1 1 1 1 1 1 1 1 1 0.0096306145353776702 1 1 1 1 1 1 1 1 1 1 1 1 1 0.009857967586312388 1 1 1 0.0089806185672972969 1 1 0.0098026623643640096 1 1 1 0.0099609245021410643 1 1 1 1 1 1 1 1 1 1 1 1 1 1 1 0.0098451109112388004 1 1 0.010251024162512352 1 1 1 1 1 1 1 1 1 1 1 1 1 1 1 1 1 1 0.0099599980328179891 1 1 1 1 1 1 1 1 1 1 0.0096400213331654366 1 1 1 1 1 1 1 1 0.0081826324151513148 1 1 1 1 1 1 1 1 0.010342576429517877 1 1 0.010973451763048888 1 0.0055243951975680276 1 0.0063027898737622445 1 1 1 1 1 1 0.010055108622072787 1 1 1 1 1 1 1 1 1 1 1 1 1 1 1 1 1 1 1 1 1 0.0084649994423774636 1 1 1 1 0.0093500040319196339 1 1 1 1 1 1 1 1 1 1 0.0093138983768521807 1 1 1 1 1 1 1 1 1 1 1 1 1 1 1 1 1 1 1 1 1 1 1 0.010150774195268598 1 1 1 1 1 0.010121269959358538 1 1 1 1 1 0.0090044420866694265 1 0.0077775602531836921 1 1 1 1 1 1 1 1 0.007818828404468901 1 1 1 1 0.0090473712395469138 1 1 1 0.0057446427403322568 1 1 1 1 0.0080290100879588464 1 1 0.0067503016015518624 1 1 1 1 1 1 1 1 1 1 1 1 1 1 1 1 1 1 1 0.009466975400913083 1 0.0058121591756243795 1 1 1 0.0031309476487182998 1 1 1 1 1 1 1 1 0.012455537824912464 1 1 1 1 0.012173199365468271 1 1 1 1 0.0094813733832703369 1 1 1 0.0098490893876743181 0.0098137979429877391 1 1 1 1 1 1 1 1 1 0.0075093460873810504 1 1 1 1 1 1 1 1 1 1 1 1 1 1 1 1 1 1 1 1 1 1 1 1 1 1 1 1 1 1 1 1 1 1 1 1 1 1 1 1 1 1 1 1 1 1 1 1 0.011161392803974044 1 1 1 1 0.0095186290155153518 0.010387686166021618 1 1 1 1 1 0.010195904021687187 1 1 1 1 1 1 0.009786572131314045 1 0.0093572781867637695 1 1 1 1 1 1 0.0099939977444780722 1 0.0064794028201699133 1 1 0.0039312238833791747 0.0097828632799996269 1 0.0035790710280581527 1 1 1 0.0047177518551568473 1 1 0.010624549775255048 1 1 1 1 1 1 1 0.010139270371568665 1 1 1 1 1 1 1 1 1 1 1 1 1 1 0.011643731880978992 1 1 1 1 0.010883255480303441 1 1 1 1 1 1 1 1 1 1 0.0098315560605797842 1 1 1 1 0.0089130004908423485 0.0090369279745292613 1 0.010000722450591512 1 1 1 1 0.0096001619619756739 0.0083903842869054081 1 1 1 1 1 1 0.0095746158155183298 1 0.0085982878067721192 1 1 0.011541389337795605 1 0.0085555833524647486 1 0.0075007599624854551 1 1 1 1 1 0.012261259224764599 0.014349194297489803 1 1 0.0079729692285924244 1 0.010400913569347652 0.0077706529820973907 1 0.00745848775740964 1 1 0.0099992632872480062 0.0092857289866954667 0.0090187237780672783 1 0.0067322673430495212 1 1 0.0050253951972893396 1 1 1 1 1 0.003829530577998716 1 1 1 1 1 1 1 1 1 1 1 1 1 1 1 1 1 0.0063203447281718565 1 1 1 1 1 0.0060324994771859767 1 1 1 1 1 1 1 1 1 1 1 1 1 1 1 1 0.0080594505906880186 1 1 1 1 1 0.007886189108468453 1 1 1 1 1 1 1 0.0078157821112227986 0.0079472511929203973 1 1 1 1 1 1 0.0090215766795544473 0.0097408301475937469 0.0058679836324567296 1 1 1 1 1 1 1 1 0.0081433224652984158 1 1 0.0090252649153767309 1 1 1 1 1 1 1 1 1 0.0064069148861545973 1 1 1 1 1 1 1 1 1 1 0.0060786956122970831 1 0.010314692689781271 1 1 1 1 1 1 1 1 1 1 0.0088244007061314359 1 1 1 1 1 1 1 1 1 1 1 0.010103106417253843 1 1 1 1 1 1 1 1 1 1 1 1 1 1 1 1 1 1 1 1 1 0.010609034810290451 1 1 0.0073093319251020857 0.0096769891331656005 1 1 1 1 1 1 1 1 0.0065397232436509804 1 1 1 0.0058129703009922352 1 1 1 1 1 1 0.01203213757979295 1 0.010016702826450313 1 1 1 1 1 1 1 1 0.0056417763082922314 1 1 1 1 1 1 1 1 1 1 1 1 0.010434564610534538 1 1 1 0.0069222762497511432 1 0.0096027262464002273 1 1 1 1 1 1 1 1 1 1 0.010212815721327919 1 1 1 1 0.00723721028484995 1 1 1 1 1 1 1 1 0.0087977700350432772 1 1 0.011149820689266603 1 1 1 0.0072075246274858132 1 1 0.011883706276427274 1 0.0095688814688790567 1 1 1 1 1 1 1 1 1 1 0.0086920801240481776 1 1 1 1 1 0.011790960120881426 1 0.011441367300417768 1 1 1 1 0.0080639251100360337 1 1 1 1 0.009302144851809753 1 1 1 1 0.0090503516552764163 1 1 1 1 1 1 1 1 1 1 1 1 1 1 1 1 0.014155654614912774 1 1 0.0081176251997070181 1 1 1 1 0.010782310285328851 1 1 1 1 0.0069121419434628392 1 1 1 1 0.0094922078978915067 1 1 1 1 1 0.016089937087499104 1 1 0.00847185381486972 0.0095016100364054071 1 1 0.0090895529725582448 1 1 1 1 1 1 1 0.009877530615112028 1 1 1 1 1 1 1 1 1 1 1 1 1 1 1 0.0071058191407715136 1 1 1 1 1 0.0073153403308698697 1 1 1 1 0.0090167574250866276 1 1 1 0.0094291959219436478 1 1 1 1 1 0.009188302738342537 1 1 1 0.010618422422205875 1 1 0.0063335815538490036 1 1 0.010524822752495935 1 0.0067770280385453588 1 0.0090837349173597329 1 1 1 1 1 1 1 1 1 1 1 1 1 1 1 1 1 1 1 1 1 1 1 1 1 1 1 1 1 1 1 1 1 1 1 1 0.011184820226902186 1 0.0094847682610720123 1 1 1 1 1 0.0091473617110361116 1 1 1 0.0077333163794846647 1 1 1 1 1 1 1 1 1 1 1 1 1 1 1 1 1 1 1 1 1 1 1 1 1 0.010229782460129967 1 1 1 0.010123431921641573 1 1 1 1 1 1 1 0.0099230518931581364 1 1 1 1 1 1 1 1 0.0099409841097366572 1 1 1 1 1 1 1 1 0.0024615530731018163 1 1 1 1 0.010407733684522587 1 1 1 1 1 0.0099685782837085294 1 0.0070759025703805148 1 1 1 1 1 1 1 1 1 1 1 1 1 0.0077186680127789573 1 1 0.010464658294585902 0.0079787346836874586 1 0.0098621356247733105 1 1 1 1 1 1 1 1 1 1 1 1 1 1 1 0.0096415854641077482 1 1 1 1 1 1 1 1 1 1 1 1 1 1 1 0.0089096282840496668 1 1 1 1 0.0093968633734882994 1 1 1 0.0090507177864929452 1 0.011142844539059048 1 1 1 1 1 1 1 1 1 1 1 1 1 1 1 1 1 1 1 1 1 1 1 1 1 1 1 1 1 0.0093191870133500672 1 1 1 1 1 0.0076621974769765649 1 1 1 1 1 0.012848301458111213 0.011050556700899423 0.0071291383214646085 1 1 1 1 1 0.0095678968151218149 1 1 0.014714258568026033 1 1 1 1 1 1 1 0.012964183004963253 1 1 1 1 1 1 1 1 0.010179211374513549 1 1 0.010120267836945791 1 0.010255419427527217 1 1 1 1 1 1 0.010999172277521924 1 1 1 1 0.0086640547960837137 1 1 1 1 1 1 1 1 1 1 1 1 1 1 1 1 1 0.010722342997043591 0.0023938487912912288 1 1 1 1 1 1 1 1 1 1 1 1 0.0096014680739376634 1 0.005978257790220886 1 1 0.011330162279999674 1 1 1 1 0.0058562012379898476 1 1 0.010094846402330684 1 1 1 0.0085457917309618853 1 1 0.0073141153392745515 0.011120413027378295 1 1 1 1 1 1 1 1 1 1 0.012535314846608577 1 1 1 1 1 1 1 0.0099905989832715578 1 1 1 1 0.013132241017920959 1 0.0047938505334897547 1 1 0.0061986672311182779 1 1 1 1 1 1 0.0064347132102899676 1 1 1 1 1 0.0097223705382749881 1 1 0.0099036824314831691 1 1 1 1 1 1 1 1 1 1 1 1 1 1 1 1 1 1 1 1 1 1 1 1 1 1 1 0.011652132087100397 1 0.010546830345459482 1 1 1 1 1 1 1 1 1 0.0092160402456265642 1 1 0.0077290698222703715 1 1 1 1 1 1 1 1 0.010438326564198887 1 1 1 1 1 1 0.0092262213015965634 1 1 1 0.0077080337480604551 1 1 1 1 1 1 1 1 0.0063314955994468155 0.011424086101320084 1 1 1 1 1 1 1 1 1 1 1 1 1 1 0.010029835110508274 1 1 1 1 1 1 1 1 1 1 1 1 1 1 1 1 1 1 1 1 1 1 1 1 1 1 0.00033513158859395896 1 1 1 1 1 0.0094683302310924755 1 1 0.0086087476669706453 1 1 1 1 1 1 1 1 0.001234530139381552 1 1 0.0096295541085582286 1 1 1 1 1 1 1 1 0.00046162124044321455 1 1 1 1 1 1 1 1 1 0.0091665409285567635 1 0.0083069583644349333 1 1 1 1 1 1 1 1 1 1 1 1 1 1 1 1 1 1 1 0.010738918105795223 1 1 1 0.010380834220528734 1 1 1 1 1 1 1 1 1 1 1 1 0.01000895326795119 1 0.0085280212441904649 1 0.010305442437604735 1 0.010227985375977681 1 1 1 1 1 0.0026966019805420623 1 1 0.0087726564832004104 1 1 1 1 1 1 1 0.0076183886697792714 1 1 0.0099997569481729814 1 0.011123131484592519 1 1 1 0.0039548818231036524 1 1 1 1 1 0.0094322879265314446 1 1 1 1 1 1 1 1 1 1 1 1 1 1 1 1 1 1 1 1 1 1 1 1 1 1 1 1 1 1 1 1 1 1 1 1 1 1 1 1 1 1 1 1 1 1 1 1 1 1 1 1 1 1 1 1 1 1 1 1 0.009689135622956915 1 1 1 1 1 1 1 0.0085677250839535507 1 1 1 1 0.0059566348569892909 1 1 1 1 0.010379444295805323 1 1 1 1 1 0.0091010409701947018 1 1 1 1 1 1 1 1 1 1 1 1 1 1 1 1 1 1 1 0.0078739164171186052 1 1 1 1 1 1 1 1 1 1 1 1 0.0090244820457960444 1 1 1 1 0.0092553085349277465 0.0076663045503803668 1 1 0.0092180991620485833 1 1 1 1 1 1 1 1 1 1 1 0.0089652365141412935 1 1 1 0.0086986364822344512 1 1 1 1 1 1 1 1 1 1 1 1 1 1 1 1 1 1 1 1 1 1 1 1 1 1 1 1 1 1 1 1 1 1 1 0.010110853505780303 1 1 1 1 1 1 1 1 0.010254050638152937 1 1 1 1 1 1 1 1 1 1 0.010143197132372633 1 1 0.010507473974707575 1 1 1 1 1 0.011581575306302688 1 1 1 1 1 1 1 1 1 1 1 0.0049914436868668689 0.012523506849027016 1 1 1 1 1 1 1 1 1 1 1 1 1 1 1 1 1 1 1 1 1 1 1 1 
</DataArray>
</CellData>
</Piece>
</UnstructuredGrid>
</VTKFile>
